BEGIN IONS
PRECURSOR_MZ=313.118
INCHI=InChI=1S/C17H16N2O4/c1-21-14-8-12(9-15(22-2)16(14)23-3)17(20)19-13-7-5-4-6-11(13)10-18/h4-9H,1-3H3,(H,19,20)
SMILES=COc1cc(C(O)=Nc2ccccc2C#N)cc(OC)c1OC
SCANS=20800
IONMODE=positive
COMPOUND_NAME=N-(2-cyanophenyl)(3,4,5-trimethoxyphenyl)carboxamide M+H
SPECTRUM_ID=CCMSLIB00006706141
53.03912 5355.0 
61.978668 3017.0 
65.039032 28000.0 
73.96727 2683.0 
79.054398 19347.0 
81.033577 11911.0 
81.070122 17295.0 
84.959839 4476.0 
86.507973 2858.0 
90.033897 33408.0 
91.054314 57437.0 
92.049477 15286.0 
93.033562 28440.0 
94.041229 4203.0 
95.04911 13347.0 
96.056923 14046.0 
104.306122 3570.0 
105.033463 37833.0 
107.049393 10607.0 
108.056557 3308.0 
109.028343 4855.0 
109.065002 44799.0 
111.044128 33614.0 
117.044609 128329.0 
118.065376 2749.0 
119.036667 12643.0 
120.04422 24562.0 
122.036072 10998.0 
123.043983 29815.0 
124.051682 42094.0 
125.059387 12118.0 
126.067688 6856.0 
135.044159 5406.0 
135.055023 21820.0 
137.046906 23563.0 
137.059586 19648.0 
138.067413 181907.0 
139.038803 208350.0 
139.075089 43059.0 
145.039474 411700.0 
149.02301 17258.0 
151.03833 5345.0 
152.04689 36118.0 
153.055389 3490.0 
154.062286 1175536.0 
156.040298 4659.0 
158.071289 3465.0 
163.050262 6735.0 
167.033722 5312.0 
169.085709 672127.0 
179.033829 3634.0 
181.049347 3849.0 
185.070541 16907.0 
192.910004 3401.0 
195.065002 162944.0 
196.069855 4035.0 
196.548172 3060.0 
197.070755 18787.0 
198.07872 3632.0 
199.085434 4266.0 
209.071213 12173.0 
210.07843 15652.0 
213.064987 44368.0 
221.070465 29832.0 
222.077606 4423.0 
223.086304 287800.0 
224.071609 4779.0 
224.093964 62779.0 
225.064377 11301.0 
226.073135 6292.0 
237.064713 21458.0 
239.044678 6661.0 
239.080841 22003.0 
243.342545 3264.0 
251.081238 72833.0 
252.088959 46604.0 
253.06012 11815.0 
254.067734 39494.0 
255.076035 51113.0 
265.059937 12458.0 
266.907654 3510.0 
267.075928 170439.0 
269.055054 29191.0 
269.091675 58602.0 
279.075836 78675.0 
280.083344 3858.0 
281.054718 30752.0 
281.087921 5597.0 
282.061066 3360.0 
283.070709 260263.0 
284.078064 3995.0 
297.086365 125665.0 
313.117493 1154209.0 
END IONS

BEGIN IONS
PRECURSOR_MZ=377.108
INCHI=InChI=1S/C20H18N4O2S/c1-13-3-7-15(8-4-13)24-18-17(19(25)22-12-21-18)23-20(24)27-11-14-5-9-16(26-2)10-6-14/h3-10,12H,11H2,1-2H3,(H,21,22,25)
SMILES=COc1ccc(CSc2nc3c(O)ncnc3n2-c2ccc(C)cc2)cc1
SCANS=16693
IONMODE=negative
COMPOUND_NAME=8-[(4-methoxyphenyl)methylthio]-9-(4-methylphenyl)hydropurin-6-one M-H
SPECTRUM_ID=CCMSLIB00006702034
52.918072 2404.0 
54.10033 2581.0 
57.975189 151063.0 
65.013947 17265.0 
65.997978 4411.0 
68.995293 6358.0 
82.401077 3659.0 
90.275833 2429.0 
92.025291 4738.0 
92.995567 43188.0 
99.356537 3292.0 
130.992538 17917.0 
155.06163 120957.0 
156.056824 16742.0 
180.989746 3382.0 
181.491852 2717.0 
197.059555 115033.0 
198.067917 27166.0 
204.988922 4149.0 
223.061783 3524.0 
225.078323 65993.0 
228.024399 27190.0 
237.416489 2714.0 
242.986053 51172.0 
255.034653 379220.0 
256.042572 905169.0 
266.981262 3053.0 
292.983215 133903.0 
312.989136 12742.0 
316.981567 4356.0 
356.981415 5452.0 
376.9888 21546.0 
377.107971 167742.0 
393.159973 2850.0 
470.474243 2557.0 
END IONS

BEGIN IONS
PRECURSOR_MZ=331.142
INCHI=InChI=1S/C19H20N2O2/c1-14(22)20-10-9-16-12-21-19-8-7-17(11-18(16)19)23-13-15-5-3-2-4-6-15/h2-8,11-12,21H,9-10,13H2,1H3,(H,20,22)
SMILES=CC(O)=NCCc1c[nH]c2ccc(OCc3ccccc3)cc12
SCANS=3980
IONMODE=positive
COMPOUND_NAME=N-{2-[5-(phenylmethoxy)indol-3-yl]ethyl}acetamide M+Na
SPECTRUM_ID=CCMSLIB00006689321
55.527081 3174.0 
67.675537 3239.0 
90.776016 3259.0 
94.026443 12138.0 
98.984306 10619.0 
118.649429 3721.0 
168.042572 4987.0 
209.89888 6453.0 
240.086517 2329365.0 
331.141052 4655549.0 
337.098541 3206.0 
END IONS

BEGIN IONS
PRECURSOR_MZ=364.152
INCHI=InChI=1S/C20H23NO4/c1-20(2,3)25-19(23)15-11-13-10-12-6-4-8-21-9-5-7-14(16(12)21)17(13)24-18(15)22/h10-11H,4-9H2,1-3H3
SMILES=CC(C)(C)OC(=O)c1cc2cc3c4c(c2oc1=O)CCCN4CCC3
SCANS=13772
IONMODE=positive
COMPOUND_NAME=Coumarin 338 M+Na
SPECTRUM_ID=CCMSLIB00006699113
97.581932 16139.0 
118.627953 14386.0 
144.328873 14522.0 
157.9366 16330.0 
169.682571 17609.0 
176.118759 13970.0 
183.872772 18123.0 
206.315796 17110.0 
214.444473 16944.0 
218.117691 19915.0 
308.088684 32329644.0 
349.114471 122734.0 
364.151062 8353685.0 
END IONS

BEGIN IONS
PRECURSOR_MZ=384.159
INCHI=InChI=1S/C25H21NO3/c1-3-28-20-14-12-19(13-15-20)24(27)21(16-18-10-8-17(2)9-11-18)25-26-22-6-4-5-7-23(22)29-25/h4-16H,3H2,1-2H3/b21-16-
SMILES=CCOc1ccc(C(=O)C(=Cc2ccc(C)cc2)c2nc3ccccc3o2)cc1
SCANS=22649
IONMODE=positive
COMPOUND_NAME=(2E)-2-benzoxazol-2-yl-1-(4-ethoxyphenyl)-3-(4-methylphenyl)prop-2-en-1-one M+H
SPECTRUM_ID=CCMSLIB00006707990
65.039124 63971.0 
65.283028 2935.0 
73.944183 3182.0 
77.644669 3016.0 
93.033798 24233.0 
101.411888 3091.0 
104.270912 5082.0 
111.044312 36147.0 
115.054428 37867.0 
116.062187 5026.0 
119.050133 4214.0 
121.028557 31017.0 
132.056824 37585.0 
136.196381 3192.0 
142.065048 5793.0 
149.059708 17211.0 
152.063065 3607.0 
154.078339 3633.0 
155.085358 4111.0 
166.064514 5052.0 
169.10141 13177.0 
178.078262 16735.0 
179.069885 4648.0 
179.085571 128406.0 
179.623978 3195.0 
181.064713 15055.0 
182.072678 129456.0 
190.065308 19490.0 
191.073135 100192.0 
192.094299 3189.0 
195.080322 5897.0 
196.088562 34722.0 
197.096268 185336.0 
204.08168 23360.0 
205.090103 20780.0 
206.09639 71834.0 
207.091705 14255.0 
208.075867 3266.0 
210.104263 14390.0 
212.070038 7401.0 
219.068161 35096.0 
225.127426 154518.0 
233.083008 44530.0 
234.0914 2782042.0 
235.061813 3826.0 
236.070999 11679.0 
240.101852 5348.0 
246.431198 3199.0 
252.101959 320894.0 
262.085938 81909.0 
262.114746 4226.0 
264.065796 29648.0 
280.09668 1039987.0 
292.096191 14981.0 
357.068542 3451.0 
368.590454 3895.0 
384.159027 791223.0 
END IONS

BEGIN IONS
PRECURSOR_MZ=383.073
INCHI=InChI=1S/C19H15ClN4OS/c1-12-6-8-14(9-7-12)24-17-16(18(25)22-11-21-17)23-19(24)26-10-13-4-2-3-5-15(13)20/h2-9,11H,10H2,1H3,(H,21,22,25)
SMILES=Cc1ccc(-n2c(SCc3ccccc3Cl)nc3c(O)ncnc32)cc1
SCANS=9732
IONMODE=positive
COMPOUND_NAME=8-[(2-chlorophenyl)methylthio]-9-(4-methylphenyl)hydropurin-6-one M+H
SPECTRUM_ID=CCMSLIB00006695073
55.02145 3190.0 
56.26622 3230.0 
64.752663 2833.0 
65.237137 3608.0 
66.046677 2852.0 
66.734161 3724.0 
75.235291 3191.0 
81.873413 3442.0 
82.388573 6115.0 
89.038773 29764.0 
90.046051 3364.0 
98.674339 2718.0 
98.999733 3890.0 
99.922798 3014.0 
116.756416 3180.0 
125.015129 4227410.0 
166.041382 28237.0 
170.203476 3680.0 
182.559753 3787.0 
197.566574 3142.0 
202.086548 4131.0 
257.048401 137202.0 
258.056274 114044.0 
271.063324 37947.0 
288.217255 3367.0 
329.061096 3848.0 
347.094971 17618.0 
383.07193 5846724.0 
END IONS

BEGIN IONS
PRECURSOR_MZ=492.226
INCHI=InChI=1S/C29H31N3O3/c1-19-23(24-9-5-6-10-25(24)31-19)15-16-30-28(34)26(18-22-8-7-17-35-22)32-27(33)20-11-13-21(14-12-20)29(2,3)4/h5-14,17-18,31H,15-16H2,1-4H3,(H,30,34)(H,32,33)/b26-18-
SMILES=Cc1[nH]c2ccccc2c1CCN=C(O)C(=Cc1ccco1)NC(=O)c1ccc(C(C)(C)C)cc1
SCANS=16250
IONMODE=positive
COMPOUND_NAME=(2Z)-2-{[4-(tert-butyl)phenyl]carbonylamino}-3-(2-furyl)-N-[2-(2-methylindol-3 -yl)ethyl]prop-2-enamide M+Na
SPECTRUM_ID=CCMSLIB00006701591
56.965118 36587.0 
65.140488 6150.0 
87.177773 5586.0 
113.886139 6115.0 
143.072662 42174.0 
144.079498 7292.0 
157.088608 67025.0 
157.992599 7353.0 
158.096405 267584.0 
159.09903 7926.0 
161.096542 49383.0 
187.047638 9538.0 
192.05719 26822.0 
194.054932 62958.0 
197.10463 54276.0 
426.515991 6770.0 
474.21405 14651.0 
476.200867 15545.0 
477.204834 28508.0 
489.397064 7850.0 
491.712952 57986.0 
492.225525 19229176.0 
END IONS

BEGIN IONS
PRECURSOR_MZ=422.128
INCHI=InChI=1S/C21H19N5O3S/c1-13-3-7-15(8-4-13)26-19-18(20(28)23-12-22-19)25-21(26)30-11-17(27)24-14-5-9-16(29-2)10-6-14/h3-10,12H,11H2,1-2H3,(H,24,27)(H,22,23,28)
SMILES=COc1ccc(NC(=O)CSc2nc3c(O)ncnc3n2-c2ccc(C)cc2)cc1
SCANS=8017
IONMODE=positive
COMPOUND_NAME=N-(4-methoxyphenyl)-2-[9-(4-methylphenyl)-6-oxohydropurin-8-ylthio]acetamide M+H
SPECTRUM_ID=CCMSLIB00006693358
78.392639 3293.0 
92.383667 4627.0 
99.634888 2891.0 
125.877792 3271.0 
147.067184 3869.0 
212.081299 48848.0 
213.089508 19299.0 
220.652359 4184.0 
230.037781 36937.0 
238.085266 3793.0 
244.053558 411051.0 
257.048798 124948.0 
257.079071 4000.0 
262.063904 28464.0 
271.064392 1361124.0 
299.059265 4796648.0 
404.117981 13872.0 
422.127441 594969.0 
END IONS

BEGIN IONS
PRECURSOR_MZ=283.061
INCHI=InChI=1S/C16H12O5/c1-20-11-4-2-9(3-5-11)14-8-13(19)16-12(18)6-10(17)7-15(16)21-14/h2-8,17-18H,1H3
SMILES=COc1ccc(-c2cc(=O)c3c(O)cc(O)cc3o2)cc1
SCANS=5273
IONMODE=negative
COMPOUND_NAME=acacetin M-H
SPECTRUM_ID=CCMSLIB00006690614
54.5397 2507.0 
59.01302 2951.0 
60.53598 2544.0 
63.672009 2171.0 
68.851532 2568.0 
75.052017 2443.0 
82.398453 2946.0 
104.283386 3439.0 
118.649887 3195.0 
134.822586 3999.0 
145.647491 2686.0 
152.978409 4059.0 
185.398773 3258.0 
208.359634 12938.0 
215.164856 16956.0 
218.919983 4189.0 
230.68428 2967.0 
236.930649 12764.0 
240.041916 3508.0 
268.037872 1462531.0 
283.061432 3127123.0 
END IONS

BEGIN IONS
PRECURSOR_MZ=364.063
INCHI=InChI=1S/C15H14ClN5O2S/c1-8-3-4-9(16)5-10(8)19-11(22)6-24-15-20-12-13(21(15)2)17-7-18-14(12)23/h3-5,7H,6H2,1-2H3,(H,19,22)(H,17,18,23)
SMILES=Cc1ccc(Cl)cc1N=C(O)CSc1nc2c(O)ncnc2n1C
SCANS=21389
IONMODE=positive
COMPOUND_NAME=N-(5-chloro-2-methylphenyl)-2-(9-methyl-6-oxohydropurin-8-ylthio)acetamide M+H
SPECTRUM_ID=CCMSLIB00006706730
56.14986 3124.0 
57.045212 8150.0 
58.99548 6951.0 
67.030029 3233.0 
68.58567 3168.0 
83.724197 3168.0 
84.985817 38103.0 
86.005943 6301.0 
91.054314 7213.0 
94.040253 5331.0 
104.279572 3721.0 
106.039902 6732.0 
107.024033 13935.0 
108.055496 20937.0 
111.042503 8463.0 
113.015999 4203.0 
117.056999 7488.0 
118.064888 25781.0 
118.649971 3592.0 
119.072746 55642.0 
123.04258 3510.0 
124.050346 26276.0 
125.015839 18884.0 
126.011658 7398.0 
127.030792 7190.0 
130.065338 38150.0 
133.050827 18380.0 
134.034897 13179.0 
137.045761 145685.0 
139.991257 58129.0 
140.026199 28203.0 
141.033936 5374.0 
147.067734 108644.0 
147.080353 6293.0 
149.045685 164689.0 
150.01416 3705.0 
150.05365 248064.0 
150.996094 60868.0 
151.061401 564524.0 
152.02652 39810.0 
153.010727 4634.0 
153.023071 20782.0 
154.007248 15177.0 
154.041687 207290.0 
161.045761 27565.0 
162.053482 111734.0 
163.061356 195345.0 
164.02597 33351.0 
165.034409 43732.0 
167.038818 3804.0 
168.022461 126035.0 
170.038361 17743.0 
177.022888 20747.0 
179.056732 14434.0 
180.021576 33948.0 
181.017761 1466163.0 
182.02536 21434.0 
183.032669 26290.0 
186.033249 20405.0 
190.072601 3541.0 
195.033447 3655318.0 
205.893509 4244.0 
212.325867 5379.0 
213.04451 38880.0 
222.044083 21807.0 
223.028259 4289477.0 
236.060852 41204.0 
285.498138 3392.0 
346.052307 23467.0 
347.833527 4211.0 
357.635529 3270.0 
364.062256 163460.0 
END IONS

BEGIN IONS
PRECURSOR_MZ=363.181
INCHI=InChI=1S/C20H28O6/c1-9-10-4-5-11-18-8-26-20(25,19(11,14(9)22)15(10)23)16(24)13(18)17(2,3)7-6-12(18)21/h10-13,15-16,21,23-25H,1,4-8H2,2-3H3/t10-,11-,12-,13+,15+,16-,18+,19-,20+/m0/s1
SMILES=C=C1C(=O)C23C(O)C1CCC2C12COC3(O)C(O)C1C(C)(C)CCC2O
SCANS=7071
IONMODE=negative
COMPOUND_NAME=Oridonin M-H
SPECTRUM_ID=CCMSLIB00006692412
54.6698 2445.0 
60.113701 2399.0 
66.613052 2347.0 
69.034363 3237.0 
72.992897 24430.0 
73.028954 5553.0 
79.360107 2886.0 
82.409447 2463.0 
83.049927 2651.0 
84.63649 2858.0 
87.967247 2429.0 
94.960831 2310.0 
95.04969 2822.0 
97.028671 2505.0 
97.446777 2330.0 
107.050629 20583.0 
117.070892 2762.0 
121.065903 5985.0 
123.04525 3321.0 
135.045059 12302.0 
135.081909 2770.0 
137.096878 4799.0 
147.044662 4421.0 
148.053223 3569.0 
149.060974 18498.0 
153.091934 3702.0 
161.097443 11714.0 
163.075974 10057.0 
165.091644 16626.0 
177.056625 4138.0 
179.10733 26398.0 
191.107635 21635.0 
193.086655 6150.0 
209.118927 19816.0 
211.096497 26559.0 
227.144806 4371.0 
228.079575 4085.0 
230.98262 2982.0 
243.137878 2783.0 
243.175171 3923.0 
245.154541 3361.0 
246.090286 20346.0 
253.122192 4275.0 
253.160706 18624.0 
255.176254 3412.0 
263.141876 3555.0 
265.159546 17826.0 
269.119934 2411.0 
269.155212 12429.0 
271.136444 4578.0 
271.169922 17538.0 
281.155029 33850.0 
283.17038 27857.0 
285.149719 3816.0 
291.139099 14463.0 
294.125671 4103.0 
297.149811 46729.0 
299.16452 41360.0 
301.180939 60671.0 
309.14978 216986.0 
315.160309 74439.0 
317.175812 11618.0 
319.188507 3468.0 
327.16037 515218.0 
333.171082 39414.0 
345.170776 397963.0 
363.181641 405095.0 
END IONS

BEGIN IONS
PRECURSOR_MZ=383.152
INCHI=InChI=1S/C22H23ClN2O2/c1-16-2-7-20-18(13-22(26)27-21(20)12-16)15-25-10-8-24(9-11-25)14-17-3-5-19(23)6-4-17/h2-7,12-13H,8-11,14-15H2,1H3
SMILES=Cc1ccc2c(CN3CCN(Cc4ccc(Cl)cc4)CC3)cc(=O)oc2c1
SCANS=5214
IONMODE=positive
COMPOUND_NAME=4-({4-[(4-chlorophenyl)methyl]piperazinyl}methyl)-7-methylchromen-2-one M+H
SPECTRUM_ID=CCMSLIB00006690555
56.0499 18332.0 
78.763687 3547.0 
83.060638 651043.0 
84.06855 46523.0 
85.076172 62518.0 
86.060349 5413.0 
86.084183 7331.0 
89.038467 29746.0 
97.076134 125251.0 
98.999588 7801.0 
110.838226 3279.0 
125.015244 6881450.0 
145.06398 6567.0 
149.023438 5473.0 
163.099335 24570.0 
168.057526 47057.0 
173.059341 5022.0 
174.115265 5645.0 
175.073822 4041.0 
202.086212 5860.0 
203.093918 13815.0 
209.084702 16773.0 
210.0905 5252.0 
212.120743 3914.0 
214.086029 18011.0 
215.094147 6427.0 
216.101807 100080.0 
240.100784 5557.0 
255.114349 7985.0 
257.127991 350848.0 
258.136292 203932.0 
297.067505 14593.0 
340.10849 4246.0 
347.174805 38031.0 
353.299652 4347.0 
381.214447 3840.0 
383.15152 9021674.0 
385.100739 5692.0 
401.091705 7376.0 
END IONS

BEGIN IONS
PRECURSOR_MZ=189.113
INCHI=InChI=1S/C7H14O2/c1-2-3-4-5-6-7(8)9/h2-6H2,1H3,(H,8,9)
SMILES=CCCCCCC(=O)O
SCANS=12264
IONMODE=negative
COMPOUND_NAME=HEPTANOIC ACID M+acetate
SPECTRUM_ID=CCMSLIB00006697605
50.306389 1999.0 
54.417 1991.0 
69.190697 2057.0 
73.986343 2191.0 
89.067543 1954.0 
96.994339 2021.0 
104.330109 2621.0 
112.786926 2426.0 
127.112633 3650.0 
136.180084 2201.0 
145.880707 2499.0 
159.860168 2522.0 
171.102707 504515.0 
189.096466 2332.0 
205.212921 2588.0 
END IONS

BEGIN IONS
PRECURSOR_MZ=356.162
INCHI=InChI=1S/C22H23NO2/c23-14-13-18-11-12-21(24-16-19-7-3-1-4-8-19)22(15-18)25-17-20-9-5-2-6-10-20/h1-12,15H,13-14,16-17,23H2
SMILES=NCCc1ccc(OCc2ccccc2)c(OCc2ccccc2)c1
SCANS=3272
IONMODE=positive
COMPOUND_NAME=JXPQMHIXNPWEEK-UHFFFAOYSA-N M+Na
SPECTRUM_ID=CCMSLIB00006688613
110.516579 2929.0 
128.886978 2624.0 
139.72641 2681.0 
145.02597 584821.0 
146.082077 2730.0 
157.026321 15191.0 
174.052536 774099.0 
176.739822 2611.0 
192.062927 5493.0 
212.24678 2815.0 
215.078415 5502.0 
230.410858 3520.0 
235.072159 48863.0 
248.080826 72029.0 
265.106995 456671.0 
301.593872 3364.0 
319.320404 2950.0 
327.136963 9446.0 
339.135162 416743.0 
356.161713 1722197.0 
END IONS

BEGIN IONS
PRECURSOR_MZ=312.123
INCHI=InChI=1S/C18H17NO4/c1-10(2)9-14(18(22)23)19-16(20)12-7-3-5-11-6-4-8-13(15(11)12)17(19)21/h3-8,10,14H,9H2,1-2H3,(H,22,23)
SMILES=CC(C)CC(C(=O)O)N1C(=O)c2cccc3cccc(c23)C1=O
SCANS=7340
IONMODE=positive
COMPOUND_NAME=2-(1,3-Dioxo-1H-benzo[de]isoquinolin-2(3H)-yl)-4-methylpentanoic acid M+H
SPECTRUM_ID=CCMSLIB00006692681
57.969959 2670.0 
67.923317 2442.0 
68.526772 2590.0 
69.070221 81324.0 
74.765213 2750.0 
155.048874 3655.0 
180.044296 28292.0 
184.723587 2435.0 
198.05481 1349041.0 
199.336227 3053.0 
210.054764 325581.0 
228.065201 179087.0 
238.114105 2791.0 
243.259048 2693.0 
266.117188 1790973.0 
286.56842 3271.0 
288.927368 3364.0 
294.111938 641468.0 
312.122833 47137.0 
312.36319 3318.0 
END IONS

BEGIN IONS
PRECURSOR_MZ=400.097
INCHI=InChI=1S/C19H19N3O5S/c1-13-11-18(23)20-16-5-4-14(12-15(13)16)28(25,26)22-8-6-21(7-9-22)19(24)17-3-2-10-27-17/h2-5,10-12H,6-9H2,1H3,(H,20,23)
SMILES=Cc1cc(O)nc2ccc(S(=O)(=O)N3CCN(C(=O)c4ccco4)CC3)cc12
SCANS=8320
IONMODE=negative
COMPOUND_NAME=6-{[4-(2-furylcarbonyl)piperazinyl]sulfonyl}-4-methylhydroquinolin-2-one M-H
SPECTRUM_ID=CCMSLIB00006693661
66.345749 2589.0 
73.959007 3833.0 
79.957024 28601.0 
108.045799 4176.0 
132.045807 4153.0 
133.053818 3081.0 
136.039642 2910.0 
145.053711 2599.0 
158.061371 6184.0 
160.040558 289754.0 
161.048248 10997.0 
173.048309 274625.0 
185.411209 3002.0 
188.035568 5850.0 
221.014862 10760.0 
222.02298 15323.0 
326.524109 2800.0 
342.746155 2693.0 
400.097473 1943285.0 
END IONS

BEGIN IONS
PRECURSOR_MZ=253.086
INCHI=InChI=1S/C16H12O3/c1-10-15(18)13-8-7-12(17)9-14(13)19-16(10)11-5-3-2-4-6-11/h2-9,17H,1H3
SMILES=Cc1c(-c2ccccc2)oc2cc(O)ccc2c1=O
SCANS=1401
IONMODE=positive
COMPOUND_NAME=7-Hydroxy-3-Methylflavone M+H
SPECTRUM_ID=CCMSLIB00006686742
65.038979 4720.0 
68.997429 36545.0 
73.948807 4699.0 
91.054237 5703.0 
92.372627 5087.0 
95.012894 5537.0 
98.984207 23213.0 
103.054253 4433.0 
105.033432 20660.0 
111.043831 18216.0 
115.054909 15625.0 
117.069412 7023.0 
118.647888 3732.0 
119.049232 4495.0 
136.2052 4330.0 
137.023224 88371.0 
141.070663 5019.0 
143.049377 6777.0 
147.04393 5619.0 
149.642105 4118.0 
155.033859 81205.0 
155.086395 5584.0 
165.070267 7108.0 
167.085587 15534.0 
169.102341 4505.0 
179.085449 19229.0 
182.070953 4991.0 
183.079742 7849.0 
185.095398 15329.0 
194.07341 24626.0 
197.095306 28048.0 
210.067596 6197.0 
225.091263 16838.0 
236.085617 7526.0 
251.07048 18326.0 
252.045364 34265.0 
252.077316 18214.0 
253.085693 21801528.0 
254.137146 35360.0 
END IONS

BEGIN IONS
PRECURSOR_MZ=412.108
INCHI=InChI=1S/C19H19N5O4S/c1-10-12(8-29-19-23-14-16(24(19)2)20-9-21-17(14)25)22-18(28-10)11-6-5-7-13(26-3)15(11)27-4/h5-7,9H,8H2,1-4H3,(H,20,21,25)
SMILES=COc1cccc(-c2nc(CSc3nc4c(O)ncnc4n3C)c(C)o2)c1OC
SCANS=4678
IONMODE=negative
COMPOUND_NAME=8-{[2-(2,3-dimethoxyphenyl)-5-methyl(1,3-oxazol-4-yl)]methylthio}-9-methylhydr opurin-6-one M-H
SPECTRUM_ID=CCMSLIB00006690019
65.479088 2389.0 
67.578407 2306.0 
70.414207 2360.0 
92.382607 2872.0 
95.635788 2749.0 
149.046906 16081.0 
179.003342 16087.0 
180.011185 632625.0 
181.018799 49332.0 
195.034912 32352.0 
214.449905 2468.0 
332.907959 2505.0 
412.108612 145783.0 
425.009796 3018.0 
END IONS

BEGIN IONS
PRECURSOR_MZ=388.121
INCHI=InChI=1S/C20H21NO5S/c1-4-25-19(23)16-13(3)17(20(24)26-5-2)27-18(16)21-15(22)12-11-14-9-7-6-8-10-14/h6-12H,4-5H2,1-3H3,(H,21,22)/b12-11+
SMILES=CCOC(=O)c1sc(N=C(O)C=Cc2ccccc2)c(C(=O)OCC)c1C
SCANS=22979
IONMODE=positive
COMPOUND_NAME=ethyl 2-((2E)-3-phenylprop-2-enoylamino)-5-(ethoxycarbonyl)-4-methylthiophene- 3-carboxylate M+H
SPECTRUM_ID=CCMSLIB00006708320
51.023659 5761.0 
52.36813 2286.0 
53.039082 26810.0 
61.75943 2613.0 
62.389519 2372.0 
77.038742 3826.0 
90.101608 2684.0 
93.943817 2690.0 
95.049278 12571.0 
102.046204 5437.0 
103.054153 952979.0 
104.057739 3139.0 
131.049057 1647026.0 
132.052521 6561.0 
136.272507 2772.0 
144.081329 13755.0 
148.360901 2417.0 
151.164825 2542.0 
157.961563 2435.0 
164.561966 2824.0 
184.006073 11865.0 
212.037399 20180.0 
258.078552 15330.0 
342.078888 96412.0 
350.810242 2899.0 
END IONS

BEGIN IONS
PRECURSOR_MZ=159.053
INCHI=InChI=1S/C7H8N2O/c1-9-4-2-3-6(5-9)7(8)10/h2-5H,1H3,(H-,8,10)/p+1
SMILES=C[n+]1cccc(C(=N)O)c1
SCANS=761
IONMODE=positive
COMPOUND_NAME=Trigonellinamide M-H+Na
SPECTRUM_ID=CCMSLIB00006686102
57.0341 2394.060059 
67.379303 2090.120117 
72.045097 5093.790039 
72.081299 3695.870117 
82.409798 2393.909912 
92.390404 3128.389893 
94.065598 726075.0 
111.264999 2284.300049 
116.046997 868191.0 
118.669998 2823.350098 
129.557999 2134.100098 
134.057999 3168.929932 
135.957001 2515.649902 
136.229004 2453.929932 
141.042007 29212.0 
148.977005 3246.959961 
153.966995 3702.580078 
157.994995 2491.949951 
159.052994 367407.0 
159.100998 14327.099609 
END IONS

BEGIN IONS
PRECURSOR_MZ=290.083
INCHI=InChI=1S/C15H14FNO4/c16-10-3-1-9(2-4-10)12-7-13(21-17-12)15(18)6-5-11-8-19-14(15)20-11/h1-4,7,11,14,18H,5-6,8H2
SMILES=OC1(c2cc(-c3ccc(F)cc3)no2)CCC2COC1O2
SCANS=4709
IONMODE=negative
COMPOUND_NAME=2-[3-(4-fluorophenyl)isoxazol-5-yl]-7,8-dioxabicyclo[3.2.1]octan-2-ol M-H
SPECTRUM_ID=CCMSLIB00006690050
53.17868 2308.0 
63.737251 1930.0 
71.79995 2113.0 
94.781952 2169.0 
111.141434 2859.0 
114.203934 2217.0 
127.610733 2357.0 
232.041519 3360.0 
243.879974 5319.0 
245.893509 2252.0 
261.8909 13722.0 
290.083344 356023.0 
313.217255 2213.0 
END IONS

BEGIN IONS
PRECURSOR_MZ=263.079
INCHI=InChI=1S/C14H12N2O2/c1-8-13-10(7-12(15-8)14(17)18-2)9-5-3-4-6-11(9)16-13/h3-7,16H,1-2H3
SMILES=COC(=O)c1cc2c([nH]c3ccccc32)c(C)n1
SCANS=12419
IONMODE=positive
COMPOUND_NAME=methyl 1-methylbeta-carboline-3-carboxylate M+Na
SPECTRUM_ID=CCMSLIB00006697760
55.93486 4209.0 
59.141499 2823.0 
70.474777 2556.0 
71.929451 2188.0 
72.937569 7985.0 
76.965759 2100.0 
78.007347 2073.0 
90.947693 4009.0 
91.054298 14039.0 
106.065643 3107.0 
116.04953 10926.0 
119.049072 4717.0 
146.05954 3187.0 
149.059753 17829.0 
151.026184 3180.0 
163.086472 5056.0 
212.281891 3507.0 
224.948471 4529.0 
242.020172 25301.0 
242.522339 13301.0 
251.025803 22738.0 
251.527603 5660.0 
262.533936 10366.0 
263.078735 1077784.0 
269.946472 2181.0 
304.10495 9990.0 
320.953033 2879.0 
END IONS

BEGIN IONS
PRECURSOR_MZ=377.086
INCHI=InChI=1S/C12H22O11/c13-1-3-5(15)6(16)9(19)12(22-3)23-10-4(2-14)21-11(20)8(18)7(10)17/h3-20H,1-2H2/t3-,4-,5-,6+,7-,8-,9-,10-,11?,12+/m1/s1
SMILES=OC[C@H]1O[C@@H](O[C@@H]2[C@@H](CO)OC(O)[C@H](O)[C@H]2O)[C@H](O)[C@@H](O)[C@@H]1O
SCANS=348
IONMODE=negative
COMPOUND_NAME=cellobiose M+Cl
SPECTRUM_ID=CCMSLIB00006685689
54.2854 2311.77002 
64.036301 2467.449951 
71.013496 12144.599609 
73.029198 5745.640137 
81.581703 2809.810059 
82.213303 2682.790039 
89.024399 14016.799805 
97.029297 6315.390137 
98.730904 2522.340088 
101.025002 33836.898438 
104.316002 2931.709961 
107.330002 2462.719971 
113.024002 2818.070068 
119.035004 4246.410156 
126.258003 2315.889893 
136.25 3078.22998 
143.035004 11713.0 
161.046005 95681.898438 
171.983994 3126.370117 
179.056 36632.699219 
213.819 3824.699951 
263.076996 13142.299805 
341.109009 6069.740234 
377.085999 122140.0 
END IONS

BEGIN IONS
PRECURSOR_MZ=271.048
INCHI=InChI=1S/C15H8N2O2/c18-13-10-6-2-4-8-12(10)17-14(13)16-11-7-3-1-5-9(11)15(17)19/h1-8H
SMILES=O=C1c2ccccc2-n2c1nc1ccccc1c2=O
SCANS=5339
IONMODE=positive
COMPOUND_NAME=Indolo[2,1-b]quinazoline-6,12-dione M+Na
SPECTRUM_ID=CCMSLIB00006690680
60.200489 2497.0 
63.887241 2248.0 
76.009033 2008.0 
77.664383 1926.0 
79.446381 1979.0 
81.353821 2177.0 
84.959801 4554.0 
105.364853 2219.0 
118.657784 2780.0 
130.674194 2046.0 
225.488434 2172.0 
236.495377 2591.0 
238.211868 2194.0 
269.146362 2825.0 
271.04718 307484.0 
271.116943 12126.0 
271.151337 13440.0 
289.058594 3139.0 
END IONS

BEGIN IONS
PRECURSOR_MZ=377.086
INCHI=InChI=1S/C12H22O11/c13-1-3-5(15)6(16)9(19)12(22-3)23-10-4(2-14)21-11(20)8(18)7(10)17/h3-20H,1-2H2/t3-,4-,5-,6+,7-,8-,9-,10-,11?,12+/m1/s1
SMILES=OC[C@H]1O[C@@H](O[C@@H]2[C@@H](CO)OC(O)[C@H](O)[C@H]2O)[C@H](O)[C@@H](O)[C@@H]1O
SCANS=23961
IONMODE=negative
COMPOUND_NAME=cellobiose M+Cl
SPECTRUM_ID=CCMSLIB00006709302
54.2854 2311.77002 
64.036301 2467.449951 
71.013496 12144.599609 
73.029198 5745.640137 
81.581703 2809.810059 
82.213303 2682.790039 
89.024399 14016.799805 
97.029297 6315.390137 
98.730904 2522.340088 
101.025002 33836.898438 
104.316002 2931.709961 
107.330002 2462.719971 
113.024002 2818.070068 
119.035004 4246.410156 
126.258003 2315.889893 
136.25 3078.22998 
143.035004 11713.0 
161.046005 95681.898438 
171.983994 3126.370117 
179.056 36632.699219 
213.819 3824.699951 
263.076996 13142.299805 
341.109009 6069.740234 
377.085999 122140.0 
END IONS

BEGIN IONS
PRECURSOR_MZ=306.029
INCHI=InChI=1S/C16H10ClNO2/c17-11-7-5-10(6-8-11)15-9-13(16(19)20)12-3-1-2-4-14(12)18-15/h1-9H,(H,19,20)
SMILES=O=C(O)c1cc(-c2ccc(Cl)cc2)nc2ccccc12
SCANS=13656
IONMODE=positive
COMPOUND_NAME=2-(4-chlorophenyl)quinoline-4-carboxylic acid M+Na
SPECTRUM_ID=CCMSLIB00006698997
66.742798 2077.0 
73.952919 2456.0 
89.58889 2462.0 
91.527428 2331.0 
92.375549 2704.0 
99.855247 2119.0 
104.283363 2357.0 
111.21273 2342.0 
113.952751 2954.0 
118.649521 3232.0 
152.74437 2296.0 
171.834961 2433.0 
182.337234 2264.0 
262.039246 194439.0 
280.05011 3569.0 
290.100922 2872.0 
298.13443 2265.0 
303.065704 14146.0 
306.028839 245752.0 
END IONS

BEGIN IONS
PRECURSOR_MZ=255.11
INCHI=InChI=1S/C13H16N2O2/c1-9(16)14-6-5-10-8-15-13-4-3-11(17-2)7-12(10)13/h3-4,7-8,15H,5-6H2,1-2H3,(H,14,16)
SMILES=COc1ccc2[nH]cc(CCN=C(C)O)c2c1
SCANS=14494
IONMODE=positive
COMPOUND_NAME=Melatonin M+Na
SPECTRUM_ID=CCMSLIB00006699835
51.67371 2589.0 
55.9347 4289.0 
62.75349 2731.0 
68.014847 2602.0 
104.268959 2765.0 
130.196121 2540.0 
151.004044 2836.0 
181.919373 2417.0 
182.504089 2622.0 
203.436447 2318.0 
213.919571 2651.0 
240.087112 11486.0 
254.060333 5137.0 
255.109985 5249541.0 
256.166351 4894.0 
END IONS

BEGIN IONS
PRECURSOR_MZ=312.115
INCHI=InChI=1S/C14H15F2N3O3/c1-3-21-11-8-9(4-5-10(11)22-14(15)16)13(20)17-12-6-7-19(2)18-12/h4-8,14H,3H2,1-2H3,(H,17,18,20)
SMILES=CCOc1cc(C(=O)N=c2ccn(C)[nH]2)ccc1OC(F)F
SCANS=992
IONMODE=positive
COMPOUND_NAME=[4-(difluoromethoxy)-3-ethoxyphenyl]-N-(1-methylpyrazol-3-yl)carboxamide M+H
SPECTRUM_ID=CCMSLIB00006686333
61.038219 3238.0 
70.679527 3879.0 
73.94622 3702.0 
81.045097 4849.0 
91.054497 4664.0 
93.033447 20987.0 
93.070084 15981.0 
96.055779 40770.0 
99.055367 47542.0 
104.273117 4884.0 
111.044243 23890.0 
121.02845 172586.0 
121.037903 7891.0 
121.065193 26766.0 
124.050591 1280561.0 
137.023834 17922.0 
141.034439 25347.0 
147.043747 8700.0 
149.060165 8554.0 
165.054688 49906.0 
167.013641 73757.0 
167.049927 20477.0 
169.029846 3684.0 
182.071945 18060.0 
185.378647 4339.0 
187.020065 163734.0 
188.082733 4695.0 
189.071838 4658.0 
198.065872 18401.0 
214.061356 7992.0 
215.051254 1216770.0 
216.077652 7513.0 
226.059952 5204.0 
232.07164 19148.0 
244.071289 61096.0 
244.107529 24696.0 
246.067047 553703.0 
260.932098 4801.0 
264.076355 15656.0 
266.073242 528576.0 
274.099976 6258.0 
274.940887 4404.0 
278.078979 4118.0 
283.076904 7282.0 
284.084259 14528.0 
288.926636 36742.0 
294.104523 4657150.0 
297.09314 5448.0 
310.694244 6136.0 
312.11496 12250382.0 
313.542511 8353.0 
END IONS

BEGIN IONS
PRECURSOR_MZ=461.193
INCHI=InChI=1S/C26H30O6/c1-17(2)12-13-29-24(27)16-30-20-10-11-21-22(14-20)31-15-23(25(21)28)32-19-8-6-18(7-9-19)26(3,4)5/h6-11,14-15,17H,12-13,16H2,1-5H3
SMILES=CC(C)CCOC(=O)COc1ccc2c(=O)c(Oc3ccc(C(C)(C)C)cc3)coc2c1
SCANS=14885
IONMODE=positive
COMPOUND_NAME=3-methylbutyl 2-{3-[4-(tert-butyl)phenoxy]-4-oxochromen-7-yloxy}acetate M+Na
SPECTRUM_ID=CCMSLIB00006700226
54.08569 2355.0 
54.092312 2695.0 
65.42363 2548.0 
73.953659 2833.0 
86.254646 2533.0 
104.287323 3321.0 
109.695747 2532.0 
110.343513 3197.0 
233.376404 2807.0 
259.397308 2819.0 
393.271362 2788.0 
461.192902 1510394.0 
END IONS

BEGIN IONS
PRECURSOR_MZ=343.118
INCHI=InChI=1S/C19H18O6/c1-21-12-6-8-14-13(10-12)17(20)19(24-4)18(25-14)11-5-7-15(22-2)16(9-11)23-3/h5-10H,1-4H3
SMILES=COc1ccc2oc(-c3ccc(OC)c(OC)c3)c(OC)c(=O)c2c1
SCANS=1518
IONMODE=positive
COMPOUND_NAME=3,6,3',4'-Tetramethoxyflavone M+H
SPECTRUM_ID=CCMSLIB00006686859
104.263153 4624.0 
113.809288 3098.0 
129.908234 2908.0 
135.044861 5592.0 
136.188446 3838.0 
151.039459 6519.0 
165.055389 5266.0 
169.700043 3456.0 
177.055664 4013.0 
178.062637 7050.0 
240.232574 6374.0 
257.082642 4969.0 
267.065369 14549.0 
269.080811 20912.0 
281.044891 3723.0 
281.081024 3548.0 
282.088654 12052.0 
283.059937 12645.0 
285.0755 185855.0 
297.076263 45119.0 
299.09201 45787.0 
300.063568 6678.0 
300.099487 23482.0 
311.09082 6250.0 
313.070465 515636.0 
314.07843 57292.0 
327.086212 291234.0 
328.002655 13502.0 
328.094208 1904518.0 
343.117645 7419584.0 
END IONS

BEGIN IONS
PRECURSOR_MZ=546.12
INCHI=InChI=1S/C26H26ClN3O6/c1-16-24(26(32)36-13-12-35-2)20-15-23(31)18-6-3-4-7-19(18)25(20)29(16)11-5-10-28-22-9-8-17(30(33)34)14-21(22)27/h3-4,6-9,14-15,28,31H,5,10-13H2,1-2H3
SMILES=COCCOC(=O)c1c(C)n(CCCNc2ccc([N+](=O)[O-])cc2Cl)c2c1cc(O)c1ccccc12
SCANS=11139
IONMODE=negative
COMPOUND_NAME=2-methoxyethyl 1-{3-[(2-chloro-4-nitrophenyl)amino]propyl}-5-hydroxy-2-methylb enzo[g]indole-3-carboxylate M+Cl
SPECTRUM_ID=CCMSLIB00006696480
69.24942 2791.0 
81.872383 2793.0 
104.303787 2824.0 
128.352631 2928.0 
129.474258 2883.0 
297.101257 4159.0 
298.108765 77656.0 
310.471039 3005.0 
329.643585 2907.0 
510.143616 202301.0 
546.123535 10437.0 
END IONS

BEGIN IONS
PRECURSOR_MZ=409.095
INCHI=InChI=1S/C22H17ClN2O4/c1-27-15-9-13(10-16(12-15)28-2)21(26)24-14-7-8-20-19(11-14)25-22(29-20)17-5-3-4-6-18(17)23/h3-12H,1-2H3,(H,24,26)
SMILES=COc1cc(OC)cc(C(O)=Nc2ccc3oc(-c4ccccc4Cl)nc3c2)c1
SCANS=16376
IONMODE=positive
COMPOUND_NAME=(3,5-dimethoxyphenyl)-N-[2-(2-chlorophenyl)benzoxazol-5-yl]carboxamide M+H
SPECTRUM_ID=CCMSLIB00006701717
58.06012 3125.0 
65.038879 14547.0 
65.254677 2880.0 
66.73658 3227.0 
67.054588 12510.0 
68.997681 12476.0 
75.547997 3021.0 
79.018097 3142.0 
79.054626 6349.0 
81.033569 6677.0 
84.132187 3038.0 
92.025574 3863.0 
94.041946 5214.0 
95.049088 40248.0 
106.029068 3436.0 
107.03653 5386.0 
107.048714 4616.0 
108.020523 48613.0 
109.028503 15850.0 
109.06469 18248.0 
111.044159 7276.0 
121.039574 2601.0 
122.036057 61112.0 
123.043991 19326.0 
123.678589 3471.0 
124.051666 44305.0 
125.059647 15681.0 
135.054611 4822.0 
137.059433 15712.0 
138.01033 20631.0 
138.994949 6973.0 
139.075256 43872.0 
141.05455 398033.0 
151.038956 2683978.0 
155.07016 275668.0 
164.070709 7660.0 
165.054626 608556.0 
167.072403 5667.0 
178.086273 6671.0 
186.054382 3884.0 
195.067245 23531.0 
211.062836 28260.0 
214.049194 26112.0 
243.031204 44583.0 
244.039062 76440.0 
245.048325 6668.0 
246.031326 253470.0 
270.091583 5215.0 
271.026489 122251.0 
273.987823 4151.0 
323.05899 16514.0 
351.052307 93574.0 
366.013214 6411.0 
391.084991 5191.0 
393.061707 5158.0 
394.072113 16796.0 
409.09433 2925784.0 
END IONS

BEGIN IONS
PRECURSOR_MZ=384.09
INCHI=InChI=1S/C16H16FN5O2S/c1-8-4-5-10(6-11(8)17)20-12(23)7-25-16-21-13-14(22(16)3)18-9(2)19-15(13)24/h4-6H,7H2,1-3H3,(H,20,23)(H,18,19,24)
SMILES=Cc1nc(O)c2nc(SCC(O)=Nc3ccc(C)c(F)c3)n(C)c2n1
SCANS=8786
IONMODE=positive
COMPOUND_NAME=2-(2,9-dimethyl-6-oxohydropurin-8-ylthio)-N-(3-fluoro-4-methylphenyl)acetamide M+Na
SPECTRUM_ID=CCMSLIB00006694127
59.960991 2800.0 
62.92458 2556.0 
66.732773 2771.0 
87.728157 3301.0 
92.367737 2844.0 
104.269287 2908.0 
166.37561 2712.0 
169.842438 3217.0 
187.058899 16958.0 
211.73703 2936.0 
218.023071 174083.0 
227.054962 3870.0 
231.030685 3987.0 
259.02597 25519.0 
343.046387 18627.0 
384.08963 3951975.0 
END IONS

BEGIN IONS
PRECURSOR_MZ=329.097
INCHI=InChI=1S/C17H18N2O3S/c1-22-14-7-8-17-16(11-14)13(12-18-17)9-10-19-23(20,21)15-5-3-2-4-6-15/h2-8,11-12,18-19H,9-10H2,1H3
SMILES=COc1ccc2[nH]cc(CCNS(=O)(=O)c3ccccc3)c2c1
SCANS=18214
IONMODE=negative
COMPOUND_NAME=[2-(5-methoxyindol-3-yl)ethyl](phenylsulfonyl)amine M-H
SPECTRUM_ID=CCMSLIB00006703555
61.97023 17149.0 
63.961971 39217.0 
68.995323 3983.0 
77.965179 7488.0 
78.972687 42427.0 
79.980942 112072.0 
82.42746 3228.0 
84.27121 2512.0 
87.554764 2713.0 
90.241386 2828.0 
90.933456 18448.0 
92.050491 1593047.0 
93.034332 25375.0 
93.960403 44610.0 
98.02597 3104.0 
118.336449 2721.0 
118.698227 3999.0 
132.045151 22792.0 
136.040741 4447.0 
141.00148 196138.0 
144.045334 39189.0 
145.053131 37056.0 
156.012421 4717843.0 
159.032135 15991.0 
160.040237 191647.0 
169.625992 3398.0 
173.302261 2945.0 
192.928177 4903.0 
198.419632 2949.0 
209.461334 11809.0 
242.985504 3993.0 
254.114471 3807.0 
274.37735 3497.0 
328.986633 24795.0 
329.060242 31531.0 
329.096527 425886.0 
END IONS

BEGIN IONS
PRECURSOR_MZ=345.157
INCHI=InChI=1S/C19H23NO5/c1-22-15-7-5-14(6-8-15)20-10-9-16(21)13-11-17(23-2)19(25-4)18(12-13)24-3/h5-8,11-12,20H,9-10H2,1-4H3
SMILES=COc1ccc(NCCC(=O)c2cc(OC)c(OC)c(OC)c2)cc1
SCANS=13532
IONMODE=positive
COMPOUND_NAME=3-[(4-methoxyphenyl)amino]-1-(3,4,5-trimethoxyphenyl)propan-1-one M-e
SPECTRUM_ID=CCMSLIB00006698873
55.01841 14417.0 
64.213913 2937.0 
65.038834 3146.0 
66.440521 2333.0 
79.054588 4265.0 
92.38089 3170.0 
93.03334 4791.0 
93.05722 3198.0 
94.041206 9851.0 
107.049088 14512.0 
108.044258 39402.0 
108.056847 36893.0 
109.064957 18220.0 
110.035927 6094.0 
111.044067 13846.0 
114.613327 2982.0 
120.044434 78605.0 
121.052193 32028.0 
121.064247 3670.0 
123.067917 60802.0 
124.052933 2459.0 
125.059723 15342.0 
128.891479 2513.0 
134.059967 37104.0 
135.044678 20055.0 
135.056229 4114.0 
135.067871 60509.0 
136.075745 905808.0 
138.067566 4573.0 
139.075089 11873.0 
148.075333 12463.0 
149.059921 74222.0 
149.083221 44028.0 
150.091583 17181.0 
151.075272 14868.0 
152.02272 2733.0 
152.046249 22030.0 
152.15477 2902.0 
153.054642 85759.0 
154.062332 3658.0 
167.070328 75700.0 
168.078354 42218.0 
169.085526 15620.0 
175.061539 2675.0 
182.093735 12195.0 
183.065628 4305.0 
195.065186 468128.0 
196.073639 17547.0 
210.088547 458232.0 
223.096725 12393.0 
280.096222 5301.0 
296.127045 6044.0 
326.138733 10851.0 
330.135101 10945.0 
345.156677 746962.0 
365.215424 3336.0 
605.404724 3375.0 
661.696594 3358.0 
END IONS

BEGIN IONS
PRECURSOR_MZ=172.098
INCHI=InChI=1S/C8H15NO3/c1-5(2)4-7(8(11)12)9-6(3)10/h5,7H,4H2,1-3H3,(H,9,10)(H,11,12)/t7-/m0/s1
SMILES=CC(O)=N[C@@H](CC(C)C)C(=O)O
SCANS=88
IONMODE=negative
COMPOUND_NAME=N-Acetyl-L-leucine M-H
SPECTRUM_ID=CCMSLIB00006685429
50.719299 358349.0 
58.029301 1728900.0 
58.094299 362503.0 
58.8349 409668.0 
59.9823 370079.0 
73.978104 407532.0 
77.571602 410970.0 
82.425903 617107.0 
117.422997 474153.0 
127.057999 401086.0 
128.108994 5200520.0 
130.087006 191366000.0 
172.098007 30672600.0 
END IONS

BEGIN IONS
PRECURSOR_MZ=354.085
INCHI=InChI=1S/C19H13N3O3/c20-9-13-15(10-4-3-5-11(23)8-10)16-17(25-18(13)21)12-6-1-2-7-14(12)22-19(16)24/h1-8,15,23H,21H2,(H,22,24)
SMILES=N#CC1=C(N)Oc2c(c(O)nc3ccccc23)C1c1cccc(O)c1
SCANS=19942
IONMODE=positive
COMPOUND_NAME=2-amino-4-(3-hydroxyphenyl)-5-oxo-6-hydro-4H-pyrano[3,2-c]quinoline-3-carbonit rile M+Na
SPECTRUM_ID=CCMSLIB00006705283
53.823071 1955.0 
61.970791 2311.0 
98.028023 2407.0 
99.734619 2706.0 
178.248016 2358.0 
249.017715 2333.0 
268.10318 2727.0 
354.084351 794625.0 
376.428589 2400.0 
END IONS

BEGIN IONS
PRECURSOR_MZ=491.265
INCHI=InChI=1S/C26H38O6/c1-4-5-6-22(31)32-26(21(30)15-27)12-10-19-18-8-7-16-13-17(28)9-11-24(16,2)23(18)20(29)14-25(19,26)3/h13,18-20,23,27,29H,4-12,14-15H2,1-3H3/t18-,19-,20-,23+,24-,25-,26-/m0/s1
SMILES=CCCCC(=O)OC1(C(=O)CO)CCC2C3CCC4=CC(=O)CCC4(C)C3C(O)CC21C
SCANS=5201
IONMODE=negative
COMPOUND_NAME=57524-89-7 M+formate
SPECTRUM_ID=CCMSLIB00006690542
77.898888 2724.0 
101.060928 62953.0 
109.3134 2636.0 
118.651138 2631.0 
129.987137 2727.0 
151.89946 2523.0 
213.867737 2839.0 
343.191559 51705.0 
389.198853 9690.0 
404.84436 2804.0 
445.259735 24295.0 
491.265411 312080.0 
END IONS

BEGIN IONS
PRECURSOR_MZ=362.136
INCHI=InChI=1S/C20H21NO4/c1-22-17-6-5-13(10-18(17)23-2)9-16-15-12-20(25-4)19(24-3)11-14(15)7-8-21-16/h5-8,10-12H,9H2,1-4H3
SMILES=COc1ccc(Cc2nccc3cc(OC)c(OC)cc23)cc1OC
SCANS=12631
IONMODE=positive
COMPOUND_NAME=papaverine M+Na
SPECTRUM_ID=CCMSLIB00006697972
54.167229 2479.0 
72.824677 2178.0 
75.583427 2475.0 
92.38134 2360.0 
118.406593 2474.0 
136.209793 2967.0 
167.016495 2756.0 
197.80481 2334.0 
249.303833 2239.0 
272.358215 2521.0 
310.915466 2911.0 
338.910522 4887.0 
362.135925 182288.0 
END IONS

BEGIN IONS
PRECURSOR_MZ=341.153
INCHI=InChI=1S/C19H21ClN4/c1-24(2)13-5-12-21-19-16-6-3-4-7-17(16)22-18(23-19)14-8-10-15(20)11-9-14/h3-4,6-11H,5,12-13H2,1-2H3,(H,21,22,23)
SMILES=CN(C)CCCN=c1nc(-c2ccc(Cl)cc2)[nH]c2ccccc12
SCANS=1105
IONMODE=positive
COMPOUND_NAME=(3-{[2-(4-chlorophenyl)quinazolin-4-yl]amino}propyl)dimethylamine M+H
SPECTRUM_ID=CCMSLIB00006686446
50.470871 4986.0 
52.35535 4080.0 
52.598389 3949.0 
58.065559 1227469.0 
71.073174 8017.0 
72.081139 116408.0 
79.354286 8684.0 
84.080963 2020427.0 
86.096573 6550476.0 
92.384064 4786.0 
100.781036 4754.0 
101.107422 7443.0 
114.412537 5283.0 
138.890732 5467.0 
155.09996 5677.0 
239.036896 57209.0 
241.052094 2448292.0 
255.05603 22165.0 
267.053864 9239.0 
268.062988 931829.0 
269.081604 23342.0 
270.078033 27322.0 
282.079498 22581.0 
296.094269 8872441.0 
339.528748 8702.0 
340.14859 6998.0 
341.151978 27110680.0 
342.788239 11088.0 
347.68924 6618.0 
END IONS

BEGIN IONS
PRECURSOR_MZ=285.077
INCHI=InChI=1S/C16H14O5/c1-21-16-8-10(3-7-14(16)19)2-6-13(18)12-5-4-11(17)9-15(12)20/h2-9,17,19-20H,1H3/b6-2+
SMILES=COc1cc(C=CC(=O)c2ccc(O)cc2O)ccc1O
SCANS=5189
IONMODE=negative
COMPOUND_NAME=Homobutein M-H
SPECTRUM_ID=CCMSLIB00006690530
54.41156 2220.0 
63.72913 2113.0 
66.394188 2123.0 
72.069733 1963.0 
76.507973 2155.0 
83.013283 2698.0 
91.018768 3064.0 
104.302017 2910.0 
107.013931 4265.0 
125.024467 33432.0 
133.030182 17771.0 
134.037827 10581.0 
135.008942 29012.0 
143.050522 9916.0 
148.016373 2816.0 
149.060806 21936.0 
151.003723 37781.0 
153.019226 17809.0 
163.003082 4704.0 
171.044556 9292.0 
175.037949 2753.0 
180.006683 8658.0 
185.061462 3145.0 
185.419144 2281.0 
199.039688 3406.0 
213.055984 21643.0 
256.036835 2508.0 
257.044983 9279.0 
267.031769 3637.0 
270.05368 14213.0 
285.040466 469051.0 
285.076721 166935.0 
430.879059 2522.0 
END IONS

BEGIN IONS
PRECURSOR_MZ=410.129
INCHI=InChI=1S/C20H21N5O3S/c1-5-27-15-9-7-6-8-13(15)19-23-14(11(2)28-19)10-29-20-24-16-17(25(20)4)21-12(3)22-18(16)26/h6-9H,5,10H2,1-4H3,(H,21,22,26)
SMILES=CCOc1ccccc1-c1nc(CSc2nc3c(O)nc(C)nc3n2C)c(C)o1
SCANS=3164
IONMODE=negative
COMPOUND_NAME=8-{[2-(2-ethoxyphenyl)-5-methyl(1,3-oxazol-4-yl)]methylthio}-2,9-dimethylhydro purin-6-one M-H
SPECTRUM_ID=CCMSLIB00006688505
84.738586 2541.0 
97.755203 2263.0 
103.038101 2395.0 
104.282173 2838.0 
163.062515 3343.0 
175.030487 2493.0 
193.018417 8362.0 
194.02681 487233.0 
195.034607 64111.0 
223.064972 23108.0 
252.794769 2653.0 
410.129181 240567.0 
END IONS

BEGIN IONS
PRECURSOR_MZ=457.169
INCHI=InChI=1S/C28H27ClN2O2/c1-17(2)33-26-14-8-4-10-20(26)28-27-24(30-22-12-6-7-13-23(22)31-28)15-18(16-25(27)32)19-9-3-5-11-21(19)29/h3-14,17-18,28,30-31H,15-16H2,1-2H3
SMILES=CC(C)Oc1ccccc1C1Nc2ccccc2NC2=C1C(=O)CC(c1ccccc1Cl)C2
SCANS=2208
IONMODE=negative
COMPOUND_NAME=3-(2-chlorophenyl)-11-[2-(methylethoxy)phenyl]-2,3,4-trihydro-5H,10H,11H-benzo [b]benzo[2,1-f]1,4-diazepin-1-one M-H
SPECTRUM_ID=CCMSLIB00006687549
53.170731 2435.0 
57.034019 6404.0 
73.972527 3041.0 
82.420723 3300.0 
93.03447 5412.0 
117.04525 4582.0 
118.683159 3373.0 
118.992188 2969.0 
131.061172 108023.0 
143.061005 10380.0 
145.040161 51688.0 
162.043411 2837.0 
163.051056 17531.0 
183.0569 4860.0 
221.106628 3463.0 
234.0923 3141.0 
264.047852 3982.0 
266.98642 3141.0 
267.092529 27084.0 
269.08551 12593.0 
271.088226 4983.0 
284.095245 158069.0 
285.103271 100335.0 
286.112 13937.0 
291.068298 5875.0 
304.984375 2990.0 
307.06485 3303.0 
308.072327 5066.0 
321.078979 20111.0 
327.149902 76344.0 
342.97934 4456.0 
343.122925 3691.0 
379.100677 22125.0 
392.976776 32296.0 
396.107574 4569.0 
397.111176 30482.0 
416.975647 30517.0 
436.980072 27115.0 
439.15802 142264.0 
456.979919 45046.0 
457.169037 1594376.0 
END IONS

BEGIN IONS
PRECURSOR_MZ=603.151
INCHI=InChI=1S/C16H14O6/c1-21-13-3-2-8(4-10(13)18)14-7-12(20)16-11(19)5-9(17)6-15(16)22-14/h2-6,14,17-19H,7H2,1H3/t14-/m0/s1
SMILES=COc1ccc(C2CC(=O)c3c(O)cc(O)cc3O2)cc1O
SCANS=2493
IONMODE=negative
COMPOUND_NAME=hesperetin 2M-H
SPECTRUM_ID=CCMSLIB00006687834
83.044907 2403.0 
92.397652 3563.0 
100.080551 2754.0 
104.309914 3683.0 
158.000732 3886.0 
286.048737 4874.0 
301.072235 94022.0 
END IONS

BEGIN IONS
PRECURSOR_MZ=285.04
INCHI=InChI=1S/C15H10O6/c16-8-2-4-12-9(6-8)13(19)14(20)15(21-12)7-1-3-10(17)11(18)5-7/h1-6,16-18,20H
SMILES=O=c1c(O)c(-c2ccc(O)c(O)c2)oc2ccc(O)cc12
SCANS=17102
IONMODE=negative
COMPOUND_NAME=3,6,3',4'-Tetrahydroxyflavone M-H
SPECTRUM_ID=CCMSLIB00006702443
50.569118 1937.0 
55.166 2081.0 
69.033974 11774.0 
89.15593 2080.0 
93.034111 17565.0 
95.013817 2785.0 
97.029053 4566.0 
107.01284 3622.0 
120.961639 4006.0 
121.029243 73154.0 
123.009407 7445.0 
125.024368 21442.0 
135.008453 32069.0 
139.039902 14572.0 
148.956314 2710.0 
149.024048 13151.0 
163.003571 23503.0 
210.359131 4077.0 
211.039963 5090.0 
216.923355 4839.0 
229.050613 15076.0 
239.034241 2628.0 
257.046021 3576.0 
285.040375 147502.0 
285.07666 6078.0 
END IONS

BEGIN IONS
PRECURSOR_MZ=392.129
INCHI=InChI=1S/C18H23N3O5S/c1-25-16(23)7-13(17(24)26-2)19-18(27)20-8-11-6-12(10-20)14-4-3-5-15(22)21(14)9-11/h3-5,11-13H,6-10H2,1-2H3,(H,19,27)/t11-,12-,13?/m0/s1
SMILES=COC(=O)CC(N=C(S)N1CC2CC(C1)c1cccc(=O)n1C2)C(=O)OC
SCANS=3502
IONMODE=negative
COMPOUND_NAME=dimethyl 2-{[((1S,9R)-6-oxo-7,11-diazatricyclo[7.3.1.0<2,7>]trideca-2,4-dien-1 1-yl)thioxomethyl]amino}butane-1,4-dioate M-H
SPECTRUM_ID=CCMSLIB00006688843
57.975231 153023.0 
61.327209 2520.0 
72.805603 2210.0 
73.029167 17723.0 
87.308113 2358.0 
92.401199 2891.0 
118.681168 2747.0 
127.046539 2526.0 
144.996964 4706.0 
202.017303 3763.0 
210.117981 5912.0 
245.709793 2855.0 
248.086472 100020.0 
328.0737 2862.0 
332.108032 16134.0 
360.102936 14465.0 
392.128998 437560.0 
END IONS

BEGIN IONS
PRECURSOR_MZ=311.139
INCHI=InChI=1S/C18H18N2O3/c1-13(21)19-15-6-8-16(9-7-15)20-18(22)12-5-14-3-10-17(23-2)11-4-14/h3-12H,1-2H3,(H,19,21)(H,20,22)/b12-5+
SMILES=COc1ccc(C=CC(=O)Nc2ccc(N=C(C)O)cc2)cc1
SCANS=4589
IONMODE=positive
COMPOUND_NAME=(2E)-N-[4-(acetylamino)phenyl]-3-(4-methoxyphenyl)prop-2-enamide M+H
SPECTRUM_ID=CCMSLIB00006689930
50.119949 3306.0 
51.11768 3390.0 
54.473171 4391.0 
73.944687 3558.0 
79.054283 4554.0 
82.38813 5324.0 
89.039337 5419.0 
94.907173 3625.0 
102.046417 3845.0 
103.053841 5793.0 
105.069832 15647.0 
107.060211 44293.0 
109.076157 30468.0 
118.041161 14678.0 
120.056847 22718.0 
133.064819 487926.0 
135.05545 8467.0 
135.080338 107345.0 
146.035797 5523.0 
149.070724 28740.0 
151.086609 333601.0 
160.520172 4850.0 
160.534149 7708.0 
161.059723 9196670.0 
161.588379 8754.0 
177.06575 108235.0 
203.060852 7642.0 
203.081589 157290.0 
215.351608 4495.0 
268.121399 21032.0 
269.130676 35642.0 
309.689301 4786.0 
309.72937 15723.0 
311.138641 11590919.0 
312.558411 11845.0 
312.594147 4453.0 
END IONS

BEGIN IONS
PRECURSOR_MZ=265.143
INCHI=InChI=1S/C15H22O5/c1-8-4-5-11-9(2)12(16)17-13-15(11)10(8)6-7-14(3,18-13)19-20-15/h8-11,13H,4-7H2,1-3H3/t8-,9-,10+,11+,13-,14+,15-/m1/s1
SMILES=CC1CCC2C(C)C(=O)OC3OC4(C)CCC1C32OO4
SCANS=8139
IONMODE=positive
COMPOUND_NAME=GNF-Pf-5341 M+H-H2O
SPECTRUM_ID=CCMSLIB00006693480
63.360889 2424.0 
67.054703 10249.0 
69.033722 5825.0 
69.070107 4237.0 
71.049713 18706.0 
71.249962 2445.0 
79.054558 3346.0 
81.07 12181.0 
82.899368 2529.0 
83.049019 5821.0 
91.054527 10256.0 
93.070091 29090.0 
95.049263 21769.0 
95.085632 48986.0 
97.065002 17682.0 
99.044243 11639.0 
105.070107 20965.0 
107.048912 4050.0 
107.085411 32802.0 
109.064873 14355.0 
109.101601 4381.0 
111.080467 6156.0 
113.059914 4044.0 
117.06974 3375.0 
119.085617 34168.0 
121.064659 32985.0 
121.101357 21810.0 
123.043991 11638.0 
123.080383 90693.0 
125.05983 17452.0 
125.096184 4433.0 
130.019989 3161.0 
131.085434 37849.0 
133.06459 9307.0 
133.101166 28000.0 
135.044174 4997.0 
135.08046 26584.0 
135.11673 11795.0 
137.059891 3667.0 
137.095978 5754.0 
139.075134 4028.0 
143.069656 2757.0 
143.085342 5947.0 
145.065491 2399.0 
145.101089 48065.0 
147.080627 16295.0 
147.11673 4264.0 
149.059586 3325.0 
149.096039 51906.0 
149.132584 6000.0 
151.075348 27516.0 
151.111374 3794.0 
153.055038 10325.0 
155.0858 3239.0 
157.085999 16307.0 
157.100204 5126.0 
159.080276 19393.0 
159.116852 47679.0 
161.095963 69458.0 
161.132294 6198.0 
162.502014 2394.0 
163.075089 12174.0 
163.111298 31277.0 
163.147644 3256.0 
164.083038 3277.0 
165.091034 11632.0 
167.106216 6121.0 
169.084656 3280.0 
171.080307 4990.0 
172.088577 3341.0 
173.096313 49871.0 
173.111343 3614.0 
173.11438 3012.0 
173.132004 45972.0 
175.112411 3332.0 
177.090775 33940.0 
177.127121 27858.0 
179.106705 44116.0 
181.121414 8844.0 
183.116943 15119.0 
185.131073 2609.0 
187.111237 33721.0 
189.09111 46830.0 
191.089691 2615.0 
191.106888 62126.0 
191.142731 51177.0 
195.101364 5226.0 
201.127274 99151.0 
203.143051 5965.0 
205.122543 55707.0 
207.101532 61047.0 
209.117981 5752.0 
211.111771 17314.0 
219.137787 205260.0 
223.133682 9289.0 
229.122284 77094.0 
235.133438 10149.0 
237.090973 5313.0 
237.148605 59352.0 
247.109848 2906.0 
247.132523 215030.0 
265.143158 645471.0 
END IONS

BEGIN IONS
PRECURSOR_MZ=440.118
INCHI=InChI=1S/C23H21ClFN3O3/c24-18-12-15(8-9-19(18)25)26-21(29)14-28-20-7-3-2-6-16(20)17(13-22(28)30)23(31)27-10-4-1-5-11-27/h2-3,6-9,12-13H,1,4-5,10-11,14H2,(H,26,29)
SMILES=O=C(c1cc(=O)n(CC(O)=Nc2ccc(F)c(Cl)c2)c2ccccc12)N1CCCCC1
SCANS=21837
IONMODE=negative
COMPOUND_NAME=N-(3-chloro-4-fluorophenyl)-2-[2-oxo-4-(piperidylcarbonyl)hydroquinolyl]acetam ide M-H
SPECTRUM_ID=CCMSLIB00006707178
65.175072 2795.0 
88.945107 2910.0 
116.050377 5452.0 
128.050674 891286.0 
130.066391 7864.0 
131.037582 15803.0 
136.262772 3086.0 
142.066544 31290.0 
144.002243 189813.0 
144.045517 134939.0 
146.061356 82996.0 
156.045654 145521.0 
157.05336 298028.0 
158.02533 12599.0 
158.061813 6890.0 
160.210388 2918.0 
167.062241 4548.0 
169.981613 5682.0 
172.040527 222378.0 
174.055862 49504.0 
176.035797 15121.0 
183.032639 7126.0 
184.04039 733292.0 
185.047867 37773.0 
200.032028 3024.0 
202.05072 14512.0 
209.108749 5014.0 
212.035599 5304.0 
225.14032 19608.0 
226.124115 20123.0 
227.118866 96412.0 
235.926224 4416.0 
237.103546 57270.0 
239.119247 6672.0 
240.105118 4238.0 
241.134567 101833.0 
243.111221 3931.0 
255.113983 865175.0 
269.129303 171582.0 
271.108704 78192.0 
295.108673 252954.0 
295.147003 6502.0 
320.668365 3404.0 
412.125336 3218.0 
440.118286 2183038.0 
END IONS

BEGIN IONS
PRECURSOR_MZ=205.083
INCHI=InChI=1S/C10H14O3/c1-9(2)6-3-4-10(9,8(12)13)7(11)5-6/h6H,3-5H2,1-2H3,(H,12,13)/t6-,10+/m1/s1
SMILES=CC1(C)C2CCC1(C(=O)O)C(=O)C2
SCANS=8858
IONMODE=positive
COMPOUND_NAME=(1s,4r)-7,7-dimethyl-2-oxobicyclo[2.2.1]heptane-1-carboxylic acid M+Na
SPECTRUM_ID=CCMSLIB00006694199
82.672623 2470.0 
92.380211 2711.0 
104.290916 3366.0 
145.101822 4124.0 
149.022781 12099.0 
162.36554 3623.0 
165.117371 2871.0 
205.083313 6128818.0 
223.093872 36035.0 
END IONS

BEGIN IONS
PRECURSOR_MZ=403.136
INCHI=InChI=1S/C17H18N6O6/c1-20-6-8-21(9-7-20)13-5-3-11(10-14(13)22(26)27)2-4-12-15(23(28)29)16(24)19-17(25)18-12/h2-5,10H,6-9H2,1H3,(H2,18,19,24,25)/b4-2+
SMILES=CN1CCN(c2ccc(C=Cc3nc(O)nc(O)c3[N+](=O)[O-])cc2[N+](=O)[O-])CC1
SCANS=22423
IONMODE=positive
COMPOUND_NAME=6-{(1E)-2-[4-(4-methylpiperazinyl)-3-nitrophenyl]vinyl}-5-nitropyrimidine-2,4- diol M+H
SPECTRUM_ID=CCMSLIB00006707764
56.050018 21808.0 
57.057621 3507.0 
58.065609 388102.0 
66.969368 2423.0 
70.065483 64652.0 
72.080917 3488.0 
82.404877 2970.0 
85.076431 3757.0 
86.060226 176728.0 
93.751762 3645.0 
100.075722 3498.0 
119.060257 4110.0 
129.074631 2952.0 
131.060516 4976.0 
135.123352 2747.0 
138.80452 2756.0 
143.060501 5436.0 
144.146973 2401.0 
145.039841 3121.0 
145.075821 3917.0 
147.055405 10100.0 
149.473404 2604.0 
155.059708 3720.0 
157.076233 3270.0 
158.071747 4595.0 
159.054764 21210.0 
167.06015 2914.0 
170.071335 28716.0 
171.055008 5370.0 
173.071182 5602.0 
182.071487 13519.0 
183.07814 3434.0 
184.086685 6199.0 
186.06601 2991.0 
196.086502 31944.0 
198.066757 3434.0 
198.103699 2791.0 
200.081863 4727.0 
202.098404 3744.0 
208.088806 3739.0 
212.081436 10527.0 
214.097092 11227.0 
215.069977 3015.0 
216.11351 11566.0 
223.097076 4423.0 
225.11322 33643.0 
227.128403 12579.0 
237.07489 2912.0 
237.113632 15535.0 
239.128586 84624.0 
239.154358 5030.0 
240.076706 2848.0 
250.114868 3287.0 
253.071411 3275.0 
255.124268 3124.0 
265.072266 10764.0 
273.133667 27433.0 
279.086639 12396.0 
280.083557 3978.0 
280.119019 5162.0 
308.112762 5852.0 
322.12915 16662.0 
323.122223 2894.0 
354.109161 2853.0 
369.131897 13851.0 
403.135529 947003.0 
END IONS

BEGIN IONS
PRECURSOR_MZ=357.11
INCHI=InChI=1S/C14H18N6O2S/c1-17-11-10(12(21)18(2)14(17)22)20-9(8-23-13(20)16-11)7-19-5-3-15-4-6-19/h8,15H,3-7H2,1-2H3
SMILES=Cn1c(=O)c2c(nc3scc(CN4CCNCC4)n32)n(C)c1=O
SCANS=4857
IONMODE=positive
COMPOUND_NAME=1,3-dimethyl-6-(piperazinylmethyl)-1,3,5-trihydro-1,3-thiazolino[3,2-h]purine- 2,4-dione M+Na
SPECTRUM_ID=CCMSLIB00006690198
54.253201 2243.0 
72.784126 2315.0 
73.945732 2736.0 
86.370934 2246.0 
92.70945 2532.0 
117.829063 2209.0 
122.812042 2405.0 
186.707718 2420.0 
333.851593 3809.0 
357.110107 411282.0 
END IONS

BEGIN IONS
PRECURSOR_MZ=348.172
INCHI=InChI=1S/C21H23N3O2/c1-15(25)24-20(13-17-14-23-19-10-6-5-9-18(17)19)21(26)22-12-11-16-7-3-2-4-8-16/h2-10,14,20,23H,11-13H2,1H3,(H,22,26)(H,24,25)
SMILES=CC(O)=NC(Cc1c[nH]c2ccccc12)C(O)=NCCc1ccccc1
SCANS=5553
IONMODE=negative
COMPOUND_NAME=2-(acetylamino)-3-indol-3-yl-N-(2-phenylethyl)propanamide M-H
SPECTRUM_ID=CCMSLIB00006690894
50.47298 3320.0 
58.029442 11704.0 
70.029556 39986.0 
73.04052 244112.0 
86.024406 3006.0 
97.040779 113179.0 
98.024857 4291.0 
103.191406 2360.0 
104.348846 4958.0 
115.051361 1427721.0 
124.498154 3062.0 
142.066376 5182.0 
176.573044 2920.0 
177.103317 172839.0 
185.072342 7001.0 
197.07373 3102.0 
217.09819 14497.0 
219.113876 395993.0 
244.1091 127133.0 
273.314423 2864.0 
289.134399 46931.0 
306.161682 19746.0 
348.171906 2148861.0 
END IONS

BEGIN IONS
PRECURSOR_MZ=876.32
INCHI=InChI=1S/C47H51NO14/c1-25-31(60-43(56)36(52)35(28-16-10-7-11-17-28)48-41(54)29-18-12-8-13-19-29)23-47(57)40(61-42(55)30-20-14-9-15-21-30)38-45(6,32(51)22-33-46(38,24-58-33)62-27(3)50)39(53)37(59-26(2)49)34(25)44(47,4)5/h7-21,31-33,35-38,40,51-52,57H,22-24H2,1-6H3,(H,48,54)/t31-,32-,33+,35-,36+,37+,38?,40-,45+,46-,47+/m0/s1
SMILES=CC(=O)OC1C(=O)C2(C)C(O)CC3OCC3(OC(C)=O)C2C(OC(=O)c2ccccc2)C2(O)CC(OC(=O)C(O)C(N=C(O)c3ccccc3)c3ccccc3)C(C)=C1C2(C)C
SCANS=11773
IONMODE=positive
COMPOUND_NAME=paclitaxel M+Na
SPECTRUM_ID=CCMSLIB00006697114
67.054329 8540.0 
69.033569 11476.0 
72.310257 5409.0 
79.054008 29680.0 
81.033638 11092.0 
81.069794 12097.0 
91.054451 37023.0 
93.069771 57364.0 
94.437653 5074.0 
95.049309 38983.0 
95.08522 31306.0 
97.028236 6402.0 
105.03347 697144.0 
105.069801 96133.0 
107.049072 18094.0 
107.085533 56354.0 
109.064232 23706.0 
109.1007 7787.0 
117.069344 7447.0 
118.064133 5599.0 
119.048477 6058.0 
119.085457 66405.0 
121.064682 58343.0 
121.101379 52085.0 
123.043373 6493.0 
123.080544 38775.0 
126.030891 31045.0 
129.069794 12245.0 
131.049072 5211.0 
131.085052 19874.0 
133.064789 74527.0 
133.101013 52190.0 
135.07991 33338.0 
136.197433 5531.0 
137.095383 9180.0 
139.07547 7254.0 
143.085266 32031.0 
144.029999 7604.0 
144.04184 145928.0 
145.063721 11562.0 
145.100739 50082.0 
147.080292 41999.0 
149.05925 31120.0 
149.095886 58615.0 
151.075073 23742.0 
151.111893 6463.0 
155.084473 10334.0 
156.092758 9375.0 
157.100952 25576.0 
159.080429 42912.0 
159.116058 21486.0 
161.058395 9876.0 
161.095917 50972.0 
163.075623 8631.0 
167.084595 18691.0 
168.093689 6778.0 
169.065002 6537.0 
169.101089 47855.0 
170.109299 6440.0 
171.07988 19912.0 
171.116699 24769.0 
173.095337 26078.0 
175.075043 21420.0 
175.110519 6694.0 
177.054016 6770.0 
177.090912 11643.0 
179.0849 24723.0 
180.092377 10838.0 
181.100571 25622.0 
182.107407 5114.0 
183.080826 10663.0 
183.11644 37459.0 
185.09552 19552.0 
185.132019 20021.0 
187.075333 9754.0 
187.110336 7718.0 
189.089996 9631.0 
193.101028 34462.0 
194.109161 7903.0 
195.117233 42255.0 
196.088547 6559.0 
196.124161 7620.0 
197.09581 30573.0 
197.132263 23707.0 
198.10405 5862.0 
199.111298 27781.0 
201.09053 11956.0 
203.030823 7345.0 
205.100845 6713.0 
206.108231 28940.0 
207.117615 14514.0 
208.089584 8546.0 
209.09584 20942.0 
209.131668 48518.0 
210.102875 9350.0 
211.072205 11032.0 
211.112152 43198.0 
211.147598 29569.0 
213.089737 10478.0 
213.126877 24127.0 
215.105942 6647.0 
220.123932 28207.0 
221.095688 8417.0 
221.13324 40695.0 
222.104126 10462.0 
223.111328 44316.0 
223.146622 9221.0 
224.117981 20605.0 
225.089554 18384.0 
225.126785 35144.0 
225.162903 10628.0 
227.142578 19979.0 
229.121643 6274.0 
230.108261 7687.0 
233.096222 6745.0 
234.105133 6108.0 
235.147507 32116.0 
236.121872 5189.0 
237.127365 48825.0 
237.159821 4723.0 
238.134048 5296.0 
239.105255 9813.0 
239.142014 48245.0 
241.12236 20814.0 
245.130615 7144.0 
248.11821 11277.0 
249.126266 28478.0 
251.140381 17544.0 
253.157715 28077.0 
255.137497 28504.0 
257.15506 6618.0 
262.083496 82461.0 
263.141998 51785.0 
265.120331 7729.0 
266.130524 6027.0 
267.137024 28746.0 
269.116333 11082.0 
269.151306 9945.0 
279.137329 9259.0 
281.152954 46977.0 
285.147064 10168.0 
290.077728 84462.0 
291.137573 32578.0 
297.148499 17889.0 
299.163422 28425.0 
308.088837 4198406.0 
309.147919 48320.0 
322.549896 6525.0 
327.158813 77640.0 
345.167633 6270.0 
349.1427 41106.0 
350.099609 26855.0 
351.155914 19713.0 
365.173035 11603.0 
367.152344 5582.0 
378.833435 5257.0 
381.165222 10709.0 
387.17984 19676.0 
409.161987 169351.0 
411.178192 43116.0 
425.192261 29917.0 
427.171539 26691.0 
469.182495 108220.0 
471.178131 57427.0 
487.208679 21604.0 
503.200195 38730.0 
509.214264 93051.0 
513.188721 10373.0 
531.198425 1416832.0 
533.216614 24941.0 
547.231079 121937.0 
549.207764 40758.0 
591.219177 1481351.0 
609.230347 9825.0 
632.243347 6217.0 
694.258423 52900.0 
816.298401 156978.0 
876.319031 4379511.0 
END IONS

BEGIN IONS
PRECURSOR_MZ=227.114
INCHI=InChI=1S/C9H14N4O3/c10-2-1-8(14)13-7(9(15)16)3-6-4-11-5-12-6/h4-5,7H,1-3,10H2,(H,11,12)(H,13,14)(H,15,16)/t7-/m0/s1
SMILES=NCCC(O)=N[C@@H](Cc1cnc[nH]1)C(=O)O
SCANS=891
IONMODE=positive
COMPOUND_NAME=L-Carnosine M+H
SPECTRUM_ID=CCMSLIB00006686232
55.018902 19095.199219 
57.979198 14788.099609 
66.745003 14568.900391 
73.955101 19174.199219 
79.461098 14016.099609 
82.0532 16466.5 
83.060997 75724.898438 
92.3834 17635.599609 
95.060799 304741.0 
110.071999 6550940.0 
111.056 17568.699219 
112.086998 26425.599609 
118.658997 16978.900391 
122.070999 892242.0 
122.082001 28362.800781 
136.212997 27959.599609 
138.065994 262141.0 
146.070999 83242.5 
152.082001 505174.0 
156.076996 5228600.0 
164.082001 1191570.0 
166.098007 18211.900391 
180.057999 30588.5 
180.076996 964107.0 
181.108002 1403020.0 
182.091003 18932.099609 
192.076996 360167.0 
198.087006 300421.0 
209.102997 383310.0 
210.087006 4038510.0 
227.113998 2328080.0 
END IONS

BEGIN IONS
PRECURSOR_MZ=342.17
INCHI=InChI=1S/C20H23NO4/c1-20(2,3)25-19(23)15-11-13-10-12-6-4-8-21-9-5-7-14(16(12)21)17(13)24-18(15)22/h10-11H,4-9H2,1-3H3
SMILES=CC(C)(C)OC(=O)c1cc2cc3c4c(c2oc1=O)CCCN4CCC3
SCANS=13773
IONMODE=positive
COMPOUND_NAME=Coumarin 338 M+H
SPECTRUM_ID=CCMSLIB00006699114
60.8731 2555.0 
92.353622 3696.0 
93.036491 4405.0 
115.627151 2327.0 
157.931396 2831.0 
184.112305 10844.0 
186.089767 2948.0 
212.071594 3259.0 
212.106918 71103.0 
213.112228 48118.0 
214.085968 58815.0 
214.117859 55742.0 
240.102188 43969.0 
241.105713 136058.0 
242.113098 59032.0 
257.101532 3017.0 
258.076324 63955.0 
258.106598 5699.0 
268.096497 772751.0 
284.088409 3018.0 
285.098328 72001.0 
286.105255 571074.0 
314.068939 3656.0 
316.086273 4946.0 
342.041931 2919.0 
342.167236 102260.0 
394.529083 3229.0 
600.420959 2740.0 
END IONS

BEGIN IONS
PRECURSOR_MZ=503.077
INCHI=InChI=1S/C30H16O8/c1-7-3-9(31)19-23-15(7)16-8(2)4-10(32)20-24(16)28-26-18(12(34)6-14(36)22(26)30(20)38)17-11(33)5-13(35)21(29(19)37)25(17)27(23)28/h3-6,31-36H,1-2H3
SMILES=Cc1cc(O)c2c(=O)c3c(O)cc(O)c4c5c(O)cc(O)c6c(=O)c7c(O)cc(C)c8c1c2c(c34)c(c78)c65
SCANS=11230
IONMODE=negative
COMPOUND_NAME=hypericin M-H
SPECTRUM_ID=CCMSLIB00006696571
57.535511 2611.0 
66.216789 2811.0 
66.607826 2737.0 
72.88797 3087.0 
87.212936 3748.0 
136.210342 3103.0 
198.918701 3029.0 
213.222702 2693.0 
240.770187 3113.0 
425.664032 3778.0 
459.089203 20732.0 
461.070679 6794.0 
487.045441 17007.0 
503.077606 4392190.0 
END IONS

BEGIN IONS
PRECURSOR_MZ=377.078
INCHI=InChI=1S/C10H7NO3/c12-9-5-8(10(13)14)11-7-4-2-1-3-6(7)9/h1-5H,(H,11,12)(H,13,14)
SMILES=O=C(O)c1cc(=O)c2ccccc2[nH]1
SCANS=1858
IONMODE=negative
COMPOUND_NAME=kynurenic acid 2M-H
SPECTRUM_ID=CCMSLIB00006687199
58.239059 11721.0 
71.865028 10623.0 
82.416786 13953.0 
92.399101 14858.0 
144.045624 654424.0 
188.035461 1198542.0 
210.893372 20114.0 
END IONS

BEGIN IONS
PRECURSOR_MZ=502.187
INCHI=InChI=1S/C28H27NO5/c1-18-5-9-20(10-6-18)29-26(30)17-32-22-13-14-23-24(15-22)33-16-25(27(23)31)34-21-11-7-19(8-12-21)28(2,3)4/h5-16H,17H2,1-4H3,(H,29,30)
SMILES=Cc1ccc(NC(=O)COc2ccc3c(=O)c(Oc4ccc(C(C)(C)C)cc4)coc3c2)cc1
SCANS=20049
IONMODE=negative
COMPOUND_NAME=2-{3-[4-(tert-butyl)phenoxy]-4-oxochromen-7-yloxy}-N-(4-methylphenyl)acetamide M+formate
SPECTRUM_ID=CCMSLIB00006705390
55.824532 2487.0 
58.41111 2606.0 
66.042824 2177.0 
66.752136 2933.0 
67.956703 2462.0 
82.410789 2857.0 
91.212547 2531.0 
92.389488 3219.0 
107.051041 3186.0 
109.774246 2587.0 
135.009033 3077.0 
142.136475 2588.0 
160.015152 4103.0 
174.22522 2553.0 
176.011917 14400.0 
210.13382 3943.0 
215.781891 2717.0 
273.675415 2887.0 
281.741882 2704.0 
293.082703 41539.0 
309.113617 424278.0 
326.080658 18023.0 
349.110107 11029.0 
382.150208 3821.0 
398.175781 34141.0 
456.182526 92943.0 
END IONS

BEGIN IONS
PRECURSOR_MZ=271.06
INCHI=InChI=1S/C15H10O5/c16-10-6-5-8(7-11(10)17)15-14(19)13(18)9-3-1-2-4-12(9)20-15/h1-7,16-17,19H
SMILES=O=c1c(O)c(-c2ccc(O)c(O)c2)oc2ccccc12
SCANS=15824
IONMODE=positive
COMPOUND_NAME=3,3',4'-Trihydroxyflavone M+H
SPECTRUM_ID=CCMSLIB00006701165
53.038979 14424.0 
53.300861 2432.0 
55.01828 10385.0 
59.555729 2296.0 
65.038986 20323.0 
67.054451 4933.0 
69.565887 2553.0 
71.012787 2519.0 
72.937218 3563.0 
81.033524 12567.0 
84.959702 3206.0 
93.033592 20507.0 
95.049088 25618.0 
99.493057 2384.0 
104.30043 2691.0 
105.033447 140365.0 
109.028343 10469.0 
110.03614 5948.0 
111.448723 2610.0 
113.963303 2997.0 
115.054207 6621.0 
121.028419 467149.0 
123.043983 11223.0 
128.061768 5318.0 
131.048553 10388.0 
131.086044 9882.0 
133.028442 134770.0 
137.023392 123467.0 
137.034073 6786.0 
141.069855 102709.0 
145.064484 14348.0 
147.044052 11755.0 
149.023132 14261.0 
151.039444 27881.0 
152.061676 17911.0 
153.070267 21369.0 
159.080246 19507.0 
163.038208 5599.0 
169.064789 235633.0 
173.022842 2666.0 
173.059494 12417.0 
175.039001 13199.0 
179.048706 3745.0 
181.06427 23115.0 
187.075577 33670.0 
196.051498 3593.0 
197.059692 416065.0 
200.046295 9666.0 
201.053909 11608.0 
207.044052 28646.0 
208.390564 4528.0 
214.062775 3176.0 
215.070114 64588.0 
225.05452 195829.0 
235.039917 3695.0 
242.057129 15845.0 
243.065613 17725.0 
245.39212 4132.0 
247.895355 4852.0 
253.049637 90179.0 
256.898956 3242.0 
259.51004 2852.0 
271.059906 2012543.0 
END IONS

BEGIN IONS
PRECURSOR_MZ=869.193
INCHI=InChI=1S/C21H17N5O4S/c1-30-20(29)14-9-5-6-10-15(14)24-16(27)11-31-21-25-17-18(22-12-23-19(17)28)26(21)13-7-3-2-4-8-13/h2-10,12H,11H2,1H3,(H,24,27)(H,22,23,28)
SMILES=COC(=O)c1ccccc1N=C(O)CSc1nc2c(O)ncnc2n1-c1ccccc1
SCANS=19558
IONMODE=negative
COMPOUND_NAME=methyl 2-[2-(6-oxo-9-phenylhydropurin-8-ylthio)acetylamino]benzoate 2M-H
SPECTRUM_ID=CCMSLIB00006704899
65.014122 4046.0 
90.985977 16998.0 
92.050331 41639.0 
98.076729 3679.0 
100.880371 3183.0 
104.293297 3395.0 
136.040451 51511.0 
141.045776 45803.0 
211.062363 17949.0 
241.018906 6533.0 
242.026535 22963.0 
257.051117 16612.0 
282.773315 4102.0 
316.044647 3807.0 
434.091705 45593.0 
533.547913 3986.0 
614.517761 3921.0 
END IONS

BEGIN IONS
PRECURSOR_MZ=175.071
INCHI=InChI=1S/C6H10N2O4/c1-3(9)8-4(6(11)12)2-5(7)10/h4H,2H2,1H3,(H2,7,10)(H,8,9)(H,11,12)/t4-/m0/s1
SMILES=CC(O)=N[C@@H](CC(=N)O)C(=O)O
SCANS=24433
IONMODE=positive
COMPOUND_NAME=4033-40-3 M+H
SPECTRUM_ID=CCMSLIB00006709774
51.0271 3436.73999 
58.436901 2790.51001 
60.044899 22636.199219 
67.612099 2763.300049 
70.029404 76843.203125 
70.233902 2739.959961 
74.024399 18507.400391 
87.055801 101082.0 
88.022102 16103.299805 
88.039803 272756.0 
98.0243 5491.330078 
98.984596 11395.599609 
99.008301 12396.0 
115.050003 5248.97998 
116.033997 31734.199219 
129.888 2858.679932 
130.031998 12579.400391 
130.050003 110590.0 
133.048996 4764.02002 
133.061005 131904.0 
157.992996 4242.120117 
158.044998 175369.0 
END IONS

BEGIN IONS
PRECURSOR_MZ=383.077
INCHI=InChI=1S/C10H8O4/c1-5-9(10(12)13)7-4-6(11)2-3-8(7)14-5/h2-4,11H,1H3,(H,12,13)
SMILES=Cc1oc2ccc(O)cc2c1C(=O)O
SCANS=18404
IONMODE=negative
COMPOUND_NAME=5-hydroxy-2-methylbenzo[b]furan-3-carboxylic acid 2M-H
SPECTRUM_ID=CCMSLIB00006703745
54.37075 2203.0 
65.765327 2004.0 
65.833893 2126.0 
82.403427 2327.0 
88.346832 2332.0 
108.02179 5105.0 
118.657173 2418.0 
119.050339 3095.0 
120.474419 2282.0 
135.994492 2501.0 
136.216202 2630.0 
137.864624 2128.0 
146.037277 11198.0 
147.045303 46343.0 
161.024353 2560.0 
179.034958 17987.0 
191.035141 50724.0 
281.978302 2577.0 
337.969604 2699.0 
END IONS

BEGIN IONS
PRECURSOR_MZ=366.146
INCHI=InChI=1S/C20H21N3O4/c1-12-4-5-14(10-19(12)23(25)26)20(24)21-9-8-16-13(2)22-18-7-6-15(27-3)11-17(16)18/h4-7,10-11,22H,8-9H2,1-3H3,(H,21,24)
SMILES=COc1ccc2[nH]c(C)c(CCN=C(O)c3ccc(C)c([N+](=O)[O-])c3)c2c1
SCANS=15794
IONMODE=negative
COMPOUND_NAME=N-[2-(5-methoxy-2-methylindol-3-yl)ethyl](4-methyl-3-nitrophenyl)carboxamide M-H
SPECTRUM_ID=CCMSLIB00006701135
51.972488 2646.0 
82.40966 2638.0 
87.925339 3851.0 
103.920273 10116.0 
109.029663 10358.0 
118.029846 2833.0 
120.045967 4314.0 
121.029259 17785.0 
122.03714 11470.0 
123.94664 2823.0 
129.661591 2962.0 
134.061859 9831.0 
136.040482 22434.0 
144.045883 21879.0 
145.040894 11450.0 
145.053589 15114.0 
147.057053 3628.0 
148.026382 2434.0 
158.061111 31668.0 
159.033264 3205.0 
159.068878 10883.0 
162.056259 5942.0 
173.04805 5954.0 
174.056213 27603.0 
174.956375 5553.0 
175.050995 21044.0 
178.054504 3042.0 
179.046494 441803.0 
181.138779 2789.0 
188.035141 4120.0 
192.05484 2544.0 
224.043961 31997.0 
229.098953 3782.0 
267.837738 2695.0 
297.901184 2903.0 
351.122467 58878.0 
366.146484 1112476.0 
END IONS

BEGIN IONS
PRECURSOR_MZ=197.081
INCHI=InChI=1S/C10H12O4/c1-6(11)10-8(12)4-7(13-2)5-9(10)14-3/h4-5,12H,1-3H3
SMILES=COc1cc(O)c(C(C)=O)c(OC)c1
SCANS=2161
IONMODE=positive
COMPOUND_NAME=Xanthoxylin M+H
SPECTRUM_ID=CCMSLIB00006687502
55.018311 3755.0 
57.137829 2926.0 
63.019131 2801.0 
65.039177 4195.0 
67.054558 3170.0 
68.997467 5489.0 
73.935738 3453.0 
79.054581 7249.0 
81.033691 51463.0 
81.070023 4230.0 
91.054359 62982.0 
93.070007 33103.0 
95.049423 5920.0 
95.08567 5030.0 
103.054283 17060.0 
104.258537 3488.0 
105.033592 4885.0 
105.069893 4531.0 
108.057022 12501.0 
109.064583 26844.0 
111.08007 6599.0 
118.041733 3035.0 
119.049156 72565.0 
119.943352 4091.0 
120.056793 4473.0 
120.95034 3176.0 
121.064636 35151.0 
123.044563 6404.0 
123.080353 132319.0 
125.059334 3843.0 
133.064667 104287.0 
136.052032 32948.0 
137.059799 70608.0 
141.055771 3483.0 
147.044235 25757.0 
148.051422 6472.0 
149.060181 7201.0 
151.075363 1063678.0 
153.545227 3158.0 
155.070175 493775.0 
155.97261 3103.0 
161.059799 15047.0 
164.046661 45964.0 
167.034775 14517.0 
167.070557 24753.0 
173.521774 4677.0 
173.978775 7124.0 
177.054886 14952.0 
178.452148 4681.0 
179.070251 3495594.0 
179.6922 4540.0 
182.057632 15541.0 
196.367691 5941.0 
197.080795 5069542.0 
197.799408 5390.0 
END IONS

BEGIN IONS
PRECURSOR_MZ=253.086
INCHI=InChI=1S/C16H14O4/c1-19-16-14(18)12-4-2-3-5-13(12)20-15(16)10-6-8-11(17)9-7-10/h2-9,15-17H,1H3
SMILES=COC1C(=O)c2ccccc2OC1c1ccc(O)cc1
SCANS=15851
IONMODE=positive
COMPOUND_NAME=4'-Hydroxy-3'-methoxyflavanone M+H-H2O
SPECTRUM_ID=CCMSLIB00006701192
51.31377 2204.0 
53.039021 2779.0 
54.53941 2245.0 
56.871029 2441.0 
56.96521 2360.0 
57.92728 3113.0 
58.960911 3796.0 
60.53067 3071.0 
63.200451 2498.0 
63.51643 2085.0 
67.054901 3486.0 
68.997543 18265.0 
69.484367 2200.0 
76.521477 2435.0 
79.05452 5181.0 
81.954399 2354.0 
82.391487 2786.0 
85.00943 2368.0 
92.21347 2401.0 
94.074944 2288.0 
95.049232 12160.0 
98.984322 25880.0 
103.054314 66974.0 
104.268021 2491.0 
104.279747 2553.0 
105.033607 12014.0 
107.049507 4325.0 
123.043823 9020.0 
129.033585 76028.0 
138.821274 2336.0 
141.055191 3136.0 
151.039093 225610.0 
165.069778 21590.0 
167.085419 5878.0 
169.049973 33880.0 
171.072311 2286.0 
178.077652 2737.0 
179.085236 3001.0 
197.09584 3755.0 
210.067902 10260.0 
221.059814 4699.0 
225.091217 16388.0 
238.062439 20790.0 
251.071487 4355.0 
253.085892 1643640.0 
END IONS

BEGIN IONS
PRECURSOR_MZ=427.166
INCHI=InChI=1S/C25H22N2O2/c1-17-19(20-11-6-8-14-23(20)26-17)15-16-27-24(28)21-12-5-7-13-22(21)25(27,29)18-9-3-2-4-10-18/h2-14,26,29H,15-16H2,1H3
SMILES=Cc1[nH]c2ccccc2c1CCN1C(=O)c2ccccc2C1(O)c1ccccc1
SCANS=7124
IONMODE=negative
COMPOUND_NAME=3-hydroxy-2-[2-(2-methylindol-3-yl)ethyl]-3-phenylisoindolin-1-one M+formate
SPECTRUM_ID=CCMSLIB00006692465
82.416893 3438.0 
82.872627 2325.0 
112.986198 3205.0 
142.992447 5426.0 
146.025238 11745.0 
158.010117 2832.0 
160.04097 3732.0 
162.999496 4819.0 
168.990723 2300.0 
180.990219 10181.0 
186.109207 3166.0 
192.990295 14372.0 
202.051819 4422.0 
206.062027 13769.0 
206.19516 2555.0 
210.13446 4385.0 
224.072342 30883.0 
230.987259 2896.0 
254.985062 2862.0 
270.981903 5865.0 
292.984314 18044.0 
312.990906 2600.0 
320.978668 12687.0 
340.982025 3441.0 
342.97998 240735.0 
344.738739 2616.0 
362.985107 23864.0 
366.98114 4528.0 
381.161133 188698.0 
386.974518 13630.0 
406.974884 21977.0 
409.118591 4636.0 
426.982269 119999.0 
427.129333 10452.0 
END IONS

BEGIN IONS
PRECURSOR_MZ=413.114
INCHI=InChI=1S/C19H22N2O5S/c1-10-15(19(22)26-5)16(12(9-20)18(21-10)27-6)11-7-13(23-2)17(25-4)14(8-11)24-3/h7-8,16,21H,1-6H3
SMILES=COC(=O)C1=C(C)NC(SC)=C(C#N)C1c1cc(OC)c(OC)c(OC)c1
SCANS=7186
IONMODE=positive
COMPOUND_NAME=methyl 5-cyano-2-methyl-6-methylthio-4-(3,4,5-trimethoxyphenyl)-1,4-dihydropyr idine-3-carboxylate M+Na
SPECTRUM_ID=CCMSLIB00006692527
52.157181 3244.0 
59.111099 2866.0 
65.216751 2978.0 
88.255463 3449.0 
94.79567 3650.0 
104.290268 3706.0 
111.89949 3119.0 
178.393311 3696.0 
398.090302 48401.0 
410.957794 14175.0 
413.113373 10182644.0 
415.285492 13097.0 
415.346924 4231.0 
431.123444 78557.0 
END IONS

BEGIN IONS
PRECURSOR_MZ=361.128
INCHI=InChI=1S/C19H20O7/c1-22-11-8-14(25-4)16-15(9-11)26-19(18(21)17(16)20)10-5-6-12(23-2)13(7-10)24-3/h5-9,18-19,21H,1-4H3
SMILES=COc1cc(OC)c2c(c1)OC(c1ccc(OC)c(OC)c1)C(O)C2=O
SCANS=15474
IONMODE=positive
COMPOUND_NAME=2-(3,4-dimethoxyphenyl)-3-hydroxy-5,7-dimethoxychroman-4-one M+H
SPECTRUM_ID=CCMSLIB00006700815
53.038879 3821.0 
65.038933 13221.0 
66.046677 5750.0 
67.054367 3605.0 
68.025787 3051.0 
79.054222 14337.0 
80.026077 2950.0 
80.062172 15577.0 
82.403572 3305.0 
90.046539 3215.0 
91.054161 86952.0 
93.033333 5952.0 
93.069733 5911.0 
95.048981 16519.0 
97.064873 3268.0 
105.033119 6819.0 
106.040939 12005.0 
107.048988 143381.0 
108.05677 124117.0 
109.064667 17306.0 
109.505409 3050.0 
111.043663 7265.0 
117.472603 3648.0 
118.041069 6634.0 
118.494324 2940.0 
119.048897 6262.0 
121.028412 5875.0 
121.064583 41096.0 
122.035797 3276.0 
123.04377 11895.0 
123.080101 26907.0 
124.05188 11764.0 
125.05957 15398.0 
135.043671 55721.0 
136.051697 146599.0 
137.059494 59716.0 
138.030762 25599.0 
139.075104 16783.0 
147.043884 11972.0 
148.051605 13254.0 
149.023193 26892.0 
151.075073 2513319.0 
155.069489 42706.0 
163.038528 13626.0 
163.075638 5192.0 
164.046265 112909.0 
165.054031 6011.0 
166.026047 19409.0 
167.069794 20327.0 
168.041428 6622.0 
169.180115 2846.0 
176.045807 23144.0 
179.069641 96106.0 
180.041061 20115.0 
181.049088 543934.0 
184.036224 30402.0 
192.041214 12448.0 
195.064713 19520.0 
197.059189 5096.0 
199.059555 4952.0 
207.064651 253258.0 
211.074631 6026.0 
213.090057 6680.0 
223.058899 32006.0 
229.086411 16097.0 
239.069595 4349.0 
241.084732 23041.0 
243.101212 5317.0 
255.063705 5643.0 
257.080475 15938.0 
269.080017 96864.0 
271.095184 6909.0 
284.10379 63000.0 
285.075012 49130.0 
287.12677 193966.0 
299.090851 40278.0 
300.098938 35678.0 
301.106598 16704.0 
314.115448 22108.0 
315.121613 546977.0 
327.085968 11908.0 
343.116638 207868.0 
361.126892 173466.0 
END IONS

BEGIN IONS
PRECURSOR_MZ=348.181
INCHI=InChI=1S/C19H25NO5/c1-23-14-10-13-11-25-19(22)16(13)17(18(14)24-2)20-15(21)9-8-12-6-4-3-5-7-12/h10,12H,3-9,11H2,1-2H3,(H,20,21)
SMILES=COc1cc2c(c(N=C(O)CCC3CCCCC3)c1OC)C(=O)OC2
SCANS=16309
IONMODE=positive
COMPOUND_NAME=N-(5,6-dimethoxy-3-oxohydroisobenzofuran-4-yl)-3-cyclohexylpropanamide M+H
SPECTRUM_ID=CCMSLIB00006701650
51.215279 2929.0 
53.039009 12839.0 
55.054539 34663.0 
57.070339 4218.0 
59.273319 2910.0 
67.054527 218536.0 
69.070168 285603.0 
71.198952 3227.0 
79.054413 550068.0 
81.070038 12661.0 
83.085747 44204.0 
91.054283 32514.0 
93.069862 621266.0 
94.065033 93973.0 
95.049156 15925.0 
95.085457 132436.0 
97.064636 3714.0 
104.049477 3935.0 
104.29277 3925.0 
105.05703 3837.0 
105.069992 6844.0 
106.065086 4618.0 
107.036301 3862.0 
109.052452 3520.0 
111.116737 18990.0 
119.08532 6035.0 
120.044327 5792.0 
121.051971 18461.0 
121.101013 1014450.0 
121.567558 3496.0 
122.059792 134032.0 
123.067757 39308.0 
132.044113 4759.0 
136.039612 5784.0 
136.075348 5099.0 
139.062515 70815.0 
139.111526 91002.0 
148.038895 70783.0 
149.046524 27641.0 
150.054443 7211.0 
151.061966 23939.0 
153.041534 6544.0 
154.085907 222566.0 
160.039368 5109.0 
164.034103 13194.0 
164.07045 6635.0 
165.054672 17834.0 
166.049637 286632.0 
166.084595 32531.0 
167.057297 94325.0 
177.041733 767515.0 
180.028473 31205.0 
182.044922 48708.0 
182.060654 4628.0 
182.063858 5400.0 
182.080734 68676.0 
192.065567 31802.0 
194.04512 31612.0 
195.052277 2020404.0 
210.075714 5764864.0 
214.515411 3787.0 
348.178833 107290.0 
END IONS

BEGIN IONS
PRECURSOR_MZ=517.154
INCHI=InChI=1S/C27H24N4O5S/c1-33-21-13-18(14-22(34-2)24(21)35-3)25-30-29-23(36-25)16-37-27-28-20-12-8-7-11-19(20)26(32)31(27)15-17-9-5-4-6-10-17/h4-14H,15-16H2,1-3H3
SMILES=COc1cc(-c2nnc(CSc3nc4ccccc4c(=O)n3Cc3ccccc3)o2)cc(OC)c1OC
SCANS=7991
IONMODE=positive
COMPOUND_NAME=3-benzyl-2-{[5-(3,4,5-trimethoxyphenyl)(1,3,4-oxadiazol-2-yl)]methylthio}-3-hy droquinazolin-4-one M+H
SPECTRUM_ID=CCMSLIB00006693332
52.002251 2776.0 
53.28915 2874.0 
53.816509 3359.0 
59.264111 3135.0 
59.75235 4002.0 
65.039017 6618.0 
73.941002 5092.0 
91.054352 580972.0 
104.267601 3512.0 
112.189453 3510.0 
123.247589 3015.0 
133.064789 13272.0 
139.07547 4657.0 
150.068237 4527.0 
155.539154 3930.0 
162.067368 24597.0 
163.038452 7882.0 
165.05397 4221.0 
165.090118 4861.0 
178.061874 13930.0 
187.049118 4688.0 
191.027145 3963.0 
193.085953 138457.0 
195.065048 2132603.0 
200.045471 31532.0 
219.020355 3768.0 
249.08667 2000540.0 
268.100861 3857.0 
269.117462 12907.0 
280.106079 3704.0 
281.074188 6815.0 
285.110382 5234.0 
299.117432 4343.0 
327.133392 122083.0 
339.134796 24652.0 
393.117279 14472.0 
394.12674 33386.0 
418.032135 3774.0 
502.130341 3529.0 
517.153564 2074655.0 
529.826599 3347.0 
END IONS

BEGIN IONS
PRECURSOR_MZ=465.103
INCHI=InChI=1S/C21H20O12/c1-6-14(26)17(29)18(30)21(31-6)33-20-16(28)13-9(23)4-8(22)5-12(13)32-19(20)7-2-10(24)15(27)11(25)3-7/h2-6,14,17-18,21-27,29-30H,1H3/t6-,14-,17+,18+,21-/m0/s1
SMILES=CC1OC(Oc2c(-c3cc(O)c(O)c(O)c3)oc3cc(O)cc(O)c3c2=O)C(O)C(O)C1O
SCANS=9959
IONMODE=positive
COMPOUND_NAME=Myricitrin M+H
SPECTRUM_ID=CCMSLIB00006695300
51.21957 3044.0 
57.034 28300.0 
67.396767 2496.0 
71.049583 244052.0 
83.025932 2686.0 
85.028671 307931.0 
87.043983 2926.0 
95.362518 2533.0 
107.002388 2964.0 
118.100853 2659.0 
125.778267 2509.0 
129.054611 137796.0 
131.002289 2452.0 
142.579819 3066.0 
147.065308 35291.0 
153.017517 10429.0 
162.777802 2687.0 
165.017899 6148.0 
245.042938 3272.0 
254.261719 3041.0 
263.054474 3896.0 
273.03891 17971.0 
301.03653 4989.0 
319.044586 1537802.0 
329.026245 9232.0 
343.046387 6002.0 
361.055267 16189.0 
385.05368 5068.0 
429.079712 11065.0 
447.092255 6520.0 
465.101135 36292.0 
END IONS

BEGIN IONS
PRECURSOR_MZ=305.027
INCHI=InChI=1S/C13H11ClN4OS/c1-18-11-10(12(19)16-7-15-11)17-13(18)20-6-8-4-2-3-5-9(8)14/h2-5,7H,6H2,1H3,(H,15,16,19)
SMILES=Cn1c(SCc2ccccc2Cl)nc2c(O)ncnc21
SCANS=5937
IONMODE=negative
COMPOUND_NAME=8-[(2-chlorophenyl)methylthio]-9-methylhydropurin-6-one M-H
SPECTRUM_ID=CCMSLIB00006691278
57.975269 3346.0 
68.483879 2385.0 
69.148956 2486.0 
70.778641 2092.0 
72.117737 2422.0 
78.723083 2100.0 
85.079117 2337.0 
92.395813 3946.0 
104.30629 2870.0 
111.071404 2258.0 
146.96138 28368.0 
148.172592 2358.0 
149.046753 32580.0 
154.991379 3232.0 
174.956161 87586.0 
179.003845 9333.0 
180.011292 985364.0 
202.334534 2465.0 
220.984299 13777.0 
243.655975 2563.0 
304.918213 17008.0 
305.02713 344290.0 
END IONS

BEGIN IONS
PRECURSOR_MZ=340.168
INCHI=InChI=1S/C18H27NO3/c1-14(2)8-6-4-5-7-9-18(21)19-13-15-10-11-16(20)17(12-15)22-3/h6,8,10-12,14,20H,4-5,7,9,13H2,1-3H3,(H,19,21)/b8-6+
SMILES=COc1cc(CN=C(O)CCCCC=CC(C)C)ccc1O
SCANS=2283
IONMODE=negative
COMPOUND_NAME=Capsaicin M+Cl
SPECTRUM_ID=CCMSLIB00006687624
57.51849 2216.0 
84.823799 2489.0 
92.382553 2141.0 
109.855942 2214.0 
233.966385 2662.0 
243.878937 3848.0 
261.889771 19782.0 
289.884827 4056.0 
340.167816 2854.0 
END IONS

BEGIN IONS
PRECURSOR_MZ=352.087
INCHI=InChI=1S/C17H15N5O2S/c1-10-12(20-16(24-10)11-6-4-3-5-7-11)8-25-17-21-13-14(22(17)2)18-9-19-15(13)23/h3-7,9H,8H2,1-2H3,(H,18,19,23)
SMILES=Cc1oc(-c2ccccc2)nc1CSc1nc2c(O)ncnc2n1C
SCANS=4848
IONMODE=negative
COMPOUND_NAME=9-methyl-8-[(5-methyl-2-phenyl(1,3-oxazol-4-yl))methylthio]hydropurin-6-one M-H
SPECTRUM_ID=CCMSLIB00006690189
104.305107 2612.0 
147.03096 2616.0 
149.047134 28904.0 
157.967422 2841.0 
168.876663 2906.0 
179.002716 28752.0 
180.011246 1532092.0 
181.019012 204850.0 
181.037582 3746.0 
241.667343 2413.0 
292.754883 2582.0 
303.219666 2325.0 
313.505524 2475.0 
352.087402 395509.0 
END IONS

BEGIN IONS
PRECURSOR_MZ=255.232
INCHI=InChI=1S/C16H32O3/c17-15-13-11-9-7-5-3-1-2-4-6-8-10-12-14-16(18)19/h17H,1-15H2,(H,18,19)
SMILES=O=C(O)CCCCCCCCCCCCCCCO
SCANS=20313
IONMODE=positive
COMPOUND_NAME=16-Hydroxyhexadecanoic acid M+H-H2O
SPECTRUM_ID=CCMSLIB00006705654
53.03912 2863.0 
55.018242 3485.0 
55.054729 132015.0 
55.0578 5434.0 
57.033852 9884.0 
57.070358 138721.0 
67.054626 67540.0 
69.033569 3443.0 
69.070267 209427.0 
71.049507 11572.0 
71.08181 4071.0 
71.085876 78916.0 
73.065453 6980.0 
79.054497 42663.0 
81.070137 102888.0 
83.049377 15359.0 
83.0858 129409.0 
85.064713 9186.0 
85.101509 34578.0 
91.054413 5736.0 
93.07003 73954.0 
95.085587 84845.0 
97.064789 48935.0 
97.101227 70150.0 
99.07991 4337.0 
101.059273 2780.0 
101.095947 3224.0 
107.085602 57805.0 
109.101112 41185.0 
111.080544 30457.0 
111.11631 20251.0 
115.075333 14109.0 
121.101112 55230.0 
123.116592 25529.0 
125.096191 30431.0 
125.132629 3088.0 
129.090775 14705.0 
135.116959 48628.0 
137.132339 12046.0 
139.111496 31129.0 
143.106506 9147.0 
149.132538 43150.0 
153.127151 26942.0 
157.122192 3328.0 
163.147964 34771.0 
167.143494 21462.0 
171.13858 3248.0 
177.163818 12038.0 
181.158768 11622.0 
195.210983 3238.0 
219.210632 108934.0 
237.22113 67385.0 
255.233124 3844.0 
END IONS

BEGIN IONS
PRECURSOR_MZ=335.1
INCHI=InChI=1S/C17H16N2O4/c1-21-14-8-12(9-15(22-2)16(14)23-3)17(20)19-13-6-4-5-11(7-13)10-18/h4-9H,1-3H3,(H,19,20)
SMILES=COc1cc(C(O)=Nc2cccc(C#N)c2)cc(OC)c1OC
SCANS=15001
IONMODE=positive
COMPOUND_NAME=N-(3-cyanophenyl)(3,4,5-trimethoxyphenyl)carboxamide M+Na
SPECTRUM_ID=CCMSLIB00006700342
64.979378 2098.0 
66.729477 2156.0 
73.954338 2040.0 
78.497238 1982.0 
82.401382 2790.0 
83.442802 2037.0 
83.917923 2041.0 
104.286217 2386.0 
209.642624 3799.0 
209.661865 3554.0 
245.845032 2368.0 
331.226318 2424.0 
335.097046 41199.0 
335.137604 3525.0 
335.179932 28112.0 
END IONS

BEGIN IONS
PRECURSOR_MZ=223.047
INCHI=InChI=1S/C8H8N4O4/c1-11-6-5(7(15)10-8(11)16)12(3-9-6)2-4(13)14/h3H,2H2,1H3,(H,13,14)(H,10,15,16)
SMILES=Cn1c(=O)nc(O)c2c1ncn2CC(=O)O
SCANS=12039
IONMODE=negative
COMPOUND_NAME=2-(3-methyl-2,6-dioxo-1,3,7-trihydropurin-7-yl)acetic acid M-H
SPECTRUM_ID=CCMSLIB00006697380
56.79211 2364.0 
66.758972 3327.0 
69.680603 2603.0 
70.587143 2429.0 
73.972107 2744.0 
76.045563 2239.0 
89.169937 2827.0 
95.02478 3613.0 
96.583504 2684.0 
97.004257 4832.0 
108.056717 4974.0 
109.902893 2558.0 
111.020767 3777.0 
118.682022 2778.0 
122.035942 2644409.0 
122.389877 2950.0 
123.007729 5032.0 
126.030907 5578.0 
136.051636 53370.0 
137.975723 2830.0 
138.030609 55349.0 
154.025665 598494.0 
156.041321 14545.0 
165.04155 557791.0 
179.057266 686144.0 
181.036011 27001.0 
223.047089 375465.0 
END IONS

BEGIN IONS
PRECURSOR_MZ=303.06
INCHI=InChI=1S/C5H4N4O2/c10-4-2-3(7-1-6-2)8-5(11)9-4/h1H,(H3,6,7,8,9,10,11)
SMILES=Oc1nc(O)c2nc[nH]c2n1
SCANS=265
IONMODE=negative
COMPOUND_NAME=xanthine 2M-H
SPECTRUM_ID=CCMSLIB00006685606
55.597198 1930.089966 
59.544998 1945.97998 
92.383598 2179.350098 
104.287003 2454.939941 
118.658997 3018.399902 
128.339005 2636.070068 
129.789993 2488.449951 
151.026001 3509.47998 
157.975998 3570.649902 
181.373993 2088.639893 
197.509995 2197.919922 
198.962997 2133.879883 
214.718002 2392.800049 
248.973999 4046.139893 
297.618011 2271.070068 
299.519012 2105.02002 
302.928009 5224.410156 
END IONS

BEGIN IONS
PRECURSOR_MZ=237.091
INCHI=InChI=1S/C16H12O2/c1-11-6-8-12(9-7-11)16-10-14(17)13-4-2-3-5-15(13)18-16/h2-10H,1H3
SMILES=Cc1ccc(-c2cc(=O)c3ccccc3o2)cc1
SCANS=12509
IONMODE=positive
COMPOUND_NAME=4'-Methylflavone M+H
SPECTRUM_ID=CCMSLIB00006697850
51.023109 4237.0 
51.616051 2532.0 
53.039021 62388.0 
55.018108 5814.0 
55.934769 40272.0 
59.132568 2434.0 
61.010948 7373.0 
65.03894 52665.0 
68.997276 13886.0 
72.937157 5763.0 
79.021263 3372.0 
81.033531 5269.0 
90.947403 4556.0 
91.054199 41213.0 
93.027031 3752.0 
93.033493 85360.0 
95.049088 191613.0 
104.262367 3239.0 
105.044456 5228.0 
106.924828 3001.0 
111.043793 36813.0 
115.054047 79472.0 
116.062233 4493.0 
117.069702 313409.0 
118.924583 5596.0 
119.049118 54312.0 
121.028267 410948.0 
139.038879 54342.0 
141.069687 5622.0 
143.049057 202789.0 
152.061554 4394.0 
153.06929 6102.0 
165.069717 71055.0 
166.077591 166791.0 
167.085693 6702.0 
177.069077 3188.0 
178.077393 230634.0 
179.084915 14274.0 
181.101044 114656.0 
183.911194 28609.0 
185.928772 3420.0 
186.93544 3906.0 
189.068573 3099.0 
190.077484 5339.0 
191.085693 42246.0 
192.092377 6562.0 
193.100632 11705.0 
194.072632 54477.0 
195.080032 21677.0 
195.947678 15824.0 
201.922562 20753.0 
203.938141 19573.0 
208.088058 3610.0 
209.095734 19195.0 
213.922546 44549.0 
219.933228 4702.0 
222.066742 16739.0 
231.933823 6852.0 
236.082718 16785.0 
236.150696 6559.0 
237.09053 6474503.0 
238.035355 9319.0 
245.230896 3503.0 
END IONS

BEGIN IONS
PRECURSOR_MZ=476.196
INCHI=InChI=1S/C25H28FN3O4/c1-3-32-21-8-9-23-22(15-21)18(14-25(31)33-23)16-28-10-12-29(13-11-28)17-24(30)27(2)20-6-4-19(26)5-7-20/h4-9,14-15H,3,10-13,16-17H2,1-2H3
SMILES=CCOc1ccc2oc(=O)cc(CN3CCN(CC(=O)N(C)c4ccc(F)cc4)CC3)c2c1
SCANS=3178
IONMODE=positive
COMPOUND_NAME=2-{4-[(6-ethoxy-2-oxochromen-4-yl)methyl]piperazinyl}-N-(4-fluorophenyl)-N-met hylacetamide M+Na
SPECTRUM_ID=CCMSLIB00006688519
58.191952 3164.0 
81.193451 2892.0 
82.404602 3724.0 
86.526619 2919.0 
92.387154 3507.0 
97.008591 2563.0 
97.106216 2947.0 
102.794144 2919.0 
118.665466 3007.0 
153.762299 2889.0 
161.9254 3327.0 
192.567398 3250.0 
210.112518 3488.0 
210.133377 4896.0 
267.444397 3223.0 
272.11618 35698.0 
326.338043 3157.0 
365.105927 3460.0 
420.936249 3665.0 
476.194824 4811618.0 
478.889648 4371.0 
494.120361 5768.0 
END IONS

BEGIN IONS
PRECURSOR_MZ=287.055
INCHI=InChI=1S/C10H12N4O4/c15-2-6-7(16)8(17)10(18-6)14-4-13-5-1-11-3-12-9(5)14/h1,3-4,6-8,10,15-17H,2H2
SMILES=OCC1OC(n2cnc3cncnc32)C(O)C1O
SCANS=22920
IONMODE=negative
COMPOUND_NAME=Nebularin (E) M+Cl
SPECTRUM_ID=CCMSLIB00006708261
53.18539 1903.0 
53.972939 2256.0 
55.457211 2193.0 
57.116829 1886.0 
71.975456 2167.0 
82.39341 2733.0 
90.258377 2077.0 
104.280357 2175.0 
119.036568 23133.0 
185.390671 2117.0 
212.946426 2480.0 
230.923691 4101.0 
258.916534 2273.0 
269.633026 2141.0 
287.055206 3953.0 
END IONS

BEGIN IONS
PRECURSOR_MZ=293.034
INCHI=InChI=1S/C16H11ClO2/c1-10-2-7-15-13(8-10)14(18)9-16(19-15)11-3-5-12(17)6-4-11/h2-9H,1H3
SMILES=Cc1ccc2oc(-c3ccc(Cl)cc3)cc(=O)c2c1
SCANS=1754
IONMODE=positive
COMPOUND_NAME=2-(4-chlorophenyl)-6-methylchromen-4-one M+Na
SPECTRUM_ID=CCMSLIB00006687095
51.804039 2323.0 
66.741081 2016.0 
69.670174 2297.0 
92.373848 2627.0 
105.756729 2278.0 
118.031197 2304.0 
151.286758 2154.0 
163.317245 2562.0 
219.176163 2303.0 
232.927765 9806.0 
248.866547 2767.0 
250.937469 5431.0 
293.033691 253531.0 
293.172913 10258.0 
293.209106 20521.0 
311.042755 14517.0 
END IONS

BEGIN IONS
PRECURSOR_MZ=429.3
INCHI=InChI=1S/C27H40O4/c1-5-6-7-8-24(30)31-27(18(2)28)16-13-23-21-10-9-19-17-20(29)11-14-25(19,3)22(21)12-15-26(23,27)4/h17,21-23H,5-16H2,1-4H3/t21-,22+,23+,25+,26+,27+/m1/s1
SMILES=CCCCCC(=O)OC1(C(C)=O)CCC2C3CCC4=CC(=O)CCC4(C)C3CCC21C
SCANS=5801
IONMODE=positive
COMPOUND_NAME=HYDROXYPROGESTERONE CAPROATE M+H
SPECTRUM_ID=CCMSLIB00006691142
52.903702 3556.0 
55.054691 4218.0 
67.054466 14193.0 
69.07019 4240.0 
71.049927 3642.0 
71.085823 211851.0 
73.94017 3424.0 
79.054466 23514.0 
81.070068 40427.0 
83.049347 89155.0 
85.064873 5686.0 
91.054199 7888.0 
92.358063 3951.0 
93.069931 30224.0 
95.08548 82370.0 
97.064774 598278.0 
98.177643 3635.0 
99.080383 187649.0 
105.069572 29524.0 
107.085213 31660.0 
109.06472 463485.0 
109.100838 19511.0 
111.080307 78485.0 
119.085281 48658.0 
119.746887 3447.0 
121.064774 33243.0 
121.101273 32038.0 
123.080238 92000.0 
129.070236 4678.0 
131.084946 34863.0 
132.342102 3923.0 
133.063782 3878.0 
133.101196 47805.0 
135.080338 5967.0 
135.116516 16921.0 
137.095596 8067.0 
141.069031 3632.0 
143.085464 38040.0 
145.100983 112718.0 
147.080734 6519.0 
147.116653 91122.0 
149.095322 17791.0 
149.131989 14839.0 
151.111832 5275.0 
155.085526 8013.0 
157.100983 46359.0 
159.116623 83021.0 
161.095871 15107.0 
161.132172 38424.0 
163.111496 47921.0 
163.147934 16569.0 
169.101074 33109.0 
171.116501 107317.0 
173.095596 13507.0 
173.132202 87977.0 
175.111969 27379.0 
175.148071 122860.0 
175.164597 4478.0 
177.127182 37778.0 
181.10051 6622.0 
183.116394 40358.0 
185.131897 41414.0 
187.111572 6273.0 
187.148102 74311.0 
189.126968 21305.0 
189.163742 21812.0 
191.142639 14501.0 
195.116318 16491.0 
197.132126 60485.0 
199.111984 6091.0 
199.147491 48260.0 
201.127213 7736.0 
201.163132 4771.0 
203.142868 26421.0 
205.1586 86447.0 
207.115433 5787.0 
209.131775 14333.0 
209.695435 6322.0 
211.147736 76392.0 
213.128021 28900.0 
213.163422 95435.0 
215.142609 12969.0 
217.15831 34855.0 
221.133667 5973.0 
223.148026 6959.0 
225.127533 4527.0 
225.162888 17984.0 
227.142593 12379.0 
227.179459 7126.0 
229.158203 21904.0 
231.173553 67293.0 
235.147308 12111.0 
237.163467 52848.0 
239.142929 7986.0 
241.156952 8188.0 
251.180405 34093.0 
252.187347 32652.0 
253.16217 12442.0 
253.194534 288417.0 
255.174484 34660.0 
267.173584 12702.0 
267.20813 4704.0 
269.158875 5544.0 
269.189636 112980.0 
270.197174 36133.0 
271.205109 882751.0 
277.193604 48778.0 
285.187622 4168.0 
291.935028 3920.0 
295.204956 289375.0 
297.185303 3578.0 
313.215576 2881902.0 
331.0578 4846.0 
331.222229 5337.0 
354.24292 5217.0 
387.289185 16552.0 
402.198853 3720.0 
429.299316 2405663.0 
END IONS

BEGIN IONS
PRECURSOR_MZ=260.031
INCHI=InChI=1S/C11H7N3O5/c15-9-8(10(16)13-11(17)12-9)5-6-1-3-7(4-2-6)14(18)19/h1-5H,(H2,12,13,15,16,17)
SMILES=O=C1N=C(O)C(=Cc2ccc([N+](=O)[O-])cc2)C(O)=N1
SCANS=23309
IONMODE=negative
COMPOUND_NAME=5-[(4-nitrophenyl)methylene]-1,3-dihydropyrimidine-2,4,6-trione M-H
SPECTRUM_ID=CCMSLIB00006708650
58.583721 2005.0 
61.987961 14486.0 
77.508591 2492.0 
88.213089 2078.0 
89.03524 2204.0 
99.925667 4596.0 
130.57692 2259.0 
161.036163 2637.0 
191.94574 9344.0 
217.025085 131133.0 
260.031006 99929.0 
END IONS

BEGIN IONS
PRECURSOR_MZ=196.073
INCHI=InChI=1S/C11H11NO/c1-8-7-11(13)12(2)10-6-4-3-5-9(8)10/h3-7H,1-2H3
SMILES=Cc1cc(=O)n(C)c2ccccc12
SCANS=12615
IONMODE=positive
COMPOUND_NAME=1,4-dimethylhydroquinolin-2-one M+Na
SPECTRUM_ID=CCMSLIB00006697956
51.94054 13427.0 
53.37775 1969.0 
61.773571 2228.0 
67.935417 4850.0 
72.937553 30792.0 
82.396217 2012.0 
83.217133 2024.0 
83.930321 16750.0 
84.938026 2932.0 
84.960167 2228.0 
90.947891 9756.0 
96.099037 1963.0 
101.940536 3766.0 
102.94799 11078.0 
104.20356 2554.0 
113.963707 65144.0 
117.935532 8293.0 
118.943207 11774.0 
119.518333 1909.0 
119.95108 13949.0 
125.963799 15091.0 
131.951172 10103.0 
131.974197 18246.0 
140.951279 13043.0 
142.967377 3464.0 
143.974609 3814.0 
149.961304 14195.0 
153.960098 3271.0 
154.990891 8473.0 
155.974594 9100.0 
169.10524 2123.0 
170.462402 2481.0 
172.977524 20573.0 
178.990356 3786.0 
190.987015 2842.0 
192.753876 1984.0 
196.073318 46501.0 
196.092102 3526.0 
214.677597 2162.0 
221.005966 2046.0 
278.421967 2262.0 
END IONS

BEGIN IONS
PRECURSOR_MZ=224.092
INCHI=InChI=1S/C11H13NO4/c13-10(14)6-9(11(15)16)12-7-8-4-2-1-3-5-8/h1-5,9,12H,6-7H2,(H,13,14)(H,15,16)
SMILES=O=C(O)CC(NCc1ccccc1)C(=O)O
SCANS=21702
IONMODE=positive
COMPOUND_NAME=2-[benzylamino]butanedioic acid M+H
SPECTRUM_ID=CCMSLIB00006707043
51.02356 13637.0 
62.015469 5908.0 
63.023418 24930.0 
65.039017 416885.0 
88.039597 38890.0 
89.039047 11693.0 
90.046799 13717.0 
91.054413 32281176.0 
91.27906 7955.0 
102.948853 7545.0 
118.674767 6962.0 
132.028656 28328.0 
132.958694 6556.0 
155.974503 24007.0 
164.070312 107415.0 
177.955719 12362.0 
178.086044 123740.0 
200.972092 15228.0 
210.011612 12421.0 
224.091537 2252389.0 
225.042175 7642.0 
226.043335 173438.0 
228.021744 48278.0 
232.625366 6971.0 
END IONS

BEGIN IONS
PRECURSOR_MZ=426.202
INCHI=InChI=1S/C23H27N3O5/c1-14(2)26(13-20-24-22(25-31-20)16-9-7-8-15(3)10-16)23(27)17-11-18(28-4)21(30-6)19(12-17)29-5/h7-12,14H,13H2,1-6H3
SMILES=COc1cc(C(=O)N(Cc2nc(-c3cccc(C)c3)no2)C(C)C)cc(OC)c1OC
SCANS=3398
IONMODE=positive
COMPOUND_NAME=N-(methylethyl)-N-{[3-(3-methylphenyl)(1,2,4-oxadiazol-5-yl)]methyl}(3,4,5-tri methoxyphenyl)carboxamide M+H
SPECTRUM_ID=CCMSLIB00006688739
50.834579 2993.0 
74.949158 2854.0 
75.157692 2517.0 
79.054626 16529.0 
81.033752 5293.0 
81.070198 6850.0 
109.064919 15803.0 
113.022888 4777.0 
118.633812 3657.0 
122.036652 12597.0 
124.051987 19475.0 
128.046677 17829.0 
131.946091 3095.0 
136.194016 3397.0 
139.075699 41584.0 
141.018417 14969.0 
143.071014 3842.0 
151.039719 3143.0 
152.046967 56660.0 
156.042068 27952.0 
184.037491 4315.0 
185.080978 4811.0 
195.065475 4072120.0 
196.067764 4841.0 
309.145782 4384.0 
323.62149 3351.0 
327.134949 3838.0 
426.201263 99960.0 
END IONS

BEGIN IONS
PRECURSOR_MZ=336.178
INCHI=InChI=1S/C16H27NO5/c1-10(2)16(20,11(3)21-4)15(19)22-9-12-5-7-17-8-6-13(18)14(12)17/h5,10-11,13-14,18,20H,6-9H2,1-4H3/t11?,13-,14+,16?/m0/s1
SMILES=COC(C)C(O)(C(=O)OCC1=CCN2CCC(O)C12)C(C)C
SCANS=13158
IONMODE=positive
COMPOUND_NAME=HELIOTRINE M+Na
SPECTRUM_ID=CCMSLIB00006698499
64.154694 2968.0 
64.974876 2997.0 
67.042 4419.0 
80.049698 18140.0 
81.05735 4787.0 
82.065353 87380.0 
89.762444 2543.0 
94.065109 164089.0 
96.080757 135595.0 
101.848419 2747.0 
101.950073 5170.0 
104.268646 3183.0 
106.582741 2898.0 
110.059868 21297.0 
120.080673 75868.0 
136.075745 15185.0 
138.091248 754963.0 
153.088562 13959.0 
160.073059 3174.0 
178.082718 4049.0 
197.973557 3863.0 
199.093842 170026.0 
257.976288 5043.0 
294.919312 2965.0 
336.177521 3599149.0 
END IONS

BEGIN IONS
PRECURSOR_MZ=635.068
INCHI=InChI=1S/C15H10O8/c16-6-3-7(17)11-10(4-6)23-15(14(22)13(11)21)5-1-8(18)12(20)9(19)2-5/h1-4,16-20,22H
SMILES=O=c1c(O)c(-c2cc(O)c(O)c(O)c2)oc2cc(O)cc(O)c12
SCANS=5786
IONMODE=negative
COMPOUND_NAME=myricetin 2M-H
SPECTRUM_ID=CCMSLIB00006691127
50.868629 2862.0 
66.752289 3128.0 
70.114807 2896.0 
92.390938 4404.0 
118.665421 3097.0 
127.98848 3705.0 
136.634506 3236.0 
137.024612 16523.0 
151.003464 25273.0 
158.996933 3148.0 
178.99881 33700.0 
212.104156 5241.0 
317.030273 318729.0 
END IONS

BEGIN IONS
PRECURSOR_MZ=400.27
INCHI=InChI=1S/C21H39NO6/c1-2-3-4-10-13-17(24)14-11-8-6-5-7-9-12-15-18(25)19(26)21(22,16-23)20(27)28/h9,12,18-19,23,25-26H,2-8,10-11,13-16,22H2,1H3,(H,27,28)/b12-9+/t18-,19+,21+/m1/s1
SMILES=CCCCCCC(=O)CCCCCCC=CCC(O)C(O)C(N)(CO)C(=O)O
SCANS=18854
IONMODE=negative
COMPOUND_NAME=Myriocin M-H
SPECTRUM_ID=CCMSLIB00006704195
58.005539 3652.0 
59.17469 2270.0 
64.641731 2274.0 
66.745041 3316.0 
68.863892 3058.0 
69.281227 2349.0 
72.008881 65485.0 
74.024544 57751.0 
86.024658 294270.0 
104.035423 329449.0 
127.112617 5009.0 
190.524139 2638.0 
208.043579 2449.0 
214.307037 2957.0 
250.403824 2291.0 
295.22818 14185.0 
334.239227 45259.0 
352.249634 10034.0 
370.259521 4206.0 
373.639221 2669.0 
381.825165 3911.0 
400.270844 239336.0 
END IONS

BEGIN IONS
PRECURSOR_MZ=214.056
INCHI=InChI=1S/C7H11N3O2/c1-10-4-9-3-5(10)2-6(8)7(11)12/h3-4,6H,2,8H2,1H3,(H,11,12)/t6-/m0/s1
SMILES=Cn1cncc1C[C@H](N)C(=O)O
SCANS=800
IONMODE=positive
COMPOUND_NAME=3-Methyl-L-histidine M-H+2Na
SPECTRUM_ID=CCMSLIB00006686141
57.070599 2298.26001 
59.673901 2322.280029 
62.9823 13177.5 
69.441597 2196.879883 
73.961998 2286.159912 
78.2519 2296.810059 
85.5541 2031.290039 
92.389297 3036.73999 
117.987 19605.5 
129.820999 2264.51001 
146.069 17455.300781 
168.052002 4674.209961 
214.056 1071770.0 
214.251999 174849.0 
END IONS

BEGIN IONS
PRECURSOR_MZ=152.072
INCHI=InChI=1S/C8H11NO2/c9-5-8(11)6-1-3-7(10)4-2-6/h1-4,8,10-11H,5,9H2/t8-/m0/s1
SMILES=NC[C@H](O)c1ccc(O)cc1
SCANS=182
IONMODE=negative
COMPOUND_NAME=dl-Octopamine M-H
SPECTRUM_ID=CCMSLIB00006685523
79.9571 128488.0 
80.123398 2550.26001 
80.964996 16974.599609 
83.251999 3242.01001 
85.136803 2373.360107 
91.055603 2491.459961 
93.034897 10003.0 
104.323997 3425.209961 
106.029999 9646.230469 
106.042 16311.200195 
107.050003 53738.898438 
108.022003 20785.199219 
108.044998 3731.830078 
116.806999 2270.219971 
118.702003 2526.879883 
122.349998 2219.060059 
123.044998 4151.419922 
124.016998 5202.600098 
130.475998 2138.939941 
132.046005 4343.120117 
133.052994 14214.400391 
134.061005 1395740.0 
138.031998 5560.569824 
151.873993 66938.898438 
152.039001 374723.0 
152.070999 27887.900391 
END IONS

BEGIN IONS
PRECURSOR_MZ=399.116
INCHI=InChI=1S/C16H22N4O4S2/c1-26(23,24)12-2-3-13-14(10-12)25-16(17-13)18-15(22)11-20-6-4-19(5-7-20)8-9-21/h2-3,10,21H,4-9,11H2,1H3,(H,17,18,22)
SMILES=CS(=O)(=O)c1ccc2nc(N=C(O)CN3CCN(CCO)CC3)sc2c1
SCANS=18259
IONMODE=positive
COMPOUND_NAME=2-[4-(2-hydroxyethyl)piperazinyl]-N-[6-(methylsulfonyl)benzothiazol-2-yl]aceta mide M+H
SPECTRUM_ID=CCMSLIB00006703600
51.97871 6637.0 
56.04987 250613.0 
57.057812 11599.0 
58.065552 359410.0 
68.049599 28234.0 
69.033867 11788.0 
70.065407 7346860.0 
72.044563 92019.0 
72.080978 108800.0 
82.065323 179174.0 
83.060677 84314.0 
84.080963 48890.0 
85.075912 8105.0 
86.060303 130759.0 
88.075439 12339.0 
94.065353 11848.0 
97.076019 345731.0 
98.083794 5002447.0 
99.09182 71812.0 
100.075577 6900555.0 
112.075218 23460.0 
112.099411 179622.0 
113.107147 559853.0 
125.106979 38147.0 
128.094147 641606.0 
141.102219 71109.0 
142.108856 8562.0 
143.117661 12907006.0 
154.665726 7940.0 
171.112396 1283500.0 
182.013412 34837.0 
229.009399 247891.0 
241.008942 38084.0 
320.131653 13669.0 
335.502594 6924.0 
399.114502 7956390.0 
400.210907 6665.0 
END IONS

BEGIN IONS
PRECURSOR_MZ=269.082
INCHI=InChI=1S/C16H14O4/c1-20-16-5-3-2-4-11(16)6-9-14(18)13-8-7-12(17)10-15(13)19/h2-10,17,19H,1H3/b9-6+
SMILES=COc1ccccc1C=CC(=O)c1ccc(O)cc1O
SCANS=5491
IONMODE=negative
COMPOUND_NAME=2',4'-Dihydroxy-2-methoxychalcone M-H
SPECTRUM_ID=CCMSLIB00006690832
52.83955 2513.0 
53.253288 2473.0 
66.756287 3327.0 
68.998047 4823.0 
73.967598 3622.0 
79.018929 4988.0 
79.684898 2745.0 
80.026337 2915.0 
80.78463 2503.0 
90.558113 2617.0 
91.018806 31389.0 
95.013649 5657.0 
107.013847 153747.0 
108.02169 85561.0 
109.029243 17376.0 
117.034126 3382.0 
123.008873 49648.0 
123.045303 2848.0 
124.016617 2976.0 
135.008682 85193.0 
136.016464 325084.0 
148.016846 22098.0 
153.019379 24589.0 
158.002045 3030.0 
161.024521 41396.0 
180.006271 13877.0 
182.986237 3790.0 
185.426605 2886.0 
193.065887 21783.0 
195.045944 9943.0 
200.880569 25044.0 
209.060837 10395.0 
213.056137 11658.0 
225.091064 5733.0 
227.070724 29688.0 
237.055542 112571.0 
253.050079 9964.0 
254.057999 6500.0 
268.989197 79871.0 
269.08197 4260827.0 
END IONS

BEGIN IONS
PRECURSOR_MZ=292.134
INCHI=InChI=1S/C19H19NO2/c1-2-3-11-16-18(21)15-12-7-8-13-17(15)20(19(16)22)14-9-5-4-6-10-14/h4-10,12-13,21H,2-3,11H2,1H3
SMILES=CCCCc1c(O)c2ccccc2n(-c2ccccc2)c1=O
SCANS=1368
IONMODE=negative
COMPOUND_NAME=3-butyl-4-hydroxy-1-phenylhydroquinolin-2-one M-H
SPECTRUM_ID=CCMSLIB00006686709
59.500992 2522.0 
60.039459 2557.0 
60.536018 2358.0 
89.000618 2442.0 
91.325958 2700.0 
91.818977 2184.0 
93.034576 4250.0 
98.286774 2703.0 
117.96376 2201.0 
123.269043 2569.0 
157.961899 3049.0 
205.089493 14692.0 
205.99646 2587.0 
212.428879 3013.0 
216.103363 4306.0 
248.145157 2858.0 
249.080353 5108.0 
281.069733 88250.0 
292.134766 2466859.0 
END IONS

BEGIN IONS
PRECURSOR_MZ=464.28
INCHI=InChI=1S/C29H37NO4/c1-18-6-7-23(8-19(18)2)29-14-20-9-21(15-29)13-28(12-20,16-29)17-30-27(31)22-10-24(32-3)26(34-5)25(11-22)33-4/h6-8,10-11,20-21H,9,12-17H2,1-5H3,(H,30,31)
SMILES=COc1cc(C(O)=NCC23CC4CC(C2)CC(c2ccc(C)c(C)c2)(C4)C3)cc(OC)c1OC
SCANS=6698
IONMODE=positive
COMPOUND_NAME=N-{[3-(3,4-dimethylphenyl)adamantanyl]methyl}(3,4,5-trimethoxyphenyl)carboxami de M+H
SPECTRUM_ID=CCMSLIB00006692039
67.054657 6521.0 
79.054337 19128.0 
81.070099 31668.0 
91.054169 40624.0 
92.387703 4932.0 
93.069839 51922.0 
95.085533 62196.0 
97.100754 3784.0 
105.069809 97529.0 
107.085617 31887.0 
109.064659 25170.0 
109.101097 6280.0 
119.085419 574785.0 
121.101196 45238.0 
121.228172 2974.0 
133.101074 77338.0 
137.059616 25857.0 
138.067398 17500.0 
145.101013 63104.0 
145.809235 3042.0 
147.116608 94965.0 
153.054352 4647.0 
154.062241 697270.0 
157.100876 63444.0 
159.116531 32365.0 
169.085739 375586.0 
169.100418 21261.0 
171.11644 64668.0 
173.13266 6580.0 
183.115997 43134.0 
185.132034 14571.0 
190.122162 31942.0 
195.064972 226696.0 
197.132126 70765.0 
211.148575 14064.0 
212.090851 34719.0 
225.164459 6383.0 
239.179474 3454.0 
253.194336 101191.0 
271.011383 3177.0 
389.748749 4244.0 
423.407166 3990.0 
449.25885 15900.0 
464.278687 5233866.0 
END IONS

BEGIN IONS
PRECURSOR_MZ=540.178
INCHI=InChI=1S/C29H25N3O5/c33-27(30-21-9-10-25-26(15-21)37-14-13-36-25)18-32-24-8-4-3-7-22(24)23(16-28(32)34)29(35)31-12-11-19-5-1-2-6-20(19)17-31/h1-10,15-16H,11-14,17-18H2,(H,30,33)
SMILES=O=C(c1cc(=O)n(CC(O)=Nc2ccc3c(c2)OCCO3)c2ccccc12)N1CCc2ccccc2C1
SCANS=23348
IONMODE=negative
COMPOUND_NAME=N-(2H,3H-benzo[3,4-e]1,4-dioxin-6-yl)-2-[2-oxo-4-(2-1,2,3,4-tetrahydroisoquino lylcarbonyl)hydroquinolyl]acetamide M+formate
SPECTRUM_ID=CCMSLIB00006708689
50.122421 2377.0 
80.70388 2376.0 
87.181 3038.0 
87.246902 2487.0 
97.960159 2693.0 
99.490021 2533.0 
139.047363 2485.0 
144.046249 3154.0 
158.061462 13271.0 
160.380981 2852.0 
185.414276 3062.0 
186.056015 3884.0 
195.550186 2711.0 
212.94072 2521.0 
215.43811 2418.0 
247.330887 2764.0 
303.115753 3947.0 
306.183105 3244.0 
328.960846 2650.0 
372.864044 2902.0 
494.172546 43845.0 
END IONS

BEGIN IONS
PRECURSOR_MZ=607.205
INCHI=InChI=1S/C15H16N2O5/c18-13(5-6-14(19)20)17-12(15(21)22)7-9-8-16-11-4-2-1-3-10(9)11/h1-4,8,12,16H,5-7H2,(H,17,18)(H,19,20)(H,21,22)
SMILES=O=C(O)CCC(O)=NC(Cc1c[nH]c2ccccc12)C(=O)O
SCANS=10757
IONMODE=negative
COMPOUND_NAME=2-(3-carboxypropanoylamino)-3-indol-3-ylpropanoic acid 2M-H
SPECTRUM_ID=CCMSLIB00006696098
57.799358 2808.0 
71.660454 2750.0 
75.859848 2775.0 
92.379333 3219.0 
98.024803 64139.0 
111.032478 3584.0 
112.040489 3115.0 
116.050926 22012.0 
136.207184 3158.0 
138.379211 2530.0 
142.066345 12070.0 
156.030411 5721.0 
159.092438 5980.0 
186.056107 12455.0 
197.108459 23977.0 
203.082916 182135.0 
204.852905 3255.0 
223.087692 38383.0 
238.024948 3221.0 
241.098495 12704.0 
279.270721 2867.0 
285.088379 149058.0 
303.098999 422415.0 
348.718475 2880.0 
522.900024 3422.0 
607.205444 4566.0 
END IONS

BEGIN IONS
PRECURSOR_MZ=361.163
INCHI=InChI=1S/C16H22N6O4/c17-14(24)12-2-1-5-22(12)16(26)11(6-9-7-18-8-19-9)21-15(25)10-3-4-13(23)20-10/h7-8,10-12H,1-6H2,(H2,17,24)(H,18,19)(H,20,23)(H,21,25)/t10-,11-,12-/m0/s1
SMILES=N=C(O)[C@@H]1CCCN1C(=O)[C@H](Cc1cnc[nH]1)N=C(O)[C@@H]1CCC(O)=N1
SCANS=77
IONMODE=negative
COMPOUND_NAME=protirelin M-H
SPECTRUM_ID=CCMSLIB00006685418
50.602699 24857.199219 
58.0294 416944.0 
66.763603 44701.199219 
67.0298 716343.0 
82.029602 170478.0 
82.423401 37863.800781 
84.008797 32032.400391 
84.166801 31437.199219 
89.201797 31945.400391 
92.408096 32453.0 
93.045799 114564.0 
96.0093 40261.101562 
97.305603 32095.900391 
104.316002 31357.599609 
107.049004 48593.601562 
108.056999 1332920.0 
109.041 44208.898438 
113.071999 396887.0 
118.412003 27393.199219 
118.692001 28282.800781 
119.932999 30644.300781 
123.056999 54926.199219 
124.040001 360005.0 
127.051003 622088.0 
132.057007 1828870.0 
135.056 298604.0 
139.050003 52589.898438 
144.056 42448.601562 
152.082993 31327.800781 
153.067001 140852.0 
160.087997 121578.0 
167.046005 2980640.0 
167.966995 27605.699219 
178.059998 29084.400391 
179.046005 362677.0 
186.069 32023.5 
189.113998 194202.0 
190.098999 62092.101562 
192.076996 32836.898438 
195.404999 32407.5 
201.076996 38218.101562 
203.093994 8416120.0 
204.078003 203635.0 
209.315002 98442.203125 
215.093994 36217.0 
219.089005 309835.0 
233.104004 565039.0 
247.084 5715370.0 
263.11499 1325660.0 
264.101013 53935.699219 
265.092987 57783.199219 
281.127014 45699.300781 
318.158997 35188.199219 
343.106995 40043.398438 
343.152008 901025.0 
361.162994 5405580.0 
END IONS

BEGIN IONS
PRECURSOR_MZ=315.11
INCHI=InChI=1S/C18H16N2O2/c1-11-7-8-14(9-12(11)2)20-18(21)15-10-13-5-3-4-6-16(13)22-17(15)19/h3-10,19H,1-2H3,(H,20,21)
SMILES=Cc1ccc(NC(=O)c2cc3ccccc3oc2=N)cc1C
SCANS=1191
IONMODE=positive
COMPOUND_NAME=N-(3,4-dimethylphenyl)(2-iminochromen-3-yl)carboxamide M+Na
SPECTRUM_ID=CCMSLIB00006686532
71.147552 2241.0 
113.103287 2587.0 
138.639648 2860.0 
167.006058 2929.0 
183.84259 2351.0 
297.09967 4406.0 
315.109924 2593757.0 
333.121155 3483.0 
END IONS

BEGIN IONS
PRECURSOR_MZ=450.182
INCHI=InChI=1S/C28H25N3O3/c1-31-24-11-7-6-10-21(24)25(26(31)18-8-4-3-5-9-18)27(32)28(33)29-15-14-19-17-30-23-13-12-20(34-2)16-22(19)23/h3-13,16-17,30H,14-15H2,1-2H3,(H,29,33)
SMILES=COc1ccc2[nH]cc(CCNC(=O)C(=O)c3c(-c4ccccc4)n(C)c4ccccc34)c2c1
SCANS=16578
IONMODE=negative
COMPOUND_NAME=N-[2-(5-methoxyindol-3-yl)ethyl]-2-(1-methyl-2-phenylindol-3-yl)-2-oxoacetamid e M-H
SPECTRUM_ID=CCMSLIB00006701919
55.16127 3440.0 
61.294411 3145.0 
80.931503 2931.0 
82.402161 3669.0 
85.225067 3252.0 
92.380234 3954.0 
116.050491 7598.0 
117.034592 4641.0 
128.050766 19215.0 
130.066513 4754.0 
130.124557 3218.0 
131.037628 18651.0 
144.04541 568361.0 
145.053116 70988.0 
146.06134 7678.0 
147.032562 5604.0 
148.038177 3164.0 
157.053345 56643.0 
157.975647 4306.0 
158.060654 34782.0 
159.032745 30558.0 
160.040344 30684.0 
169.040756 3500.0 
172.040695 13341.0 
172.063812 16973.0 
188.831604 3099.0 
192.08223 3581.0 
198.043167 4510.0 
200.059143 4396.0 
201.065857 3889.0 
203.074142 17057.0 
204.08194 1110595.0 
206.097336 72600.0 
207.069351 31965.0 
213.066559 5172.0 
215.082993 37343.0 
218.061172 566776.0 
220.07843 7056.0 
222.092773 21927.0 
232.077179 3743.0 
232.10231 3216.0 
233.085083 5167.0 
234.055817 7835.0 
234.093063 5553.0 
236.109772 3854.0 
246.055878 28355.0 
248.072235 40190.0 
248.107758 16671.0 
249.104904 6659.0 
251.060532 3684.0 
253.409241 3934.0 
258.08139 3381.0 
261.078491 5392.0 
264.068207 4334.0 
266.081207 14621.0 
273.105042 4033.0 
277.098145 260953.0 
291.1138 13084.0 
352.681854 3633.0 
435.158905 232162.0 
450.182678 3682869.0 
END IONS

BEGIN IONS
PRECURSOR_MZ=330.102
INCHI=InChI=1S/C15H15N5O2S/c1-9-4-3-5-10(6-9)18-11(21)7-23-15-19-12-13(20(15)2)16-8-17-14(12)22/h3-6,8H,7H2,1-2H3,(H,18,21)(H,16,17,22)
SMILES=Cc1cccc(N=C(O)CSc2nc3c(O)ncnc3n2C)c1
SCANS=19637
IONMODE=positive
COMPOUND_NAME=2-(9-methyl-6-oxohydropurin-8-ylthio)-N-(3-methylphenyl)acetamide M+H
SPECTRUM_ID=CCMSLIB00006704978
57.045261 23214.0 
58.995548 18854.0 
65.038971 3816.0 
66.741943 4561.0 
67.05455 3857.0 
77.652107 3845.0 
79.054367 6763.0 
82.395927 3878.0 
83.024139 4423.0 
84.985573 65602.0 
86.006187 6717.0 
91.054298 97619.0 
92.061928 6045.0 
93.069847 146870.0 
94.040077 6938.0 
98.984261 3919.0 
103.054062 15401.0 
105.069649 45524.0 
106.04007 15371.0 
107.023903 22560.0 
107.04847 7201.0 
107.072884 22631.0 
108.055641 37235.0 
108.080597 17823.0 
110.034767 8921.0 
111.042664 25047.0 
113.016457 3997.0 
118.064941 65587.0 
120.080688 731347.0 
124.050591 40021.0 
125.016632 14263.0 
126.001289 5729.0 
126.012123 18065.0 
130.064972 34674.0 
131.07283 207486.0 
131.083954 7478.0 
133.05162 57255.0 
134.034958 21088.0 
136.211288 3687.0 
137.045563 243233.0 
139.99118 91332.0 
140.027634 20860.0 
146.048004 7148.0 
146.060028 120281.0 
148.075714 48866.0 
149.045609 285798.0 
150.0121 15733.0 
150.053482 406180.0 
150.99585 90850.0 
151.061279 858818.0 
152.026917 33076.0 
153.011566 12550.0 
153.02301 37697.0 
154.007217 25438.0 
161.045181 44904.0 
162.038147 9778.0 
162.053284 205507.0 
163.061218 335046.0 
168.022293 198333.0 
170.037994 41239.0 
177.022095 34562.0 
179.056046 17750.0 
179.102371 4308.0 
181.017593 2897086.0 
182.025467 22236.0 
182.762314 4383.0 
183.033005 51620.0 
186.03273 30937.0 
195.033264 7463550.0 
213.043411 80772.0 
217.989471 4102.0 
222.043747 45135.0 
223.028046 9168818.0 
236.05983 78774.0 
255.091324 4799.0 
281.799591 4194.0 
297.067902 3779.0 
312.091339 46353.0 
330.100891 216023.0 
END IONS

BEGIN IONS
PRECURSOR_MZ=375.214
INCHI=InChI=1S/C20H32O5/c1-2-3-6-9-15(21)12-13-17-16(18(22)14-19(17)23)10-7-4-5-8-11-20(24)25/h4,7,12-13,15-17,19,21,23H,2-3,5-6,8-11,14H2,1H3,(H,24,25)/b7-4-,13-12+/t15-,16+,17+,19+/m0/s1
SMILES=CCCCCC(O)C=CC1C(O)CC(=O)C1CC=CCCCC(=O)O
SCANS=19000
IONMODE=positive
COMPOUND_NAME=Prostaglandin E2 M+Na
SPECTRUM_ID=CCMSLIB00006704341
55.535912 3008.0 
56.96563 3223.0 
66.739182 4194.0 
83.472 2804.0 
95.08548 2409.0 
133.041489 3225.0 
177.377914 2815.0 
230.813538 2789.0 
251.83786 3037.0 
270.242096 37361.0 
357.204254 69618.0 
375.213867 2538669.0 
END IONS

BEGIN IONS
PRECURSOR_MZ=192.024
INCHI=InChI=1S/C5H9NO4/c1-3(8)6-4(2-7)5(9)10/h4,7H,2H2,1H3,(H,6,8)(H,9,10)
SMILES=CC(O)=NC(CO)C(=O)O
SCANS=795
IONMODE=positive
COMPOUND_NAME=2-acetamido-3-hydroxypropanoic acid M-H+2Na
SPECTRUM_ID=CCMSLIB00006686136
62.982399 138979.0 
82.828796 4400.200195 
104.289001 4825.259766 
130.024002 5399.359863 
130.516006 4660.870117 
144.003006 49058.300781 
157.975006 5293.529785 
162.014008 882585.0 
174.013 77044.796875 
179.632996 5772.089844 
190.059998 4522.22998 
190.912003 4417.879883 
192.024002 493440.0 
END IONS

BEGIN IONS
PRECURSOR_MZ=493.162
INCHI=InChI=1S/C13H13NO4/c1-3-18-13(17)8-4-5-10-9(6-8)11(15)7(2)12(16)14-10/h4-6H,3H2,1-2H3,(H2,14,15,16)
SMILES=CCOC(=O)c1ccc2nc(O)c(C)c(O)c2c1
SCANS=16072
IONMODE=negative
COMPOUND_NAME=ethyl 4-hydroxy-3-methyl-2-oxohydroquinoline-6-carboxylate 2M-H
SPECTRUM_ID=CCMSLIB00006701413
50.397251 2278.0 
67.313377 2217.0 
82.398071 2587.0 
92.377121 4195.0 
104.285217 3206.0 
107.343712 2489.0 
124.400414 2359.0 
130.066284 2531.0 
155.017441 2227.0 
174.056213 37832.0 
214.776581 2949.0 
218.046539 14331.0 
246.077438 66989.0 
346.836029 2779.0 
END IONS

BEGIN IONS
PRECURSOR_MZ=219.563
INCHI=InChI=1S/C19H19N7O6/c20-19-25-15-14(17(30)26-19)23-11(8-22-15)7-21-10-3-1-9(2-4-10)16(29)24-12(18(31)32)5-6-13(27)28/h1-4,8,12,21H,5-7H2,(H,24,29)(H,27,28)(H,31,32)(H3,20,22,25,26,30)/t12-/m1/s1
SMILES=N=c1nc(O)c2nc(CNc3ccc(C(=O)NC(CCC(=O)O)C(=O)O)cc3)cnc2[nH]1
SCANS=20979
IONMODE=negative
COMPOUND_NAME=(2R)-2-[(4-{[(2-amino-4-oxo(8-hydropteridin-6-yl))methyl]amino}phenyl)carbonyl amino]pentanedioic acid, hydrate M-2H]
SPECTRUM_ID=CCMSLIB00006706320
59.0135 2986.0 
59.450779 1935.0 
63.550919 2142.0 
66.009438 8272.0 
73.985039 3017.0 
82.029861 4890.0 
83.694313 2163.0 
85.029182 4149.0 
92.050636 9749.0 
117.04493 2332.0 
122.025047 10393.0 
128.0354 4502.0 
131.049225 10239.0 
132.044159 81858.0 
135.032928 13625.0 
147.056427 31909.0 
154.549316 43163.0 
155.041336 71895.0 
155.543045 4844.0 
157.039612 2945.0 
161.072327 15472.0 
162.042068 3087.0 
164.034103 13819.0 
174.042145 10669.0 
175.050217 125466.0 
175.572784 52217.0 
176.056946 11874.0 
176.073929 3120.0 
176.09494 5287.0 
177.103226 4697.0 
197.567947 172008.0 
198.069885 19189.0 
207.039948 107071.0 
208.041595 3277.0 
219.563324 33606.0 
220.064133 3761.0 
267.101196 9554.0 
269.081116 10695.0 
279.103333 2518.0 
292.096985 4979.0 
293.115997 4008.0 
310.107422 3703.0 
311.088135 17516.0 
322.105133 31858.0 
323.107635 3789.0 
336.121857 34390.0 
350.134949 9633.0 
END IONS

BEGIN IONS
PRECURSOR_MZ=461.399
INCHI=InChI=1S/C30H52O3/c1-25(2)13-9-14-30(8,33-25)19-10-16-29(7)24(19)20(31)18-22-27(5)15-12-23(32)26(3,4)21(27)11-17-28(22,29)6/h19-24,31-32H,9-18H2,1-8H3/t19-,20+,21-,22+,23-,24-,27-,28+,29+,30-/m0/s1
SMILES=CC1(C)CCCC(C)(C2CCC3(C)C2C(O)CC2C4(C)CCC(O)C(C)(C)C4CCC23C)O1
SCANS=21269
IONMODE=positive
COMPOUND_NAME=(20S)-Panaxadiol M+H
SPECTRUM_ID=CCMSLIB00006706610
53.002529 4507.0 
53.039051 6089.0 
55.05463 44280.0 
57.034069 4476.0 
57.070381 65269.0 
59.049541 25396.0 
65.038887 16470.0 
67.054604 371064.0 
69.033684 5654.0 
69.070198 388510.0 
71.049454 51515.0 
71.085861 29614.0 
77.038849 3956.0 
78.939438 3299.0 
79.054459 162753.0 
81.070099 1055125.0 
83.049103 4168.0 
83.085663 110562.0 
85.064499 6172.0 
91.054321 116907.0 
92.390747 4007.0 
93.069923 377868.0 
95.048973 7686.0 
95.085533 800184.0 
97.064781 17541.0 
97.101021 43206.0 
99.080383 347610.0 
105.069801 398186.0 
107.085411 584943.0 
109.101128 1709331.0 
111.079987 14432.0 
111.116547 34850.0 
117.069763 22263.0 
119.085426 566790.0 
121.101044 457409.0 
123.079857 7689.0 
123.116623 447232.0 
127.111618 1123702.0 
130.892685 3834.0 
131.085403 70835.0 
133.101059 440505.0 
135.116653 378450.0 
136.228622 4240.0 
137.096329 8246.0 
137.132034 59623.0 
139.111511 26070.0 
143.085403 15293.0 
144.092224 3659.0 
145.100967 114275.0 
147.116623 380930.0 
149.132339 145131.0 
151.111771 6501.0 
151.147659 6714.0 
153.127792 6317.0 
157.101105 22016.0 
159.11676 131173.0 
161.132278 345671.0 
163.147568 101693.0 
165.127319 6116.0 
169.101532 4637.0 
171.11673 28302.0 
173.132217 107897.0 
175.147949 140639.0 
177.163742 40380.0 
179.142609 28107.0 
183.116806 3979.0 
185.132217 34258.0 
187.147781 92623.0 
189.144272 7659.0 
189.163544 215122.0 
191.179153 89008.0 
199.148209 19180.0 
201.163696 57668.0 
201.221024 4148.0 
203.179306 151774.0 
205.158508 5064.0 
205.194641 18571.0 
207.173981 226303.0 
211.148453 6485.0 
213.163406 25392.0 
215.179443 55162.0 
217.194763 327172.0 
219.209717 5476.0 
221.189316 15530.0 
227.178864 21590.0 
229.194473 35346.0 
231.210709 21528.0 
233.53244 4012.0 
235.205414 51270.0 
241.193497 17997.0 
243.209808 20920.0 
245.225739 19803.0 
247.205902 6663.0 
253.192886 4343.0 
255.209961 16364.0 
257.226837 29240.0 
259.240692 8279.0 
261.220215 19537.0 
269.225128 8679.0 
271.24057 55907.0 
273.223633 7846.0 
273.257538 23840.0 
275.235382 5693.0 
281.226746 8518.0 
283.240753 22980.0 
285.257538 42392.0 
295.239349 8331.0 
297.257599 25765.0 
299.271881 6358.0 
301.251587 21847.0 
303.266479 4168.0 
311.273224 9108.0 
315.266296 22631.0 
329.283051 16631.0 
343.299927 5530.0 
351.303528 51221.0 
367.33725 33080.0 
369.313934 95585.0 
383.326324 4488.0 
385.344055 4117.0 
407.366241 282050.0 
425.37677 1086940.0 
443.38736 1026160.0 
461.285095 6558.0 
461.39859 165176.0 
END IONS

BEGIN IONS
PRECURSOR_MZ=220.082
INCHI=InChI=1S/C8H13NO6/c9-5(8(13)14)3-4-15-7(12)2-1-6(10)11/h5H,1-4,9H2,(H,10,11)(H,13,14)/t5-/m0/s1
SMILES=N[C@@H](CCOC(=O)CCC(=O)O)C(=O)O
SCANS=24458
IONMODE=positive
COMPOUND_NAME=O-succinyl-L-homoserine M+H
SPECTRUM_ID=CCMSLIB00006709799
56.050201 662730.0 
66.756798 15692.400391 
73.029099 88231.703125 
74.0243 238571.0 
74.060699 1320480.0 
84.044998 171387.0 
85.028503 15842.0 
85.814003 14076.200195 
92.396202 15405.900391 
100.858002 15780.799805 
101.024002 479290.0 
102.055 4012010.0 
104.307999 22419.099609 
118.681999 18031.199219 
120.066002 1224450.0 
126.055 27472.699219 
138.054001 22760.199219 
174.074997 16644.099609 
184.061005 135845.0 
202.070999 98655.101562 
220.082001 694191.0 
END IONS

BEGIN IONS
PRECURSOR_MZ=467.083
INCHI=InChI=1S/C24H19ClN2O4S/c25-20-11-5-6-12-21(20)27(24-19-10-4-7-13-22(19)32(29,30)26-24)16-17-31-23(28)15-14-18-8-2-1-3-9-18/h1-15H,16-17H2/b15-14+
SMILES=O=C(C=Cc1ccccc1)OCCN(C1=NS(=O)(=O)c2ccccc21)c1ccccc1Cl
SCANS=7559
IONMODE=positive
COMPOUND_NAME=2-[(1,1-dioxobenzo[d]1,2-thiazolin-3-yl)(2-chlorophenyl)amino]ethyl (2E)-3-phe nylprop-2-enoate M+H
SPECTRUM_ID=CCMSLIB00006692900
55.242142 2779.0 
59.796169 3194.0 
66.745628 3257.0 
82.402672 3640.0 
103.054138 367881.0 
104.292023 3352.0 
131.049103 2764772.0 
136.221207 3961.0 
138.009933 4547.0 
144.080978 3780.0 
153.034012 7417.0 
175.075424 39775.0 
190.254684 3245.0 
219.090866 41109.0 
226.320862 3222.0 
227.344193 3220.0 
235.086761 23887.0 
252.574188 3422.0 
255.066711 3190.0 
262.923096 4625.0 
271.063599 5543.0 
281.102509 3311.0 
319.029633 2352553.0 
337.039764 45585.0 
398.896545 3626.0 
467.082031 674763.0 
END IONS

BEGIN IONS
PRECURSOR_MZ=314.139
INCHI=InChI=1S/C18H19NO4/c1-13-7-9-15(10-8-13)23-12-17(20)19-16(18(21)22)11-14-5-3-2-4-6-14/h2-10,16H,11-12H2,1H3,(H,19,20)(H,21,22)
SMILES=Cc1ccc(OCC(O)=NC(Cc2ccccc2)C(=O)O)cc1
SCANS=16306
IONMODE=positive
COMPOUND_NAME=2-[2-(4-methylphenoxy)acetylamino]-3-phenylpropanoic acid M+H
SPECTRUM_ID=CCMSLIB00006701647
51.02354 4775.0 
53.03899 34476.0 
55.018421 21975.0 
65.038963 186839.0 
66.258347 2862.0 
67.054588 90617.0 
68.997337 3516.0 
73.973999 2660.0 
77.038773 6222.0 
79.054703 23343.0 
81.033752 4894.0 
84.516991 3074.0 
84.95977 3633.0 
91.054337 733639.0 
93.069946 921635.0 
95.049156 51658.0 
103.054176 100562.0 
104.062157 3591.0 
104.285316 2928.0 
105.044258 5975.0 
105.069817 454464.0 
106.064636 3735.0 
107.048897 19726.0 
109.064667 110978.0 
115.054138 49945.0 
117.057137 168612.0 
117.069763 106775.0 
118.0653 15285.0 
118.07756 49533.0 
119.050018 10734.0 
119.06031 144679.0 
119.07061 5748.0 
120.080727 582560.0 
121.064713 1517438.0 
126.653961 3036.0 
127.823486 2725.0 
130.065048 179009.0 
131.04924 12192.0 
131.073242 3744.0 
132.080704 1451777.0 
133.064453 47480.0 
144.080399 3889.0 
146.060715 3483.0 
148.074951 4066.0 
150.091064 7142.0 
160.075256 12477.0 
161.083435 12295.0 
166.086349 36604.0 
178.086288 51486.0 
211.111618 56638.0 
240.137848 140561.0 
250.12323 5424.0 
268.132782 2061072.0 
296.126678 19044.0 
314.137756 69047.0 
END IONS

BEGIN IONS
PRECURSOR_MZ=478.151
INCHI=InChI=1S/C25H23NO6/c1-16-7-9-17(10-8-16)21(27)15-32-25(29)19-5-4-6-20(13-19)26-24(28)18-11-12-22(30-2)23(14-18)31-3/h4-14H,15H2,1-3H3,(H,26,28)
SMILES=COc1ccc(C(O)=Nc2cccc(C(=O)OCC(=O)c3ccc(C)cc3)c2)cc1OC
SCANS=19093
IONMODE=negative
COMPOUND_NAME=2-(4-methylphenyl)-2-oxoethyl 3-[(3,4-dimethoxyphenyl)carbonylamino]benzoate M+formate
SPECTRUM_ID=CCMSLIB00006704434
50.41996 2731.0 
58.66951 2714.0 
73.957863 2834.0 
82.403252 4206.0 
89.628593 2590.0 
90.035004 2746.0 
92.382507 3298.0 
93.034187 2429.0 
105.022133 11191.0 
196.076508 3066.0 
208.624176 10700.0 
226.052109 4030.0 
240.067047 13201.0 
241.074493 3050.0 
266.986694 2597.0 
282.202209 3174.0 
340.315674 2673.0 
393.979309 3534.0 
402.098969 3973.0 
404.150146 9322.0 
432.144379 90009.0 
END IONS

BEGIN IONS
PRECURSOR_MZ=384.147
INCHI=InChI=1S/C21H22ClN3O2/c22-16-6-7-18-17(14-16)19(15-4-2-1-3-5-15)20(21(27)23-18)25-10-8-24(9-11-25)12-13-26/h1-7,14,26H,8-13H2,(H,23,27)
SMILES=OCCN1CCN(c2c(O)nc3ccc(Cl)cc3c2-c2ccccc2)CC1
SCANS=1636
IONMODE=positive
COMPOUND_NAME=6-chloro-3-[4-(2-hydroxyethyl)piperazinyl]-4-phenylhydroquinolin-2-one M+H
SPECTRUM_ID=CCMSLIB00006686977
50.626591 3828.0 
50.774849 4575.0 
53.354252 3402.0 
58.06575 8128.0 
68.049789 19159.0 
70.065536 403458.0 
72.081169 5068.0 
74.060387 5683.0 
82.053062 7588.0 
83.060516 40511.0 
84.080963 36771.0 
86.060188 30933.0 
86.097221 4995.0 
88.075882 1384075.0 
94.065041 4228.0 
96.081039 21294.0 
100.075706 42822.0 
102.091209 8752.0 
112.075523 53919.0 
114.091316 191095.0 
118.661423 6342.0 
131.07312 32004.0 
157.988815 4959.0 
160.075256 7964.0 
170.05986 8803.0 
217.088303 81064.0 
219.089691 36606.0 
233.107101 40672.0 
234.089966 6955.0 
234.114929 24135.0 
238.04274 34002.0 
242.072052 7322.0 
245.082657 42555.0 
246.079453 19009.0 
247.086182 1218247.0 
252.057404 140808.0 
254.035782 16251.0 
254.071289 9498.0 
261.101776 201224.0 
262.042877 17160.0 
262.079651 9386.0 
262.109406 169760.0 
262.140717 5991.0 
264.044464 7726.0 
268.049805 29363.0 
269.049377 51300.0 
269.083344 529210.0 
270.054535 34145.0 
271.061096 30820.0 
273.10141 6623.0 
279.06958 37223.0 
280.05191 516103.0 
281.047058 119385.0 
282.055481 175467.0 
283.062469 23162.0 
295.063416 162653.0 
296.072205 7761.0 
297.078461 5347584.0 
299.09494 40934.0 
309.0755 18708.0 
311.091949 32521.0 
321.078827 23682.0 
322.073547 138658.0 
323.094116 48609.0 
324.089203 9076.0 
325.109131 24668.0 
336.090149 17699.0 
337.097076 580919.0 
338.105347 10100.0 
340.120728 20025.0 
349.177521 7209.0 
355.108002 10699.0 
364.120209 28713.0 
366.13501 8092.0 
382.131256 271941.0 
383.138336 5960.0 
384.14682 22469750.0 
386.106903 13000.0 
END IONS

BEGIN IONS
PRECURSOR_MZ=481.165
INCHI=InChI=1S/C28H27ClN2O2/c1-28(2)15-24-26(25(32)16-28)27(31-23-9-4-3-8-22(23)30-24)19-10-12-21(13-11-19)33-17-18-6-5-7-20(29)14-18/h3-14,27,30-31H,15-17H2,1-2H3
SMILES=CC1(C)CC(=O)C2=C(C1)Nc1ccccc1NC2c1ccc(OCc2cccc(Cl)c2)cc1
SCANS=16151
IONMODE=positive
COMPOUND_NAME=11-{4-[(3-chlorophenyl)methoxy]phenyl}-3,3-dimethyl-2,3,4-trihydro-5H,10H,11H- benzo[b]benzo[2,1-f]1,4-diazepin-1-one M+Na
SPECTRUM_ID=CCMSLIB00006701492
130.102051 2715.0 
172.605072 2845.0 
208.18512 5530.0 
208.206253 5748.0 
235.000092 2673.0 
242.135849 4574.0 
265.436768 2946.0 
276.048401 2524.0 
355.141571 27332.0 
356.148987 3361.0 
481.164185 1552484.0 
502.054413 2907.0 
END IONS

BEGIN IONS
PRECURSOR_MZ=343.111
INCHI=InChI=1S/C18H18N2O3S/c1-9-7-10(2)20-18-14(9)15(19)17(24-18)16(21)11-5-6-12(22-3)13(8-11)23-4/h5-8H,19H2,1-4H3
SMILES=COc1ccc(C(=O)c2sc3nc(C)cc(C)c3c2N)cc1OC
SCANS=13236
IONMODE=positive
COMPOUND_NAME=3-amino-4,6-dimethylthiopheno[2,3-b]pyridin-2-yl 3,4-dimethoxyphenyl ketone M+H
SPECTRUM_ID=CCMSLIB00006698577
53.039028 7298.0 
65.038887 20571.0 
66.046387 4529.0 
68.997398 6167.0 
79.05452 30812.0 
94.041153 18106.0 
104.281723 4460.0 
109.009911 4197.0 
109.028473 10402.0 
109.064651 18256.0 
121.018379 5054.0 
121.028236 153097.0 
121.037743 7628.0 
122.036011 26876.0 
123.026161 9924.0 
126.030983 18198.0 
128.98761 4369.0 
133.075806 66198.0 
139.044388 8699.0 
145.076599 22305.0 
146.083862 28586.0 
149.023117 461778.0 
150.037048 225335.0 
151.045105 4405.0 
152.052612 56123.0 
155.070007 17232.0 
162.024628 6481.0 
162.036926 154630.0 
164.039154 6481.0 
164.053375 15520.0 
165.05455 495562.0 
175.032303 6870.0 
176.039642 6270.0 
177.047852 1278474.0 
178.055527 200057.0 
179.0634 758205.0 
180.048401 6635.0 
181.01915 5119.0 
193.042938 7111.0 
203.06366 18688.0 
205.042755 1549417.0 
207.05835 6413.0 
209.105545 6412.0 
214.069397 5448.0 
215.063568 22442.0 
216.071198 9546.0 
226.067551 9154.0 
227.076523 133931.0 
229.077805 5340.0 
237.060501 7899.0 
237.102676 7152.0 
238.068344 37587.0 
240.048874 7405.0 
240.23175 8085.0 
241.078384 53975.0 
242.086548 18186.0 
244.066803 19246.0 
253.053772 27950.0 
253.079437 64665.0 
254.062454 119204.0 
255.071472 225660.0 
257.074951 33346.0 
265.052307 4766.0 
266.062805 53972.0 
267.059021 37476.0 
268.067932 9101.0 
269.073761 718112.0 
270.055969 67814.0 
270.081451 10748.0 
271.090729 7821.0 
281.075439 149552.0 
282.057556 363713.0 
283.065094 310808.0 
283.098969 10127.0 
285.068512 229945.0 
294.057861 7784.0 
296.036682 239280.0 
297.031921 8506.0 
297.068817 199334.0 
298.077057 63721.0 
299.084229 2869638.0 
307.052948 9445.0 
308.034912 5919.0 
309.068115 181803.0 
310.051788 108673.0 
311.049133 13015.0 
311.084442 113249.0 
312.067627 176273.0 
313.063385 654132.0 
314.071075 257065.0 
325.063263 241191.0 
327.079041 11653374.0 
328.08667 352458.0 
328.121002 9079.0 
341.096832 6387.0 
343.110352 13068199.0 
END IONS

BEGIN IONS
PRECURSOR_MZ=130.05
INCHI=InChI=1S/C5H7NO3/c7-4-2-1-3(6-4)5(8)9/h3H,1-2H2,(H,6,7)(H,8,9)/t3-/m1/s1
SMILES=O=C(O)C1CCC(O)=N1
SCANS=22380
IONMODE=positive
COMPOUND_NAME=D-Pyroglutamic acid M+H
SPECTRUM_ID=CCMSLIB00006707721
52.892601 25611.0 
56.05019 395821.0 
62.398109 23890.0 
68.434464 25443.0 
78.997757 50045.0 
84.045021 10638597.0 
97.008209 198122.0 
108.908661 30323.0 
120.023872 38731.0 
126.159203 28771.0 
130.050079 943512.0 
136.19783 32126.0 
END IONS

BEGIN IONS
PRECURSOR_MZ=156.011
INCHI=InChI=1S/C6H7NO3S/c7-5-3-1-2-4-6(5)11(8,9)10/h1-4H,7H2,(H,8,9,10)
SMILES=Nc1ccccc1S(=O)(=O)O
SCANS=507
IONMODE=positive
COMPOUND_NAME=2-Aminobenzenesulfonic acid M+H-H2O
SPECTRUM_ID=CCMSLIB00006685848
65.0392 1964180.0 
66.764702 10412.200195 
70.958397 632936.0 
72.937698 217992.0 
78.034302 12544.0 
79.042099 21607.199219 
80.044601 24521.699219 
80.050003 719039.0 
86.097 53366.898438 
88.968903 126790.0 
90.948303 60871.601562 
91.558701 10287.599609 
91.821404 24111.0 
92.049896 12449300.0 
92.279099 11167.799805 
92.4086 11641.299805 
97.052399 38026.898438 
107.869003 9976.820312 
108.044998 2273780.0 
110.059998 242994.0 
111.985001 590519.0 
113.963997 113839.0 
114.947998 24513.5 
129.994995 112825.0 
132.957993 1706090.0 
138.091003 37308.800781 
150.968994 1405070.0 
153.009995 16161.099609 
155.973999 305563.0 
155.987 16819.5 
156.113007 55363.101562 
END IONS

BEGIN IONS
PRECURSOR_MZ=374.097
INCHI=InChI=1S/C18H16FN3O3S/c1-24-13-7-6-10(8-14(13)25-2)15(23)16-17(20)22-18(26-16)21-12-5-3-4-11(19)9-12/h3-9H,20H2,1-2H3,(H,21,22)
SMILES=COc1ccc(C(=O)c2sc(=Nc3cccc(F)c3)[nH]c2N)cc1OC
SCANS=3235
IONMODE=positive
COMPOUND_NAME=4-amino-2-[(3-fluorophenyl)amino](1,3-thiazol-5-yl) 3,4-dimethoxyphenyl ketone M+H
SPECTRUM_ID=CCMSLIB00006688576
57.06778 3090.0 
59.990711 53698.0 
60.53495 4490.0 
69.222633 3135.0 
71.990623 98915.0 
71.994957 4087.0 
79.054413 7935.0 
82.397079 3839.0 
86.996323 4422.0 
87.001427 59975.0 
94.04174 4764.0 
109.028374 4581.0 
109.064667 3987.0 
114.99614 445815.0 
122.038567 16514.0 
125.014603 4637.0 
126.031113 5913.0 
136.205841 4750.0 
137.050827 38923.0 
138.55629 3366.0 
155.069931 19667.0 
157.579575 3703.0 
165.054672 1715039.0 
166.012024 120197.0 
176.069916 19170.0 
177.078339 14524.0 
208.033905 334983.0 
209.024277 3962.0 
236.028687 4365798.0 
238.053329 4143.0 
253.064651 26581.0 
356.087067 5671.0 
358.06488 24940.0 
359.070526 26809.0 
372.233429 6391.0 
373.08609 6598.0 
374.096741 9923507.0 
375.975098 6206.0 
END IONS

BEGIN IONS
PRECURSOR_MZ=211.088
INCHI=InChI=1S/C13H12N2O/c1-8-13-11(5-6-14-8)10-4-3-9(16-2)7-12(10)15-13/h3-7,15H,1-2H3
SMILES=COc1ccc2c(c1)[nH]c1c(C)nccc12
SCANS=1251
IONMODE=negative
COMPOUND_NAME=HARMINE M-H
SPECTRUM_ID=CCMSLIB00006686592
62.196972 2775.0 
88.200417 2232.0 
92.372566 2953.0 
127.425583 2520.0 
134.148178 2613.0 
138.293259 2332.0 
138.305374 2630.0 
138.965576 8368.0 
166.959747 13645.0 
168.068726 2932.0 
182.954666 24068.0 
196.064362 1610230.0 
209.077744 2851.0 
210.949692 16096.0 
211.051071 52685.0 
211.087875 1299373.0 
228.959396 4627.0 
END IONS

BEGIN IONS
PRECURSOR_MZ=415.14
INCHI=InChI=1S/C11H12O4/c1-14-9-5-3-8(4-6-11(12)13)7-10(9)15-2/h3-7H,1-2H3,(H,12,13)/b6-4+
SMILES=COc1ccc(C=CC(=O)O)cc1OC
SCANS=8500
IONMODE=negative
COMPOUND_NAME=3,4-DIMETHOXYCINNAMIC ACID 2M-H
SPECTRUM_ID=CCMSLIB00006693841
51.558739 2298.0 
64.399323 2279.0 
66.738449 2240.0 
82.392776 2461.0 
105.33654 2372.0 
122.22789 2767.0 
123.008774 27362.0 
134.037827 10108.0 
138.031586 3226.0 
147.044968 18115.0 
148.957245 3070.0 
149.060928 11466.0 
157.958633 2922.0 
158.522446 2499.0 
162.142014 2970.0 
207.066223 10511.0 
278.914856 14661.0 
282.090668 15970.0 
282.123138 3371.0 
297.113464 38925.0 
311.128693 9806.0 
312.138733 5700.0 
346.879395 3661.0 
371.149902 90524.0 
397.896667 3287.0 
415.139923 398618.0 
END IONS

BEGIN IONS
PRECURSOR_MZ=256.108
INCHI=InChI=1S/C14H13N3O2/c1-10-7-13(18)16(2)14(19)17(10)9-12-6-4-3-5-11(12)8-15/h3-7H,9H2,1-2H3
SMILES=Cc1cc(=O)n(C)c(=O)n1Cc1ccccc1C#N
SCANS=14871
IONMODE=positive
COMPOUND_NAME=2-[(3,6-dimethyl-2,4-dioxo-1,3-dihydropyrimidinyl)methyl]benzenecarbonitrile M+H
SPECTRUM_ID=CCMSLIB00006700212
63.023571 113967.0 
65.039124 34702.0 
67.018204 411395.0 
69.033852 43895.0 
87.661507 25813.0 
89.038719 2617946.0 
90.033974 31749.0 
92.378357 35972.0 
96.043907 52290.0 
103.05397 99102.0 
110.023773 157119.0 
115.041191 49072.0 
115.054382 120949.0 
115.726433 53904.0 
116.049454 73883864.0 
116.374313 46776.0 
120.300613 23719.0 
129.069717 112344.0 
130.065048 979334.0 
131.060303 39138.0 
132.080765 48310.0 
133.075912 2020935.0 
134.059967 9912393.0 
144.080688 31063.0 
146.061844 36264.0 
147.092056 120434.0 
154.065094 332778.0 
156.081024 340944.0 
157.075943 2097870.0 
157.607803 24916.0 
158.060059 1337440.0 
159.055389 121546.0 
170.084885 26851.0 
171.091934 415463.0 
182.05925 39692.0 
184.063431 101403.0 
185.399643 27933.0 
197.071198 62819.0 
198.078964 127579.0 
199.086411 13769776.0 
212.117752 43077.0 
215.081512 394527.0 
225.066193 64146.0 
256.107697 47817184.0 
END IONS

BEGIN IONS
PRECURSOR_MZ=381.094
INCHI=InChI=1S/C19H18O7/c1-22-13-6-5-10(7-11(13)20)14-8-12(21)17-15(26-14)9-16(23-2)18(24-3)19(17)25-4/h5-9,20H,1-4H3
SMILES=COc1ccc(-c2cc(=O)c3c(OC)c(OC)c(OC)cc3o2)cc1O
SCANS=13781
IONMODE=positive
COMPOUND_NAME=Eupatorin-5-methylether M+Na
SPECTRUM_ID=CCMSLIB00006699122
53.167011 2769.0 
63.5392 2556.0 
73.94223 3169.0 
78.908768 2449.0 
82.389168 3234.0 
104.269287 2859.0 
121.570221 2606.0 
135.808151 2661.0 
208.112457 3027.0 
232.061752 2532.0 
253.603577 2828.0 
273.121643 3123.0 
300.693726 2725.0 
323.053284 15152.0 
351.046814 160874.0 
365.061005 5948.0 
366.070709 191590.0 
381.094055 3031211.0 
399.103821 11777.0 
END IONS

BEGIN IONS
PRECURSOR_MZ=294.088
INCHI=InChI=1S/C16H13N3O3/c20-16(13-5-8-17-9-6-13)19-18-7-1-2-12-3-4-14-15(10-12)22-11-21-14/h1-10H,11H2,(H,19,20)/b2-1+,18-7+
SMILES=O=C(NN=CC=Cc1ccc2c(c1)OCO2)c1ccncc1
SCANS=14309
IONMODE=negative
COMPOUND_NAME=N-((1E,3E)-4-(2H-benzo[3,4-d]1,3-dioxolan-5-yl)-1-azabuta-1,3-dienyl)-4-pyridy lcarboxamide M-H
SPECTRUM_ID=CCMSLIB00006699650
58.111591 2011.0 
58.29747 2779.0 
85.879433 2347.0 
89.884377 1860.0 
93.034721 2676.0 
103.030159 37892.0 
104.325279 2634.0 
119.049751 2264.0 
126.103447 2638.0 
129.232986 2177.0 
131.335541 2500.0 
144.045181 27061.0 
147.019699 2298.0 
158.03952 2231.0 
159.045502 3660.0 
172.039825 2995.0 
214.338531 2381.0 
237.079346 4044.0 
290.429474 2445.0 
294.088501 96786.0 
END IONS

BEGIN IONS
PRECURSOR_MZ=519.225
INCHI=InChI=1S/C14H16N2O3/c17-13(5-6-14(18)19)15-8-7-10-9-16-12-4-2-1-3-11(10)12/h1-4,9,16H,5-8H2,(H,15,17)(H,18,19)
SMILES=O=C(O)CCC(O)=NCCc1c[nH]c2ccccc12
SCANS=9390
IONMODE=negative
COMPOUND_NAME=3-[N-(2-indol-3-ylethyl)carbamoyl]propanoic acid 2M-H
SPECTRUM_ID=CCMSLIB00006694731
60.298618 2655.0 
72.045097 16479.0 
82.404343 2682.0 
98.024727 236532.0 
116.035172 3173.0 
120.581383 2480.0 
130.035965 2891.0 
135.822693 2229.0 
208.848419 11165.0 
214.401291 2807.0 
215.118805 15101.0 
220.6521 3213.0 
241.098465 43305.0 
248.355957 2823.0 
259.108734 699112.0 
303.618896 3383.0 
468.463684 2483.0 
473.02066 3835.0 
485.839264 2771.0 
519.223816 15631.0 
544.222961 3477.0 
END IONS

BEGIN IONS
PRECURSOR_MZ=165.055
INCHI=InChI=1S/C9H10O4/c1-12-6-4-3-5-7(13-2)8(6)9(10)11/h3-5H,1-2H3,(H,10,11)
SMILES=COc1cccc(OC)c1C(=O)O
SCANS=18759
IONMODE=positive
COMPOUND_NAME=2,6-DIMETHOXYBENZOIC ACID M+H-H2O
SPECTRUM_ID=CCMSLIB00006704100
51.023571 4024.0 
53.03912 46412.0 
55.018311 2513.0 
55.62376 2886.0 
55.934921 4583.0 
56.965389 5297.0 
59.14827 2592.0 
61.011101 2371.0 
61.225929 2481.0 
62.019199 10159.0 
65.038971 3034.0 
68.025948 3328.0 
73.948578 2538.0 
75.0233 6140.0 
77.038986 18165.0 
77.635017 2457.0 
79.021584 16529.0 
79.054588 114814.0 
81.033783 13711.0 
81.07019 17308.0 
84.959923 147678.0 
84.965691 5828.0 
86.955803 16019.0 
86.96434 5737.0 
91.054237 5282.0 
92.025978 23021.0 
94.04155 14243.0 
95.049316 20089.0 
100.024017 3437.0 
102.970169 21521.0 
105.033417 28410.0 
105.069977 4758.0 
107.012672 154691.0 
107.049156 83369.0 
109.064842 51774.0 
114.488068 4152.0 
114.986053 4881.0 
115.981209 11597.0 
119.085663 10126.0 
120.020737 9502.0 
120.980217 2988.0 
121.028473 4676.0 
121.101242 5287.0 
122.036247 556647.0 
123.044212 4503.0 
123.492767 23952.0 
123.991577 6013.0 
125.059792 21723.0 
128.950638 4161.0 
133.028625 17696.0 
134.919174 4143.0 
135.044067 82181.0 
135.055054 10807.0 
136.199097 2911.0 
137.012314 9047.0 
137.060059 25288.0 
138.049835 2714.0 
147.116959 5248.0 
150.031219 787544.0 
155.022522 3757.0 
164.047211 3686.0 
164.508438 2693.0 
165.054733 3021315.0 
165.604187 2429.0 
168.041718 678347.0 
168.960907 3236.0 
180.983841 5422.0 
192.041718 6024.0 
END IONS

BEGIN IONS
PRECURSOR_MZ=527.334
INCHI=InChI=1S/C30H48O6/c1-16-9-10-30(25(35)36)12-11-28(5)18(22(30)17(16)2)7-8-21-26(3)13-20(33)24(34)27(4,15-31)23(26)19(32)14-29(21,28)6/h7,16-17,19-24,31-34H,8-15H2,1-6H3,(H,35,36)/t16-,17+,19-,20-,21-,22+,23-,24+,26-,27+,28-,29-,30+/m1/s1
SMILES=CC1CCC2(C(=O)O)CCC3(C)C(=CCC4C5(C)CC(O)C(O)C(C)(CO)C5C(O)CC43C)C2C1C
SCANS=21498
IONMODE=positive
COMPOUND_NAME=Madecassic acid M+Na
SPECTRUM_ID=CCMSLIB00006706839
73.973717 2928.0 
77.505676 3439.0 
92.025833 3043.0 
104.312302 3179.0 
108.343086 2910.0 
144.178406 2795.0 
203.482452 3141.0 
300.362335 3447.0 
483.349152 4658.0 
514.420959 3496.0 
527.333557 2689263.0 
530.476807 5053.0 
545.340637 14309.0 
END IONS

BEGIN IONS
PRECURSOR_MZ=393.997
INCHI=InChI=1S/C14H12BrN5O2S/c1-20-12-11(13(22)17-7-16-12)19-14(20)23-6-10(21)18-9-4-2-8(15)3-5-9/h2-5,7H,6H2,1H3,(H,18,21)(H,16,17,22)
SMILES=Cn1c(SCC(=O)Nc2ccc(Br)cc2)nc2c(O)ncnc21
SCANS=22805
IONMODE=positive
COMPOUND_NAME=N-(4-bromophenyl)-2-(9-methyl-6-oxohydropurin-8-ylthio)acetamide M+H
SPECTRUM_ID=CCMSLIB00006708146
60.53133 2773.0 
64.957764 3488.0 
80.528091 3075.0 
84.985451 7455.0 
96.278831 3377.0 
104.049477 12194.0 
105.057358 32672.0 
107.02388 4940.0 
108.055687 4639.0 
123.067429 4200.0 
124.051064 4134.0 
133.052109 69246.0 
137.045792 44096.0 
139.991562 13488.0 
149.045486 54547.0 
150.053345 73273.0 
150.996704 26303.0 
151.061371 179318.0 
152.027283 6567.0 
153.022812 4884.0 
154.006409 3418.0 
161.045868 11924.0 
162.053711 37122.0 
163.061264 84395.0 
167.784988 3055.0 
168.022217 43497.0 
170.038788 3489.0 
170.966965 3099.0 
177.022018 4464.0 
179.056366 5969.0 
181.0177 755836.0 
181.959656 3645.0 
182.024689 3759.0 
183.033737 12420.0 
183.975418 22699.0 
186.033005 4085.0 
194.333481 3578.0 
195.033417 2303142.0 
213.043655 23172.0 
222.045135 15159.0 
222.386917 3386.0 
223.028214 2604954.0 
236.059082 23385.0 
276.00528 3189.0 
284.512085 3153.0 
375.985626 14612.0 
393.995819 140579.0 
END IONS

BEGIN IONS
PRECURSOR_MZ=209.081
INCHI=InChI=1S/C11H12O4/c1-14-9-5-3-8(4-6-11(12)13)7-10(9)15-2/h3-7H,1-2H3,(H,12,13)/b6-4+
SMILES=COc1ccc(C=CC(=O)O)cc1OC
SCANS=19834
IONMODE=positive
COMPOUND_NAME=3,4-DIMETHOXYCINNAMIC ACID M+H
SPECTRUM_ID=CCMSLIB00006705175
51.023609 5212.0 
55.01844 7288.0 
57.034039 7661.0 
61.011189 3899.0 
64.902893 3105.0 
65.038963 8313.0 
66.046761 21142.0 
67.054733 6775.0 
71.929527 6087.0 
77.039009 13617.0 
78.046638 17819.0 
79.021606 24070.0 
79.054459 280596.0 
81.033707 7526.0 
84.959953 4885.0 
86.935516 2957.0 
88.329491 3358.0 
88.396042 3693.0 
89.038483 29252.0 
90.046356 7677.0 
90.947777 13696.0 
91.054283 263142.0 
92.056717 3852.0 
92.062309 84905.0 
92.356377 4681.0 
92.376892 3097.0 
93.070251 6338.0 
94.041519 7985.0 
95.049332 25535.0 
102.046402 52060.0 
103.054123 508098.0 
104.062241 8337.0 
105.033417 178305.0 
105.069817 392780.0 
106.041023 6382.0 
107.049072 56823.0 
108.056793 14452.0 
109.028717 5843.0 
109.064667 14421.0 
111.244476 3588.0 
115.054047 33243.0 
116.062286 3676.0 
116.909019 16400.0 
117.03334 32839.0 
117.069847 5166.0 
118.041161 162401.0 
119.049057 541433.0 
120.056923 334647.0 
121.064583 19327.0 
123.043892 15041.0 
124.051971 26498.0 
130.041351 38217.0 
131.049026 65718.0 
132.056915 804595.0 
133.028305 436265.0 
133.037949 7561.0 
133.064667 327494.0 
134.072937 6737.0 
134.194077 3681.0 
134.91951 56424.0 
135.043808 14953.0 
135.080383 84894.0 
137.05954 18100.0 
139.0755 78602.0 
145.028076 13917.0 
146.036163 93900.0 
147.043961 314769.0 
148.051773 2031589.0 
149.058777 13907.0 
151.038361 12901.0 
152.046875 14878.0 
152.93045 23996.0 
157.937973 4247.0 
158.03627 5881.0 
159.043228 13494.0 
160.051773 429037.0 
161.022812 13572.0 
161.059753 66578.0 
162.06781 5371.0 
163.075241 3941490.0 
164.083008 5134.0 
165.054886 6699.0 
165.091324 5452.0 
167.070206 32236.0 
167.954163 25459.0 
168.924652 4197.0 
173.059097 4389.0 
174.984558 5961.0 
175.038544 15034.0 
175.984207 5912.0 
176.046631 524469.0 
184.968475 4237.0 
185.927872 34139.0 
185.964294 68630.0 
186.935455 7642.0 
190.388794 4324.0 
191.070084 8693972.0 
191.7556 4651.0 
194.054672 4548.0 
203.938156 105875.0 
208.943909 20136.0 
208.982269 4405.0 
209.079849 93168.0 
226.953552 32985.0 
END IONS

BEGIN IONS
PRECURSOR_MZ=438.099
INCHI=InChI=1S/C21H19ClFN3O3/c1-2-9-24-21(29)15-11-20(28)26(18-6-4-3-5-14(15)18)12-19(27)25-13-7-8-17(23)16(22)10-13/h3-8,10-11H,2,9,12H2,1H3,(H,24,29)(H,25,27)
SMILES=CCCN=C(O)c1cc(=O)n(CC(O)=Nc2ccc(F)c(Cl)c2)c2ccccc12
SCANS=21277
IONMODE=positive
COMPOUND_NAME=N-(3-chloro-4-fluorophenyl)-2-[2-oxo-4-(N-propylcarbamoyl)hydroquinolyl]acetam ide M+Na
SPECTRUM_ID=CCMSLIB00006706618
51.803452 2237.0 
55.27306 2286.0 
82.393997 3349.0 
119.773712 2361.0 
124.654388 2370.0 
130.065353 10676.0 
157.964691 2948.0 
158.060318 4264.0 
231.112427 3288.0 
243.112579 4059.0 
263.720306 3447.0 
271.107178 4808.0 
307.103607 3151.0 
420.09314 3245.0 
438.098358 784215.0 
464.488403 2634.0 
END IONS

BEGIN IONS
PRECURSOR_MZ=543.13
INCHI=InChI=1S/C15H12O5/c16-9-3-1-8(2-4-9)13-7-12(19)15-11(18)5-10(17)6-14(15)20-13/h1-6,13,16-18H,7H2
SMILES=O=C1CC(c2ccc(O)cc2)Oc2cc(O)cc(O)c21
SCANS=14127
IONMODE=negative
COMPOUND_NAME=naringenin 2M-H
SPECTRUM_ID=CCMSLIB00006699468
64.331169 2355.0 
65.098679 2396.0 
79.991859 2245.0 
92.385872 3169.0 
104.295937 3722.0 
119.050583 10236.0 
130.054077 2654.0 
151.003845 4416.0 
271.061554 15577.0 
END IONS

BEGIN IONS
PRECURSOR_MZ=254.115
INCHI=InChI=1S/C12H11N7/c13-9-7(6-4-2-1-3-5-6)16-8-10(14)18-12(15)19-11(8)17-9/h1-5H,(H6,13,14,15,17,18,19)
SMILES=N=c1[nH]c2nc(=N)c(-c3ccccc3)nc-2c(N)[nH]1
SCANS=13434
IONMODE=positive
COMPOUND_NAME=triamterene M+H
SPECTRUM_ID=CCMSLIB00006698775
55.92828 5301.0 
60.539951 4577.0 
61.342899 16191.0 
61.34655 9770.0 
64.504883 4559.0 
67.029541 9808.0 
72.937477 25380.0 
80.253281 4674.0 
82.040337 24396.0 
84.05011 5103.0 
92.024513 89093.0 
92.379478 5364.0 
94.201782 5050.0 
104.0494 1173950.0 
107.035362 23319.0 
116.049263 61583.0 
116.05751 6620.0 
117.528374 5460.0 
118.654808 6677.0 
124.062927 8402.0 
131.06044 6405.0 
132.044449 8338.0 
134.046539 63492.0 
134.056534 7684.0 
141.044434 48800.0 
142.052338 24898.0 
143.060287 421680.0 
158.070557 36923.0 
161.071182 51853.0 
168.05545 580206.0 
170.070557 8766.0 
176.066849 7777.0 
180.552658 5719.0 
183.066483 121724.0 
185.082108 175015.0 
186.065948 322108.0 
187.069427 10678.0 
187.245987 5458.0 
193.050385 22760.0 
195.066376 1502546.0 
210.077255 729284.0 
212.092865 1181571.0 
213.025833 238400.0 
213.076599 227607.0 
213.526917 28241.0 
220.061966 135430.0 
222.030731 108377.0 
222.531464 5457.0 
227.103592 606205.0 
233.539597 21603.0 
235.070938 7125.0 
237.088028 14679013.0 
238.071396 42146.0 
238.096771 17957.0 
239.092636 7269.0 
252.098251 57435.0 
253.107651 28322.0 
254.114441 34970516.0 
255.098236 333034.0 
257.995056 123310.0 
259.000732 7188.0 
271.975616 8904.0 
END IONS

BEGIN IONS
PRECURSOR_MZ=348.142
INCHI=InChI=1S/C16H23NO6/c1-9-13(18)23-11-5-7-17-6-4-10(12(11)17)8-22-14(19)16(3,21)15(9,2)20/h4,9,11-12,20-21H,5-8H2,1-3H3/t9-,11-,12?,15-,16-/m0/s1
SMILES=CC1C(=O)OC2CCN3CC=C(COC(=O)C(C)(O)C1(C)O)C23
SCANS=20131
IONMODE=positive
COMPOUND_NAME=Monocrotaline M+Na
SPECTRUM_ID=CCMSLIB00006705472
80.049454 3055.0 
91.054459 3018.0 
92.925423 2461.0 
94.065048 9301.0 
103.053993 2818.0 
104.907867 2750.0 
118.064682 2878.0 
120.08075 265070.0 
129.828003 2768.0 
138.091202 5139.0 
211.056961 10542.0 
229.067551 3196.0 
348.141327 1290778.0 
354.54715 3221.0 
END IONS

BEGIN IONS
PRECURSOR_MZ=222.097
INCHI=InChI=1S/C8H15NO6/c1-3(11)9-5-7(13)6(12)4(2-10)15-8(5)14/h4-8,10,12-14H,2H2,1H3,(H,9,11)/t4-,5+,6-,7-,8?/m1/s1
SMILES=CC(O)=N[C@@H]1C(O)O[C@H](CO)[C@@H](O)[C@@H]1O
SCANS=680
IONMODE=positive
COMPOUND_NAME=N-Acetyl-D-Mannosamine M+H
SPECTRUM_ID=CCMSLIB00006686021
54.269798 1841.550049 
55.3936 2297.330078 
56.2323 2689.310059 
66.758301 2678.98999 
69.862503 2078.370117 
71.9142 2173.949951 
74.883698 2215.590088 
81.034302 3390.199951 
84.044998 24198.300781 
88.538399 2065.469971 
96.0448 12924.700195 
97.028702 3409.360107 
98.060402 14187.099609 
108.043999 3011.189941 
109.028999 5252.060059 
122.718002 2102.300049 
126.043999 3139.530029 
126.055 91473.296875 
127.039001 4691.970215 
129.337997 1970.459961 
138.054993 249629.0 
144.065994 67527.601562 
144.154999 2118.280029 
168.065002 48733.0 
185.442001 2234.189941 
186.076004 36120.699219 
204.087006 14726.299805 
222.115997 4797.419922 
222.149002 4216.330078 
222.197998 2662.76001 
END IONS

BEGIN IONS
PRECURSOR_MZ=1246.84
INCHI=InChI=1S/C62H111N11O12/c1-25-27-28-40(15)52(75)51-56(79)65-43(26-2)58(81)67(18)33-48(74)68(19)44(29-34(3)4)55(78)66-49(38(11)12)61(84)69(20)45(30-35(5)6)54(77)63-41(16)53(76)64-42(17)57(80)70(21)46(31-36(7)8)59(82)71(22)47(32-37(9)10)60(83)72(23)50(39(13)14)62(85)73(51)24/h25,27,34-47,49-52,75H,26,28-33H2,1-24H3,(H,63,77)(H,64,76)(H,65,79)(H,66,78)/b27-25+/t40-,41+,42-,43+,44+,45+,46+,47+,49+,50+,51+,52-/m1/s1
SMILES=CC=CCC(C)C(O)C1C(O)=NC(CC)C(=O)N(C)CC(=O)N(C)C(CC(C)C)C(O)=NC(C(C)C)C(=O)N(C)C(CC(C)C)C(O)=NC(C)C(O)=NC(C)C(=O)N(C)C(CC(C)C)C(=O)N(C)C(CC(C)C)C(=O)N(C)C(C(C)C)C(=O)N1C
SCANS=22917
IONMODE=negative
COMPOUND_NAME=cyclosporin A M+formate
SPECTRUM_ID=CCMSLIB00006708258
92.382896 7756.0 
97.04129 6074.0 
101.071823 29756.0 
104.289833 7453.0 
115.088013 13583.0 
115.921349 11484.0 
129.103287 8156.0 
143.119537 30341.0 
144.103851 6920.0 
155.082947 28405.0 
157.134033 10280.0 
172.109955 6038.0 
186.124756 8441.0 
197.129089 28649.0 
257.702789 5480.0 
282.180389 5544.0 
304.418396 5504.0 
308.763977 6187.0 
387.10968 5799.0 
557.525085 5954.0 
702.5354 6343.0 
893.624451 24590.0 
1088.746094 620187.0 
1200.833618 14169.0 
END IONS

BEGIN IONS
PRECURSOR_MZ=453.149
INCHI=InChI=1S/C23H24N2O3S/c1-15-8-9-21-20(14-15)17(16(2)25-21)12-13-24-29(26,27)23-11-10-22(28-3)18-6-4-5-7-19(18)23/h4-11,14,24-25H,12-13H2,1-3H3
SMILES=COc1ccc(S(=O)(=O)NCCc2c(C)[nH]c3ccc(C)cc23)c2ccccc12
SCANS=17780
IONMODE=negative
COMPOUND_NAME=[2-(2,5-dimethylindol-3-yl)ethyl][(4-methoxynaphthyl)sulfonyl]amine M+formate
SPECTRUM_ID=CCMSLIB00006703121
63.96228 17305.0 
66.746201 3056.0 
76.828682 2424.0 
77.965393 21329.0 
79.957382 14882.0 
81.779449 2503.0 
92.382339 3397.0 
92.995934 4464.0 
103.036682 2789.0 
112.985687 79541.0 
143.050537 14976.0 
149.977936 3094.0 
151.375244 2279.0 
157.053192 196635.0 
158.037247 25989.0 
170.06163 10198.0 
180.97377 14667.0 
195.193069 2676.0 
202.182083 2724.0 
208.791412 11121.0 
221.014755 151969.0 
234.023514 10656.0 
236.038528 237158.0 
248.961029 27262.0 
266.987823 5582.0 
316.983765 4372.0 
331.089294 2757.0 
336.002075 2820.0 
356.263672 2644.0 
366.982239 9169.0 
407.143677 211087.0 
408.815948 3057.0 
432.973389 10757.0 
452.980042 21397.0 
END IONS

BEGIN IONS
PRECURSOR_MZ=447.202
INCHI=InChI=1S/C23H30O6/c1-13(24)29-12-19(27)23(28)9-7-17-16-5-4-14-10-15(25)6-8-21(14,2)20(16)18(26)11-22(17,23)3/h10,16-17,20,28H,4-9,11-12H2,1-3H3/t16-,17-,20+,21-,22-,23-/m0/s1
SMILES=CC(=O)OCC(=O)C1(O)CCC2C3CCC4=CC(=O)CCC4(C)C3C(=O)CC21C
SCANS=22846
IONMODE=negative
COMPOUND_NAME=50-04-4 M+formate
SPECTRUM_ID=CCMSLIB00006708187
64.220703 2664.0 
101.024696 4046.0 
104.286774 3654.0 
118.966316 5749.0 
135.081146 3092.0 
137.060501 21999.0 
146.961258 124660.0 
153.56749 2511.0 
159.380096 2702.0 
161.357391 2534.0 
174.956161 167418.0 
229.246658 2827.0 
242.943481 90356.0 
243.139145 4615.0 
269.156586 4468.0 
283.171417 3427.0 
299.164246 4639.0 
301.179749 4865.0 
310.931519 14859.0 
311.12851 20587.0 
311.166565 14688.0 
325.146851 3259.0 
326.152252 3134.0 
327.161194 25730.0 
329.175781 52150.0 
341.175415 95267.0 
371.186401 31233.0 
396.39212 2655.0 
401.195801 49990.0 
447.196777 3418.0 
535.067932 2893.0 
END IONS

BEGIN IONS
PRECURSOR_MZ=494.218
INCHI=InChI=1S/C28H33NO7/c1-16-9-8-12-19-23-27(4,35-23)17(2)21-20(15-18-10-6-5-7-11-18)29-24(31)28(19,21)36-25(32)34-14-13-26(3,33)22(16)30/h5-8,10-14,16-17,19-21,23,33H,9,15H2,1-4H3,(H,29,31)/b12-8+,14-13+/t16-,17-,19-,20-,21-,23-,26-,27+,28+/m0/s1
SMILES=CC1CC=CC2C3OC3(C)C(C)C3C(Cc4ccccc4)N=C(O)C23OC(=O)OC=CC(C)(O)C1=O
SCANS=20951
IONMODE=negative
COMPOUND_NAME=CCG-208187 M-H
SPECTRUM_ID=CCMSLIB00006706292
71.050087 11619.0 
73.950668 2857.0 
80.965088 4203.0 
82.398453 2905.0 
83.049797 4038.0 
83.635193 3024.0 
85.029503 13730.0 
85.478447 2489.0 
97.065788 4236.0 
99.045341 11774.0 
101.548698 2414.0 
107.03775 2978.0 
107.050293 14055.0 
116.050827 4059.0 
118.066422 11956.0 
121.065887 17486.0 
123.045052 11132.0 
125.06086 36507.0 
149.061188 10930.0 
157.053772 2634.0 
161.095856 2890.0 
162.58226 2634.0 
172.076538 5595.0 
174.404221 2479.0 
184.077118 3123.0 
189.092529 2536.0 
198.091797 4505.0 
207.727188 17075.0 
210.092377 9297.0 
212.070541 2615.0 
236.639038 2394.0 
240.10257 5151.0 
264.139954 6043.0 
269.105957 15768.0 
275.520447 3607.0 
279.12381 3604.0 
282.1492 25589.0 
306.148682 2659.0 
315.147827 2542.0 
323.152863 5807.0 
360.161865 14149.0 
361.21759 11542.0 
370.181976 3957.0 
406.20816 3187.0 
414.206055 5358.0 
450.226837 21898.0 
END IONS

BEGIN IONS
PRECURSOR_MZ=366.11
INCHI=InChI=1S/C21H18O6/c1-4-9-26-17-7-5-13(10-18(17)24-2)11-19-20(22)15-12-14(21(23)25-3)6-8-16(15)27-19/h4-8,10-12H,1,9H2,2-3H3/b19-11+
SMILES=C=CCOc1ccc(C=C2Oc3ccc(C(=O)OC)cc3C2=O)cc1OC
SCANS=4597
IONMODE=positive
COMPOUND_NAME=methyl 2-[(3-methoxy-4-prop-2-enyloxyphenyl)methylene]-3-oxobenzo[b]furan-5-ca rboxylate M-e
SPECTRUM_ID=CCMSLIB00006689938
52.36203 2456.0 
55.725979 2803.0 
58.19809 2094.0 
66.740402 3851.0 
85.179207 2793.0 
102.524193 2791.0 
104.284157 2595.0 
118.388962 2815.0 
144.135834 2325.0 
147.043457 4434.0 
166.23996 2852.0 
179.033859 40165.0 
182.072571 3061.0 
184.562607 2715.0 
188.078934 2515.0 
197.095856 2948.0 
203.260605 3034.0 
208.38945 12418.0 
210.065933 3280.0 
229.921204 2547.0 
237.053696 13674.0 
241.084747 4258.0 
251.069778 15325.0 
265.04892 5753.0 
266.060364 3073.0 
269.079956 10363.0 
279.065186 19355.0 
282.052063 15760.0 
294.051178 24079.0 
295.059753 20617.0 
297.075348 178096.0 
307.064026 3072.0 
308.06546 2597.0 
310.047913 10593.0 
310.841095 2582.0 
325.070312 970828.0 
334.081543 3813.0 
335.089752 2651.0 
340.279053 2349.0 
366.111755 215656.0 
367.120117 19005.0 
383.759827 3000.0 
465.634094 2746.0 
END IONS

BEGIN IONS
PRECURSOR_MZ=322.141
INCHI=InChI=1S/C18H21NO3/c1-5-19(15-9-7-6-8-13(15)2)18(20)14-10-11-16(21-3)17(12-14)22-4/h6-12H,5H2,1-4H3
SMILES=CCN(C(=O)c1ccc(OC)c(OC)c1)c1ccccc1C
SCANS=12710
IONMODE=positive
COMPOUND_NAME=(3,4-dimethoxyphenyl)-N-ethyl-N-(2-methylphenyl)carboxamide M+Na
SPECTRUM_ID=CCMSLIB00006698051
55.535252 2511.0 
62.304909 2266.0 
65.03891 21097.0 
66.042313 5025.0 
66.399834 2368.0 
67.054771 6434.0 
68.326012 2841.0 
83.245651 3137.0 
91.054176 43220.0 
92.057808 24778.0 
92.368599 3067.0 
96.052589 2660.0 
100.531326 2722.0 
103.054001 6553.0 
104.280273 2981.0 
109.064919 12938.0 
110.067833 5209.0 
119.049019 793792.0 
120.052353 490268.0 
126.210091 2866.0 
144.080795 48062.0 
155.072052 3168.0 
156.079773 4739.0 
158.096161 9781.0 
159.067719 11083.0 
160.075378 4955.0 
161.079575 3084.0 
162.090942 3069.0 
172.075348 202470.0 
174.090988 163092.0 
175.094116 3869.0 
186.090759 73448.0 
187.098648 710309.0 
188.1073 10432.0 
278.876862 2629.0 
305.134338 5781.0 
322.139313 2093776.0 
340.150787 19343.0 
363.118622 4928.0 
363.16687 105543.0 
END IONS

BEGIN IONS
PRECURSOR_MZ=423.066
INCHI=InChI=1S/C23H16Cl2N2O2/c24-20-7-5-16(12-21(20)25)22-8-6-19(29-22)11-18(13-26)23(28)27-10-9-15-3-1-2-4-17(15)14-27/h1-8,11-12H,9-10,14H2/b18-11+
SMILES=N#CC(=Cc1ccc(-c2ccc(Cl)c(Cl)c2)o1)C(=O)N1CCc2ccccc2C1
SCANS=10915
IONMODE=positive
COMPOUND_NAME=(2E)-3-[5-(3,4-dichlorophenyl)(2-furyl)]-2-(2-1,2,3,4-tetrahydroisoquinolylcar bonyl)prop-2-enenitrile M+H
SPECTRUM_ID=CCMSLIB00006696256
50.67968 2554.0 
52.386879 2652.0 
60.438011 3475.0 
80.013321 5206.0 
82.390244 4266.0 
82.944992 3035.0 
88.314468 2762.0 
90.976463 4067.0 
117.069611 6962.0 
130.065903 3411.0 
132.080627 132934.0 
136.199326 3217.0 
142.065033 6038.0 
160.07518 49316.0 
172.955612 35780.0 
181.064987 3425.0 
184.074951 12823.0 
196.310715 3802.0 
198.972046 3140.0 
206.975479 3331.0 
211.086334 243060.0 
218.919907 5267.0 
223.287994 2981.0 
224.986176 14768.0 
226.952103 4182.0 
227.012817 81646.0 
233.986588 104282.0 
248.98851 3528.0 
255.007645 3748.0 
261.982941 30963.0 
263.996765 52571.0 
264.981506 4144.0 
289.976501 1537870.0 
291.992462 30725.0 
309.020782 3777.0 
327.033661 27419.0 
341.121033 2970.0 
356.057465 4982.0 
390.098328 2971.0 
395.070435 6318.0 
423.065338 1929960.0 
END IONS

BEGIN IONS
PRECURSOR_MZ=481.111
INCHI=InChI=1S/C23H22O10/c1-11(24)31-15-9-13(7-8-14(15)27-3)20-23(30-6)19(26)18-16(33-20)10-17(28-4)21(22(18)29-5)32-12(2)25/h7-10H,1-6H3
SMILES=COc1ccc(-c2oc3cc(OC)c(OC(C)=O)c(OC)c3c(=O)c2OC)cc1OC(C)=O
SCANS=4326
IONMODE=positive
COMPOUND_NAME=5-(6-acetyloxy-3,5,7-trimethoxy-4-oxochromen-2-yl)-2-methoxyphenyl acetate M+Na
SPECTRUM_ID=CCMSLIB00006689667
81.329514 2801.0 
85.319603 3237.0 
119.56179 2977.0 
136.180527 3087.0 
170.626205 2768.0 
294.375763 3340.0 
345.430542 3297.0 
350.180359 3064.0 
381.055969 3840.0 
381.570862 3026.0 
409.05188 14186.0 
423.068359 18320.0 
424.074585 4976.0 
438.090332 7136.0 
439.099396 354945.0 
451.065643 5166.0 
466.08963 20233.0 
481.109924 3121331.0 
END IONS

BEGIN IONS
PRECURSOR_MZ=351.126
INCHI=InChI=1S/C5H9N3O4/c6-5(7)8-2(4(11)12)1-3(9)10/h2H,1H2,(H,9,10)(H,11,12)(H4,6,7,8)/t2-/m0/s1
SMILES=N=C(N)N[C@@H](CC(=O)O)C(=O)O
SCANS=24182
IONMODE=positive
COMPOUND_NAME=Guanidinosuccinic acid 2M+H
SPECTRUM_ID=CCMSLIB00006709523
84.494003 2903.689941 
88.039902 5011.740234 
118.092003 2472.219971 
134.044998 3150.790039 
167.225998 2294.0 
174.822006 2244.320068 
176.065994 141669.0 
213.626999 2527.02002 
226.858002 2331.25 
240.985001 2526.340088 
END IONS

BEGIN IONS
PRECURSOR_MZ=681.276
INCHI=InChI=1S/C23H19NO2/c25-22-19-13-7-8-14-21(19)24(16-18-11-5-2-6-12-18)23(26)20(22)15-17-9-3-1-4-10-17/h1-14,25H,15-16H2
SMILES=O=c1c(Cc2ccccc2)c(O)c2ccccc2n1Cc1ccccc1
SCANS=15112
IONMODE=negative
COMPOUND_NAME=1,3-bisbenzyl-4-hydroxyhydroquinolin-2-one 2M-H
SPECTRUM_ID=CCMSLIB00006700453
56.043652 2959.0 
62.551109 2588.0 
63.06139 3077.0 
104.284264 2896.0 
208.09819 6606.0 
208.11821 5979.0 
249.080505 11529.0 
340.133911 45441.0 
557.233521 3288.0 
669.816284 4189.0 
END IONS

BEGIN IONS
PRECURSOR_MZ=197.0
INCHI=InChI=1S/C9H5ClO3/c10-5-1-2-8-6(3-5)7(11)4-9(12)13-8/h1-4,11H
SMILES=O=c1cc(O)c2cc(Cl)ccc2o1
SCANS=4978
IONMODE=positive
COMPOUND_NAME=6-chloro-4-hydroxychromen-2-one M+H
SPECTRUM_ID=CCMSLIB00006690319
51.023628 2786.0 
68.997551 122541.0 
82.400497 3063.0 
84.930702 2910.0 
86.5606 2879.0 
86.999977 2981.0 
92.368713 3812.0 
113.014977 3272.0 
125.015289 90237.0 
129.010223 151628.0 
138.067551 3581.0 
139.03479 11928.0 
140.047607 5906.0 
141.01033 6195.0 
153.009949 19777.0 
154.062393 5499.0 
154.98941 461873.0 
155.070618 26313.0 
155.973953 4450.0 
163.03862 13709.0 
165.539948 3627.0 
167.069626 13879.0 
169.086121 25974.0 
172.042801 15457.0 
173.00029 6332.0 
173.979568 3191.0 
174.545654 42319.0 
177.758194 3145.0 
179.067688 3837.0 
182.05748 4603.0 
183.550476 11573.0 
186.053696 4457.0 
196.288193 7226.0 
197.000046 9089890.0 
197.715958 5963.0 
238.025833 5796.0 
358.704285 3178.0 
END IONS

BEGIN IONS
PRECURSOR_MZ=312.144
INCHI=InChI=1S/C15H21NO6/c1-8(4-3-5-9(2)14(19)20)11-7-16-13(15(21)22)10(11)6-12(17)18/h3-5,9-11,13,16H,6-7H2,1-2H3,(H,17,18)(H,19,20)(H,21,22)/b5-3+,8-4-/t9-,10+,11-,13+/m1/s1
SMILES=CC(=CC=CC(C)C(=O)O)C1CNC(C(=O)O)C1CC(=O)O
SCANS=22748
IONMODE=positive
COMPOUND_NAME=domoic acid M+H
SPECTRUM_ID=CCMSLIB00006708089
55.054729 15379.0 
55.47506 2523.0 
56.04995 13478.0 
57.03392 11151.0 
60.044788 12048.0 
62.491428 2826.0 
63.033451 2532.0 
67.054733 74693.0 
68.049911 38395.0 
69.033974 10804.0 
71.049637 20099.0 
71.495163 3332.0 
74.024048 218653.0 
79.05471 20326.0 
80.04982 355407.0 
81.034119 3056.0 
81.070038 17892.0 
82.065308 15418.0 
82.386093 3222.0 
82.986382 3438.0 
84.044807 24914.0 
85.028923 22656.0 
85.033997 3077.0 
85.064949 24772.0 
87.044083 6283.0 
88.039627 75518.0 
91.054329 51084.0 
93.070068 77622.0 
94.065331 54652.0 
95.048927 5931.0 
95.085693 228010.0 
96.044243 11772.0 
96.081238 3176.0 
97.028542 18624.0 
97.064827 5169.0 
98.060173 3852.0 
99.044296 4293.0 
105.069946 96715.0 
106.057457 2835.0 
106.065193 67503.0 
107.049438 6921.0 
107.085564 23915.0 
108.044518 22380.0 
108.080727 18534.0 
109.064568 13077.0 
109.1008 6347.0 
110.06002 11972.0 
111.080727 6036.0 
112.039436 14266.0 
114.054733 18407.0 
117.070061 31353.0 
118.064957 4725.0 
118.641533 3089.0 
119.085617 143606.0 
120.080322 12398.0 
121.065224 21591.0 
121.100349 4736.0 
123.080063 12984.0 
124.039543 6083.0 
124.075691 12698.0 
126.055061 74768.0 
128.062286 3357.0 
129.069778 25575.0 
130.077942 3736.0 
131.074905 5261.0 
131.085556 53510.0 
132.080673 40637.0 
133.064865 33187.0 
133.089584 6787.0 
133.101196 163589.0 
134.06012 10861.0 
134.096466 12276.0 
135.080002 3055.0 
137.096069 6837.0 
138.055313 21220.0 
138.0914 3707.0 
139.075058 3111.0 
141.091141 5574.0 
142.077545 16133.0 
143.085373 33056.0 
144.080872 11621.0 
144.093185 4355.0 
145.064896 6561.0 
145.088745 3856.0 
145.101196 76243.0 
146.072861 6787.0 
146.09642 45752.0 
147.068253 3480.0 
147.080688 24000.0 
147.11673 43195.0 
148.074753 4308.0 
148.11171 3871.0 
152.070618 90844.0 
153.079147 5499.0 
154.048508 3151.0 
157.064789 4751.0 
157.100983 55696.0 
158.095169 4149.0 
159.080368 12315.0 
159.103897 3623.0 
159.116669 12592.0 
160.075455 24785.0 
160.088287 3365.0 
160.112076 27631.0 
161.096222 197860.0 
161.120346 6404.0 
163.075378 18868.0 
164.070587 4250.0 
164.106995 3773.0 
165.09166 6087.0 
166.086334 3924.0 
172.059982 5653.0 
173.096252 30175.0 
174.091064 28420.0 
174.128174 61585.0 
175.097122 3216.0 
175.112045 48823.0 
176.14386 3606.0 
176.330368 3275.0 
177.091248 19990.0 
178.086136 13266.0 
179.106827 3539.0 
184.111801 11004.0 
185.096283 22582.0 
188.106842 13879.0 
189.090652 6238.0 
191.106659 34848.0 
192.101471 22944.0 
192.137115 2712.0 
193.122665 47385.0 
198.076019 25688.0 
202.122375 80385.0 
203.071426 3661.0 
203.106781 43608.0 
204.138306 4701.0 
206.08136 3441.0 
206.118103 4801.0 
207.102081 3606.0 
212.106354 3268.0 
213.091797 3662.0 
220.096741 6189.0 
220.133255 80218.0 
221.117477 4826.0 
230.117233 26796.0 
231.101715 6193.0 
248.099899 5990.0 
248.127914 132695.0 
248.156906 4627.0 
260.931793 4101.0 
266.13855 442580.0 
276.122711 13233.0 
288.926208 3280.0 
294.13327 84938.0 
312.143799 1152915.0 
END IONS

BEGIN IONS
PRECURSOR_MZ=179.071
INCHI=InChI=1S/C10H12O3/c1-13-9-5-2-8(3-6-9)4-7-10(11)12/h2-3,5-6H,4,7H2,1H3,(H,11,12)
SMILES=COc1ccc(CCC(=O)O)cc1
SCANS=12286
IONMODE=negative
COMPOUND_NAME=3-(4-Methoxyphenyl)propionic acid, 98% M-H
SPECTRUM_ID=CCMSLIB00006697627
73.64061 2290.0 
73.645729 2080.0 
73.947533 2868.0 
74.738853 2070.0 
77.531517 2097.0 
79.957237 3258.0 
82.396103 2034.0 
88.011673 2200.0 
90.998177 33805.0 
91.423943 2205.0 
91.536423 2381.0 
92.373863 2674.0 
106.653839 2029.0 
111.008621 2939.0 
118.872414 2154.0 
121.196114 1930.0 
122.959137 20825.0 
132.601791 2533.0 
134.988068 134654.0 
135.044388 2434.0 
150.954117 161912.0 
178.950119 15046.0 
178.977921 33647.0 
179.071564 110106.0 
179.108673 3075.0 
END IONS

BEGIN IONS
PRECURSOR_MZ=413.172
INCHI=InChI=1S/C21H24N2O4/c1-13-16(17-12-15(25-2)6-7-18(17)23-13)9-10-22-21(24)14-5-8-19(26-3)20(11-14)27-4/h5-8,11-12,23H,9-10H2,1-4H3,(H,22,24)
SMILES=COc1ccc2[nH]c(C)c(CCN=C(O)c3ccc(OC)c(OC)c3)c2c1
SCANS=16113
IONMODE=negative
COMPOUND_NAME=(3,4-dimethoxyphenyl)-N-[2-(5-methoxy-2-methylindol-3-yl)ethyl]carboxamide M+formate
SPECTRUM_ID=CCMSLIB00006701454
58.13715 2287.0 
75.101723 2232.0 
77.926933 2383.0 
82.399261 2915.0 
90.184113 2554.0 
90.914886 2290.0 
92.378098 2594.0 
116.360947 2301.0 
118.65506 2496.0 
123.422913 2224.0 
130.050385 2822.0 
144.04509 3910.0 
145.053284 3347.0 
158.061096 35214.0 
164.035751 3200.0 
173.048767 4322.0 
178.050659 4840.0 
180.066498 27997.0 
188.034698 2779.0 
311.965027 2547.0 
312.031738 2599.0 
352.142975 5320.0 
367.166534 326110.0 
END IONS

BEGIN IONS
PRECURSOR_MZ=283.105
INCHI=InChI=1S/C14H16N2O3/c17-13(5-6-14(18)19)15-8-7-10-9-16-12-4-2-1-3-11(10)12/h1-4,9,16H,5-8H2,(H,15,17)(H,18,19)
SMILES=O=C(O)CCC(O)=NCCc1c[nH]c2ccccc12
SCANS=20722
IONMODE=positive
COMPOUND_NAME=3-[N-(2-indol-3-ylethyl)carbamoyl]propanoic acid M+Na
SPECTRUM_ID=CCMSLIB00006706063
52.965649 2371.0 
123.004852 11165.0 
171.223984 2420.0 
173.751282 2209.0 
183.089127 298490.0 
273.118011 2300.0 
283.104919 1080482.0 
288.880707 2801.0 
END IONS

BEGIN IONS
PRECURSOR_MZ=351.109
INCHI=InChI=1S/C16H18O6/c17-8-12-13(18)14(19)15(20)16(22-12)21-11-6-5-9-3-1-2-4-10(9)7-11/h1-7,12-20H,8H2/t12-,13+,14+,15-,16-/m1/s1
SMILES=OCC1OC(Oc2ccc3ccccc3c2)C(O)C(O)C1O
SCANS=8991
IONMODE=negative
COMPOUND_NAME=33993-25-8 M+formate
SPECTRUM_ID=CCMSLIB00006694332
54.882881 2008.0 
59.013302 3330.0 
71.013496 3989.0 
82.400146 2804.0 
84.407173 3086.0 
90.03566 2270.0 
92.378937 3033.0 
101.024368 19003.0 
104.286003 2299.0 
110.980553 2249.0 
112.191628 2200.0 
113.024178 14434.0 
118.653801 2332.0 
129.019104 2644.0 
130.669174 2781.0 
136.209198 3004.0 
143.050095 472507.0 
157.648422 2470.0 
161.045395 178922.0 
214.926697 5186.0 
282.910156 3027.0 
305.102814 96907.0 
351.108368 24684.0 
END IONS

BEGIN IONS
PRECURSOR_MZ=326.049
INCHI=InChI=1S/C12H17NO4S2/c1-9-3-5-10(6-4-9)19(16,17)13-11(12(14)15)7-8-18-2/h3-6,11,13H,7-8H2,1-2H3,(H,14,15)
SMILES=CSCCC(NS(=O)(=O)c1ccc(C)cc1)C(=O)O
SCANS=15979
IONMODE=positive
COMPOUND_NAME=2-{[(4-methylphenyl)sulfonyl]amino}-4-methylthiobutanoic acid M+Na
SPECTRUM_ID=CCMSLIB00006701320
61.68642 2677.0 
74.895287 2325.0 
76.700203 2958.0 
83.664284 2224.0 
92.367767 3315.0 
104.27713 3050.0 
133.111176 2215.0 
210.7612 3945.0 
326.048706 946058.0 
341.589111 2328.0 
END IONS

BEGIN IONS
PRECURSOR_MZ=299.091
INCHI=InChI=1S/C17H14O5/c1-20-11-5-3-10(4-6-11)17-16(19)15(18)13-8-7-12(21-2)9-14(13)22-17/h3-9,19H,1-2H3
SMILES=COc1ccc(-c2oc3cc(OC)ccc3c(=O)c2O)cc1
SCANS=1888
IONMODE=positive
COMPOUND_NAME=4',7-Dimethoxy-3-hydroxyflavone M+H
SPECTRUM_ID=CCMSLIB00006687229
57.55798 2997.0 
69.03373 4791.0 
101.00293 15109.0 
107.049232 60254.0 
107.085388 3269.0 
109.064003 5157.0 
121.064743 22570.0 
125.059418 20032.0 
129.054337 4671.0 
135.044083 599731.0 
135.080505 8292.0 
137.059769 206272.0 
151.02562 6674.0 
151.039001 150089.0 
163.039093 69040.0 
181.049103 28217.0 
183.080185 4951.0 
197.06015 4038.0 
197.974594 5556.0 
200.081985 5154.0 
211.075684 7487.0 
212.083664 4125.0 
215.986923 4035.0 
225.089722 5503.0 
227.06868 4070.0 
228.077927 36676.0 
239.069672 32126.0 
243.102722 37080.0 
245.049149 3261.0 
253.085846 4320.0 
255.065216 7688.0 
256.072876 298605.0 
258.07724 5451.0 
266.058258 5032.0 
267.064453 86712.0 
270.088013 7495.0 
271.093842 4474.0 
281.081512 5699.0 
283.058685 5723.0 
284.067474 401487.0 
293.634674 3689.0 
297.076599 5956.0 
298.082428 5113.0 
299.090973 13457987.0 
END IONS

BEGIN IONS
PRECURSOR_MZ=241.157
INCHI=InChI=1S/C29H40N2O4/c1-6-18-17-31-10-8-20-14-27(33-3)29(35-5)16-23(20)25(31)12-21(18)11-24-22-15-28(34-4)26(32-2)13-19(22)7-9-30-24/h13-16,18,21,24-25,30H,6-12,17H2,1-5H3/t18?,21-,24+,25-/m0/s1
SMILES=CCC1CN2CCc3cc(OC)c(OC)cc3C2CC1CC1NCCc2cc(OC)c(OC)cc21
SCANS=13704
IONMODE=positive
COMPOUND_NAME=(+)-Emetine dihydrochloride hydrate M+2H]
SPECTRUM_ID=CCMSLIB00006699045
55.054642 21857.0 
56.0499 81723.0 
56.965199 20355.0 
61.010792 4782.0 
67.054543 19382.0 
68.049873 35881.0 
69.069923 5033.0 
70.065437 17587.0 
71.952133 28373.0 
78.046532 4573.0 
79.054359 107604.0 
79.059113 6196.0 
80.049637 21604.0 
81.070084 16660.0 
82.065338 38025.0 
83.085602 41360.0 
83.148712 4235.0 
84.08091 149674.0 
84.959824 2978700.0 
85.021873 3631.0 
91.054352 103398.0 
92.377007 5256.0 
93.069923 46823.0 
94.065392 36646.0 
95.048988 5835.0 
95.073158 5269.0 
96.080498 15983.0 
102.970047 313857.0 
103.053947 88287.0 
104.062317 13586.0 
104.284157 3908.0 
105.032898 4504.0 
105.069687 278700.0 
106.065018 5142.0 
106.072807 7188.0 
107.049103 85520.0 
107.085327 16265.0 
108.055893 3622.0 
108.080559 77024.0 
109.064583 6484.0 
109.088364 25133.0 
110.096268 873612.0 
111.099617 26130.0 
112.112099 7498.0 
115.054497 30507.0 
117.069542 33706.0 
118.0411 41162.0 
118.063957 4064.0 
119.04924 38163.0 
119.085579 58154.0 
120.057053 40734.0 
120.08046 4444.0 
120.980766 41551.0 
121.064697 83112.0 
121.088333 5654.0 
122.072113 19954.0 
122.096489 27956.0 
123.080589 4707.0 
124.111679 19808.0 
125.986008 20722.0 
128.061722 19431.0 
129.069565 40025.0 
131.049118 28839.0 
131.07373 5580.0 
131.08522 29115.0 
132.044479 8841.0 
132.056564 30724.0 
133.064575 224249.0 
134.072662 133807.0 
134.095779 28333.0 
134.978561 60139.0 
135.043747 106808.0 
135.080307 90489.0 
136.112152 26027.0 
136.207947 4969.0 
136.584976 5076.0 
137.05954 18993.0 
137.095657 5958.0 
141.069855 37093.0 
142.077515 17714.0 
143.048965 23314.0 
143.084946 25562.0 
144.057343 27409.0 
145.06488 41286.0 
146.059845 13890.0 
146.071976 38185.0 
147.067444 35639.0 
147.079971 167155.0 
147.949814 8440.0 
148.075119 22015.0 
149.059647 43383.0 
149.095184 5013.0 
150.067322 859518.0 
151.074844 121401.0 
152.082001 16832.0 
152.989197 37994.0 
153.069885 4212.0 
155.084778 7845.0 
157.064346 36534.0 
157.076172 4819.0 
157.100998 4980.0 
158.071503 16632.0 
159.066879 12936.0 
159.080215 113713.0 
160.075043 64834.0 
160.087997 52493.0 
161.059341 79404.0 
161.08226 18420.0 
161.095795 6743.0 
162.066711 17833.0 
162.090393 34074.0 
162.973312 733547.0 
163.061798 9859.0 
163.075134 138776.0 
163.098297 6153.0 
164.069519 12942.0 
164.082794 61582.0 
165.09079 2349621.0 
165.960617 4621.0 
166.093979 115707.0 
169.064606 53997.0 
170.07225 32021.0 
171.065109 7474.0 
171.0802 141404.0 
172.088501 26906.0 
173.059738 60170.0 
173.0952 18525.0 
174.067001 21929.0 
174.091095 14897.0 
175.075089 358596.0 
176.083389 456725.0 
177.091965 155708.0 
178.084335 15411.0 
178.099564 7259.0 
179.091904 8220.0 
179.106323 17591.0 
180.983841 1671270.0 
183.080795 6931.0 
185.095535 20391.0 
186.103287 19650.0 
187.075134 51995.0 
187.112854 3969.0 
188.082123 23002.0 
188.106735 5193.0 
189.076294 25229.0 
189.090424 51110.0 
189.111237 7166.0 
190.099838 466475.0 
191.108154 114166.0 
192.10144 1122898.0 
193.104843 58245.0 
194.116821 52065.0 
198.103714 4587.0 
198.994171 156555.0 
199.075256 5817.0 
199.110931 25394.0 
201.09079 131678.0 
202.097717 58815.0 
202.120667 9491.0 
203.090576 14544.0 
203.106354 24124.0 
203.999664 80932.0 
204.101166 24995.0 
205.108871 102898.0 
206.115891 21122.0 
209.620651 7845.0 
210.611069 5833.0 
211.022736 7059.0 
211.112762 4882.0 
213.09166 4893.0 
214.097809 18488.0 
214.120865 15347.0 
215.1073 31824.0 
216.099274 5593.0 
216.628769 16182.0 
217.107071 5010.0 
217.132309 16977.0 
217.636749 18122.0 
218.117233 45161.0 
219.634293 18848.0 
220.133377 46060.0 
224.626419 36032.0 
225.131073 1786019.0 
225.632599 255622.0 
225.658203 4930.0 
226.643021 32650.0 
227.105591 14504.0 
227.144943 4533.0 
228.100861 20801.0 
229.12114 22283.0 
230.116867 43846.0 
230.128601 38123.0 
231.124588 18872.0 
232.13446 18806.0 
232.642899 2917194.0 
233.14447 462847.0 
233.643265 7050.0 
240.137848 14459.0 
240.98735 34929.0 
241.066864 22156.0 
241.156067 560718.0 
241.657898 82588.0 
242.119049 22339.0 
242.152786 8778.0 
244.13295 40987.0 
245.154404 7989.0 
246.148224 413594.0 
247.150742 37254.0 
254.153397 4739.0 
256.131958 79824.0 
256.163605 7006.0 
257.137909 7950.0 
258.147064 31350.0 
260.163147 19893.0 
266.15274 4420.0 
268.168488 6205.0 
270.148468 55741.0 
272.164337 38941.0 
274.179443 286982.0 
275.182892 31651.0 
284.163605 52923.0 
285.170746 90550.0 
286.177948 21226.0 
288.194916 15498.0 
300.194885 79689.0 
317.221985 58232.0 
392.22113 15605.0 
404.217407 4908.0 
406.233917 16043.0 
408.252197 6348.0 
420.211365 4209.0 
422.230469 4589.0 
434.23172 48388.0 
436.247101 59198.0 
437.247803 5937.0 
450.266602 31018.0 
452.278046 362840.0 
453.282776 49972.0 
END IONS

BEGIN IONS
PRECURSOR_MZ=587.177
INCHI=InChI=1S/C29H32O13/c1-11-36-9-20-27(40-11)24(31)25(32)29(41-20)42-26-14-7-17-16(38-10-39-17)6-13(14)21(22-15(26)8-37-28(22)33)12-4-18(34-2)23(30)19(5-12)35-3/h4-7,11,15,20-22,24-27,29-32H,8-10H2,1-3H3/t11?,15?,20?,21-,22+,24?,25?,26?,27?,29?/m1/s1
SMILES=COc1cc(C2c3cc4c(cc3C(OC3OC5COC(C)OC5C(O)C3O)C3COC(=O)C23)OCO4)cc(OC)c1O
SCANS=8531
IONMODE=negative
COMPOUND_NAME=Etoposide; VP-16-213 M-H
SPECTRUM_ID=CCMSLIB00006693872
55.018539 18014.0 
55.154209 3596.0 
57.034012 6958.0 
58.005539 6692.0 
59.01347 26397.0 
71.013733 63090.0 
72.992859 6333.0 
73.029556 6289.0 
81.034363 3372.0 
83.013893 46821.0 
84.021683 4394.0 
85.029457 254843.0 
85.229668 3145.0 
87.008713 7232.0 
95.013924 108390.0 
96.607094 3785.0 
97.029701 15312.0 
99.008827 195941.0 
99.016167 6421.0 
100.961647 3674.0 
101.024513 21034.0 
112.017059 7716.0 
113.024597 1220711.0 
115.0401 7243.0 
118.645157 4227.0 
121.029503 82566.0 
123.00927 5542.0 
125.024353 20233.0 
127.040123 436459.0 
131.034851 19729.0 
138.032639 48578.0 
139.004288 4214.0 
139.040222 13788.0 
141.019562 3997.0 
141.130859 3760.0 
142.027084 23787.0 
143.034897 59361.0 
145.050705 321497.0 
153.055832 145285.0 
155.05014 4241.0 
157.052094 6723.0 
157.065567 50070.0 
161.045731 4132.0 
185.060486 14135.0 
186.053833 4756.0 
187.042084 8105.0 
187.06131 242692.0 
195.044189 4628.0 
199.040802 4671.0 
204.064026 150379.0 
205.07193 60045.0 
225.056702 18648.0 
243.065765 22916.0 
255.154526 3715.0 
267.066101 3965.0 
275.069611 4663.0 
277.049652 14087.0 
279.066406 34799.0 
281.082245 20608.0 
290.060333 4592.0 
292.075073 18140.0 
293.082764 8095.0 
295.099548 17133.0 
296.105591 14595.0 
298.049408 4889.0 
303.422424 4078.0 
305.080566 14616.0 
307.061676 351415.0 
307.096832 26818.0 
308.069275 7094.0 
308.171417 3790.0 
309.077545 44363.0 
309.112335 6924.0 
313.072296 4604.0 
321.077362 23349.0 
322.084869 314502.0 
323.094238 29904.0 
324.100098 35620.0 
337.10849 722785.0 
339.125549 40893.0 
341.104431 4632.0 
343.117645 14275.0 
351.050781 112112.0 
353.104828 19609.0 
354.074402 5036.0 
355.118042 4835.0 
363.085815 4478.0 
365.102539 5755.0 
366.073914 83911.0 
367.08075 14583.0 
369.101685 5702.0 
371.113617 171780.0 
376.23349 3877.0 
377.104004 7538.0 
379.120575 15269.0 
381.098206 1382675.0 
382.105591 19728.0 
383.113739 5828.0 
391.121887 6582.0 
395.114197 26295.0 
397.129456 246797.0 
407.114014 5722.0 
421.128784 91512.0 
433.128906 24273.0 
439.13855 14435.0 
441.119781 60972.0 
451.139618 27747.0 
463.139954 7505.0 
465.120056 4961.0 
481.150482 22090.0 
507.166565 27168.0 
525.176392 31398.0 
569.166138 20593.0 
587.177795 2362159.0 
END IONS

BEGIN IONS
PRECURSOR_MZ=312.145
INCHI=InChI=1S/C14H21NO4/c1-18-12-6-5-11(10-13(12)19-2)7-8-15-14(17)4-3-9-16/h5-6,10,16H,3-4,7-9H2,1-2H3,(H,15,17)
SMILES=COc1ccc(CCN=C(O)CCCO)cc1OC
SCANS=2310
IONMODE=negative
COMPOUND_NAME=N-[2-(3,4-dimethoxyphenyl)ethyl]-4-hydroxybutanamide M+formate
SPECTRUM_ID=CCMSLIB00006687651
63.79351 2191.0 
78.995049 2150.0 
84.217567 2218.0 
128.335907 1978.0 
158.008987 2969.0 
173.309479 2163.0 
174.955978 3168.0 
175.959671 2978.0 
210.088913 4859.0 
236.430374 2522.0 
283.838135 3253.0 
302.302979 2652.0 
END IONS

BEGIN IONS
PRECURSOR_MZ=220.025
INCHI=InChI=1S/C10H7NO5/c1-5-2-3-7-6(4-5)9(12)8(11(14)15)10(13)16-7/h2-4,12H,1H3
SMILES=Cc1ccc2oc(=O)c([N+](=O)[O-])c(O)c2c1
SCANS=14115
IONMODE=negative
COMPOUND_NAME=4-hydroxy-6-methyl-3-nitrochromen-2-one M-H
SPECTRUM_ID=CCMSLIB00006699456
53.926472 2378.0 
54.013329 2585.0 
66.752167 2362.0 
73.964363 3320.0 
123.045227 3729.0 
130.091293 2419.0 
132.045334 11720.0 
159.860825 2522.0 
184.875885 3226.0 
212.287354 2949.0 
219.846146 16138.0 
220.025253 3060914.0 
234.927246 2580.0 
END IONS

BEGIN IONS
PRECURSOR_MZ=255.066
INCHI=InChI=1S/C15H12O4/c16-11-4-1-10(2-5-11)3-8-14(18)13-7-6-12(17)9-15(13)19/h1-9,16-17,19H/b8-3+
SMILES=O=C(C=Cc1ccc(O)cc1)c1ccc(O)cc1O
SCANS=3799
IONMODE=negative
COMPOUND_NAME=isoliquiritigenin M-H
SPECTRUM_ID=CCMSLIB00006689140
73.769432 2631.0 
78.297073 2353.0 
82.403091 2565.0 
88.817757 2636.0 
91.018784 158104.0 
93.401039 2583.0 
108.879333 2800.0 
119.050171 1311434.0 
124.983063 3284.0 
130.42453 2582.0 
135.008789 862303.0 
145.029602 13685.0 
149.023911 17411.0 
153.019348 713785.0 
158.951096 11878.0 
180.007538 4773.0 
181.010117 5744.0 
186.928436 10295.0 
187.13443 4815.0 
209.818375 5059.0 
213.056976 11724.0 
216.960281 2856.0 
242.136505 2764.0 
254.907288 19652.0 
255.066376 2311144.0 
END IONS

BEGIN IONS
PRECURSOR_MZ=378.052
INCHI=InChI=1S/C17H13N3O4S/c21-15(18-10-5-6-13-14(7-10)24-9-23-13)8-25-17-19-12-4-2-1-3-11(12)16(22)20-17/h1-7H,8-9H2,(H,18,21)(H,19,20,22)
SMILES=OC(CSc1nc(O)c2ccccc2n1)=Nc1ccc2c(c1)OCO2
SCANS=21154
IONMODE=positive
COMPOUND_NAME=N-(2H-benzo[3,4-d]1,3-dioxolan-5-yl)-2-(4-hydroxyquinazolin-2-ylthio)acetamide M+Na
SPECTRUM_ID=CCMSLIB00006706495
71.835533 2340.0 
113.202858 2393.0 
118.629707 2554.0 
132.72049 2753.0 
155.647217 2624.0 
157.949219 2526.0 
215.024185 5023.0 
238.761963 2786.0 
241.003876 55308.0 
332.436218 2802.0 
378.051453 1120619.0 
END IONS

BEGIN IONS
PRECURSOR_MZ=306.17
INCHI=InChI=1S/C17H23NO4/c1-18-12-5-6-13(18)10-14(9-12)22-17(19)11-4-7-15(20-2)16(8-11)21-3/h4,7-8,12-14H,5-6,9-10H2,1-3H3
SMILES=COc1ccc(C(=O)OC2CC3CCC(C2)N3C)cc1OC
SCANS=15874
IONMODE=positive
COMPOUND_NAME=Convolamine M+H
SPECTRUM_ID=CCMSLIB00006701215
50.015579 6814.0 
51.023491 7171.0 
52.55806 3212.0 
53.039059 30411.0 
56.050011 21750.0 
58.065651 18215.0 
60.631279 3569.0 
65.038948 46095.0 
67.054611 586306.0 
68.04982 53093.0 
69.070099 5362.0 
70.065514 64313.0 
73.959824 3180.0 
77.038979 13919.0 
79.054512 29942.0 
80.049454 5697.0 
81.033691 7106.0 
81.07016 18096.0 
82.065247 59265.0 
83.073067 43014.0 
91.054337 903822.0 
93.069969 3591424.0 
94.064972 29379.0 
95.049202 76902.0 
95.073288 58541.0 
95.085518 263351.0 
96.080803 107312.0 
105.044746 20466.0 
107.085281 18718.0 
108.080597 6209.0 
109.088631 34043.0 
122.096687 26776.0 
124.112022 4811690.0 
137.962067 3422.0 
139.074829 6815.0 
155.069061 4884.0 
165.054413 294779.0 
182.04303 3800.0 
187.758057 3404.0 
192.709396 3512.0 
258.373657 3139.0 
290.138062 14540.0 
291.147034 13362.0 
306.169373 5077739.0 
END IONS

BEGIN IONS
PRECURSOR_MZ=281.073
INCHI=InChI=1S/C16H11FN2O2/c17-11-5-7-12(8-6-11)19-16(20)13-9-10-3-1-2-4-14(10)21-15(13)18/h1-9,18H,(H,19,20)
SMILES=N=c1oc2ccccc2cc1C(=O)Nc1ccc(F)cc1
SCANS=13418
IONMODE=negative
COMPOUND_NAME=N-(4-fluorophenyl)(2-iminochromen-3-yl)carboxamide M-H
SPECTRUM_ID=CCMSLIB00006698759
51.147282 2163.0 
52.136688 2419.0 
60.5406 2223.0 
65.257263 2049.0 
65.998268 14380.0 
73.959084 2742.0 
79.09594 2572.0 
104.292374 2862.0 
106.413879 2609.0 
110.041229 164478.0 
117.034523 16448.0 
118.662331 2969.0 
123.31575 1939.0 
129.539124 2344.0 
142.0298 168945.0 
144.045441 300704.0 
147.417084 2373.0 
170.024658 211535.0 
171.032501 3373.0 
188.035385 9874.0 
214.013809 25924.0 
216.921371 3320.0 
233.563217 2767.0 
237.0849 2981.0 
262.05542 2901.0 
280.985352 4613.0 
281.073578 68604.0 
END IONS

BEGIN IONS
PRECURSOR_MZ=349.091
INCHI=InChI=1S/C18H15ClF2N2O/c1-10-11(12-4-2-3-5-17(12)23-10)6-7-22-18(24)13-8-15(20)16(21)9-14(13)19/h2-5,8-9,23H,6-7H2,1H3,(H,22,24)
SMILES=Cc1[nH]c2ccccc2c1CCN=C(O)c1cc(F)c(F)cc1Cl
SCANS=18097
IONMODE=positive
COMPOUND_NAME=(2-chloro-4,5-difluorophenyl)-N-[2-(2-methylindol-3-yl)ethyl]carboxamide M+H
SPECTRUM_ID=CCMSLIB00006703438
53.540791 2515.0 
64.588226 2902.0 
70.016777 3341.0 
74.981331 3005.0 
80.04966 4733.0 
82.569359 2923.0 
91.054092 17019.0 
104.294724 3977.0 
115.053818 24938.0 
116.06192 4385.0 
116.413681 3188.0 
117.057632 30890.0 
117.069603 59671.0 
118.065353 4367.0 
118.665573 3536.0 
119.23838 3331.0 
129.069595 16134.0 
130.065094 57405.0 
131.072876 13139.0 
131.085297 45288.0 
132.080414 13399.0 
141.069641 41154.0 
142.065353 6272.0 
143.072861 998823.0 
144.080292 15829.0 
145.084091 11567.0 
156.080765 36695.0 
157.088455 35999.0 
158.096283 4952286.0 
172.098938 17371.0 
174.975296 137789.0 
175.66745 3133.0 
176.972 89904.0 
211.200394 5208.0 
218.017914 57913.0 
279.667633 3068.0 
332.066254 4380.0 
349.091095 202261.0 
END IONS

BEGIN IONS
PRECURSOR_MZ=428.105
INCHI=InChI=1S/C18H23N3O5S/c1-25-16(23)7-13(17(24)26-2)19-18(27)20-8-11-6-12(10-20)14-4-3-5-15(22)21(14)9-11/h3-5,11-13H,6-10H2,1-2H3,(H,19,27)/t11-,12-,13?/m0/s1
SMILES=COC(=O)CC(N=C(S)N1CC2CC(C1)c1cccc(=O)n1C2)C(=O)OC
SCANS=3503
IONMODE=negative
COMPOUND_NAME=dimethyl 2-{[((1S,9R)-6-oxo-7,11-diazatricyclo[7.3.1.0<2,7>]trideca-2,4-dien-1 1-yl)thioxomethyl]amino}butane-1,4-dioate M+Cl
SPECTRUM_ID=CCMSLIB00006688844
51.074211 2398.0 
52.263432 2305.0 
55.0168 2262.0 
55.375431 2492.0 
57.975281 17653.0 
57.980808 2471.0 
60.550209 2215.0 
69.551109 2113.0 
103.920326 3594.0 
118.68573 2568.0 
124.771858 2303.0 
130.269638 2671.0 
162.553467 2768.0 
165.331146 2591.0 
195.471176 2502.0 
248.08699 11340.0 
268.276825 2709.0 
275.458984 2424.0 
286.813385 2213.0 
291.882996 31753.0 
359.869904 17166.0 
392.128815 102090.0 
END IONS

BEGIN IONS
PRECURSOR_MZ=277.18
INCHI=InChI=1S/C17H24O3/c1-17(2)12-14(8-9-20-17)15(11-16(18)19)10-13-6-4-3-5-7-13/h3-7,14-15H,8-12H2,1-2H3,(H,18,19)
SMILES=CC1(C)CC(C(CC(=O)O)Cc2ccccc2)CCO1
SCANS=10875
IONMODE=positive
COMPOUND_NAME=3-(2,2-dimethyl(2H-3,4,5,6-tetrahydropyran-4-yl))-4-phenylbutanoic acid M+H
SPECTRUM_ID=CCMSLIB00006696216
53.313259 2012.0 
55.054798 2533.0 
57.070332 12248.0 
61.347012 2049.0 
67.054764 2850.0 
69.07016 4837.0 
85.064941 4774.0 
89.877602 2475.0 
89.883873 2088.0 
91.054314 30586.0 
95.085243 10939.0 
97.101173 14099.0 
100.600761 2210.0 
109.101097 14952.0 
109.490097 2357.0 
115.111427 3463.0 
117.069847 11599.0 
129.069748 33883.0 
131.08548 4912.0 
141.069504 15451.0 
143.085281 49396.0 
145.064682 33761.0 
155.085144 3635.0 
157.051117 3681.0 
157.064835 48515.0 
157.101044 22859.0 
159.080673 3663.0 
159.114563 2164.0 
167.085373 80015.0 
169.102188 4118.0 
171.080399 4748.0 
171.117172 2476.0 
175.074463 3377.0 
181.100662 19579.0 
183.11647 10292.0 
185.095749 29020.0 
187.11087 2343.0 
189.090546 2761.0 
195.116074 3846.0 
197.132309 11768.0 
199.113083 3148.0 
199.148132 31932.0 
203.106888 5523.0 
207.612045 2251.0 
213.163223 2745.0 
215.14267 33262.0 
217.158264 77823.0 
223.147598 43246.0 
235.059937 4626.0 
241.158142 93127.0 
259.168671 73517.0 
277.106995 3934.0 
277.141479 4933.0 
277.178131 9983.0 
END IONS

BEGIN IONS
PRECURSOR_MZ=406.202
INCHI=InChI=1S/C25H29NO4/c1-16-13-24(3)21-17(2)25(16,15-29-23(27)26-18-9-5-4-6-10-18)14-28-22(21)19-11-7-8-12-20(19)30-24/h4-12,16-17,21-22H,13-15H2,1-3H3,(H,26,27)
SMILES=CC1CC2(C)Oc3ccccc3C3OCC1(COC(O)=Nc1ccccc1)C(C)C32
SCANS=9119
IONMODE=negative
COMPOUND_NAME=N-phenyl[(9,11,13-trimethyl-8,15-dioxatetracyclo[10.2.2.0<2,7>.0<9,14>]hexadec a-2(7),3,5-trien-12-yl)methoxy]carboxamide M-H
SPECTRUM_ID=CCMSLIB00006694460
65.127853 2686.0 
93.034554 73001.0 
97.965851 2463.0 
103.617073 3209.0 
121.029633 1702400.0 
122.352203 2891.0 
137.558746 2555.0 
148.764832 2764.0 
182.510788 2792.0 
257.155792 28564.0 
287.165833 708201.0 
305.176361 143763.0 
331.155823 480556.0 
332.15802 4243.0 
349.164917 12200.0 
406.203064 534421.0 
END IONS

BEGIN IONS
PRECURSOR_MZ=747.465
INCHI=InChI=1S/C40H68O11.Na/c1-21-11-12-28(46-33(21)26(6)36(42)43)17-29-18-30(45-10)27(7)40(48-29)25(5)19-38(9,51-40)32-13-14-37(8,49-32)35-23(3)16-31(47-35)34-22(2)15-24(4)39(44,20-41)50-34;/h21-35,41,44H,11-20H2,1-10H3,(H,42,43);/q;+1/p-1/t21-,22-,23-,24+,25+,26+,27+,28+,29+,30+,31+,32+,33+,34-,35+,37-,38-,39-,40+;/m0./s1
SMILES=COC1CC(CC2CCC(C)C(C(C)C(=O)[O-])O2)OC2(OC(C)(C3CCC(C)(C4OC(C5OC(O)(CO)C(C)CC5C)CC4C)O3)CC2C)C1C.[Na+]
SCANS=6205
IONMODE=positive
COMPOUND_NAME=Nigericin sodium salt M+H
SPECTRUM_ID=CCMSLIB00006691546
52.921162 13442.0 
59.836319 12785.0 
92.375809 15378.0 
141.891602 15072.0 
209.381653 14852.0 
209.40123 23992.0 
237.109375 1755091.0 
383.351929 19461.0 
391.246124 61783.0 
393.223419 33817.0 
457.294159 57520.0 
475.300659 336255.0 
483.308014 291461.0 
501.318451 2044773.0 
527.332336 335377.0 
577.369324 63404.0 
585.411865 66241.0 
623.38031 20992.0 
629.407349 83043.0 
635.437744 113028.0 
653.437317 497518.0 
671.44873 421015.0 
679.418213 275569.0 
685.465332 1247087.0 
697.429016 1249503.0 
703.475159 5213781.0 
715.437439 846373.0 
729.453918 5700418.0 
742.182068 158803.0 
747.465027 81785936.0 
752.808472 144184.0 
END IONS

BEGIN IONS
PRECURSOR_MZ=383.171
INCHI=InChI=1S/C19H28O8/c1-10-4-5-13-11(2)16(23-15(22)7-6-14(20)21)24-17-19(13)12(10)8-9-18(3,25-17)26-27-19/h10-13,16-17H,4-9H2,1-3H3,(H,20,21)/t10-,11-,12+,13+,16-,17-,18+,19-/m1/s1
SMILES=CC1CCC2C(C)C(OC(=O)CCC(=O)O)OC3OC4(C)CCC1C32OO4
SCANS=22396
IONMODE=negative
COMPOUND_NAME=SCHEMBL4752698 M-H
SPECTRUM_ID=CCMSLIB00006707737
56.018009 2385.0 
57.034161 9793.0 
71.013481 25655.0 
73.029213 17110.0 
76.884682 2133.0 
82.407463 2554.0 
85.029152 5436.0 
92.388496 2510.0 
97.065826 4167.0 
99.008957 11409.0 
104.299149 2615.0 
109.487747 2206.0 
115.003487 37490.0 
117.019569 14373.0 
123.081543 2972.0 
125.061394 2302.0 
136.744293 2260.0 
151.078064 2371.0 
207.919876 12073.0 
259.168945 2549.0 
285.563019 2411.0 
321.170013 8922.0 
347.152191 2813.0 
365.160492 19244.0 
383.171234 67034.0 
END IONS

BEGIN IONS
PRECURSOR_MZ=273.031
INCHI=InChI=1S/C15H9ClO3/c16-13-4-2-1-3-11(13)12-7-9-5-6-10(17)8-14(9)19-15(12)18/h1-8,17H
SMILES=O=c1oc2cc(O)ccc2cc1-c1ccccc1Cl
SCANS=15164
IONMODE=positive
COMPOUND_NAME=3-(2-chlorophenyl)-7-hydroxychromen-2-one M+H
SPECTRUM_ID=CCMSLIB00006700505
55.018318 4921.0 
55.422741 2783.0 
68.997177 3568.0 
73.949638 2897.0 
104.279587 3655.0 
148.43663 2711.0 
152.062088 15265.0 
153.069534 84880.0 
154.077225 33348.0 
165.069565 87240.0 
166.077438 64819.0 
168.056839 6466.0 
175.030975 6095.0 
176.062363 5564.0 
181.064362 412563.0 
182.072235 934171.0 
185.394211 3202.0 
186.926361 2708.0 
189.047531 3053.0 
194.072311 116896.0 
199.030609 51089.0 
199.074844 6727.0 
209.056488 9793.0 
210.067062 843632.0 
215.025803 6793.0 
217.040985 931927.0 
227.034805 3033.0 
229.040741 5973.0 
237.053864 120502.0 
237.079346 5201.0 
238.061615 126480.0 
245.035568 15543.0 
273.030457 1965158.0 
END IONS

BEGIN IONS
PRECURSOR_MZ=585.291
INCHI=InChI=1S/C29H44O12/c1-13-22(34)23(35)24(36)25(40-13)41-15-8-19(32)28(12-30)21-17(3-5-27(28,37)9-15)29(38)6-4-16(14-7-20(33)39-11-14)26(29,2)10-18(21)31/h7,13,15-19,21-25,30-32,34-38H,3-6,8-12H2,1-2H3/t13-,15-,16+,17+,18+,19+,21+,22-,23+,24+,25-,26+,27-,28+,29-/m0/s1
SMILES=CC1OC(OC2CC(O)C3(CO)C4C(O)CC5(C)C(C6=CC(=O)OC6)CCC5(O)C4CCC3(O)C2)C(O)C(O)C1O
SCANS=21580
IONMODE=positive
COMPOUND_NAME=ouabain M+H
SPECTRUM_ID=CCMSLIB00006706921
50.921581 2579.0 
53.039169 2845.0 
55.054699 2869.0 
57.034039 3709.0 
58.972691 2505.0 
64.630836 2630.0 
67.054688 4327.0 
71.049637 26315.0 
79.054482 4392.0 
81.069878 5450.0 
82.397591 3110.0 
83.04937 22191.0 
85.028671 38394.0 
91.054466 16360.0 
92.373848 3318.0 
93.069733 3920.0 
94.628082 2691.0 
105.069679 13525.0 
107.085297 4837.0 
110.850983 2660.0 
111.044037 5116.0 
115.054108 3104.0 
117.069839 20647.0 
119.08535 12772.0 
128.062164 4157.0 
129.054321 6886.0 
129.070084 36418.0 
131.085098 20392.0 
133.100739 3476.0 
135.080521 3970.0 
136.20108 2601.0 
141.070114 25681.0 
143.085159 30742.0 
145.101074 12533.0 
147.079834 3133.0 
149.095322 3123.0 
155.085556 4471.0 
157.101212 65111.0 
159.08049 5143.0 
159.117416 6794.0 
161.09671 3655.0 
167.085999 3444.0 
169.101151 4322.0 
179.08577 4159.0 
181.100983 11813.0 
183.116211 3270.0 
185.095337 3494.0 
195.115906 3760.0 
231.11557 3281.0 
233.13208 3508.0 
245.132019 3508.0 
249.161606 3268.0 
285.814148 3485.0 
319.168335 16659.0 
337.178436 29763.0 
339.196747 3779.0 
349.17865 15788.0 
351.194427 4943.0 
355.189545 39412.0 
367.189728 28628.0 
373.199829 26957.0 
385.19986 40545.0 
403.211151 30460.0 
439.229797 4113.0 
END IONS

BEGIN IONS
PRECURSOR_MZ=422.128
INCHI=InChI=1S/C21H19N5O3S/c1-13-7-9-14(10-8-13)26-19-18(20(28)23-12-22-19)25-21(26)30-11-17(27)24-15-5-3-4-6-16(15)29-2/h3-10,12H,11H2,1-2H3,(H,24,27)(H,22,23,28)
SMILES=COc1ccccc1N=C(O)CSc1nc2c(O)ncnc2n1-c1ccc(C)cc1
SCANS=20562
IONMODE=positive
COMPOUND_NAME=N-(2-methoxyphenyl)-2-[9-(4-methylphenyl)-6-oxohydropurin-8-ylthio]acetamide M+H
SPECTRUM_ID=CCMSLIB00006705903
53.109539 3290.0 
70.139893 3588.0 
73.55098 3606.0 
82.904984 3286.0 
102.16497 3403.0 
105.069572 6407.0 
118.064987 14102.0 
121.023956 3782.0 
123.067459 7892.0 
128.053864 3338.0 
130.065033 59072.0 
131.072861 5511.0 
132.044098 5313.0 
134.060516 3922.0 
135.026581 8406.0 
136.075867 6316.0 
136.194061 3790.0 
142.065994 3795.0 
145.076126 31227.0 
146.059708 6544.0 
147.067032 8173.0 
148.075623 18472.0 
149.030624 4146.0 
150.037216 26593.0 
157.076035 31894.0 
158.059296 33744.0 
158.083847 8876.0 
159.06781 23122.0 
162.037109 355771.0 
162.051849 11586.0 
164.052917 50153.0 
169.075989 26700.0 
169.78096 4109.0 
172.086563 99397.0 
174.03714 17417.0 
175.032715 48866.0 
177.049088 4257.0 
183.080887 5914.0 
184.08609 33601.0 
185.071121 20540.0 
185.094528 26394.0 
186.079102 5017.0 
189.047989 312958.0 
190.03183 371038.0 
193.042938 162110.0 
198.065933 33365.0 
202.042908 75103.0 
207.058868 8455.0 
211.073807 22243.0 
212.08168 1249609.0 
213.089661 117434.0 
216.058777 225681.0 
217.042709 28018.0 
228.058548 18165.0 
230.03804 656111.0 
237.076248 41586.0 
238.084518 129254.0 
239.038635 4482.0 
239.091675 15710.0 
243.069458 5603.0 
244.053558 3730546.0 
246.069794 5851.0 
253.053726 33935.0 
256.040405 21208.0 
257.048737 316534.0 
262.064148 125583.0 
271.064362 2265341.0 
299.059265 5059046.0 
327.760651 4249.0 
422.12442 20466.0 
END IONS

BEGIN IONS
PRECURSOR_MZ=247.097
INCHI=InChI=1S/C14H14O4/c1-3-4-13(15)17-10-5-6-11-9(2)7-14(16)18-12(11)8-10/h5-8H,3-4H2,1-2H3
SMILES=CCCC(=O)Oc1ccc2c(C)cc(=O)oc2c1
SCANS=17721
IONMODE=positive
COMPOUND_NAME=17695-46-4 M+H
SPECTRUM_ID=CCMSLIB00006703062
53.03907 4335.0 
55.01828 30826.0 
59.292961 3162.0 
68.997437 76532.0 
71.04966 27786.0 
71.053383 4178.0 
77.038933 6446.0 
79.054489 200975.0 
81.070122 75566.0 
89.902138 3648.0 
91.054352 58572.0 
92.366493 3894.0 
93.069946 102260.0 
95.049187 7296.0 
103.0541 185926.0 
104.272713 4508.0 
105.069847 1104360.0 
107.048981 32398.0 
109.064522 6711.0 
115.05407 76555.0 
121.06469 635100.0 
131.048813 42733.0 
132.056961 12045.0 
133.064606 224012.0 
135.04364 6502.0 
149.059586 108358.0 
176.046631 5671.0 
176.431015 3602.0 
176.447571 5069.0 
177.054459 13341403.0 
177.665192 5592.0 
247.096008 601163.0 
END IONS

BEGIN IONS
PRECURSOR_MZ=224.092
INCHI=InChI=1S/C11H13NO4/c1-15-9-5-3-4-8(6-9)11(14)12-7-10(13)16-2/h3-6H,7H2,1-2H3,(H,12,14)
SMILES=COC(=O)CN=C(O)c1cccc(OC)c1
SCANS=19180
IONMODE=positive
COMPOUND_NAME=methyl 2-[(3-methoxyphenyl)carbonylamino]acetate M+H
SPECTRUM_ID=CCMSLIB00006704521
51.02327 2304.0 
51.940319 2674.0 
53.03904 80696.0 
55.018318 3244.0 
55.054619 13537.0 
56.51405 2060.0 
68.026016 45740.0 
68.997398 8858.0 
72.937424 9696.0 
74.041542 2482.0 
75.999329 2281.0 
77.038834 4483.0 
79.017937 33251.0 
79.054489 28075.0 
80.809799 2443.0 
81.033722 10415.0 
83.049271 9846.0 
83.929871 4573.0 
84.937767 14691.0 
90.301117 2624.0 
92.025597 48671.0 
95.049133 22712.0 
96.020622 10962.0 
96.937607 12978.0 
97.181664 2923.0 
102.948189 25202.0 
105.044701 9943.0 
107.049004 31291.0 
111.043999 9639.0 
113.963417 5004.0 
114.948219 9335.0 
115.922653 2528.0 
120.957901 2306.0 
121.064827 4868.0 
125.059578 273222.0 
130.943161 3436.0 
132.958679 11699.0 
135.043976 1833116.0 
135.054428 107381.0 
137.963943 8977.0 
140.950974 3554.0 
141.959076 4525.0 
142.96669 4755.0 
146.368988 2560.0 
148.074905 3754.0 
149.059982 4091.0 
153.958954 15671.0 
155.974365 63207.0 
156.983109 3040.0 
159.945236 3611.0 
164.071121 3149.0 
170.018402 2759.0 
177.956116 32231.0 
178.314178 2670.0 
192.065552 21937.0 
200.972351 58548.0 
206.080276 3616.0 
223.985962 3008.0 
224.091599 25087.0 
226.04335 9583.0 
END IONS

BEGIN IONS
PRECURSOR_MZ=368.11
INCHI=InChI=1S/C18H19NO6/c1-22-14-9-12(10-15(23-2)16(14)24-3)17(20)19-13-7-5-11(6-8-13)18(21)25-4/h5-10H,1-4H3,(H,19,20)
SMILES=COC(=O)c1ccc(NC(=O)c2cc(OC)c(OC)c(OC)c2)cc1
SCANS=4233
IONMODE=positive
COMPOUND_NAME=methyl 4-[(3,4,5-trimethoxyphenyl)carbonylamino]benzoate M+Na
SPECTRUM_ID=CCMSLIB00006689574
51.49815 2396.0 
54.691479 2460.0 
58.69664 2525.0 
77.420181 2774.0 
113.732231 2669.0 
118.653847 2512.0 
122.939049 2154.0 
188.462112 2298.0 
250.162781 2491.0 
368.10968 435050.0 
386.119965 17310.0 
END IONS

BEGIN IONS
PRECURSOR_MZ=283.068
INCHI=InChI=1S/C10H12N4O6/c15-1-3-5(16)6(17)9(20-3)14-2-11-4-7(14)12-10(19)13-8(4)18/h2-3,5-6,9,15-17H,1H2,(H2,12,13,18,19)/t3-,5-,6-,9-/m1/s1
SMILES=OC[C@H]1O[C@@H](n2cnc3c(O)nc(O)nc32)[C@H](O)[C@@H]1O
SCANS=23754
IONMODE=negative
COMPOUND_NAME=xanthosine M-H
SPECTRUM_ID=CCMSLIB00006709095
75.678299 57032.101562 
80.337196 46493.101562 
82.426598 88067.296875 
84.295403 56501.898438 
85.948196 49871.800781 
92.413101 52403.300781 
106.889999 59222.0 
108.019997 108641.0 
139.598007 64098.300781 
151.026001 20526600.0 
158.024994 72991.101562 
196.449005 59539.101562 
210.766998 126160.0 
232.462006 54929.0 
283.067993 8529200.0 
END IONS

BEGIN IONS
PRECURSOR_MZ=265.07
INCHI=InChI=1S/C12H10N4O2/c1-5-3-7-8(4-6(5)2)14-10-9(13-7)11(17)16-12(18)15-10/h3-4H,1-2H3,(H2,14,15,16,17,18)
SMILES=Cc1cc2nc3nc(O)nc(O)c3nc2cc1C
SCANS=3378
IONMODE=positive
COMPOUND_NAME=lumichrome M+Na
SPECTRUM_ID=CCMSLIB00006688719
92.389023 32788.0 
93.099167 23244.0 
110.014969 24878.0 
166.95517 23885.0 
265.069214 4830083.0 
END IONS

BEGIN IONS
PRECURSOR_MZ=458.036
INCHI=InChI=1S/C19H16BrN3O3/c1-21-19(26)15-10-18(25)23(16-5-3-2-4-14(15)16)11-17(24)22-13-8-6-12(20)7-9-13/h2-10H,11H2,1H3,(H,21,26)(H,22,24)
SMILES=CN=C(O)c1cc(=O)n(CC(=O)Nc2ccc(Br)cc2)c2ccccc12
SCANS=22322
IONMODE=negative
COMPOUND_NAME=N-(4-bromophenyl)-2-[4-(N-methylcarbamoyl)-2-oxohydroquinolyl]acetamide M+formate
SPECTRUM_ID=CCMSLIB00006707663
67.227188 2854.0 
72.045067 2658.0 
78.918747 66585.0 
90.358681 2689.0 
106.289207 2818.0 
116.050919 28128.0 
123.722282 2849.0 
128.050949 86167.0 
130.066498 120462.0 
130.077805 3927.0 
132.045837 11143.0 
136.239761 3554.0 
142.066757 15743.0 
143.061188 3343.0 
144.045822 122600.0 
156.045929 11608.0 
156.069977 28230.0 
158.04863 128535.0 
158.061661 108391.0 
160.040695 24471.0 
169.077499 31406.0 
169.961823 53565.0 
171.093109 189906.0 
172.041016 13309.0 
173.072617 29064.0 
174.056366 6061.0 
175.453079 2799.0 
176.072144 34197.0 
184.040802 51259.0 
185.072433 145579.0 
187.087921 25096.0 
197.071396 4790.0 
201.067291 134362.0 
202.051651 44902.0 
215.083191 11727.0 
217.062012 13601.0 
218.342422 2702.0 
232.59671 2730.0 
241.062286 46204.0 
267.02002 3170.0 
287.69278 2882.0 
355.009552 43403.0 
412.030945 911819.0 
458.180359 12342.0 
END IONS

BEGIN IONS
PRECURSOR_MZ=403.321
INCHI=InChI=1S/C26H44O4/c1-5-30-24(29)11-6-16(2)20-9-10-21-19-8-7-17-14-18(27)12-13-25(17,3)22(19)15-23(28)26(20,21)4/h16-23,27-28H,5-15H2,1-4H3/t16-,17-,18-,19+,20-,21+,22+,23+,25+,26-/m1/s1
SMILES=CCOC(=O)CCC(C)C1CCC2C3CCC4CC(O)CCC4(C)C3CC(O)C12C
SCANS=18792
IONMODE=positive
COMPOUND_NAME=ethyl 4-((1S,2S,11S,16S,5R,7R,10R,14R,15R)-5,16-dihydroxy-2,15-dimethyltetracy clo[8.7.0.0<2,7>.0<11,15>]heptadec-14-yl)pentanoate M+H-H2O
SPECTRUM_ID=CCMSLIB00006704133
53.039009 2413.0 
55.054798 23018.0 
67.054749 49703.0 
69.070259 25821.0 
79.05455 35738.0 
80.734894 2557.0 
81.070213 99434.0 
82.375137 2328.0 
83.085907 14472.0 
85.065079 5614.0 
91.048767 3809.0 
91.054253 27818.0 
93.07 83017.0 
95.085716 96727.0 
97.064507 2684.0 
97.100983 3274.0 
101.059761 30494.0 
105.069862 68807.0 
107.085609 91087.0 
109.065063 3736.0 
109.101303 56602.0 
111.079933 2548.0 
111.138992 2825.0 
117.069344 3889.0 
118.635353 2680.0 
119.085503 66237.0 
121.101227 68172.0 
123.080673 3801.0 
123.116722 5223.0 
127.823357 2776.0 
129.090729 3570.0 
131.085526 26678.0 
133.101212 67763.0 
135.080444 5074.0 
135.116989 58778.0 
137.096451 5110.0 
143.085083 3689.0 
145.101044 37872.0 
147.116913 56136.0 
148.320053 2325.0 
149.096481 5900.0 
149.132675 32148.0 
157.101105 9982.0 
159.116852 31901.0 
161.132401 41457.0 
163.110535 10628.0 
163.148193 13117.0 
169.101868 3931.0 
171.11676 10690.0 
173.132675 19670.0 
175.112228 3364.0 
175.147751 26166.0 
177.12706 10378.0 
177.163559 3554.0 
181.122452 3462.0 
183.117401 3449.0 
185.132553 11234.0 
187.147629 19347.0 
189.163803 14876.0 
191.142365 4098.0 
199.147614 5293.0 
201.163803 19956.0 
203.143494 3520.0 
203.17981 12003.0 
209.154327 9895.0 
211.147964 6351.0 
215.179031 29015.0 
223.168976 16434.0 
225.163483 3337.0 
229.157516 4110.0 
229.194855 10998.0 
241.197266 3683.0 
243.211258 17372.0 
249.184891 16699.0 
263.2005 2952.0 
275.200134 11808.0 
289.216064 6132.0 
291.231201 5311.0 
297.258423 4398.0 
321.257172 31828.0 
339.267853 55499.0 
357.279175 14180.0 
385.309692 317491.0 
403.316193 4382.0 
END IONS

BEGIN IONS
PRECURSOR_MZ=456.153
INCHI=InChI=1S/C24H23N3O5/c28-22(25-16-8-9-20-21(12-16)32-15-31-20)14-27-19-7-3-2-6-17(19)18(13-23(27)29)24(30)26-10-4-1-5-11-26/h2-3,6-9,12-13H,1,4-5,10-11,14-15H2,(H,25,28)
SMILES=O=C(c1cc(=O)n(CC(O)=Nc2ccc3c(c2)OCO3)c2ccccc12)N1CCCCC1
SCANS=22971
IONMODE=positive
COMPOUND_NAME=N-(2H-benzo[3,4-d]1,3-dioxolen-5-yl)-2-[2-oxo-4-(piperidylcarbonyl)hydroquinol yl]acetamide M+Na
SPECTRUM_ID=CCMSLIB00006708312
65.310631 3016.0 
92.365021 3627.0 
146.684128 3325.0 
186.056381 3493.0 
212.63063 3375.0 
259.108368 4403.0 
270.291016 3120.0 
271.10849 12736.0 
321.081207 3849.0 
357.385773 3369.0 
371.135254 11463.0 
456.186676 4068781.0 
463.153259 4515.0 
474.198608 4775.0 
496.182922 4137.0 
497.211121 6575.0 
770.136658 3221.0 
END IONS

BEGIN IONS
PRECURSOR_MZ=430.107
INCHI=InChI=1S/C20H19N3O6S/c1-5-27-19(25)17-11(3)21-20(30-17)23-18(24)13(10(2)22-23)6-12-7-15-16(29-9-28-15)8-14(12)26-4/h6-8H,5,9H2,1-4H3/b13-6+
SMILES=CCOC(=O)c1sc(N2N=C(C)C(=Cc3cc4c(cc3OC)OCO4)C2=O)nc1C
SCANS=22629
IONMODE=positive
COMPOUND_NAME=ethyl 2-{4-[(6-methoxy(2H-benzo[d]1,3-dioxolan-5-yl))methylene]-3-methyl-5-oxo (1,2-diazolinyl)}-4-methyl-1,3-thiazole-5-carboxylate M+H
SPECTRUM_ID=CCMSLIB00006707970
61.752682 2994.0 
66.451668 2361.0 
73.044197 2124.0 
80.042587 2616.0 
80.948143 2685.0 
85.797211 2568.0 
96.044258 13331.0 
101.029778 3863.0 
104.274246 2826.0 
117.079712 2565.0 
144.034912 4575.0 
157.006653 2726.0 
161.023056 4124.0 
162.03067 36750.0 
164.962097 2685.0 
165.822418 2849.0 
172.029877 20211.0 
183.022141 26713.0 
183.596893 3221.0 
185.00058 27944.0 
188.046722 18200.0 
189.017273 34952.0 
203.034149 4534.0 
208.999969 5880.0 
213.032135 4506.0 
216.041306 14104.0 
218.080246 3370.0 
220.036697 3551.0 
230.044617 5874.0 
250.026978 5262.0 
252.042877 60217.0 
271.056824 3074.0 
280.072479 2775.0 
318.028931 3928.0 
341.046661 5641.0 
342.053467 5818.0 
346.025055 16296.0 
359.054321 5444.0 
370.05069 41425.0 
371.029449 2994.0 
374.061646 3433.0 
386.043365 29065.0 
387.0495 3828.0 
398.081268 5624.0 
402.074341 78256.0 
430.10553 412351.0 
584.280701 2678.0 
837.703796 3043.0 
END IONS

BEGIN IONS
PRECURSOR_MZ=477.205
INCHI=InChI=1S/C26H34O6/c1-14(27)31-22-21(15-4-7-20(29)30-13-15)25(3)11-9-18-19(26(25)23(22)32-26)6-5-16-12-17(28)8-10-24(16,18)2/h4,7,13,16-19,21-23,28H,5-6,8-12H2,1-3H3/t16-,17+,18+,19-,21+,22-,23-,24+,25-,26-/m1/s1
SMILES=CC(=O)OC1C(c2ccc(=O)oc2)C2(C)CCC3C(CCC4CC(O)CCC43C)C23OC13
SCANS=8068
IONMODE=negative
COMPOUND_NAME=Cinobufagin M+Cl
SPECTRUM_ID=CCMSLIB00006693409
54.135872 2144.0 
131.958389 2391.0 
195.648621 2230.0 
234.788651 2840.0 
477.206665 4390.0 
END IONS

BEGIN IONS
PRECURSOR_MZ=403.223
INCHI=InChI=1S/C22H30N2O5/c1-3-28-18-13-15(11-12-17(18)25)20-19(14(2)23-22(27)24-20)21(26)29-16-9-7-5-4-6-8-10-16/h11-13,16,20,25H,3-10H2,1-2H3,(H2,23,24,27)
SMILES=CCOc1cc(C2NC(O)=NC(C)=C2C(=O)OC2CCCCCCC2)ccc1O
SCANS=15314
IONMODE=positive
COMPOUND_NAME=cyclooctyl 6-(3-ethoxy-4-hydroxyphenyl)-4-methyl-2-oxo-1,3,6-trihydropyrimidin e-5-carboxylate M+H
SPECTRUM_ID=CCMSLIB00006700655
51.374599 2779.0 
53.002609 4218.0 
55.054501 18648.0 
57.07024 4177.0 
61.040131 44018.0 
67.054512 3880.0 
69.070297 339148.0 
79.054321 4762.0 
81.731087 3092.0 
84.044777 25841.0 
89.038353 14669.0 
91.05442 36866.0 
92.372093 3378.0 
94.028427 5063.0 
96.007927 4270.0 
103.054329 44771.0 
105.069489 20272.0 
111.043892 7232.0 
111.116661 32663.0 
112.038933 4135.0 
115.054298 128506.0 
117.033363 26602.0 
117.069267 3910.0 
130.064606 5085.0 
131.049332 53180.0 
133.064362 25480.0 
135.044174 47819.0 
136.200577 3909.0 
137.034576 72871.0 
138.054749 14181.0 
139.075546 4092.0 
141.032959 7031.0 
142.6866 3061.0 
143.049164 282474.0 
145.028442 81648.0 
149.059555 4052.0 
155.045074 207729.0 
158.05954 32347.0 
159.029388 5203.0 
159.0439 97654.0 
160.051346 11770.0 
160.076126 3927.0 
161.05954 146519.0 
162.054764 5618.0 
163.039001 189436.0 
166.086517 59782.0 
167.070068 7032.0 
168.942719 3209.0 
175.062576 31925.0 
176.070572 37840.0 
177.054352 31281.0 
177.077255 3674.0 
186.031616 40442.0 
186.052811 29747.0 
187.038879 1928204.0 
189.054535 5240.0 
189.090759 80104.0 
191.070206 466004.0 
203.057571 29502.0 
204.041519 34081.0 
204.065399 38565.0 
204.101776 397905.0 
205.049561 264644.0 
205.066116 3617.0 
206.116638 4764.0 
212.033279 12014.0 
215.070145 612492.0 
217.085968 16313.0 
225.485825 3159.0 
232.096695 190436.0 
232.169052 3611.0 
233.080704 1475401.0 
247.981506 3518.0 
250.10704 201826.0 
258.073822 4687.0 
265.153198 5386.0 
275.102386 62923.0 
276.085938 40146.0 
293.112823 198006.0 
360.21698 33214.0 
376.824646 4123.0 
403.22287 531847.0 
END IONS

BEGIN IONS
PRECURSOR_MZ=290.132
INCHI=InChI=1S/C15H19N3OS/c19-15-4-1-3-14-13-7-12(9-18(14)15)8-17(10-13)6-2-5-16-11-20/h1,3-4,12-13H,2,5-10H2
SMILES=O=c1cccc2n1CC1CC2CN(CCCN=C=S)C1
SCANS=17715
IONMODE=positive
COMPOUND_NAME=3-(6-oxo-7,11-diazatricyclo[7.3.1.0<2,7>]trideca-2,4-dien-11-yl)propanisothioc yanate M+H
SPECTRUM_ID=CCMSLIB00006703056
56.050228 6142.0 
57.045212 16579.0 
63.92308 3407.0 
67.041992 146368.0 
68.049667 14028.0 
69.045128 7655.0 
70.065277 28907.0 
71.990494 76306.0 
71.994278 4602.0 
74.006119 248656.0 
75.026703 16017.0 
79.054497 20151.0 
80.049637 27592.0 
82.065247 30923.0 
88.021881 8265.0 
88.043449 3579.0 
91.054138 8579.0 
92.362556 4316.0 
94.065231 17524.0 
96.044312 42237.0 
96.080658 3552.0 
100.0215 153360.0 
103.05397 4405.0 
104.049423 9308.0 
104.271713 3704.0 
105.057007 12522.0 
105.069939 8577.0 
106.065079 44057.0 
108.04435 26124.0 
108.599388 4164.0 
109.052078 56216.0 
110.060181 7727.0 
112.021362 144513.0 
115.053886 6795.0 
117.057114 30985.0 
117.070343 4056.0 
118.065071 28217.0 
118.64061 4342.0 
120.080841 24558.0 
122.060127 29578.0 
126.054764 26044.0 
128.061768 4810.0 
129.069504 49456.0 
130.064682 28945.0 
131.072922 38720.0 
131.084518 12346.0 
132.04425 355092.0 
132.080673 45579.0 
133.052124 366847.0 
134.05986 140581.0 
142.064865 20802.0 
143.062988 5506.0 
144.080399 49443.0 
145.052322 41978.0 
145.063904 7092.0 
146.059891 543482.0 
146.096039 153480.0 
147.067734 22087.0 
148.0755 2348866.0 
154.065231 28311.0 
155.073044 15077.0 
156.080429 85040.0 
157.051804 7498.0 
158.05986 378615.0 
159.054474 6746.0 
159.067841 101089.0 
160.0755 3242027.0 
161.068008 7969.0 
161.083176 217535.0 
162.091309 67957.0 
170.05986 9241.0 
171.068054 8835.0 
172.075409 429584.0 
173.08432 14111.0 
174.091156 2098925.0 
175.098572 15848.0 
185.071045 19993.0 
187.086166 227364.0 
187.104523 7976.0 
189.102432 49774.0 
190.031876 17599.0 
191.117584 2472112.0 
199.08606 91761.0 
200.092148 47562.0 
202.032379 15558.0 
204.047516 68839.0 
206.063034 16015.0 
215.104004 4097.0 
216.112778 690955.0 
228.112488 35461.0 
231.058029 18609.0 
233.073853 5283118.0 
247.088394 4397.0 
256.143799 147832.0 
273.104248 7378.0 
290.13147 5108944.0 
END IONS

BEGIN IONS
PRECURSOR_MZ=399.204
INCHI=InChI=1S/C24H28N2O2/c1-4-19-7-8-23-21(14-19)20(15-24(27)28-23)16-25-9-11-26(12-10-25)22-13-17(2)5-6-18(22)3/h5-8,13-15H,4,9-12,16H2,1-3H3
SMILES=CCc1ccc2oc(=O)cc(CN3CCN(c4cc(C)ccc4C)CC3)c2c1
SCANS=2802
IONMODE=positive
COMPOUND_NAME=4-{[4-(2,5-dimethylphenyl)piperazinyl]methyl}-6-ethylchromen-2-one M+Na
SPECTRUM_ID=CCMSLIB00006688143
51.767639 2208.0 
52.926708 2184.0 
65.634949 2296.0 
82.746643 2715.0 
91.030052 2500.0 
106.871193 2299.0 
136.206772 2674.0 
149.881973 2276.0 
164.421707 2733.0 
208.669479 2517.0 
267.026611 2608.0 
399.203827 396469.0 
END IONS

BEGIN IONS
PRECURSOR_MZ=331.108
INCHI=InChI=1S/C20H14N2O3/c21-11-5-7-15-17(9-11)25-18-10-12(22)6-8-16(18)19(15)13-3-1-2-4-14(13)20(23)24/h1-10,21H,22H2,(H,23,24)
SMILES=N=c1ccc2c(-c3ccccc3C(=O)O)c3ccc(N)cc3oc-2c1
SCANS=2910
IONMODE=positive
COMPOUND_NAME=2-(3-amino-6-iminoxanthen-9-yl)benzoic acid, chloride M+H
SPECTRUM_ID=CCMSLIB00006688251
61.274891 13919.0 
62.8894 15972.0 
63.749001 15594.0 
73.942047 18838.0 
82.386269 16455.0 
96.561142 18535.0 
104.272423 20651.0 
130.545044 17790.0 
212.759705 27809.0 
285.10321 115725.0 
287.117523 231802.0 
315.089813 93677.0 
329.554718 106190.0 
330.100189 130900.0 
331.106964 105138472.0 
332.670624 106082.0 
END IONS

BEGIN IONS
PRECURSOR_MZ=337.093
INCHI=InChI=1S/C15H16O6/c1-5(2)7-8-11(16)19-9(7)10-13(3)14(8,18)4-6-15(13,21-6)12(17)20-10/h6-10,18H,1,4H2,2-3H3/t6-,7+,8-,9-,10-,13-,14-,15+/m1/s1
SMILES=C=C(C)C1C2OC(=O)C1C1(O)CC3OC34C(=O)OC2C14C
SCANS=6826
IONMODE=negative
COMPOUND_NAME=UNII-9K011NUF0R M+formate
SPECTRUM_ID=CCMSLIB00006692167
55.96452 2060.0 
78.229156 2507.0 
87.008476 9679.0 
92.386757 2676.0 
97.030182 2559.0 
101.342407 2319.0 
109.029663 348930.0 
109.066772 2429.0 
112.15316 2074.0 
134.585663 2534.0 
159.117981 16078.0 
162.627594 2384.0 
175.112244 3820.0 
200.881195 5194.0 
203.108063 131741.0 
262.891266 3771.0 
268.868958 10309.0 
290.890076 3706.0 
291.053162 4687.0 
291.08786 96607.0 
293.104156 4920.0 
308.893219 4053.0 
337.093781 36897.0 
END IONS

BEGIN IONS
PRECURSOR_MZ=449.109
INCHI=InChI=1S/C21H22O11/c22-7-15-16(26)18(28)19(29)21(32-15)31-13-4-2-9-11(24)6-14(30-20(9)17(13)27)8-1-3-10(23)12(25)5-8/h1-5,14-16,18-19,21-23,25-29H,6-7H2/t14-,15+,16+,18-,19+,21+/m0/s1
SMILES=O=C1CC(c2ccc(O)c(O)c2)Oc2c1ccc(OC1OC(CO)C(O)C(O)C1O)c2O
SCANS=22428
IONMODE=negative
COMPOUND_NAME=Flavanomarein M-H
SPECTRUM_ID=CCMSLIB00006707769
53.04631 2433.0 
66.755028 2505.0 
69.034149 2901.0 
82.415207 2873.0 
95.013657 22146.0 
107.005547 4237.0 
107.013748 119846.0 
107.049713 4107.0 
123.008614 140035.0 
125.023956 5673.0 
134.03743 46649.0 
135.045044 1350117.0 
145.029373 3928.0 
149.995499 14156.0 
151.003479 235065.0 
161.024048 3020.0 
169.014145 217700.0 
205.474518 3259.0 
210.313828 5370.0 
213.056412 3737.0 
241.050186 5939.0 
268.037781 5320.0 
269.045288 42275.0 
287.055908 526946.0 
313.055969 35870.0 
431.098633 37537.0 
449.108826 351868.0 
END IONS

BEGIN IONS
PRECURSOR_MZ=442.143
INCHI=InChI=1S/C24H25NO5/c1-27-21-15-18(16-22(28-2)23(21)29-3)24(26)25-13-14-30-20-12-8-7-11-19(20)17-9-5-4-6-10-17/h4-12,15-16H,13-14H2,1-3H3,(H,25,26)
SMILES=COc1cc(C(O)=NCCOc2ccccc2-c2ccccc2)cc(OC)c1OC
SCANS=5372
IONMODE=negative
COMPOUND_NAME=N-[2-(2-phenylphenoxy)ethyl](3,4,5-trimethoxyphenyl)carboxamide M+Cl
SPECTRUM_ID=CCMSLIB00006690713
50.26582 2427.0 
60.134628 2250.0 
68.820839 2605.0 
70.839943 2326.0 
104.326172 2724.0 
185.455765 2188.0 
188.639664 2322.0 
218.274384 2753.0 
220.705719 2972.0 
318.430817 2595.0 
396.427704 2517.0 
END IONS

BEGIN IONS
PRECURSOR_MZ=691.256
INCHI=InChI=1S/C21H18N2O3/c1-13-4-6-14(7-5-13)16-11-18(23-21(24)17(16)12-22)15-8-9-19(25-2)20(10-15)26-3/h4-11H,1-3H3,(H,23,24)
SMILES=COc1ccc(-c2cc(-c3ccc(C)cc3)c(C#N)c(O)n2)cc1OC
SCANS=17018
IONMODE=negative
COMPOUND_NAME=6-(3,4-dimethoxyphenyl)-4-(4-methylphenyl)-2-oxohydropyridine-3-carbonitrile 2M-H
SPECTRUM_ID=CCMSLIB00006702359
57.817001 3063.0 
60.865398 3131.0 
73.991013 3238.0 
80.557602 3205.0 
82.442993 4208.0 
104.341087 4382.0 
133.319397 3147.0 
191.355453 3265.0 
259.088562 5281.0 
287.082733 61378.0 
301.098114 34946.0 
315.078186 61500.0 
329.093964 47123.0 
345.124908 161116.0 
396.005066 3106.0 
626.4151 3126.0 
END IONS

BEGIN IONS
PRECURSOR_MZ=491.151
INCHI=InChI=1S/C25H30Cl2N2O4/c1-2-33-22-13-16(6-9-21(22)30)24-18-5-3-4-10-25(18,32)11-12-29(24)15-23(31)28-20-8-7-17(26)14-19(20)27/h6-9,13-14,18,24,30,32H,2-5,10-12,15H2,1H3,(H,28,31)
SMILES=CCOc1cc(C2C3CCCCC3(O)CCN2CC(O)=Nc2ccc(Cl)cc2Cl)ccc1O
SCANS=18594
IONMODE=negative
COMPOUND_NAME=N-(2,4-dichlorophenyl)-2-[2-(3-ethoxy-4-hydroxyphenyl)-6-hydroxy-3-azabicyclo[ 4.4.0]dec-3-yl]acetamide M-H
SPECTRUM_ID=CCMSLIB00006703935
50.476601 2340.0 
56.08585 2533.0 
104.296181 3053.0 
109.029518 4606.0 
119.626297 2924.0 
121.667603 2516.0 
123.995773 4024.0 
137.060623 3569.0 
148.11322 14219.0 
159.972794 62614.0 
161.060242 2769.0 
212.859818 2441.0 
216.994125 557175.0 
245.11731 2685.0 
260.129608 5873.0 
330.171112 4035.0 
335.073059 6157.0 
353.082764 100522.0 
491.150879 143478.0 
END IONS

BEGIN IONS
PRECURSOR_MZ=556.149
INCHI=InChI=1S/C26H26ClN3O6/c1-16-24(26(32)36-13-12-35-2)20-15-23(31)18-6-3-4-7-19(18)25(20)29(16)11-5-10-28-21-9-8-17(27)14-22(21)30(33)34/h3-4,6-9,14-15,28,31H,5,10-13H2,1-2H3
SMILES=COCCOC(=O)c1c(C)n(CCCNc2ccc(Cl)cc2[N+](=O)[O-])c2c1cc(O)c1ccccc12
SCANS=10492
IONMODE=negative
COMPOUND_NAME=2-methoxyethyl 1-{3-[(4-chloro-2-nitrophenyl)amino]propyl}-5-hydroxy-2-methylb enzo[g]indole-3-carboxylate M+formate
SPECTRUM_ID=CCMSLIB00006695833
50.496761 2515.0 
52.633919 2255.0 
64.147331 2444.0 
65.345284 2658.0 
66.758972 3169.0 
81.359711 2578.0 
85.232246 2776.0 
104.30896 2890.0 
111.095123 2546.0 
122.423172 2979.0 
132.088409 2915.0 
160.338699 2744.0 
210.050934 2794.0 
214.864807 2682.0 
222.055603 3476.0 
235.561966 3037.0 
279.895905 2560.0 
297.09964 31869.0 
298.10733 32730.0 
404.840759 2823.0 
436.603943 2652.0 
510.061432 4899.0 
510.142944 69091.0 
END IONS

BEGIN IONS
PRECURSOR_MZ=841.234
INCHI=InChI=1S/C21H19N5O3S/c1-13-3-7-15(8-4-13)26-19-18(20(28)23-12-22-19)25-21(26)30-11-17(27)24-14-5-9-16(29-2)10-6-14/h3-10,12H,11H2,1-2H3,(H,24,27)(H,22,23,28)
SMILES=COc1ccc(NC(=O)CSc2nc3c(O)ncnc3n2-c2ccc(C)cc2)cc1
SCANS=8020
IONMODE=negative
COMPOUND_NAME=N-(4-methoxyphenyl)-2-[9-(4-methylphenyl)-6-oxohydropurin-8-ylthio]acetamide 2M-H
SPECTRUM_ID=CCMSLIB00006693361
67.156723 3400.0 
92.025421 5277.0 
92.398743 5312.0 
92.42157 3236.0 
124.408836 3226.0 
155.061127 35716.0 
161.509384 3414.0 
169.469772 3500.0 
194.027924 13021.0 
208.853485 15736.0 
225.077835 145417.0 
226.750443 3872.0 
256.042297 55749.0 
257.050385 14954.0 
271.067413 4910.0 
297.045258 5323.0 
382.029205 3793.0 
420.113464 447822.0 
END IONS

BEGIN IONS
PRECURSOR_MZ=339.159
INCHI=InChI=1S/C21H22O4/c1-13(2)4-5-15-10-17-18(23)11-20(14-6-8-16(22)9-7-14)25-21(17)12-19(15)24-3/h4,6-10,12,20,22H,5,11H2,1-3H3/t20-/m0/s1
SMILES=COc1cc2c(cc1CC=C(C)C)C(=O)CC(c1ccc(O)cc1)O2
SCANS=4794
IONMODE=positive
COMPOUND_NAME=Bavachinin M+H
SPECTRUM_ID=CCMSLIB00006690135
57.920849 3045.0 
64.957077 3147.0 
65.961487 2666.0 
67.054588 5795.0 
69.070267 594192.0 
73.268494 2997.0 
74.096207 2657.0 
87.359016 3141.0 
91.054382 6205.0 
104.276093 2925.0 
107.04911 63656.0 
119.049088 67364.0 
121.028259 19768.0 
121.064484 13033.0 
123.043869 16318.0 
135.079529 3317.0 
147.044022 773180.0 
149.059647 6557.0 
151.038849 167865.0 
161.095932 10785.0 
169.049301 11410.0 
176.04686 5421.0 
177.054291 52246.0 
181.049881 19608.0 
189.054489 17345.0 
189.527893 3350.0 
190.062683 3877.0 
192.748383 3558.0 
203.069748 3484.0 
217.12352 11558.0 
219.101395 634849.0 
225.09053 55025.0 
227.106216 6661.0 
229.086838 22913.0 
233.116241 6941.0 
236.282181 3148.0 
245.117401 6854.0 
253.085892 36861.0 
255.064835 15044.0 
255.101608 13732.0 
256.072876 38473.0 
265.085938 4724.0 
269.080505 60712.0 
269.112 5386.0 
270.08902 78211.0 
271.096008 472709.0 
281.11792 17815.0 
283.09613 215643.0 
297.113403 4471.0 
301.342163 3448.0 
321.148163 18970.0 
337.548462 4562.0 
339.1586 5708827.0 
END IONS

BEGIN IONS
PRECURSOR_MZ=417.119
INCHI=InChI=1S/C21H22O9/c22-9-17-18(25)19(26)20(27)21(30-17)28-12-5-6-13-14(24)8-15(29-16(13)7-12)10-1-3-11(23)4-2-10/h1-7,15,17-23,25-27H,8-9H2
SMILES=O=C1CC(c2ccc(O)cc2)Oc2cc(OC3OC(CO)C(O)C(O)C3O)ccc21
SCANS=8408
IONMODE=negative
COMPOUND_NAME=ST077156 M-H
SPECTRUM_ID=CCMSLIB00006693749
65.084229 3607.0 
66.115868 2747.0 
67.72213 2755.0 
82.438454 2972.0 
82.651253 2746.0 
91.018837 59115.0 
92.377693 3673.0 
101.395332 2942.0 
119.050247 609833.0 
131.895905 3533.0 
135.008957 1073560.0 
136.2117 4111.0 
148.016708 3752.0 
153.019455 329818.0 
161.025223 3476.0 
162.504868 3348.0 
163.447708 3074.0 
179.98877 3028.0 
180.006012 12517.0 
254.056839 4394.0 
255.066437 3593702.0 
417.119232 2266229.0 
END IONS

BEGIN IONS
PRECURSOR_MZ=321.093
INCHI=InChI=1S/C16H14N6S/c1-2-6-12(7-3-1)10-22-16(19-20-21-22)23-11-15-17-13-8-4-5-9-14(13)18-15/h1-9H,10-11H2,(H,17,18)
SMILES=c1ccc(Cn2nnnc2SCc2nc3ccccc3[nH]2)cc1
SCANS=13790
IONMODE=negative
COMPOUND_NAME=5-(benzimidazol-2-ylmethylthio)-1-benzyl-1,2,3,4-tetraazole M-H
SPECTRUM_ID=CCMSLIB00006699131
69.447929 2637.0 
71.978607 4823.0 
78.950188 2041.0 
94.003677 2362.0 
94.075798 2172.0 
101.909538 2141.0 
116.928947 5132.0 
146.961304 5403.0 
174.955826 9714.0 
191.039795 95591.0 
213.83757 2094.0 
215.510941 2553.0 
END IONS

BEGIN IONS
PRECURSOR_MZ=785.593
INCHI=InChI=1S/C24H40O4/c1-14(4-7-21(27)28)17-5-6-18-22-19(9-11-24(17,18)3)23(2)10-8-16(25)12-15(23)13-20(22)26/h14-20,22,25-26H,4-13H2,1-3H3,(H,27,28)/t14-,15+,16-,17-,18+,19+,20-,22+,23+,24-/m1/s1
SMILES=CC(CCC(=O)O)C1CCC2C3C(O)CC4CC(O)CCC4(C)C3CCC12C
SCANS=7947
IONMODE=positive
COMPOUND_NAME=chenodeoxycholic acid 2M+H
SPECTRUM_ID=CCMSLIB00006693288
55.054588 6566.0 
67.054573 7591.0 
81.070053 65706.0 
82.408096 3434.0 
83.085922 38712.0 
93.069763 19855.0 
95.085533 63189.0 
99.043968 17694.0 
101.059288 15362.0 
105.069656 19855.0 
105.812523 3920.0 
107.085342 32138.0 
109.101151 41729.0 
115.074852 4859.0 
119.085182 22143.0 
121.101089 50882.0 
123.079697 3887.0 
123.116432 5942.0 
131.085861 6579.0 
133.101257 38137.0 
135.116653 93695.0 
137.095566 4840.0 
145.100418 4591.0 
147.116928 63836.0 
149.132324 70369.0 
151.111954 5484.0 
153.091248 4803.0 
159.117218 20244.0 
161.132294 94432.0 
163.111206 7140.0 
163.147842 43178.0 
167.106491 4749.0 
169.122482 6077.0 
173.132599 8726.0 
175.147964 84321.0 
177.126999 16762.0 
177.162994 6476.0 
179.10585 7408.0 
181.121643 47278.0 
182.824295 4256.0 
187.147614 23233.0 
189.163406 48872.0 
191.142761 4347.0 
193.122208 16819.0 
195.137421 56897.0 
201.16391 59214.0 
203.179321 20504.0 
207.138428 28441.0 
208.164902 15698.0 
209.152634 7044.0 
211.146896 4666.0 
215.178833 67452.0 
215.504532 3601.0 
217.195465 12448.0 
221.153534 33020.0 
229.15744 6443.0 
229.194611 32447.0 
235.169449 16031.0 
239.180084 5933.0 
241.193893 4411.0 
243.178619 4421.0 
243.210373 44390.0 
247.168961 51911.0 
249.184448 8333.0 
257.225922 21528.0 
261.183136 28465.0 
275.200317 54617.0 
289.214996 8459.0 
297.256836 6349.0 
301.215057 14033.0 
303.387177 7273.0 
303.421936 5072.0 
321.257019 33262.0 
339.267395 119978.0 
357.278107 2438964.0 
375.288696 418081.0 
393.299255 18636.0 
395.686646 4005.0 
411.196991 18138.0 
429.205627 5929.0 
609.595642 3994.0 
749.570679 24330.0 
767.569275 4848.0 
785.596741 47440.0 
END IONS

BEGIN IONS
PRECURSOR_MZ=464.194
INCHI=InChI=1S/C27H27N3O3/c1-19(31)30-25(17-21-18-29-24-13-7-5-11-22(21)24)27(32)28-15-16-33-26-14-8-6-12-23(26)20-9-3-2-4-10-20/h2-14,18,25,29H,15-17H2,1H3,(H,28,32)(H,30,31)
SMILES=CC(O)=NC(Cc1c[nH]c2ccccc12)C(O)=NCCOc1ccccc1-c1ccccc1
SCANS=5723
IONMODE=positive
COMPOUND_NAME=2-(acetylamino)-3-indol-3-yl-N-[2-(2-phenylphenoxy)ethyl]propanamide M+Na
SPECTRUM_ID=CCMSLIB00006691064
51.281479 2892.0 
54.195919 3097.0 
55.966412 3171.0 
59.138229 2965.0 
63.403111 3938.0 
73.959923 3707.0 
100.984093 3612.0 
143.081467 4931.0 
155.082092 5823.0 
158.400406 3491.0 
159.091934 5901.0 
181.073486 4282.0 
184.045975 3630.0 
184.728775 3691.0 
223.08429 35908.0 
236.103821 3982.0 
237.098846 12287.0 
251.079697 28324.0 
252.110641 31722.0 
257.548157 4457.0 
294.121765 14236.0 
307.390167 3636.0 
446.184845 47386.0 
464.193817 10397879.0 
466.787048 3714.0 
END IONS

BEGIN IONS
PRECURSOR_MZ=693.163
INCHI=InChI=1S/C15H14FN5O2S/c1-8-3-4-9(5-10(8)16)19-11(22)6-24-15-20-12-13(21(15)2)17-7-18-14(12)23/h3-5,7H,6H2,1-2H3,(H,19,22)(H,17,18,23)
SMILES=Cc1ccc(N=C(O)CSc2nc3c(O)ncnc3n2C)cc1F
SCANS=18916
IONMODE=negative
COMPOUND_NAME=N-(3-fluoro-4-methylphenyl)-2-(9-methyl-6-oxohydropurin-8-ylthio)acetamide 2M-H
SPECTRUM_ID=CCMSLIB00006704257
53.073719 2613.0 
58.559139 2684.0 
61.797661 2982.0 
65.962868 3001.0 
78.19561 3097.0 
79.030243 3530.0 
82.319679 3171.0 
85.544144 3322.0 
104.306267 3381.0 
118.679802 4300.0 
149.046875 70483.0 
152.028152 5050.0 
162.036514 4643.0 
176.018814 3246.0 
179.003098 31493.0 
180.011261 132483.0 
181.019089 81929.0 
195.034149 7008.0 
196.024109 5440.0 
272.095398 24658.0 
346.078094 186754.0 
625.139832 3682.0 
END IONS

BEGIN IONS
PRECURSOR_MZ=481.24
INCHI=InChI=1S/C30H29FN4O/c1-21-17-27(22(2)35(21)29-10-6-5-9-28(29)31)18-32-33-30(36)25-13-11-23(12-14-25)19-34-16-15-24-7-3-4-8-26(24)20-34/h3-14,17-18H,15-16,19-20H2,1-2H3,(H,33,36)/b32-18+
SMILES=Cc1cc(C=NNC(=O)c2ccc(CN3CCc4ccccc4C3)cc2)c(C)n1-c1ccccc1F
SCANS=1482
IONMODE=positive
COMPOUND_NAME=N-{(1E)-2-[1-(2-fluorophenyl)-2,5-dimethylpyrrol-3-yl]-1-azavinyl}[4-(2-1,2,3, 4-tetrahydroisoquinolylmethyl)phenyl]carboxamide M+H
SPECTRUM_ID=CCMSLIB00006686823
62.191799 4774.0 
65.039017 27476.0 
67.054573 5640.0 
73.265327 4486.0 
79.05426 7193.0 
80.049812 6924.0 
81.045021 4118.0 
83.535683 4467.0 
91.054489 134870.0 
92.381683 6450.0 
94.065376 42034.0 
95.060387 23298.0 
96.04454 10278.0 
103.054291 35294.0 
105.033501 40535.0 
105.069702 6511.0 
106.065117 714556.0 
109.064339 4979.0 
109.07605 27574.0 
110.040047 8228.0 
111.047821 8373.0 
117.070374 3914.0 
118.065514 4906.0 
118.657997 5133.0 
119.049217 2405389.0 
120.068558 8140.0 
123.229317 4049.0 
130.065048 18579.0 
131.060272 41203.0 
132.044235 73604.0 
132.080734 237108.0 
132.092361 8364.0 
134.059982 448889.0 
136.055344 41397.0 
145.075592 6234.0 
145.088516 192381.0 
148.055725 50540.0 
159.055145 9412.0 
162.071487 19018.0 
164.844757 4112.0 
172.055923 5358.0 
176.087021 7332.0 
182.096848 6674.0 
185.064468 5152.0 
186.070999 44195.0 
188.086853 57770.0 
189.095078 23830.0 
190.102783 105460.0 
195.09227 8394.0 
198.057999 8038.0 
200.072601 9144.0 
201.096863 7267.0 
202.102753 40666.0 
203.098114 44720.0 
207.945068 18183.0 
210.101105 7066.0 
213.082138 2000394.0 
214.089981 808878.0 
215.097992 617997.0 
216.084717 10379.0 
216.105133 6924.0 
218.097336 39048.0 
220.111465 30338.0 
221.098236 4586.0 
222.128036 27576.0 
228.093094 227320.0 
229.100967 113682.0 
230.108597 775202.0 
231.092834 39459.0 
250.122467 314608.0 
256.087219 6258.0 
264.147278 5279.0 
267.150543 38381.0 
268.13324 17330.0 
276.119354 5929.0 
288.1185 8081.0 
290.133759 14842.0 
291.13916 6998.0 
292.149048 20361.0 
303.129028 5399.0 
305.144623 5987.0 
318.129547 23761.0 
320.15271 41427.0 
331.123901 20020.0 
348.15033 3713635.0 
349.134399 40199.0 
350.165802 140732.0 
350.213928 6457.0 
461.803131 4332.0 
481.239563 10533685.0 
483.992096 4320.0 
END IONS

BEGIN IONS
PRECURSOR_MZ=223.061
INCHI=InChI=1S/C11H12O5/c1-7(12)16-9-4-3-8(6-11(13)14)5-10(9)15-2/h3-5H,6H2,1-2H3,(H,13,14)
SMILES=COc1cc(CC(=O)O)ccc1OC(C)=O
SCANS=9995
IONMODE=negative
COMPOUND_NAME=2-(4-acetyloxy-3-methoxyphenyl)acetic acid M-H
SPECTRUM_ID=CCMSLIB00006695336
59.01347 8260.0 
73.973122 2454.0 
75.973488 1905.0 
104.31459 2255.0 
107.761551 2258.0 
121.029839 15829.0 
121.148582 1995.0 
123.008957 15877.0 
136.053192 52537.0 
137.060684 24137.0 
138.032455 11476.0 
150.033142 2385.0 
164.048004 57103.0 
168.042725 37306.0 
178.027283 3240.0 
179.071381 104090.0 
180.562332 2316.0 
220.691925 2530.0 
223.061218 36937.0 
223.096237 2722.0 
END IONS

BEGIN IONS
PRECURSOR_MZ=529.246
INCHI=InChI=1S/C33H34N2O3/c1-3-31(36)33-30(18-25(19-32(33)37)24-12-8-5-9-13-24)34-17-16-27-22(2)35-29-15-14-26(20-28(27)29)38-21-23-10-6-4-7-11-23/h4-15,20,25,34-35H,3,16-19,21H2,1-2H3
SMILES=CCC(=O)C1=C(NCCc2c(C)[nH]c3ccc(OCc4ccccc4)cc23)CC(c2ccccc2)CC1=O
SCANS=2329
IONMODE=positive
COMPOUND_NAME=3-({2-[2-methyl-5-(phenylmethoxy)indol-3-yl]ethyl}amino)-5-phenyl-2-propanoylc yclohex-2-en-1-one M+Na
SPECTRUM_ID=CCMSLIB00006687670
54.961361 3075.0 
59.824261 3497.0 
92.393257 4304.0 
104.303917 3739.0 
117.132629 3100.0 
133.084839 3825.0 
141.175217 3212.0 
151.162979 3876.0 
160.075684 3754.0 
161.043777 12969.0 
173.083405 7839.0 
182.057877 42353.0 
195.064651 18995.0 
224.067612 32499.0 
225.52536 3217.0 
236.516922 3411.0 
237.074356 4130.0 
249.089249 37372.0 
250.083206 261516.0 
262.083099 12334.0 
264.098846 82216.0 
265.106659 30734.0 
266.11438 74977.0 
266.143768 6651.0 
269.064087 6950.0 
278.114532 578108.0 
303.617432 3467.0 
409.151062 678752.0 
437.180054 4773.0 
438.190338 612295.0 
529.245239 3853020.0 
END IONS

BEGIN IONS
PRECURSOR_MZ=161.06
INCHI=InChI=1S/C10H10O3/c1-13-9-5-2-8(3-6-9)4-7-10(11)12/h2-7H,1H3,(H,11,12)/b7-4+
SMILES=COc1ccc(C=CC(=O)O)cc1
SCANS=19192
IONMODE=positive
COMPOUND_NAME=4-Methoxycinnamic acid M+H-H2O
SPECTRUM_ID=CCMSLIB00006704533
50.015862 6238.0 
50.459728 2784.0 
51.023499 12428.0 
53.03915 21271.0 
55.01844 12475.0 
55.935108 3029.0 
56.96524 14593.0 
63.023899 4157.0 
65.038986 22195.0 
65.666321 2748.0 
66.04689 191682.0 
67.831413 3275.0 
68.026199 21966.0 
73.879517 3943.0 
73.943642 3323.0 
75.31926 3282.0 
77.038689 22090.0 
78.931129 4812.0 
79.054604 965734.0 
81.033813 19745.0 
82.850021 2922.0 
84.959862 13271.0 
87.00177 5602.0 
88.000153 4124.0 
89.039078 17517.0 
90.04657 101879.0 
91.054497 62933.0 
92.02581 21296.0 
93.033661 3666.0 
94.041748 24460.0 
95.049217 51157.0 
102.04628 43455.0 
103.054291 926100.0 
104.062202 4345.0 
105.04493 21576.0 
105.069962 523610.0 
107.049316 20574.0 
108.9963 4173.0 
109.491379 19458.0 
109.992638 3094.0 
110.489929 6331.0 
115.054314 37486.0 
116.062309 3268.0 
117.003021 13077.0 
117.034203 3998.0 
117.502876 3375.0 
118.041397 1467830.0 
121.028648 7600.0 
122.036171 7081.0 
131.049316 20517.0 
132.057114 20887.0 
132.668793 4330.0 
133.064957 5308467.0 
146.036011 26099.0 
161.059875 3518494.0 
171.182861 3007.0 
END IONS

BEGIN IONS
PRECURSOR_MZ=422.128
INCHI=InChI=1S/C21H19N5O3S/c1-13-6-8-15(9-7-13)26-19-18(20(28)23-12-22-19)25-21(26)30-11-17(27)24-14-4-3-5-16(10-14)29-2/h3-10,12H,11H2,1-2H3,(H,24,27)(H,22,23,28)
SMILES=COc1cccc(N=C(O)CSc2nc3c(O)ncnc3n2-c2ccc(C)cc2)c1
SCANS=20161
IONMODE=positive
COMPOUND_NAME=N-(3-methoxyphenyl)-2-[9-(4-methylphenyl)-6-oxohydropurin-8-ylthio]acetamide M+H
SPECTRUM_ID=CCMSLIB00006705502
60.548012 2752.0 
66.751953 2923.0 
92.389969 3561.0 
118.064789 6907.0 
124.076073 4992.0 
130.065384 10804.0 
132.043854 7213.0 
136.075485 4435.0 
145.076111 3570.0 
147.067688 5999.0 
148.075485 3479.0 
157.998413 3589.0 
162.037079 79610.0 
164.053177 7218.0 
172.087067 24490.0 
175.032532 6421.0 
184.087234 12108.0 
185.094788 15681.0 
186.091263 7227.0 
189.047958 74002.0 
190.031906 97484.0 
193.042694 26351.0 
198.065598 6133.0 
202.042633 24754.0 
212.08168 443107.0 
213.089706 67172.0 
216.058823 73131.0 
217.043106 3788.0 
220.667252 3107.0 
228.059677 4992.0 
230.038025 258286.0 
237.076843 6237.0 
238.083984 40943.0 
244.053635 1723099.0 
246.070953 3712.0 
253.054367 14903.0 
256.040009 4337.0 
257.048767 217981.0 
262.063995 70787.0 
271.064453 1664602.0 
294.323425 3313.0 
299.059326 2625875.0 
421.999146 6328.0 
422.128571 36333.0 
END IONS

BEGIN IONS
PRECURSOR_MZ=204.066
INCHI=InChI=1S/C11H9NO3/c1-6-10(13)9(11(14)15)7-4-2-3-5-8(7)12-6/h2-5,13H,1H3,(H,14,15)
SMILES=Cc1nc2ccccc2c(C(=O)O)c1O
SCANS=3494
IONMODE=positive
COMPOUND_NAME=3-hydroxy-2-methylquinoline-4-carboxylic acid M+H
SPECTRUM_ID=CCMSLIB00006688835
60.53915 3304.0 
66.744957 2924.0 
73.956108 3394.0 
84.959953 3067.0 
92.221802 2629.0 
92.381561 3607.0 
104.290703 2848.0 
116.951477 3907.0 
128.63707 2854.0 
130.065125 17590.0 
135.589218 2582.0 
142.06485 20103.0 
158.059906 85113.0 
180.955719 5644.0 
180.983643 3499.0 
186.054794 2881088.0 
204.065369 1558190.0 
END IONS

BEGIN IONS
PRECURSOR_MZ=721.235
INCHI=InChI=1S/C33H40O15/c1-13(2)5-10-17-19(45-33-28(42)26(40)23(37)20(12-34)46-33)11-18(35)21-24(38)31(48-32-27(41)25(39)22(36)14(3)44-32)29(47-30(17)21)15-6-8-16(43-4)9-7-15/h5-9,11,14,20,22-23,25-28,32-37,39-42H,10,12H2,1-4H3/t14-,20+,22-,23?,25+,26-,27+,28?,32?,33+/m0/s1
SMILES=COc1ccc(-c2oc3c(CC=C(C)C)c(OC4OC(CO)C(O)C(O)C4O)cc(O)c3c(=O)c2OC2OC(C)C(O)C(O)C2O)cc1
SCANS=20761
IONMODE=negative
COMPOUND_NAME=Icarrin M+formate
SPECTRUM_ID=CCMSLIB00006706102
73.949043 4375.0 
82.392036 5007.0 
92.370537 4379.0 
93.034317 15376.0 
98.619537 4037.0 
104.277489 5315.0 
109.768768 3894.0 
123.04525 9029.0 
130.045746 3973.0 
133.02977 17737.0 
149.060287 6468.0 
159.082291 4384.0 
163.003983 37180.0 
173.060776 22305.0 
175.003601 99174.0 
175.040207 4675.0 
175.07637 8536.0 
176.011795 14590.0 
187.077301 7951.0 
188.011429 5327.0 
190.064499 6093.0 
191.072647 4486.0 
201.056168 4663.0 
203.035522 5049.0 
203.07103 7710.0 
204.006592 7100.0 
217.050659 79743.0 
218.05925 4816.0 
219.06633 14855.0 
225.666931 4232.0 
229.268875 4798.0 
231.067856 5703.0 
237.056335 7821.0 
241.050385 6555.0 
252.041428 5721.0 
253.051041 44920.0 
255.031281 7255.0 
258.053711 4013.0 
265.051147 67233.0 
267.030182 19339.0 
267.103302 4274.0 
268.038422 29517.0 
269.045868 59256.0 
279.029358 19291.0 
279.103333 20142.0 
280.036957 31073.0 
281.045807 188400.0 
282.052582 4795.0 
283.025665 18854.0 
283.05777 4975.0 
283.483765 4258.0 
284.031555 8968.0 
293.118958 5987.0 
295.028076 4268.0 
295.061157 36598.0 
295.097687 11418.0 
296.033234 37309.0 
297.040741 461681.0 
298.048187 13429.0 
305.082336 7367.0 
308.033356 53680.0 
309.040833 484548.0 
309.111328 20676.0 
311.05661 33951.0 
323.05481 35418.0 
323.092468 213060.0 
335.095184 7198.0 
337.069183 8195.0 
337.111267 15071.0 
344.053528 46787.0 
351.087646 291117.0 
352.095428 292903.0 
365.103546 19171.0 
366.111511 46466.0 
367.118835 1219498.0 
368.122711 14572.0 
409.129364 189507.0 
427.289612 3964.0 
433.132111 15037.0 
513.176636 1315259.0 
514.183411 8554.0 
529.171936 367015.0 
579.172363 4036.0 
END IONS

BEGIN IONS
PRECURSOR_MZ=428.965
INCHI=InChI=1S/C19H11BrN2O3/c20-11-5-3-4-10(8-11)15-13(9-21)18(22)25-17-12-6-1-2-7-14(12)24-19(23)16(15)17/h1-8,15H,22H2
SMILES=N#CC1=C(N)Oc2c(c(=O)oc3ccccc23)C1c1cccc(Br)c1
SCANS=20347
IONMODE=negative
COMPOUND_NAME=2-amino-4-(3-bromophenyl)-5-oxo-4H-pyrano[3,2-c]chromene-3-carbonitrile M+Cl
SPECTRUM_ID=CCMSLIB00006705688
65.014107 214813.0 
68.995331 2878.0 
87.166893 2482.0 
98.65033 2563.0 
109.009354 2747.0 
112.985497 4869.0 
124.440804 2293.0 
129.971771 2198.0 
139.105942 2652.0 
213.462616 2450.0 
392.987823 17180.0 
428.980194 12179.0 
END IONS

BEGIN IONS
PRECURSOR_MZ=456.092
INCHI=InChI=1S/C22H22BrN3O3/c1-3-25(4-2)22(29)18-13-21(28)26(19-8-6-5-7-17(18)19)14-20(27)24-16-11-9-15(23)10-12-16/h5-13H,3-4,14H2,1-2H3,(H,24,27)
SMILES=CCN(CC)C(=O)c1cc(=O)n(CC(=O)Nc2ccc(Br)cc2)c2ccccc12
SCANS=22480
IONMODE=positive
COMPOUND_NAME=2-[4-(N,N-diethylcarbamoyl)-2-oxohydroquinolyl]-N-(4-bromophenyl)acetamide M+H
SPECTRUM_ID=CCMSLIB00006707821
50.487461 2864.0 
53.138161 2594.0 
64.09832 2974.0 
70.065643 6458.0 
70.350639 2861.0 
72.044731 127792.0 
72.081123 14319.0 
84.080704 11068.0 
86.096657 110825.0 
88.860641 2750.0 
92.363358 2658.0 
98.059952 3407.0 
100.075729 364707.0 
102.140617 3554.0 
105.057098 6350.0 
107.120644 3373.0 
108.301483 3237.0 
128.049469 10841.0 
130.065155 96146.0 
132.044266 4826.0 
133.052109 48148.0 
143.072662 20556.0 
146.059799 14120.0 
155.060333 81835.0 
156.043945 20460.0 
156.067535 3949.0 
157.051849 23669.0 
158.059906 108225.0 
158.096451 102431.0 
160.075287 3608.0 
161.047043 11991.0 
169.077118 3624.0 
183.091797 12702.0 
184.09938 133609.0 
185.107422 14430.0 
186.055069 38365.0 
186.09137 4137.0 
201.065933 4291.0 
201.101959 18844.0 
207.16066 2878.0 
209.107376 2912.0 
213.138214 13511.0 
216.089294 97852.0 
227.081665 30276.0 
229.096848 6979.0 
229.132935 27517.0 
245.12825 341577.0 
257.128113 388648.0 
283.105194 5835.0 
285.123047 1006706.0 
298.154968 15531.0 
456.061737 16765.0 
456.190247 120168.0 
END IONS

BEGIN IONS
PRECURSOR_MZ=200.035
INCHI=InChI=1S/C6H11NO3S/c1-11-3-2-5(6(9)10)7-4-8/h4-5H,2-3H2,1H3,(H,7,8)(H,9,10)/t5-/m1/s1
SMILES=CSCCC(N=CO)C(=O)O
SCANS=9538
IONMODE=positive
COMPOUND_NAME=fMet M+Na
SPECTRUM_ID=CCMSLIB00006694879
50.457481 7492.0 
58.41827 7469.0 
63.96912 7570.0 
64.766273 7357.0 
82.38192 9639.0 
88.969322 9534.0 
126.034698 13099.0 
128.950546 36870.0 
135.946274 12308.0 
146.961044 13971.0 
154.545135 8171.0 
164.820953 9924.0 
172.040115 17443.0 
176.98114 156161.0 
181.072144 56128.0 
181.986176 10843.0 
194.99115 37501.0 
199.996948 240352.0 
200.035278 368503.0 
END IONS

BEGIN IONS
PRECURSOR_MZ=168.063
INCHI=InChI=1S/C6H11NO3/c1-5(8)7-4-2-3-6(9)10/h2-4H2,1H3,(H,7,8)(H,9,10)
SMILES=CC(O)=NCCCC(=O)O
SCANS=9981
IONMODE=positive
COMPOUND_NAME=4-Acetamidobutyric acid M+Na
SPECTRUM_ID=CCMSLIB00006695322
64.805489 47724.0 
73.935699 52680.0 
86.61853 46392.0 
88.700142 42722.0 
104.254784 55775.0 
104.261581 49843.0 
138.447357 40772.0 
157.729523 52258.0 
168.063141 3085262.0 
END IONS

BEGIN IONS
PRECURSOR_MZ=454.105
INCHI=InChI=1S/C24H20ClNO6/c1-30-21-12-9-16(13-22(21)31-2)23(28)26-19-6-4-3-5-18(19)24(29)32-14-20(27)15-7-10-17(25)11-8-15/h3-13H,14H2,1-2H3,(H,26,28)
SMILES=COc1ccc(C(O)=Nc2ccccc2C(=O)OCC(=O)c2ccc(Cl)cc2)cc1OC
SCANS=7299
IONMODE=positive
COMPOUND_NAME=2-(4-chlorophenyl)-2-oxoethyl 2-[(3,4-dimethoxyphenyl)carbonylamino]benzoate M+H
SPECTRUM_ID=CCMSLIB00006692640
53.03896 7646.0 
66.0467 4971.0 
66.782089 2908.0 
67.054253 3113.0 
77.038948 3807.0 
79.018066 4419.0 
79.05455 36650.0 
81.070137 4416.0 
93.334183 3498.0 
94.041389 15876.0 
98.036102 5460.0 
109.028297 19909.0 
109.064621 23138.0 
111.007584 5454.0 
121.029213 3993.0 
122.036324 27334.0 
126.031052 27758.0 
135.553299 3392.0 
137.058624 4004.0 
141.054123 3628.0 
146.023575 59918.0 
155.070007 29384.0 
165.05455 7171189.0 
177.51741 3285.0 
283.04599 3570.0 
284.091248 612089.0 
308.803833 3409.0 
454.104614 82893.0 
END IONS

BEGIN IONS
PRECURSOR_MZ=342.17
INCHI=InChI=1S/C20H23NO4/c1-21-8-7-12-10-15(24-3)20(25-4)18-16(12)13(21)9-11-5-6-14(23-2)19(22)17(11)18/h5-6,10,13,22H,7-9H2,1-4H3/t13-/m0/s1
SMILES=COc1ccc2c(c1O)-c1c(OC)c(OC)cc3c1C(C2)N(C)CC3
SCANS=1658
IONMODE=positive
COMPOUND_NAME=Isocorydine M+H
SPECTRUM_ID=CCMSLIB00006686999
53.943951 4259.0 
58.065639 10805.0 
73.535782 4148.0 
73.587151 4065.0 
75.383102 4189.0 
76.298912 4740.0 
77.054817 4367.0 
81.520721 6060.0 
81.525574 5398.0 
81.783112 4286.0 
82.391609 5829.0 
87.82798 4305.0 
88.288757 5263.0 
102.426628 6537.0 
106.055687 4197.0 
106.564293 4362.0 
165.070724 7542.0 
178.076294 5900.0 
189.071457 11276.0 
191.085022 160963.0 
192.093384 8465.0 
193.100876 24689.0 
194.072647 30810.0 
195.080231 7314.0 
203.086121 9502.0 
205.064972 28701.0 
205.099991 6551.0 
206.070312 8816.0 
207.079803 11012.0 
208.088242 56191.0 
209.095062 28500.0 
218.071671 18742.0 
219.080124 278449.0 
220.088028 72835.0 
221.095505 103746.0 
222.067688 8493.0 
222.100021 4957.0 
223.111298 124640.0 
224.082489 47547.0 
231.079575 33434.0 
233.059647 8809.0 
233.09584 58710.0 
234.064941 6370.0 
235.074814 84028.0 
236.082626 1084425.0 
237.090408 87343.0 
237.416672 4442.0 
238.063278 10727.0 
239.106155 27327.0 
246.066956 24828.0 
247.074783 649643.0 
248.082672 2538579.0 
249.057816 8963.0 
249.090118 182233.0 
250.099213 43899.0 
251.10611 1242574.0 
252.077286 42413.0 
253.085266 55697.0 
254.091934 6006.0 
261.090881 93224.0 
262.098297 109783.0 
263.069702 57166.0 
264.077545 2366742.0 
265.085266 1026707.0 
266.058746 6982.0 
266.092285 19081.0 
267.100861 458864.0 
268.108978 67255.0 
277.085419 23326.0 
278.092773 76367.0 
279.100922 8271473.0 
280.108612 2084045.0 
281.080078 846735.0 
281.111572 26369.0 
284.103607 45174.0 
285.111511 10730.0 
286.118683 18641.0 
293.117432 22901.0 
294.123047 20354.0 
295.096283 7243.0 
296.103607 2292760.0 
298.121185 10191.0 
299.126648 162475.0 
299.162262 8512.0 
310.142303 29515.0 
311.126892 8145622.0 
313.1409 40666.0 
325.14151 24104.0 
327.145264 24191.0 
342.169159 19640348.0 
END IONS

BEGIN IONS
PRECURSOR_MZ=601.192
INCHI=InChI=1S/C14H15N5OS/c1-9-2-4-10(5-3-9)20-7-6-19-13-11(18-14(19)21)12(15)16-8-17-13/h2-5,8H,6-7H2,1H3,(H,18,21)(H2,15,16,17)
SMILES=Cc1ccc(OCCn2c(S)nc3c(N)ncnc32)cc1
SCANS=13807
IONMODE=negative
COMPOUND_NAME=6-amino-9-[2-(4-methylphenoxy)ethyl]purine-8-thiol 2M-H
SPECTRUM_ID=CCMSLIB00006699148
51.66869 2503.0 
81.731323 3008.0 
104.304749 2626.0 
107.050171 1094268.0 
123.044968 3103.0 
160.8871 2892.0 
192.0345 26065.0 
208.716644 11707.0 
209.542542 3117.0 
300.092041 175391.0 
END IONS

BEGIN IONS
PRECURSOR_MZ=271.082
INCHI=InChI=1S/C12H16O7/c13-5-8-9(15)10(16)11(17)12(19-8)18-7-3-1-6(14)2-4-7/h1-4,8-17H,5H2/t8-,9-,10+,11-,12-/m1/s1
SMILES=OCC1OC(Oc2ccc(O)cc2)C(O)C(O)C1O
SCANS=23214
IONMODE=negative
COMPOUND_NAME=arbutin M-H
SPECTRUM_ID=CCMSLIB00006708555
59.013531 2876.0 
66.749672 2567.0 
68.997704 2425.0 
71.013496 81414.0 
73.029152 20421.0 
76.357063 2106.0 
83.013657 3379.0 
85.029297 51282.0 
89.024498 4258.0 
92.385986 2658.0 
95.013733 33457.0 
99.008743 12882.0 
101.024437 40700.0 
107.050102 2794.0 
108.021767 1087052.0 
109.02948 39766.0 
113.024651 34868.0 
118.666199 2809.0 
121.029518 11405.0 
123.008797 23425.0 
123.045563 10877.0 
133.029221 8794.0 
136.218277 2630.0 
140.131195 2708.0 
151.040131 43725.0 
156.954803 3072.0 
157.989655 2563.0 
159.030487 9344.0 
161.045563 65249.0 
163.040131 14005.0 
202.96257 2788.0 
211.279984 2950.0 
271.08313 14901.0 
END IONS

BEGIN IONS
PRECURSOR_MZ=571.088
INCHI=InChI=1S/C15H10O6/c16-8-2-3-9-12(6-8)21-15(14(20)13(9)19)7-1-4-10(17)11(18)5-7/h1-6,16-18,20H
SMILES=O=c1c(O)c(-c2ccc(O)c(O)c2)oc2cc(O)ccc12
SCANS=18508
IONMODE=negative
COMPOUND_NAME=Fisetin 2M-H
SPECTRUM_ID=CCMSLIB00006703849
54.47884 2444.0 
91.018837 37223.0 
92.389038 3253.0 
93.034592 4626.0 
104.300217 3784.0 
121.02961 48804.0 
121.18161 2922.0 
135.00885 67638.0 
138.346512 2926.0 
139.040237 10879.0 
146.961807 3187.0 
149.024551 16435.0 
153.01944 42893.0 
163.003662 15752.0 
175.185699 2807.0 
179.130814 3691.0 
180.640045 2863.0 
185.062622 2737.0 
220.663589 2968.0 
229.05101 16740.0 
239.034958 3539.0 
257.046387 3712.0 
285.040405 236220.0 
END IONS

BEGIN IONS
PRECURSOR_MZ=330.117
INCHI=InChI=1S/C13H17N5O4/c1-2-3-14-11-8-12(16-5-15-11)18(6-17-8)13-10(21)9(20)7(4-19)22-13/h2,5-7,9-10,13,19-21H,1,3-4H2,(H,14,15,16)
SMILES=C=CCNc1ncnc2c1ncn2C1OC(CO)C(O)C1O
SCANS=15493
IONMODE=positive
COMPOUND_NAME=N-Allyladenosine M+Na
SPECTRUM_ID=CCMSLIB00006700834
63.75872 2062.0 
73.939079 2539.0 
84.709679 2317.0 
98.384438 2178.0 
98.98394 3025.0 
155.031769 2864.0 
198.07457 9882.0 
205.629562 2205.0 
280.409882 2390.0 
330.116669 958515.0 
END IONS

BEGIN IONS
PRECURSOR_MZ=303.12
INCHI=InChI=1S/C13H14N6O3/c1-8(15-10-12(21)16-13(22)19-17-10)11(20)18-14-7-9-5-3-2-4-6-9/h2-8H,1H3,(H,15,17)(H,18,20)(H2,16,19,21,22)/b14-7+
SMILES=CC(Nc1nnc(O)nc1O)C(O)=NN=Cc1ccccc1
SCANS=20322
IONMODE=positive
COMPOUND_NAME=N-((1E)-2-phenyl-1-azavinyl)-2-[(3,5-dioxo(2H,4H-1,2,4-triazin-6-yl))amino]pro panamide M+H
SPECTRUM_ID=CCMSLIB00006705663
51.023449 3715.0 
53.039021 40581.0 
54.034321 4418.0 
56.758049 2756.0 
57.045292 6918.0 
66.742401 3403.0 
69.008659 55017.0 
69.045143 77505.0 
69.992577 21076.0 
70.029121 20657.0 
71.0131 15925.0 
71.024437 5414.0 
74.74707 2835.0 
77.03904 11531.0 
79.054466 135824.0 
81.033722 4115.0 
83.024048 15527.0 
84.01963 5805.0 
84.055801 428776.0 
84.959892 13636.0 
85.039963 10665.0 
86.071243 14034.0 
87.019043 4234.0 
91.05426 70791.0 
92.062134 13473.0 
94.065178 15178.0 
95.023979 28393.0 
95.049118 15729.0 
104.04937 182011.0 
106.065018 86972.0 
110.034897 19575.0 
112.050591 25529.0 
113.034233 5939.0 
114.029472 5924.0 
118.65419 4018.0 
121.075928 2394477.0 
123.976341 2795.0 
127.06131 6774.0 
128.045639 18144.0 
130.025055 4795.0 
130.061646 6329.0 
138.029633 93093.0 
147.091476 329601.0 
151.28624 3042.0 
153.040405 82459.0 
155.056168 2398881.0 
156.039993 6130.0 
160.70369 3323.0 
164.602478 2762.0 
175.086456 62938.0 
181.035156 54628.0 
183.050934 95380.0 
183.068359 5620.0 
211.4496 3159.0 
232.082718 14104.0 
247.88942 2929.0 
271.081787 12607.0 
303.177246 5706.0 
END IONS

BEGIN IONS
PRECURSOR_MZ=599.176
INCHI=InChI=1S/C30H30O13/c1-15(31)37-14-25-27(39-16(2)32)28(40-17(3)33)29(41-18(4)34)30(43-25)42-21-10-11-22-24(12-21)38-13-23(26(22)35)19-6-8-20(36-5)9-7-19/h6-13,25,27-30H,14H2,1-5H3
SMILES=COc1ccc(-c2coc3cc(OC4OC(COC(C)=O)C(OC(C)=O)C(OC(C)=O)C4OC(C)=O)ccc3c2=O)cc1
SCANS=11034
IONMODE=positive
COMPOUND_NAME={3,4,5-triacetyloxy-6-[3-(4-methoxyphenyl)-4-oxochromen-7-yloxy]-2H-3,4,5,6-te trahydropyran-2-yl}methyl acetate M+H
SPECTRUM_ID=CCMSLIB00006696375
50.358681 3494.0 
51.363411 4033.0 
60.537029 3488.0 
61.028809 4957.0 
73.335381 3521.0 
81.033783 47870.0 
82.400124 3967.0 
97.028542 55127.0 
107.049049 5924.0 
109.028412 756694.0 
118.041611 6855.0 
127.038879 207244.0 
136.211304 3711.0 
139.039032 43510.0 
149.60437 3924.0 
163.039688 4659.0 
169.049408 330093.0 
178.112701 4348.0 
211.060287 43938.0 
213.090851 47708.0 
217.902573 3826.0 
219.600311 4189.0 
226.061188 4668.0 
237.05423 34025.0 
241.084778 5028.0 
253.050903 16635.0 
254.056976 107586.0 
269.080475 8513888.0 
271.08078 103174.0 
309.50296 3705.0 
322.406647 4073.0 
331.101746 163294.0 
495.454681 5129.0 
599.175232 567863.0 
END IONS

BEGIN IONS
PRECURSOR_MZ=455.096
INCHI=InChI=1S/C23H23BrN2O3/c1-15-23(24)16(2)26(25-15)14-19-13-17(6-12-22(19)29-4)5-11-21(27)18-7-9-20(28-3)10-8-18/h5-13H,14H2,1-4H3/b11-5+
SMILES=COc1ccc(C(=O)C=Cc2ccc(OC)c(Cn3nc(C)c(Br)c3C)c2)cc1
SCANS=13865
IONMODE=positive
COMPOUND_NAME=(2E)-3-{3-[(4-bromo-3,5-dimethylpyrazolyl)methyl]-4-methoxyphenyl}-1-(4-methox yphenyl)prop-2-en-1-one M+H
SPECTRUM_ID=CCMSLIB00006699206
53.03912 15985.0 
53.49987 3217.0 
55.018341 92311.0 
59.444698 3347.0 
69.034019 5850.0 
71.049538 23866.0 
77.312042 3249.0 
79.054573 17894.0 
85.028687 6177.0 
91.054291 72019.0 
91.351273 3438.0 
92.025589 5490.0 
93.070129 6238.0 
95.049316 18409.0 
103.054199 8536.0 
105.033974 3351.0 
105.069649 13785.0 
107.049217 5797.0 
107.085991 3810.0 
108.056702 4860.0 
115.054222 112476.0 
115.062828 5752.0 
117.070007 59787.0 
119.048828 4123.0 
119.466309 3628.0 
121.064751 267635.0 
125.059998 17008.0 
129.068756 4701.0 
131.049011 8269.0 
133.064438 18410.0 
135.044006 963919.0 
138.286423 4049.0 
143.049622 15582.0 
145.064728 191063.0 
146.073059 5204.0 
149.059402 13568.0 
152.062302 8377.0 
153.069489 7222.0 
156.544647 3709.0 
158.07251 23739.0 
159.080429 3626.0 
161.05986 15849.0 
165.069794 253809.0 
166.077744 45609.0 
167.085144 25844.0 
167.496048 3604.0 
171.081039 17351.0 
173.059601 44357.0 
174.066757 5092.0 
176.062546 14937.0 
177.07019 8489.0 
178.077652 125921.0 
179.085312 157788.0 
180.056625 14721.0 
180.093201 149611.0 
181.065201 27749.0 
182.073364 14212.0 
183.080475 17126.0 
189.070053 64936.0 
190.077454 170084.0 
190.666748 3895.0 
191.085358 217537.0 
192.093414 110739.0 
193.064789 151686.0 
193.099503 42854.0 
194.072632 84134.0 
195.080338 167580.0 
196.088882 23853.0 
197.095917 26222.0 
202.077332 16821.0 
203.085358 14518.0 
205.064713 65359.0 
205.100418 8106.0 
206.072601 82549.0 
207.080032 120567.0 
208.088074 654588.0 
209.095932 252674.0 
210.067993 13779.0 
210.104065 64012.0 
211.075592 29828.0 
212.083466 5175.0 
217.064011 6415.0 
218.072693 98290.0 
219.080215 99289.0 
220.088257 77070.0 
221.059967 48762.0 
221.09584 193470.0 
222.10347 56222.0 
223.075241 71885.0 
223.111465 204422.0 
224.083023 18134.0 
225.090302 54996.0 
225.12793 15313.0 
226.098785 7883.0 
227.10672 29919.0 
232.088257 6165.0 
233.059311 5428.0 
233.066055 5901.0 
233.095779 137180.0 
233.120041 6582.0 
234.067627 39183.0 
235.07518 69242.0 
235.111618 8430.0 
236.082794 140106.0 
237.08992 40227.0 
238.098465 153226.0 
239.106934 21426.0 
248.082901 115550.0 
249.090637 64516.0 
250.099167 56287.0 
251.072327 38162.0 
251.106277 619855.0 
252.113251 7208.0 
253.121719 105536.0 
263.106232 210735.0 
265.085144 7387.0 
266.09317 105823.0 
279.103455 3684.0 
281.116882 3930968.0 
455.095123 231874.0 
455.160217 85013.0 
END IONS

BEGIN IONS
PRECURSOR_MZ=285.045
INCHI=InChI=1S/C13H10N4O2S/c18-13(19)9-3-1-8(2-4-9)5-20-12-10-11(15-6-14-10)16-7-17-12/h1-4,6-7H,5H2,(H,18,19)(H,14,15,16,17)
SMILES=O=C(O)c1ccc(CSc2ncnc3[nH]cnc23)cc1
SCANS=19613
IONMODE=negative
COMPOUND_NAME=4-(purin-6-ylthiomethyl)benzoic acid M-H
SPECTRUM_ID=CCMSLIB00006704954
52.23555 2424.0 
57.975349 3784.0 
58.33305 2380.0 
113.542183 2165.0 
117.02063 10558.0 
122.989777 14151.0 
144.117645 2046.0 
148.957199 2392.0 
150.000549 516669.0 
151.008408 81839.0 
180.552338 2235.0 
182.073257 4140.0 
207.067184 4789.0 
211.061447 2989.0 
252.064957 4856.0 
285.045105 219051.0 
END IONS

BEGIN IONS
PRECURSOR_MZ=501.163
INCHI=InChI=1S/C26H26N2O7/c1-15-21(23(29)27-19(25(31)32)13-17-9-5-3-6-10-17)22(16(2)35-15)24(30)28-20(26(33)34)14-18-11-7-4-8-12-18/h3-12,19-20H,13-14H2,1-2H3,(H,27,29)(H,28,30)(H,31,32)(H,33,34)
SMILES=Cc1oc(C)c(C(O)=NC(Cc2ccccc2)C(=O)O)c1C(O)=NC(Cc1ccccc1)C(=O)O
SCANS=7437
IONMODE=positive
COMPOUND_NAME=2-({4-[N-(1-carboxy-2-phenylethyl)carbamoyl]-2,5-dimethyl(3-furyl)}carbonylami no)-3-phenylpropanoic acid M+Na
SPECTRUM_ID=CCMSLIB00006692778
65.120216 2953.0 
73.964447 3155.0 
120.08017 4426.0 
142.062027 14517.0 
188.031326 7491.0 
188.068207 199404.0 
188.997284 4202.0 
189.015854 109909.0 
196.390839 3375.0 
206.042267 5975.0 
207.026382 344445.0 
210.213913 5193.0 
250.085663 5178.0 
268.095642 23235.0 
301.450195 3649.0 
308.088013 23593.0 
336.083008 13817.0 
353.110779 6159.0 
354.094482 755834.0 
501.163208 5250313.0 
END IONS

BEGIN IONS
PRECURSOR_MZ=360.15
INCHI=InChI=1S/C12H22O11/c13-1-3-5(15)7(17)9(19)11(21-3)23-12-10(20)8(18)6(16)4(2-14)22-12/h3-20H,1-2H2/t3-,4-,5-,6-,7+,8+,9-,10-,11-,12-/m1/s1
SMILES=OC[C@H]1O[C@H](O[C@H]2O[C@H](CO)[C@@H](O)[C@H](O)[C@H]2O)[C@H](O)[C@@H](O)[C@@H]1O
SCANS=24450
IONMODE=positive
COMPOUND_NAME=trehalose M+NH4
SPECTRUM_ID=CCMSLIB00006709791
56.5191 1980.109985 
57.644901 2180.850098 
61.028999 2277.389893 
69.034203 5551.77002 
85.0289 73670.796875 
91.039597 3737.419922 
91.482903 2517.659912 
96.0867 2212.830078 
97.0289 13176.200195 
109.028999 4471.279785 
111.549004 2147.25 
127.039001 25461.400391 
136.238998 2491.939941 
145.048996 92409.203125 
153.041 2680.310059 
163.059998 43105.398438 
180.899994 2227.340088 
196.509995 2518.580078 
198.078003 3263.330078 
198.097 4711.72998 
246.199005 2507.820068 
264.981995 2531.469971 
304.09201 2371.100098 
325.113007 22710.699219 
342.139008 9159.0 
360.148987 37705.800781 
END IONS

BEGIN IONS
PRECURSOR_MZ=267.066
INCHI=InChI=1S/C16H12O4/c1-19-12-5-2-10(3-6-12)15-9-14(18)13-7-4-11(17)8-16(13)20-15/h2-9,17H,1H3
SMILES=COc1ccc(-c2cc(=O)c3ccc(O)cc3o2)cc1
SCANS=2480
IONMODE=negative
COMPOUND_NAME=7-Hydroxy-4'-methoxyflavone M-H
SPECTRUM_ID=CCMSLIB00006687821
76.675308 3402.0 
84.258003 3543.0 
91.019386 5939.0 
92.397369 4484.0 
106.513542 3571.0 
108.021629 4871.0 
108.691147 3299.0 
110.265373 3179.0 
117.03463 4615.0 
135.008713 49195.0 
153.019562 7793.0 
162.371597 3907.0 
185.428177 4033.0 
196.055832 3173.0 
212.773483 4133.0 
220.687027 4115.0 
223.040985 45798.0 
224.048004 37391.0 
250.998032 5262.0 
251.033035 17993.0 
252.043213 6110703.0 
253.093994 6337.0 
265.925964 15099.0 
267.06665 12439715.0 
268.215027 14891.0 
END IONS

BEGIN IONS
PRECURSOR_MZ=765.125
INCHI=InChI=1S/C15H12F3N5O2S/c1-23-12-11(13(25)20-7-19-12)22-14(23)26-6-10(24)21-9-5-3-2-4-8(9)15(16,17)18/h2-5,7H,6H2,1H3,(H,21,24)(H,19,20,25)
SMILES=Cn1c(SCC(O)=Nc2ccccc2C(F)(F)F)nc2c(O)ncnc21
SCANS=19362
IONMODE=negative
COMPOUND_NAME=2-(9-methyl-6-oxohydropurin-8-ylthio)-N-[2-(trifluoromethyl)phenyl]acetamide 2M-H
SPECTRUM_ID=CCMSLIB00006704703
57.081421 3339.0 
72.085213 3024.0 
79.192436 3831.0 
92.397324 3508.0 
102.050293 3810.0 
131.999802 2869.0 
149.046768 6594.0 
151.343506 3483.0 
180.0103 25221.0 
181.018921 37495.0 
183.738174 3540.0 
283.305023 3854.0 
382.059021 41301.0 
440.357117 3514.0 
END IONS

BEGIN IONS
PRECURSOR_MZ=122.025
INCHI=InChI=1S/C6H5NO2/c8-6(9)5-1-3-7-4-2-5/h1-4H,(H,8,9)
SMILES=O=C(O)c1ccncc1
SCANS=23625
IONMODE=negative
COMPOUND_NAME=ISONICOTINIC ACID M-H
SPECTRUM_ID=CCMSLIB00006708966
50.057301 11661.400391 
51.883598 11668.900391 
54.066002 11807.599609 
55.841 12962.099609 
59.294601 11760.400391 
60.4688 13188.299805 
62.7668 12318.099609 
67.1689 13709.900391 
67.678001 13488.599609 
67.726997 14574.299805 
68.014 99005.5 
69.710999 14428.400391 
71.719498 13093.799805 
78.034798 1693140.0 
81.021797 123211.0 
90.684799 14253.5 
94.0298 1400010.0 
104.324997 19597.800781 
109.016998 26392.099609 
122.025002 3172740.0 
END IONS

BEGIN IONS
PRECURSOR_MZ=387.178
INCHI=InChI=1S/C20H28O6/c1-9-10-4-5-11-18-8-26-20(25,19(11,14(9)22)15(10)23)16(24)13(18)17(2,3)7-6-12(18)21/h10-13,15-16,21,23-25H,1,4-8H2,2-3H3/t10-,11-,12-,13+,15+,16+,18+,19-,20-/m0/s1
SMILES=C=C1C(=O)C23C(O)C1CCC2C12COC3(O)C(O)C1C(C)(C)CCC2O
SCANS=9922
IONMODE=positive
COMPOUND_NAME=CHEMBL1603292 M+Na
SPECTRUM_ID=CCMSLIB00006695263
50.177341 2889.0 
59.003651 2929.0 
62.161701 3251.0 
77.333008 3031.0 
80.743233 3092.0 
86.305763 2796.0 
158.003296 3253.0 
158.430939 2940.0 
185.448624 3128.0 
209.56189 6467.0 
341.171844 22571.0 
369.166534 123330.0 
387.176941 6703249.0 
412.062958 2986.0 
END IONS

BEGIN IONS
PRECURSOR_MZ=497.139
INCHI=InChI=1S/C28H22N4O3/c29-16-19-6-5-9-22(14-19)30-26(33)18-32-25-11-4-3-10-23(25)24(15-27(32)34)28(35)31-13-12-20-7-1-2-8-21(20)17-31/h1-11,14-15H,12-13,17-18H2,(H,30,33)
SMILES=N#Cc1cccc(N=C(O)Cn2c(=O)cc(C(=O)N3CCc4ccccc4C3)c3ccccc32)c1
SCANS=11091
IONMODE=negative
COMPOUND_NAME=N-(3-cyanophenyl)-2-[2-oxo-4-(2-1,2,3,4-tetrahydroisoquinolylcarbonyl)hydroqui nolyl]acetamide M+Cl
SPECTRUM_ID=CCMSLIB00006696432
50.115841 2514.0 
59.22403 2587.0 
62.033451 2603.0 
82.433708 3081.0 
104.329826 3720.0 
117.045891 25840.0 
126.375076 2681.0 
128.050537 4904.0 
130.065384 2556.0 
142.06633 10375.0 
158.061569 5162.0 
184.04097 6261.0 
186.055878 58181.0 
186.073181 3787.0 
210.344772 5161.0 
303.113831 13435.0 
309.201233 2786.0 
315.114441 4165.0 
317.13089 13597.0 
343.108521 11938.0 
461.162445 481236.0 
496.989258 2994.0 
497.138428 24296.0 
END IONS

BEGIN IONS
PRECURSOR_MZ=278.119
INCHI=InChI=1S/C18H17NO2/c1-11-8-12(2)16-15(9-11)19-18(21)14(17(16)20)10-13-6-4-3-5-7-13/h3-9H,10H2,1-2H3,(H2,19,20,21)
SMILES=Cc1cc(C)c2c(O)c(Cc3ccccc3)c(O)nc2c1
SCANS=2009
IONMODE=negative
COMPOUND_NAME=4-hydroxy-5,7-dimethyl-3-benzylhydroquinolin-2-one M-H
SPECTRUM_ID=CCMSLIB00006687350
52.162731 2689.0 
82.436996 3341.0 
82.858978 3296.0 
118.708366 2703.0 
158.042282 2811.0 
159.068771 62054.0 
165.139221 3037.0 
172.077744 3465.0 
187.06395 27483.0 
200.070709 6290.0 
211.56662 4986.0 
234.126953 20901.0 
263.094604 5078.0 
278.118378 5884416.0 
END IONS

BEGIN IONS
PRECURSOR_MZ=368.147
INCHI=InChI=1S/C19H23NO5/c1-13-7-5-6-8-15(13)25-10-9-20-19(21)14-11-16(22-2)18(24-4)17(12-14)23-3/h5-8,11-12H,9-10H2,1-4H3,(H,20,21)
SMILES=COc1cc(C(O)=NCCOc2ccccc2C)cc(OC)c1OC
SCANS=14638
IONMODE=positive
COMPOUND_NAME=N-[2-(2-methylphenoxy)ethyl](3,4,5-trimethoxyphenyl)carboxamide M+Na
SPECTRUM_ID=CCMSLIB00006699979
55.702801 2411.0 
77.896553 2496.0 
87.748909 2220.0 
92.366463 3716.0 
98.346764 2436.0 
105.266693 2289.0 
112.545143 2479.0 
126.564407 2291.0 
142.177597 2627.0 
347.202881 2445.0 
368.14621 1422129.0 
END IONS

BEGIN IONS
PRECURSOR_MZ=488.183
INCHI=InChI=1S/C26H25N3O4/c1-17-21(22-7-3-4-8-23(22)28-17)13-14-27-26(31)24(16-20-6-5-15-33-20)29-25(30)18-9-11-19(32-2)12-10-18/h3-12,15-16,28H,13-14H2,1-2H3,(H,27,31)(H,29,30)/b24-16-
SMILES=COc1ccc(C(=O)NC(=Cc2ccco2)C(O)=NCCc2c(C)[nH]c3ccccc23)cc1
SCANS=7832
IONMODE=negative
COMPOUND_NAME=(2Z)-3-(2-furyl)-2-[(4-methoxyphenyl)carbonylamino]-N-[2-(2-methylindol-3-yl)e thyl]prop-2-enamide M+formate
SPECTRUM_ID=CCMSLIB00006693173
64.076218 2215.0 
66.841209 2087.0 
69.019119 2532.0 
69.34201 2503.0 
104.306908 3712.0 
200.048309 2593.0 
220.287384 2990.0 
354.892578 2609.0 
442.177856 61252.0 
END IONS

BEGIN IONS
PRECURSOR_MZ=115.039
INCHI=InChI=1S/C5H8O4/c6-4(7)2-1-3-5(8)9/h1-3H2,(H,6,7)(H,8,9)
SMILES=O=C(O)CCCC(=O)O
SCANS=22893
IONMODE=positive
COMPOUND_NAME=GLUTARIC ACID M+H-H2O
SPECTRUM_ID=CCMSLIB00006708234
51.077141 2024.0 
55.018421 8585.0 
55.055031 1899.0 
56.965359 36494.0 
57.93541 4765.0 
59.049728 2384.0 
67.510269 4184.0 
68.399559 2057.0 
69.034264 2423.0 
69.070221 12365.0 
72.937462 9574.0 
73.93013 4501.0 
73.938118 10102.0 
74.046799 7524.0 
75.332336 1997.0 
86.686951 2035.0 
87.044388 217085.0 
88.25972 1861.0 
90.015007 2314.0 
91.057472 4205.0 
91.948387 2430.0 
92.056503 3721.0 
97.06488 8831.0 
99.020493 3355.0 
115.074783 2393.0 
115.094963 11777.0 
214.035583 2211.0 
END IONS

BEGIN IONS
PRECURSOR_MZ=342.204
INCHI=InChI=1S/C19H29NO3/c1-15(2)11-7-4-5-10-14-17(19(22)23-3)20-18(21)16-12-8-6-9-13-16/h6,8-9,12-13,15,17H,4-5,7,10-11,14H2,1-3H3,(H,20,21)
SMILES=COC(=O)C(CCCCCCC(C)C)N=C(O)c1ccccc1
SCANS=1561
IONMODE=positive
COMPOUND_NAME=methyl 9-methyl-2-(phenylcarbonylamino)decanoate M+Na
SPECTRUM_ID=CCMSLIB00006686902
56.174469 27229.0 
73.963371 31588.0 
77.880859 24029.0 
81.475212 25798.0 
82.440063 22044.0 
87.185707 25347.0 
92.390121 25964.0 
94.978859 25862.0 
157.992966 35287.0 
209.919693 97776.0 
342.203369 75110760.0 
343.87085 27682.0 
360.212952 61259.0 
END IONS

BEGIN IONS
PRECURSOR_MZ=343.082
INCHI=InChI=1S/C18H16O7/c1-6-14(22)12(8(3)20)16-13(15(6)23)18(4)10(25-16)5-9(21)11(7(2)19)17(18)24/h5,11,22-23H,1-4H3/t11?,18-/m0/s1
SMILES=CC(=O)c1c(O)c(C)c(O)c2c1OC1=CC(=O)C(C(C)=O)C(=O)C12C
SCANS=10871
IONMODE=negative
COMPOUND_NAME=(+)-Usnic acid M-H
SPECTRUM_ID=CCMSLIB00006696212
73.964867 3719.0 
82.410767 3012.0 
83.013733 375270.0 
92.390007 3404.0 
95.049568 2470.0 
104.299156 4356.0 
108.337837 2731.0 
139.039429 4704.0 
161.673798 2915.0 
166.11116 2921.0 
189.05629 4004.0 
206.898239 48329.0 
213.090744 4679.0 
215.035965 3167.0 
215.071274 12497.0 
231.066559 291788.0 
255.066284 26256.0 
255.09877 7813.0 
257.05127 3088.0 
257.082123 15571.0 
259.061432 527982.0 
271.098572 5585.0 
274.885651 45902.0 
275.169189 13538.0 
281.082916 4377.0 
283.059875 5961.0 
286.047729 12355.0 
299.092468 106989.0 
300.066071 12962.0 
301.072449 53729.0 
313.035431 121577.0 
315.088104 11360.0 
325.072601 5064.0 
327.0513 3746.0 
327.968994 5745.0 
328.059296 1070475.0 
343.082794 3004011.0 
END IONS

BEGIN IONS
PRECURSOR_MZ=430.134
INCHI=InChI=1S/C23H21N5O2S/c1-15-8-10-17(11-9-15)28-21-20(22(30)25-14-24-21)26-23(28)31-13-19(29)27-12-4-6-16-5-2-3-7-18(16)27/h2-3,5,7-11,14H,4,6,12-13H2,1H3,(H,24,25,30)
SMILES=Cc1ccc(-n2c(SCC(=O)N3CCCc4ccccc43)nc3c(O)ncnc32)cc1
SCANS=19705
IONMODE=negative
COMPOUND_NAME=9-(4-methylphenyl)-8-(2-oxo-2-(1,2,3,4-tetrahydroquinolyl)ethylthio)hydropurin -6-one M-H
SPECTRUM_ID=CCMSLIB00006705046
63.721821 2753.0 
65.014023 96042.0 
65.017548 5108.0 
65.998047 61836.0 
66.001312 3433.0 
67.041687 2886.0 
68.013847 6916.0 
69.008987 2715.0 
92.025238 81000.0 
92.379539 3017.0 
93.009193 6979.0 
110.040382 3234.0 
130.054153 2942.0 
131.062637 3851.0 
155.061478 721170.0 
156.056839 14703.0 
182.072235 6838.0 
187.033875 3215.0 
194.072815 5635.0 
197.059479 145728.0 
198.067307 53015.0 
209.088394 7365.0 
209.107681 3631.0 
223.062103 21515.0 
225.078217 374609.0 
226.04512 5696.0 
228.023361 21479.0 
228.564087 3179.0 
236.07048 114764.0 
237.077988 13175.0 
247.058975 4217.0 
255.034668 439990.0 
256.042511 1054827.0 
257.048737 3239.0 
264.06543 52952.0 
265.071045 21192.0 
268.042969 13492.0 
269.05014 227977.0 
279.032074 195205.0 
279.06723 7010.0 
297.044861 400848.0 
309.058746 10633.0 
319.027435 19959.0 
356.093262 4569.0 
359.557404 3175.0 
387.125122 3647.0 
397.80426 3216.0 
430.074768 216014.0 
430.135162 188716.0 
END IONS

BEGIN IONS
PRECURSOR_MZ=253.086
INCHI=InChI=1S/C16H12O3/c1-18-13-8-5-9-14-16(13)12(17)10-15(19-14)11-6-3-2-4-7-11/h2-10H,1H3
SMILES=COc1cccc2oc(-c3ccccc3)cc(=O)c12
SCANS=1936
IONMODE=positive
COMPOUND_NAME=5-Methoxyflavone M+H
SPECTRUM_ID=CCMSLIB00006687277
54.523499 4056.0 
54.907558 4578.0 
57.260441 4877.0 
61.348789 7615.0 
63.275982 26230.0 
73.945778 7007.0 
98.984337 7928.0 
104.273109 6928.0 
108.022034 13674.0 
129.033691 14127.0 
136.016541 26539.0 
151.038589 23141.0 
169.050156 7760.0 
210.06662 35689.0 
213.587326 7805.0 
237.056122 47988.0 
238.062012 7258152.0 
251.07309 8829.0 
252.052109 26562.0 
252.0793 45140.0 
253.085403 42593548.0 
254.124527 33410.0 
254.158081 12857.0 
END IONS

BEGIN IONS
PRECURSOR_MZ=478.222
INCHI=InChI=1S/C28H33NO7/c1-16-9-8-12-19-23-27(4,35-23)17(2)21-20(15-18-10-6-5-7-11-18)29-24(31)28(19,21)36-25(32)34-14-13-26(3,33)22(16)30/h5-8,10-14,16-17,19-21,23,33H,9,15H2,1-4H3,(H,29,31)/b12-8+,14-13+/t16-,17-,19-,20-,21-,23-,26-,27+,28+/m0/s1
SMILES=CC1CC=CC2C3OC3(C)C(C)C3C(Cc4ccccc4)N=C(O)C23OC(=O)OC=CC(C)(O)C1=O
SCANS=20950
IONMODE=positive
COMPOUND_NAME=CCG-208187 M+H-H2O
SPECTRUM_ID=CCMSLIB00006706291
50.17495 3479.0 
53.002689 4153.0 
53.03912 13553.0 
55.018269 7127.0 
55.054729 15935.0 
57.033951 3426.0 
61.738548 3084.0 
64.218193 3494.0 
65.038986 19956.0 
65.483177 2975.0 
67.054619 44436.0 
69.033867 64768.0 
69.066353 6554.0 
69.070297 120055.0 
79.054497 69993.0 
81.07016 39415.0 
83.013039 5319.0 
83.049393 16753.0 
83.085762 3262.0 
91.054352 728776.0 
91.514664 4001.0 
93.069946 105319.0 
94.065651 4793.0 
95.049232 19463.0 
95.085587 38134.0 
97.064697 27750.0 
103.053879 35759.0 
105.033501 5439.0 
105.069893 124540.0 
106.064972 4262.0 
107.04921 15025.0 
107.08551 52351.0 
108.08078 4731.0 
109.064987 32531.0 
109.101227 4028.0 
111.04425 5186.0 
111.080498 44721.0 
115.054199 34810.0 
116.062317 25780.0 
117.069801 72420.0 
118.065308 5722.0 
119.049072 22164.0 
119.085602 80194.0 
120.080719 319339.0 
121.064888 54194.0 
121.101097 34430.0 
122.060097 4162.0 
123.080383 28428.0 
125.059647 595881.0 
128.049637 25457.0 
128.062134 32466.0 
129.069824 68348.0 
130.065781 3529.0 
130.077591 4178.0 
131.08548 183979.0 
132.080582 7872.0 
133.064575 26059.0 
133.100983 41556.0 
134.060593 3747.0 
135.080322 56700.0 
136.075546 5019.0 
137.059418 3735.0 
137.096024 5058.0 
139.075439 13731.0 
141.018234 23352.0 
141.069626 46855.0 
142.07782 14788.0 
143.085297 71931.0 
144.05722 13993.0 
144.080826 16851.0 
145.064789 16498.0 
145.100998 44684.0 
146.060028 109042.0 
146.071701 7870.0 
146.096069 3953.0 
147.068207 7161.0 
147.080521 31575.0 
148.075958 7359.0 
149.059952 4392.0 
149.083252 5486.0 
149.095932 67601.0 
151.075333 6135.0 
153.070084 13918.0 
154.087372 5258.0 
155.070343 77853.0 
155.085587 39179.0 
156.08107 3992.0 
156.093689 19230.0 
157.064896 12987.0 
157.101349 40602.0 
158.096069 3999.0 
159.06691 7829.0 
159.080368 157171.0 
159.117081 4823.0 
160.075409 19702.0 
160.088531 5298.0 
161.082703 6209.0 
161.096252 22253.0 
162.090485 4524.0 
163.111832 5549.0 
165.069412 25326.0 
165.09137 4748.0 
166.077896 17746.0 
167.085831 24964.0 
169.101608 26293.0 
170.095322 5898.0 
170.110092 6318.0 
171.080704 17939.0 
171.117096 33825.0 
172.07489 26022.0 
172.112228 3692.0 
173.0961 15470.0 
173.132156 7192.0 
174.091568 13189.0 
177.090988 96418.0 
178.078369 16687.0 
179.085785 30536.0 
180.093369 17850.0 
181.101746 29739.0 
182.094559 4432.0 
182.110443 4941.0 
183.081467 4980.0 
183.116653 18356.0 
184.07576 13944.0 
185.096039 11353.0 
185.132156 13792.0 
186.091431 6125.0 
186.128296 13239.0 
187.111542 6173.0 
188.106857 6979.0 
189.128326 5511.0 
191.085129 5048.0 
192.093384 18295.0 
193.101425 35344.0 
194.111206 7409.0 
195.117767 45176.0 
196.075272 4480.0 
196.109314 3745.0 
197.098419 6344.0 
197.132324 8028.0 
198.091263 16308.0 
199.112747 5615.0 
200.106857 16575.0 
205.101074 14396.0 
206.110245 4313.0 
207.116608 21839.0 
207.833679 3707.0 
207.853851 16323.0 
208.125656 7680.0 
209.132706 14400.0 
210.091568 19219.0 
210.125336 5463.0 
211.111725 17373.0 
212.106705 18398.0 
213.127411 16335.0 
213.163086 4896.0 
217.102676 4142.0 
218.109833 5908.0 
219.11676 7883.0 
221.080444 21744.0 
221.132858 6858.0 
222.090714 13912.0 
222.127869 6878.0 
223.148712 14198.0 
224.105545 24875.0 
224.143387 4316.0 
225.128494 5164.0 
226.123215 18144.0 
227.143021 6342.0 
233.090988 4178.0 
233.132584 6295.0 
234.094223 3820.0 
236.107803 19228.0 
236.143326 5299.0 
238.122589 41932.0 
239.107208 3831.0 
239.143326 4753.0 
240.137238 23493.0 
241.158844 15884.0 
247.14653 15224.0 
249.126221 6223.0 
250.122635 38297.0 
251.143539 29564.0 
252.100983 4279.0 
252.138229 30055.0 
253.159225 4524.0 
254.116608 4250.0 
254.151459 4158.0 
256.132965 5480.0 
258.148438 163129.0 
264.137054 11053.0 
266.1539 7141.0 
268.133545 6288.0 
269.153656 44401.0 
278.154022 17376.0 
279.136292 15257.0 
282.149811 3268.0 
284.164673 17704.0 
288.136627 3855.0 
290.152924 37089.0 
294.148956 12132.0 
296.164551 6973.0 
297.148956 14623.0 
308.164368 40957.0 
310.142853 7001.0 
310.179321 94612.0 
313.14389 6663.0 
315.160492 15744.0 
318.183899 31699.0 
320.196533 5020.0 
331.158264 5419.0 
336.195465 73208.0 
338.210327 27933.0 
341.13797 16571.0 
346.178589 5156.0 
350.17804 3821.0 
352.190735 16210.0 
358.177155 7065.0 
364.188965 14056.0 
370.215881 15630.0 
371.196259 5053.0 
373.215271 17406.0 
374.209778 14365.0 
376.186035 26231.0 
388.22757 41209.0 
392.221283 5927.0 
394.16153 14021.0 
398.212219 45826.0 
406.238251 19827.0 
414.821991 4288.0 
416.158234 3453.0 
416.221191 147475.0 
417.206512 26479.0 
420.179382 54776.0 
432.216034 13316.0 
434.23172 123623.0 
460.211334 137282.0 
478.221771 205029.0 
END IONS

BEGIN IONS
PRECURSOR_MZ=400.175
INCHI=InChI=1S/C22H25NO6/c1-12(24)23-16-8-6-13-10-19(27-3)21(28-4)22(29-5)20(13)14-7-9-18(26-2)17(25)11-15(14)16/h7,9-11,16H,6,8H2,1-5H3,(H,23,24)
SMILES=COc1cc2c(c(OC)c1OC)-c1ccc(OC)c(=O)cc1C(N=C(C)O)CC2
SCANS=2563
IONMODE=positive
COMPOUND_NAME=64-86-8 M+H
SPECTRUM_ID=CCMSLIB00006687904
56.050541 9191.0 
57.460701 4398.0 
60.044891 56324.0 
62.529011 5569.0 
68.911636 5332.0 
70.029633 7136.0 
72.045143 7914.0 
75.044647 8114.0 
84.045197 27200.0 
86.061073 26040.0 
90.767754 5029.0 
92.373802 6241.0 
102.055443 6918.0 
112.040421 5267.0 
125.06028 10350.0 
136.201935 6394.0 
137.059525 88561.0 
138.056259 9322.0 
145.06514 8812.0 
149.060455 5022.0 
150.068939 7079.0 
151.076477 32756.0 
152.070084 43650.0 
160.076767 26866.0 
161.059418 8890.0 
165.078247 42110.0 
167.070679 9806.0 
173.060623 26149.0 
176.071121 32838.0 
177.053177 6021.0 
178.06369 5815.0 
179.070557 9783.0 
181.085785 137362.0 
181.102173 8178.0 
189.09108 6979.0 
190.086639 24329.0 
191.070511 12771.0 
193.073669 29315.0 
195.081375 5709.0 
195.101746 7221.0 
202.08728 5860.0 
203.07663 7710.0 
203.093277 52220.0 
205.086746 38047.0 
207.083191 6573.0 
207.102509 52687.0 
208.571014 22024.0 
211.076416 7595.0 
219.088593 36672.0 
220.096054 25096.0 
221.098969 5553.0 
222.112259 12407.0 
223.076843 11489.0 
224.086136 7798.0 
225.091644 28019.0 
226.099243 28895.0 
231.101654 10264.0 
234.111969 217801.0 
235.073563 48481.0 
235.119202 7723.0 
236.081512 9627.0 
237.09227 35781.0 
238.098694 37753.0 
239.106018 65516.0 
240.079498 11948.0 
240.115021 10421.0 
241.086838 24986.0 
242.094482 55680.0 
245.10405 20526.0 
247.074753 12159.0 
248.083496 24402.0 
249.090027 72187.0 
250.099121 71634.0 
251.072784 56056.0 
251.104935 55491.0 
252.077744 27418.0 
252.110504 42028.0 
253.0867 31744.0 
253.124741 19810.0 
254.093918 38996.0 
254.126221 8620.0 
255.102219 63993.0 
256.109619 36063.0 
257.117126 24116.0 
258.088715 32140.0 
261.096069 6953.0 
262.09137 6657.0 
263.070496 44800.0 
263.096893 20619.0 
264.075348 8403.0 
264.104279 23409.0 
265.08609 54124.0 
265.111847 20316.0 
266.091736 97872.0 
266.119019 28953.0 
267.100464 298591.0 
268.108337 83899.0 
269.08139 33950.0 
269.113342 9821.0 
270.088867 78603.0 
270.124268 54866.0 
271.096588 34179.0 
271.126526 8368.0 
272.102814 9260.0 
272.129211 7072.0 
273.112579 55936.0 
276.075928 9271.0 
276.124298 25960.0 
277.085022 90138.0 
277.109711 13997.0 
278.092957 262186.0 
279.065155 71805.0 
279.100952 119194.0 
279.129852 7293.0 
280.100769 68492.0 
280.133636 7792.0 
281.082031 14517.0 
281.116669 324334.0 
282.124664 1004712.0 
283.096344 188125.0 
283.128326 48200.0 
284.099518 92702.0 
284.13089 31324.0 
285.076996 18971.0 
285.110596 462749.0 
286.118744 47564.0 
287.091492 60255.0 
287.124664 12515.0 
289.142395 7043.0 
292.103851 68027.0 
293.079163 30556.0 
293.111389 52060.0 
294.088104 136381.0 
294.114868 102961.0 
295.096527 448378.0 
295.125122 144661.0 
296.092865 95501.0 
296.129211 54358.0 
297.108734 60974.0 
298.118561 237517.0 
298.146362 190955.0 
299.126251 130298.0 
300.095245 11797.0 
300.126892 109388.0 
301.137054 56013.0 
302.112488 77947.0 
303.379547 8557.0 
306.113495 12663.0 
307.120148 26391.0 
308.132874 111920.0 
309.109253 410265.0 
310.11911 1420200.0 
311.0849 335418.0 
311.122894 77309.0 
312.123535 161125.0 
313.106323 119724.0 
313.143616 325536.0 
314.099304 45482.0 
314.140839 73642.0 
315.116577 36109.0 
316.154327 131860.0 
317.141846 5322.0 
319.122986 6481.0 
320.089478 9688.0 
320.130981 9323.0 
322.108063 8759.0 
322.144135 13352.0 
323.123474 34017.0 
324.122406 197038.0 
324.161957 9268.0 
325.135071 120090.0 
326.10968 205713.0 
326.139099 574195.0 
327.151917 47173.0 
328.117279 282866.0 
328.159576 10773.0 
329.129852 62073.0 
330.133148 57183.0 
330.171326 37642.0 
334.10849 22742.0 
335.114075 24049.0 
336.121216 55408.0 
338.138306 49188.0 
339.146606 215820.0 
340.153656 359832.0 
341.137756 728571.0 
342.132904 223983.0 
343.139648 141305.0 
350.140717 47284.0 
352.118408 94475.0 
353.124603 8424.0 
354.171509 68565.0 
356.152588 7386.0 
357.158508 38936.0 
358.164032 1286893.0 
366.133881 34535.0 
367.141754 188447.0 
368.149048 152991.0 
382.164337 520437.0 
383.150543 6477.0 
385.151428 52015.0 
398.109955 11422.0 
400.174744 26493282.0 
402.260345 10787.0 
END IONS

BEGIN IONS
PRECURSOR_MZ=524.094
INCHI=InChI=1S/C27H24BrN3O2/c1-18-20(21-11-6-8-14-24(21)30-18)15-16-29-27(33)25(17-19-9-3-2-4-10-19)31-26(32)22-12-5-7-13-23(22)28/h2-14,17,30H,15-16H2,1H3,(H,29,33)(H,31,32)/b25-17-
SMILES=Cc1[nH]c2ccccc2c1CCN=C(O)C(=Cc1ccccc1)N=C(O)c1ccccc1Br
SCANS=9608
IONMODE=positive
COMPOUND_NAME=(2Z)-2-[(2-bromophenyl)carbonylamino]-N-[2-(2-methylindol-3-yl)ethyl]-3-phenyl prop-2-enamide M+Na
SPECTRUM_ID=CCMSLIB00006694949
73.118523 3307.0 
73.507156 3284.0 
73.967873 4474.0 
82.415977 3212.0 
92.397476 4015.0 
104.31031 3621.0 
158.096619 76849.0 
159.099915 17016.0 
168.064911 3338.0 
194.909363 3675.0 
197.104797 102222.0 
288.619751 3762.0 
349.978363 39280.0 
521.003418 6548.0 
523.083069 5031.0 
523.588562 134512.0 
524.09436 9582861.0 
527.215942 7123.0 
END IONS

BEGIN IONS
PRECURSOR_MZ=448.144
INCHI=InChI=1S/C23H21F2N3O3/c24-15-8-9-19(18(25)12-15)26-21(29)14-28-20-7-3-2-6-16(20)17(13-22(28)30)23(31)27-10-4-1-5-11-27/h2-3,6-9,12-13H,1,4-5,10-11,14H2,(H,26,29)
SMILES=O=C(c1cc(=O)n(CC(O)=Nc2ccc(F)cc2F)c2ccccc12)N1CCCCC1
SCANS=21871
IONMODE=positive
COMPOUND_NAME=N-(2,4-difluorophenyl)-2-[2-oxo-4-(piperidylcarbonyl)hydroquinolyl]acetamide M+Na
SPECTRUM_ID=CCMSLIB00006707212
52.05249 2619.0 
82.966133 3007.0 
101.380928 2845.0 
106.753014 2982.0 
111.695511 2932.0 
112.07576 4410.0 
132.532974 2854.0 
136.196945 3626.0 
157.938538 2732.0 
169.340836 2775.0 
194.008377 13906.0 
257.127289 3390.0 
266.981262 3332.0 
274.445068 3067.0 
297.123199 4475.0 
298.125977 4761.0 
355.326263 3077.0 
365.070374 13043.0 
430.134338 3752.0 
448.143951 3631589.0 
END IONS

BEGIN IONS
PRECURSOR_MZ=458.244
INCHI=InChI=1S/C28H31N3O3/c1-4-21-7-10-26-24(15-21)23(16-27(32)34-26)17-30-11-13-31(14-12-30)18-25-20(3)33-28(29-25)22-8-5-19(2)6-9-22/h5-10,15-16H,4,11-14,17-18H2,1-3H3
SMILES=CCc1ccc2oc(=O)cc(CN3CCN(Cc4nc(-c5ccc(C)cc5)oc4C)CC3)c2c1
SCANS=16000
IONMODE=positive
COMPOUND_NAME=6-ethyl-4-[(4-{[5-methyl-2-(4-methylphenyl)(1,3-oxazol-4-yl)]methyl}piperaziny l)methyl]chromen-2-one M+H
SPECTRUM_ID=CCMSLIB00006701341
56.04982 12281.0 
59.049419 7324.0 
65.038872 59683.0 
67.05455 5563.0 
69.033836 447609.0 
69.277771 5324.0 
70.065407 24434.0 
74.096657 8171.0 
83.060547 97100.0 
84.068413 61704.0 
85.076218 92558.0 
86.084084 9685.0 
91.054237 219219.0 
97.075844 32440.0 
99.091629 12431.0 
103.041542 7322.0 
116.049507 57227.0 
117.057449 29805.0 
117.069733 137057.0 
118.065033 19203300.0 
119.022621 6247.0 
119.049103 231443.0 
119.058617 13759.0 
124.3862 5860.0 
128.061371 11519.0 
131.085831 6235.0 
134.059265 6002.0 
136.075592 62353.0 
143.071793 15563.0 
158.094666 10273.0 
159.078476 70107.0 
159.093765 61391.0 
160.110916 5769.0 
161.059952 7489.0 
175.075607 31364.0 
178.123474 8647.0 
185.43808 8385.0 
186.091156 26513608.0 
186.748505 8628.0 
187.076187 6815.0 
188.105728 53745.0 
189.091492 11458.0 
194.081253 157388.0 
227.117798 133400.0 
229.075394 8451.0 
230.117157 19470.0 
246.149948 40938.0 
262.106384 170027.0 
271.14267 74406.0 
273.159149 719408.0 
285.159515 9419.0 
327.53125 6819.0 
341.18573 22066.0 
372.1604 25390.0 
458.242828 3385802.0 
END IONS

BEGIN IONS
PRECURSOR_MZ=372.077
INCHI=InChI=1S/C16H15N5O4S/c1-21-13-12(14(23)18-8-17-13)20-16(21)26-7-11(22)19-10-6-4-3-5-9(10)15(24)25-2/h3-6,8H,7H2,1-2H3,(H,19,22)(H,17,18,23)
SMILES=COC(=O)c1ccccc1N=C(O)CSc1nc2c(O)ncnc2n1C
SCANS=6958
IONMODE=negative
COMPOUND_NAME=methyl 2-[2-(9-methyl-6-oxohydropurin-8-ylthio)acetylamino]benzoate M-H
SPECTRUM_ID=CCMSLIB00006692299
52.626591 2514.0 
60.300739 2411.0 
73.967644 3202.0 
90.98584 575230.0 
92.050423 120925.0 
104.303833 2458.0 
118.675957 2965.0 
136.04039 1321124.0 
149.006882 27671.0 
149.046875 173359.0 
163.062866 13637.0 
164.017319 4868.0 
164.057938 56723.0 
176.035355 3442.0 
179.057343 4172.0 
180.011185 389163.0 
181.019089 94820.0 
182.390717 2826.0 
190.036789 38358.0 
192.012161 5109.0 
193.019333 13247.0 
194.027634 4223.0 
195.034698 475698.0 
207.033539 3022.0 
208.006882 4002.0 
209.049927 11577.0 
221.014984 29853.0 
222.023651 15653.0 
235.029724 20870.0 
235.926376 29200.0 
250.406357 3012.0 
254.105042 3508.0 
266.06778 20938.0 
298.094849 30224.0 
340.051392 21537.0 
347.819275 3178.0 
372.077484 667166.0 
375.984009 3033.0 
END IONS

BEGIN IONS
PRECURSOR_MZ=346.097
INCHI=InChI=1S/C15H15N5O3S/c1-20-13-12(14(22)17-8-16-13)19-15(20)24-7-11(21)18-9-3-5-10(23-2)6-4-9/h3-6,8H,7H2,1-2H3,(H,18,21)(H,16,17,22)
SMILES=COc1ccc(NC(=O)CSc2nc3c(O)ncnc3n2C)cc1
SCANS=20970
IONMODE=positive
COMPOUND_NAME=N-(4-methoxyphenyl)-2-(9-methyl-6-oxohydropurin-8-ylthio)acetamide M+H
SPECTRUM_ID=CCMSLIB00006706311
53.039089 11621.0 
57.045261 5616.0 
58.995411 4116.0 
61.483028 2986.0 
79.054314 6926.0 
82.401688 3092.0 
84.985832 14424.0 
85.230751 3009.0 
91.054314 12297.0 
93.057228 17557.0 
94.041199 19372.0 
104.049438 58153.0 
106.040283 3476.0 
106.064957 6007.0 
107.048531 3150.0 
108.055702 12393.0 
109.064781 64641.0 
111.042702 4820.0 
111.456177 2978.0 
114.588043 3433.0 
121.051971 40341.0 
121.064743 35877.0 
122.060043 18362.0 
124.050682 5277.0 
126.011902 5695.0 
129.194794 3551.0 
132.044312 55005.0 
133.051956 50391.0 
134.059982 21685.0 
135.043808 4286.0 
136.075684 292519.0 
137.045715 68540.0 
139.991394 27770.0 
144.853851 3035.0 
144.982895 2755.0 
146.059967 16059.0 
147.055908 5184.0 
147.067841 88165.0 
149.046326 136429.0 
150.053635 120121.0 
150.996613 21401.0 
151.061401 257521.0 
152.027725 5412.0 
153.022659 13598.0 
154.007324 4564.0 
161.045685 16712.0 
162.053818 83821.0 
163.061325 108096.0 
164.070389 43572.0 
164.255264 2854.0 
168.022476 62292.0 
170.038559 3484.0 
177.022766 14045.0 
179.056122 3552.0 
181.017761 926396.0 
183.033707 7443.0 
184.446686 3022.0 
186.033218 5117.0 
195.033463 2431953.0 
213.044769 29207.0 
222.04393 4988.0 
223.028275 3045378.0 
236.059891 20778.0 
266.980774 3804.0 
302.333008 3111.0 
311.339081 6761.0 
328.085083 21339.0 
346.096863 79679.0 
END IONS

BEGIN IONS
PRECURSOR_MZ=147.044
INCHI=InChI=1S/C9H6O2/c10-8-5-6-11-9-4-2-1-3-7(8)9/h1-6H
SMILES=O=c1ccoc2ccccc12
SCANS=20998
IONMODE=positive
COMPOUND_NAME=CHROMONE M+H
SPECTRUM_ID=CCMSLIB00006706339
50.015541 2908.0 
51.02356 6072.0 
53.002628 21649.0 
53.039089 127734.0 
53.042061 4709.0 
53.792141 2683.0 
55.018318 3548.0 
59.62273 2804.0 
64.927567 11338.0 
65.038841 3701.0 
68.997498 5623.0 
77.039017 11643.0 
81.033974 18060.0 
82.387131 2785.0 
91.054337 341239.0 
95.049217 59632.0 
97.007446 4534.0 
103.05423 79957.0 
103.349472 2339.0 
105.044693 18267.0 
112.6474 3147.0 
118.640182 3316.0 
119.049072 13006.0 
123.964256 19623.0 
124.014832 74474.0 
124.092148 2846.0 
137.011917 15378.0 
142.025467 4737.0 
146.583023 3898.0 
147.044037 4473626.0 
147.50708 5200.0 
149.848679 2589.0 
150.466934 2424.0 
155.022522 11373.0 
END IONS

BEGIN IONS
PRECURSOR_MZ=360.113
INCHI=InChI=1S/C16H17N5O3S/c1-9-4-5-11(24-3)10(6-9)19-12(22)7-25-16-20-13-14(21(16)2)17-8-18-15(13)23/h4-6,8H,7H2,1-3H3,(H,19,22)(H,17,18,23)
SMILES=COc1ccc(C)cc1N=C(O)CSc1nc2c(O)ncnc2n1C
SCANS=8098
IONMODE=positive
COMPOUND_NAME=N-(2-methoxy-5-methylphenyl)-2-(9-methyl-6-oxohydropurin-8-ylthio)acetamide M+H
SPECTRUM_ID=CCMSLIB00006693439
55.673592 2656.0 
79.050163 3064.0 
89.104881 3114.0 
104.272263 4799.0 
135.068085 5005.0 
137.083603 14698.0 
138.092209 3535.0 
146.06012 30561.0 
147.068008 14738.0 
148.076447 3827.0 
150.05394 3987.0 
150.091446 33556.0 
151.061081 17192.0 
161.083313 22663.0 
163.062134 21075.0 
168.022217 3348.0 
178.086487 5572.0 
181.017563 249574.0 
183.033707 3399.0 
195.033295 1215064.0 
208.957352 3811.0 
208.977005 5867.0 
213.043976 12035.0 
223.028091 6499186.0 
236.060013 4503.0 
290.431061 3367.0 
342.102173 25253.0 
360.111572 314441.0 
END IONS

BEGIN IONS
PRECURSOR_MZ=267.066
INCHI=InChI=1S/C16H12O4/c1-19-12-5-2-10(3-6-12)8-15-16(18)13-7-4-11(17)9-14(13)20-15/h2-9,17H,1H3/b15-8-
SMILES=COc1ccc(C=C2Oc3cc(O)ccc3C2=O)cc1
SCANS=6722
IONMODE=negative
COMPOUND_NAME=6-hydroxy-2-[(4-methoxyphenyl)methylene]benzo[b]furan-3-one M-H
SPECTRUM_ID=CCMSLIB00006692063
55.75132 2360.0 
57.465569 2642.0 
59.669979 2817.0 
65.678383 2769.0 
68.405762 2744.0 
68.80793 2641.0 
69.298286 2435.0 
69.534897 2274.0 
77.029572 2920.0 
92.39991 3642.0 
195.045105 2993.0 
212.609604 3196.0 
213.219604 3272.0 
216.98848 4518.0 
223.040161 104239.0 
224.047867 43601.0 
252.042984 1756933.0 
266.98645 62807.0 
267.066528 3349490.0 
END IONS

BEGIN IONS
PRECURSOR_MZ=377.084
INCHI=InChI=1S/C16H18O9/c17-9-3-1-8(5-10(9)18)2-4-13(20)25-12-7-16(24,15(22)23)6-11(19)14(12)21/h1-5,11-12,14,17-19,21,24H,6-7H2,(H,22,23)/b4-2+/t11-,12-,14-,16+/m1/s1
SMILES=O=C(C=Cc1ccc(O)c(O)c1)OC1CC(O)(C(=O)O)CC(O)C1O
SCANS=22540
IONMODE=positive
COMPOUND_NAME=CHLOROGENIC ACID M+Na
SPECTRUM_ID=CCMSLIB00006707881
54.01173 2259.0 
72.656822 2288.0 
78.242897 2186.0 
81.948578 2690.0 
95.852364 2166.0 
145.029114 2635.0 
147.820557 2580.0 
163.038696 16945.0 
163.871124 2504.0 
185.0215 10298.0 
197.041122 10940.0 
209.332031 9873.0 
215.05191 32473.0 
309.221344 2535.0 
331.079437 2711.0 
359.072754 14575.0 
377.08371 794711.0 
END IONS

BEGIN IONS
PRECURSOR_MZ=397.169
INCHI=InChI=1S/C23H26N2O2/c1-4-27-16-9-7-8-15(12-16)22-21-19(13-23(2,3)14-20(21)26)24-17-10-5-6-11-18(17)25-22/h5-12,22,24-25H,4,13-14H2,1-3H3
SMILES=CCOc1cccc(C2Nc3ccccc3NC3=C2C(=O)CC(C)(C)C3)c1
SCANS=1426
IONMODE=negative
COMPOUND_NAME=11-(3-ethoxyphenyl)-3,3-dimethyl-2,3,4-trihydro-5H,10H,11H-benzo[1,2-f]benzo[b ]1,4-diazepin-1-one M+Cl
SPECTRUM_ID=CCMSLIB00006686767
52.806938 2119.0 
54.766621 2497.0 
57.622952 2464.0 
64.063477 2312.0 
67.269402 2224.0 
68.995407 3619.0 
73.976044 2078.0 
77.823273 2332.0 
90.933632 4682.0 
94.36412 2692.0 
112.985786 35585.0 
118.68943 4097.0 
192.929337 9347.0 
208.977158 3572.0 
208.995239 3519.0 
215.277283 2325.0 
240.773544 2367.0 
244.710114 2634.0 
343.181152 15200.0 
361.192902 81566.0 
396.979858 4646.0 
397.107605 3259.0 
397.167206 20861.0 
END IONS

BEGIN IONS
PRECURSOR_MZ=554.195
INCHI=InChI=1S/C29H32ClNO5/c1-5-35-25-14-19(8-11-23(25)32)27-26(29(34)36-15-16(2)3)17(4)31-22-12-20(13-24(33)28(22)27)18-6-9-21(30)10-7-18/h6-11,14,16,20,27,31-32H,5,12-13,15H2,1-4H3
SMILES=CCOc1cc(C2C(C(=O)OCC(C)C)=C(C)NC3=C2C(=O)CC(c2ccc(Cl)cc2)C3)ccc1O
SCANS=19819
IONMODE=negative
COMPOUND_NAME=2-methylpropyl 7-(4-chlorophenyl)-4-(3-ethoxy-4-hydroxyphenyl)-2-methyl-5-oxo- 1,4,6,7,8-pentahydroquinoline-3-carboxylate M+formate
SPECTRUM_ID=CCMSLIB00006705160
51.01022 2546.0 
82.572678 2879.0 
92.393883 4372.0 
130.824005 2513.0 
136.233734 3912.0 
140.274872 2776.0 
207.710861 8092.0 
207.733673 6745.0 
246.109573 2683.0 
346.110138 2820.0 
378.088287 2843.0 
454.560516 2680.0 
505.906219 2914.0 
508.192047 24933.0 
515.141479 3173.0 
END IONS

BEGIN IONS
PRECURSOR_MZ=482.126
INCHI=InChI=1S/C24H21N5O3S/c1-14-8-10-16(11-9-14)29-21-20(22(30)26-13-25-21)28-24(29)33-12-18-15(2)32-23(27-18)17-6-4-5-7-19(17)31-3/h4-11,13H,12H2,1-3H3,(H,25,26,30)
SMILES=COc1ccccc1-c1nc(CSc2nc3c(O)ncnc3n2-c2ccc(C)cc2)c(C)o1
SCANS=15391
IONMODE=positive
COMPOUND_NAME=8-{[2-(2-methoxyphenyl)-5-methyl(1,3-oxazol-4-yl)]methylthio}-9-(4-methylpheny l)hydropurin-6-one M+Na
SPECTRUM_ID=CCMSLIB00006700732
53.03915 5186.0 
56.657619 2949.0 
63.75132 3028.0 
69.033661 16582.0 
73.941437 4507.0 
79.054314 30502.0 
86.040916 3709.0 
89.570183 3079.0 
91.054283 21701.0 
102.827904 2994.0 
103.054024 5158.0 
104.270737 3303.0 
105.069809 78277.0 
105.639313 3585.0 
106.064888 39275.0 
107.049042 615732.0 
115.054207 5585.0 
117.057297 5315.0 
118.064796 7014.0 
118.629272 3419.0 
119.049423 3758.0 
121.064392 6462.0 
129.069977 7314.0 
130.6026 3057.0 
131.048859 69445.0 
132.044312 13334.0 
132.056839 50629.0 
132.080673 19777.0 
133.052216 6669.0 
133.064499 39560.0 
134.059891 1321838.0 
145.064316 27689.0 
147.080017 6136.0 
158.060135 6237.0 
159.067764 20134.0 
160.07547 198660.0 
172.075668 14811.0 
185.378647 3632.0 
193.680984 3632.0 
202.085999 1339310.0 
208.103165 14597.0 
210.052444 56672.0 
258.157318 3641.0 
279.030457 139295.0 
280.038574 48889.0 
281.045959 56755.0 
467.100342 21719.0 
482.124908 3308557.0 
END IONS

BEGIN IONS
PRECURSOR_MZ=275.068
INCHI=InChI=1S/C16H12O3/c1-10-7-12(17)8-15-16(10)13(18)9-14(19-15)11-5-3-2-4-6-11/h2-9,17H,1H3
SMILES=Cc1cc(O)cc2oc(-c3ccccc3)cc(=O)c12
SCANS=12461
IONMODE=positive
COMPOUND_NAME=7-Hydroxy-5-methylflavone M+Na
SPECTRUM_ID=CCMSLIB00006697802
54.368038 1979.0 
56.101719 2154.0 
82.395103 2706.0 
84.959869 8249.0 
116.440842 2062.0 
118.646156 2930.0 
180.5448 2032.0 
193.770309 2286.0 
234.951538 2562.0 
260.913025 2737.0 
275.067719 106317.0 
275.160675 3639.0 
END IONS

BEGIN IONS
PRECURSOR_MZ=895.194
INCHI=InChI=1S/C21H20O11/c1-7-15(26)17(28)18(29)21(30-7)32-20-16(27)14-12(25)5-9(22)6-13(14)31-19(20)8-2-3-10(23)11(24)4-8/h2-7,15,17-18,21-26,28-29H,1H3/t7?,15-,17-,18?,21-/m0/s1
SMILES=CC1OC(Oc2c(-c3ccc(O)c(O)c3)oc3cc(O)cc(O)c3c2=O)C(O)C(O)C1O
SCANS=8349
IONMODE=negative
COMPOUND_NAME=Quercitrin (Quercetin-3-O-rhamnoside) 2M-H
SPECTRUM_ID=CCMSLIB00006693690
66.736313 4807.0 
73.945587 5220.0 
80.300461 3941.0 
82.286797 5123.0 
82.39447 4765.0 
83.206512 4329.0 
92.37249 6563.0 
104.27816 6273.0 
112.985336 5079.0 
118.644432 4408.0 
151.003372 38727.0 
157.955063 4440.0 
178.997925 45682.0 
192.565491 4849.0 
255.029892 18624.0 
271.025757 24846.0 
273.040039 6479.0 
283.024445 7513.0 
300.027405 654737.0 
301.035217 491480.0 
413.980316 4438.0 
447.093628 2752002.0 
448.098541 9486.0 
689.279175 4571.0 
895.189453 17174.0 
END IONS

BEGIN IONS
PRECURSOR_MZ=308.101
INCHI=InChI=1S/C15H15N3O3/c1-21-14-8-10(6-7-13(14)19)9-17-18-15(20)11-4-2-3-5-12(11)16/h2-9,19H,16H2,1H3,(H,18,20)/b17-9+
SMILES=COc1cc(C=NN=C(O)c2ccccc2N)ccc1O
SCANS=4117
IONMODE=positive
COMPOUND_NAME=N-[(1E)-2-(4-hydroxy-3-methoxyphenyl)-1-azavinyl](2-aminophenyl)carboxamide M+Na
SPECTRUM_ID=CCMSLIB00006689458
69.743561 2686.0 
104.297333 2508.0 
106.025658 2643.0 
110.397453 2542.0 
141.092697 2689.0 
159.269714 2612.0 
236.82515 2786.0 
308.100067 3405199.0 
326.109528 13576.0 
END IONS

BEGIN IONS
PRECURSOR_MZ=521.098
INCHI=InChI=1S/C24H26N2O5S2/c1-30-21-10-9-17(14-22(21)31-2)11-12-25-24(27)20-15-18-6-3-4-7-19(18)16-26(20)33(28,29)23-8-5-13-32-23/h3-10,13-14,20H,11-12,15-16H2,1-2H3,(H,25,27)
SMILES=COc1ccc(CCN=C(O)C2Cc3ccccc3CN2S(=O)(=O)c2cccs2)cc1OC
SCANS=15050
IONMODE=negative
COMPOUND_NAME=N-[2-(3,4-dimethoxyphenyl)ethyl][2-(2-thienylsulfonyl)(3-1,2,3,4-tetrahydroiso quinolyl)]carboxamide M+Cl
SPECTRUM_ID=CCMSLIB00006700391
54.6376 2499.0 
56.355301 2141.0 
70.465446 2606.0 
91.4981 2518.0 
112.985703 42269.0 
119.299294 2449.0 
146.937439 2758.0 
174.955643 2529.0 
180.973114 5136.0 
204.059464 2623.0 
210.022766 3819.0 
210.616638 3039.0 
248.9608 21894.0 
267.032074 3105.0 
316.947906 3508.0 
END IONS

BEGIN IONS
PRECURSOR_MZ=513.155
INCHI=InChI=1S/C28H27ClN2O4/c1-33-24-14-17(15-25(34-2)28(24)35-3)27-26-22(30-20-10-6-7-11-21(20)31-27)12-16(13-23(26)32)18-8-4-5-9-19(18)29/h4-11,14-16,27,30-31H,12-13H2,1-3H3
SMILES=COc1cc(C2Nc3ccccc3NC3=C2C(=O)CC(c2ccccc2Cl)C3)cc(OC)c1OC
SCANS=2946
IONMODE=positive
COMPOUND_NAME=3-(2-chlorophenyl)-11-(3,4,5-trimethoxyphenyl)-2,3,4-trihydro-5H,10H,11H-benzo [b]benzo[2,1-f]1,4-diazepin-1-one M+Na
SPECTRUM_ID=CCMSLIB00006688287
66.754921 2981.0 
75.31356 2790.0 
92.392448 3636.0 
110.698349 2776.0 
172.346466 3797.0 
225.857193 2849.0 
294.414459 2694.0 
424.774963 3061.0 
513.154602 1840880.0 
531.162415 29528.0 
END IONS

BEGIN IONS
PRECURSOR_MZ=337.143
INCHI=InChI=1S/C21H20O4/c1-13-11-19(22)25-18-12-16(9-10-17(13)18)24-20(23)14-5-7-15(8-6-14)21(2,3)4/h5-12H,1-4H3
SMILES=Cc1cc(=O)oc2cc(OC(=O)c3ccc(C(C)(C)C)cc3)ccc12
SCANS=17475
IONMODE=positive
COMPOUND_NAME=4-methyl-2-oxochromen-7-yl 4-(tert-butyl)benzoate M+H
SPECTRUM_ID=CCMSLIB00006702816
55.05455 13728.0 
57.070271 15482.0 
66.314293 2923.0 
76.509041 2678.0 
78.618919 2462.0 
79.054382 3665.0 
80.947853 2860.0 
91.054237 133367.0 
93.06971 18304.0 
98.629288 2502.0 
103.054024 4821.0 
104.297958 3159.0 
105.069702 179140.0 
115.054024 2913.0 
117.069527 6007.0 
118.077347 11337.0 
131.085876 22788.0 
133.101196 17435.0 
146.072357 314183.0 
150.067184 79820.0 
151.111557 27526.0 
157.984985 2762.0 
161.095734 3098024.0 
203.03302 11940.0 
221.043121 5813.0 
231.17804 3404.0 
243.096024 3017.0 
291.311584 3372.0 
292.929382 2920.0 
337.142334 1180536.0 
END IONS

BEGIN IONS
PRECURSOR_MZ=193.051
INCHI=InChI=1S/C10H10O4/c1-14-9-4-2-7(6-8(9)11)3-5-10(12)13/h2-6,11H,1H3,(H,12,13)/b5-3+
SMILES=COc1ccc(C=CC(=O)O)cc1O
SCANS=20152
IONMODE=negative
COMPOUND_NAME=Isoferulic acid M-H
SPECTRUM_ID=CCMSLIB00006705493
61.122879 1906.0 
61.311859 2368.0 
66.740143 1944.0 
68.902931 1921.0 
79.957237 9554.0 
89.925407 4321.0 
90.636047 2101.0 
90.933563 12359.0 
92.37513 3769.0 
93.035019 2632.0 
106.042709 7556.0 
111.009323 2641.0 
121.029472 4583.0 
133.029449 27825.0 
134.037186 365858.0 
137.024094 40462.0 
139.040222 12809.0 
149.060394 8195.0 
150.03241 4037.0 
178.0271 71899.0 
193.0504 32363.0 
195.828873 1985.0 
END IONS

BEGIN IONS
PRECURSOR_MZ=378.079
INCHI=InChI=1S/C16H16ClN5O2S/c1-3-22-14-13(15(24)19-8-18-14)21-16(22)25-7-12(23)20-11-6-4-5-10(17)9(11)2/h4-6,8H,3,7H2,1-2H3,(H,20,23)(H,18,19,24)
SMILES=CCn1c(SCC(O)=Nc2cccc(Cl)c2C)nc2c(O)ncnc21
SCANS=20176
IONMODE=positive
COMPOUND_NAME=N-(3-chloro-2-methylphenyl)-2-(9-ethyl-6-oxohydropurin-8-ylthio)acetamide M+H
SPECTRUM_ID=CCMSLIB00006705517
58.995499 19744.0 
60.533379 3644.0 
73.947403 3606.0 
91.054428 3549.0 
100.77446 2882.0 
104.277893 3239.0 
108.981827 2868.0 
110.034447 3855.0 
110.047989 3774.0 
118.065193 7491.0 
119.07309 14613.0 
120.055946 4324.0 
124.050873 6858.0 
125.0158 6017.0 
126.011803 5095.0 
130.064835 14062.0 
136.04982 3694.0 
137.045715 321780.0 
139.927246 3159.0 
140.026978 16332.0 
141.034775 3150.0 
147.067734 44091.0 
148.05043 5216.0 
149.045883 37636.0 
150.053482 7089.0 
151.061218 54771.0 
152.026932 33584.0 
153.010925 4196.0 
153.023193 6266.0 
154.006912 50644.0 
154.041519 70134.0 
161.045578 12347.0 
163.061325 5484.0 
164.025894 16656.0 
164.068634 4894.0 
165.034134 30113.0 
165.076828 7297.0 
167.002258 12981.0 
168.00856 6970.0 
168.022797 84874.0 
168.812103 3057.0 
169.018311 12150.0 
172.01741 6232.0 
175.044815 5855.0 
175.061325 129970.0 
176.06955 31120.0 
177.022797 4966.0 
177.077545 3915.0 
180.021103 18595.0 
181.0177 1407488.0 
195.033401 547591.0 
196.041428 5992.0 
197.048721 3806.0 
209.01265 69240.0 
209.048904 1142788.0 
227.058868 7003.0 
228.652908 2903.0 
236.057983 4646.0 
237.043701 2347045.0 
250.076843 21875.0 
360.068146 7253.0 
378.077515 97162.0 
END IONS

BEGIN IONS
PRECURSOR_MZ=837.276
INCHI=InChI=1S/C22H21N5O2S/c1-13-7-9-16(10-8-13)27-20-19(21(29)24-12-23-20)26-22(27)30-11-18(28)25-17-6-4-5-14(2)15(17)3/h4-10,12H,11H2,1-3H3,(H,25,28)(H,23,24,29)
SMILES=Cc1ccc(-n2c(SCC(O)=Nc3cccc(C)c3C)nc3c(O)ncnc32)cc1
SCANS=18608
IONMODE=negative
COMPOUND_NAME=N-(2,3-dimethylphenyl)-2-[9-(4-methylphenyl)-6-oxohydropurin-8-ylthio]acetamid e 2M-H
SPECTRUM_ID=CCMSLIB00006703949
58.441101 3052.0 
59.917 3138.0 
59.942959 3394.0 
65.014091 13845.0 
65.997864 4241.0 
66.747673 3877.0 
68.046013 3647.0 
73.957489 5075.0 
83.735962 3359.0 
92.025368 4340.0 
100.786781 3215.0 
104.291847 5271.0 
155.06163 88153.0 
158.061234 7628.0 
192.048523 6057.0 
225.054642 4804.0 
225.078232 59407.0 
255.033279 19138.0 
256.042572 36785.0 
257.049652 21934.0 
297.040649 4037.0 
303.234772 19319.0 
418.134155 132929.0 
440.115845 6683.0 
458.068939 3692.0 
515.63739 3399.0 
END IONS

BEGIN IONS
PRECURSOR_MZ=451.023
INCHI=InChI=1S/C21H17BrN4OS/c1-2-10-26-20(14-6-5-7-16(22)11-14)24-25-21(26)28-13-15-12-19(27)23-18-9-4-3-8-17(15)18/h2-9,11-12H,1,10,13H2,(H,23,27)
SMILES=C=CCn1c(SCc2cc(O)nc3ccccc23)nnc1-c1cccc(Br)c1
SCANS=5004
IONMODE=negative
COMPOUND_NAME=4-{[5-(3-bromophenyl)-4-prop-2-enyl-1,2,4-triazol-3-ylthio]methyl}hydroquinoli n-2-one M-H
SPECTRUM_ID=CCMSLIB00006690345
78.91851 746308.0 
81.045441 46205.0 
91.967949 3420.0 
92.383652 4851.0 
101.498543 3374.0 
104.296783 3338.0 
109.190376 3801.0 
113.923027 3743.0 
150.146454 3187.0 
157.053329 26719.0 
158.060959 414945.0 
160.021729 5736.0 
188.017426 215729.0 
188.036667 6942.0 
189.043106 45730.0 
221.966873 22318.0 
229.032806 4107.0 
237.961929 6156.0 
248.741135 3245.0 
252.93129 982748.0 
253.939026 1146913.0 
265.93927 27686.0 
268.925964 25366.0 
277.93808 8286.0 
293.970306 1000037.0 
310.27536 3086.0 
377.003723 15497.0 
378.012787 18211.0 
379.017639 25449.0 
408.975983 20654.0 
409.982056 27965.0 
410.989044 4700.0 
417.03363 5111.0 
451.023163 4765907.0 
506.983887 3540.0 
END IONS

BEGIN IONS
PRECURSOR_MZ=414.055
INCHI=InChI=1S/C21H15ClFNO5/c1-2-27-20(25)17-15(14-11(22)7-5-8-12(14)23)16-18(29-19(17)24)10-6-3-4-9-13(10)28-21(16)26/h3-9,15H,2,24H2,1H3
SMILES=CCOC(=O)C1=C(N)Oc2c(c(=O)oc3ccccc23)C1c1c(F)cccc1Cl
SCANS=17407
IONMODE=negative
COMPOUND_NAME=ethyl 2-amino-4-(2-chloro-6-fluorophenyl)-5-oxo-4H-pyrano[3,2-c]chromene-3-car boxylate M-H
SPECTRUM_ID=CCMSLIB00006702748
55.441879 2656.0 
58.175659 2331.0 
65.998154 1222651.0 
66.746658 2770.0 
69.587158 2579.0 
69.66378 3030.0 
82.405273 3011.0 
82.410957 2537.0 
84.009041 3867.0 
87.925163 5728.0 
92.38604 3072.0 
112.04052 914170.0 
117.034653 70475.0 
119.404266 2842.0 
150.489258 2640.0 
161.024597 234414.0 
207.876923 6560.0 
207.898315 5730.0 
209.92749 12104.0 
210.02005 12844.0 
212.599075 2948.0 
330.040741 11823.0 
394.048798 75735.0 
END IONS

BEGIN IONS
PRECURSOR_MZ=220.06
INCHI=InChI=1S/C11H9NO4/c1-6-2-3-7-8(4-6)11(16)12(10(7)15)5-9(13)14/h2-4H,5H2,1H3,(H,13,14)
SMILES=Cc1ccc2c(c1)C(=O)N(CC(=O)O)C2=O
SCANS=20572
IONMODE=positive
COMPOUND_NAME=2-(5-methyl-1,3-dioxobenzo[c]azolin-2-yl)acetic acid M+H
SPECTRUM_ID=CCMSLIB00006705913
51.041969 2195.0 
54.809608 1973.0 
54.892448 1876.0 
84.726807 2169.0 
91.054321 11572.0 
110.924843 2508.0 
118.065063 3561.0 
119.048714 11215.0 
144.043915 4002.0 
146.06015 8844.0 
147.043854 56095.0 
174.054794 734468.0 
177.291656 2303.0 
END IONS

BEGIN IONS
PRECURSOR_MZ=337.145
INCHI=InChI=1S/C21H22O4/c1-14(2)5-4-6-15(3)9-11-24-21-16-7-8-20(22)25-19(16)13-18-17(21)10-12-23-18/h5,7-10,12-13H,4,6,11H2,1-3H3/b15-9-
SMILES=CC(C)=CCCC(C)=CCOc1c2ccoc2cc2oc(=O)ccc12
SCANS=17854
IONMODE=negative
COMPOUND_NAME=ST057234 M-H
SPECTRUM_ID=CCMSLIB00006703195
60.540161 2388.0 
61.21666 2442.0 
65.476509 2774.0 
68.026497 2274.0 
68.621178 2244.0 
104.292892 2979.0 
132.77475 2333.0 
153.927704 2285.0 
172.886322 12624.0 
188.623077 2797.0 
189.019547 12433.0 
200.881805 8262.0 
201.019363 15322.0 
209.061066 15994.0 
210.069412 30676.0 
211.039307 12162.0 
214.027008 12472.0 
216.017883 2652.0 
223.075699 18727.0 
225.055603 31127.0 
226.063126 4961.0 
227.035614 10022.0 
239.071106 10237.0 
246.017334 9591.0 
251.034088 4300.0 
253.051285 47370.0 
254.058472 26746.0 
265.050812 3559.0 
267.066284 79545.0 
268.866821 3716.0 
281.081512 15025.0 
337.144562 383599.0 
END IONS

BEGIN IONS
PRECURSOR_MZ=419.067
INCHI=InChI=1S/C20H16N2O5S/c1-11(23)27-18-15(25-2)8-12(9-16(18)26-3)10-17-19(24)22-14-7-5-4-6-13(14)21-20(22)28-17/h4-10H,1-3H3/b17-10+
SMILES=COc1cc(C=c2sc3nc4ccccc4n3c2=O)cc(OC)c1OC(C)=O
SCANS=9291
IONMODE=positive
COMPOUND_NAME=2,6-dimethoxy-4-[(3-oxo(1,3-thiazolidino[3,2-a]benzimidazol-2-ylidene))methyl] phenyl acetate M+Na
SPECTRUM_ID=CCMSLIB00006694632
52.223042 2227.0 
65.11058 2616.0 
70.05439 2302.0 
74.471161 2370.0 
113.890907 2649.0 
298.57016 2667.0 
350.889648 4627.0 
419.066589 1099187.0 
END IONS

BEGIN IONS
PRECURSOR_MZ=473.199
INCHI=InChI=1S/C29H29ClN2O2/c1-18-8-10-19(11-9-18)17-34-26-13-12-20(14-21(26)30)28-27-24(15-29(2,3)16-25(27)33)31-22-6-4-5-7-23(22)32-28/h4-14,28,31-32H,15-17H2,1-3H3
SMILES=Cc1ccc(COc2ccc(C3Nc4ccccc4NC4=C3C(=O)CC(C)(C)C4)cc2Cl)cc1
SCANS=14791
IONMODE=positive
COMPOUND_NAME=11-{3-chloro-4-[(4-methylphenyl)methoxy]phenyl}-3,3-dimethyl-2,3,4-trihydro-5H ,10H,11H-benzo[b]benzo[2,1-f]1,4-diazepin-1-one M+H
SPECTRUM_ID=CCMSLIB00006700132
50.015621 8672.0 
51.023441 8228.0 
51.541809 3736.0 
53.039051 37059.0 
55.054581 7772.0 
63.352348 4442.0 
64.977966 4203.0 
65.038963 3921.0 
77.03878 23068.0 
79.054443 402904.0 
81.033707 4448.0 
83.049316 185846.0 
92.391312 4472.0 
93.483192 3627.0 
95.049049 41008.0 
103.054077 248321.0 
104.426331 3961.0 
104.791473 5383.0 
105.069778 6260107.0 
118.670731 3861.0 
119.060593 12851.0 
129.627197 3099.0 
130.065002 14412.0 
132.067566 38813.0 
133.07579 71487.0 
136.223923 4822.0 
141.009995 3627.0 
157.075867 268402.0 
158.084106 5619.0 
159.091431 37815.0 
159.272354 4128.0 
173.106995 34023.0 
175.087524 4794.0 
183.092834 5363.0 
184.126511 3862.0 
185.070648 891111.0 
197.107956 7729.0 
199.085876 6534.0 
199.123138 21221.0 
208.098419 5380.0 
211.085663 32550.0 
213.138123 7172.0 
215.117737 39975.0 
223.122543 50879.0 
224.107254 5646.0 
225.1017 18325.0 
240.165939 6404.0 
241.132965 6236782.0 
242.105759 7304.0 
277.096863 4535.0 
367.121948 6050.0 
368.125397 7203.0 
369.135437 59567.0 
437.21991 32816.0 
456.173737 7836.0 
473.19754 528878.0 
END IONS

BEGIN IONS
PRECURSOR_MZ=383.152
INCHI=InChI=1S/C22H23ClN2O2/c1-16-2-7-20-18(13-22(26)27-21(20)12-16)15-25-10-8-24(9-11-25)14-17-3-5-19(23)6-4-17/h2-7,12-13H,8-11,14-15H2,1H3
SMILES=Cc1ccc2c(CN3CCN(Cc4ccc(Cl)cc4)CC3)cc(=O)oc2c1
SCANS=16547
IONMODE=positive
COMPOUND_NAME=4-({4-[(4-chlorophenyl)methyl]piperazinyl}methyl)-7-methylchromen-2-one M+H
SPECTRUM_ID=CCMSLIB00006701888
51.023499 5306.0 
56.04995 85548.0 
57.05788 8405.0 
58.065449 5428.0 
63.023258 44407.0 
65.038986 8711.0 
66.046806 10902.0 
68.049896 10596.0 
70.065369 20194.0 
71.060669 17925.0 
72.98465 20108.0 
83.060623 1560777.0 
84.068443 113960.0 
85.076279 140092.0 
86.084198 5933.0 
87.091751 7237.0 
89.038689 556078.0 
90.046463 72077.0 
91.054337 9282.0 
97.076073 260974.0 
98.999573 230561.0 
99.091797 17196.0 
124.654831 9188.0 
125.015244 23208872.0 
125.377563 6777.0 
128.061523 7206.0 
129.069275 7818.0 
130.06485 20801.0 
131.085892 19460.0 
138.0233 8530.0 
145.064468 89237.0 
147.080521 10853.0 
154.041855 21963.0 
159.080032 57729.0 
161.060104 9251.0 
163.099655 23855.0 
166.041306 10105.0 
168.057236 127205.0 
170.073761 6834.0 
170.09465 7305.0 
173.059555 24546.0 
174.067429 27761.0 
174.09137 19157.0 
175.074997 17709.0 
186.092117 9728.0 
187.076004 7869.0 
188.106308 99275.0 
200.072266 8037.0 
202.085907 19021.0 
203.094177 9344.0 
208.07515 7790.0 
209.084518 20992.0 
210.092026 16610.0 
212.069687 7482.0 
214.085785 37803.0 
215.095627 8252.0 
216.101852 346327.0 
226.08577 10026.0 
228.100998 16554.0 
229.134018 8674.0 
234.104446 7989.0 
255.112366 6739.0 
257.128021 530265.0 
258.136078 249399.0 
281.476715 5125.0 
297.067841 8256.0 
303.212158 6183.0 
310.857819 5517.0 
347.172577 43724.0 
383.151367 7926360.0 
END IONS

BEGIN IONS
PRECURSOR_MZ=112.087
INCHI=InChI=1S/C5H9N3/c6-2-1-5-3-7-4-8-5/h3-4H,1-2,6H2,(H,7,8)
SMILES=NCCc1cnc[nH]1
SCANS=24325
IONMODE=positive
COMPOUND_NAME=histamine M+H
SPECTRUM_ID=CCMSLIB00006709666
64.870201 105836.0 
68.050201 3502060.0 
82.412399 157739.0 
83.056297 120902.0 
83.060898 7758190.0 
95.060898 85164704.0 
104.306999 124157.0 
112.086998 19016600.0 
END IONS

BEGIN IONS
PRECURSOR_MZ=368.071
INCHI=InChI=1S/C18H15N3O4S/c22-16(19-11-5-6-14-15(9-11)25-8-7-24-14)10-26-18-20-13-4-2-1-3-12(13)17(23)21-18/h1-6,9H,7-8,10H2,(H,19,22)(H,20,21,23)
SMILES=OC(CSc1nc(O)c2ccccc2n1)=Nc1ccc2c(c1)OCCO2
SCANS=8143
IONMODE=negative
COMPOUND_NAME=N-(2H,3H-benzo[3,4-e]1,4-dioxin-6-yl)-2-(4-hydroxyquinazolin-2-ylthio)acetamid e M-H
SPECTRUM_ID=CCMSLIB00006693484
53.972519 2265.0 
57.974751 3131.0 
60.49284 2296.0 
61.235741 2560.0 
61.82169 2352.0 
66.737038 2732.0 
82.38868 3550.0 
104.275467 3441.0 
136.192001 3217.0 
145.040237 12361.0 
157.876678 2638.0 
161.035187 11242.0 
177.012573 102523.0 
189.012939 6108.0 
191.028275 69530.0 
217.007767 31782.0 
235.879593 2775.0 
238.061707 10004.0 
264.078003 20474.0 
266.056763 148739.0 
294.088501 1089953.0 
368.070984 467410.0 
END IONS

BEGIN IONS
PRECURSOR_MZ=338.097
INCHI=InChI=1S/C18H17N3O2S/c1-2-12-7-9-13(10-8-12)19-16(22)11-24-18-20-15-6-4-3-5-14(15)17(23)21-18/h3-10H,2,11H2,1H3,(H,19,22)(H,20,21,23)
SMILES=CCc1ccc(NC(=O)CSc2nc(O)c3ccccc3n2)cc1
SCANS=14545
IONMODE=negative
COMPOUND_NAME=N-(4-ethylphenyl)-2-(4-hydroxyquinazolin-2-ylthio)acetamide M-H
SPECTRUM_ID=CCMSLIB00006699886
57.975189 190404.0 
66.743553 3300.0 
66.954453 2925.0 
73.955231 2765.0 
81.034927 2563.0 
94.807892 2868.0 
116.037758 3391.0 
117.04554 3007.0 
117.493423 3060.0 
130.053772 5355.0 
136.212723 3424.0 
137.296173 2774.0 
145.04097 120997.0 
145.077087 640599.0 
152.35907 2723.0 
154.762497 2748.0 
161.035843 33370.0 
176.005219 24020.0 
177.012833 389948.0 
189.012863 57659.0 
190.038559 22342.0 
191.028473 156910.0 
217.007858 44386.0 
249.091492 13492.0 
264.114441 1553357.0 
281.080414 10574.0 
338.097198 188486.0 
END IONS

BEGIN IONS
PRECURSOR_MZ=515.142
INCHI=InChI=1S/C26H24N2O8/c1-15-3-7-17(8-4-15)24(31)34-14-21-20(36-25(32)18-9-5-16(2)6-10-18)11-22(35-21)28-12-19(13-29)23(30)27-26(28)33/h3-10,12-13,20-22H,11,14H2,1-2H3,(H,27,30,33)
SMILES=Cc1ccc(C(=O)OCC2OC(n3cc(C=O)c(O)nc3=O)CC2OC(=O)c2ccc(C)cc2)cc1
SCANS=11111
IONMODE=positive
COMPOUND_NAME=5-(5-formyl-2,4-dioxo(1,3-dihydropyrimidinyl))-2-[(4-methylphenylcarbonyloxy)m ethyl]oxolan-3-yl 4-methylbenzoate M+Na
SPECTRUM_ID=CCMSLIB00006696452
50.764591 2521.0 
52.318199 3433.0 
53.039089 6448.0 
54.423031 3109.0 
57.003929 3061.0 
81.033859 382279.0 
92.373596 3478.0 
116.202477 3226.0 
118.41951 3117.0 
118.651543 2815.0 
133.268692 3023.0 
144.981171 3575.0 
159.041855 53567.0 
163.011505 748270.0 
204.038574 3026.0 
210.942291 5816.0 
239.067902 1350093.0 
257.077698 15932.0 
277.686432 2898.0 
280.09494 45075.0 
353.139496 3724.0 
375.120178 304755.0 
393.036957 13068.0 
411.052887 11079.0 
436.044464 5477.0 
515.051086 67253.0 
515.140991 437675.0 
533.062439 32815.0 
END IONS

BEGIN IONS
PRECURSOR_MZ=340.227
INCHI=InChI=1S/C22H31NO3/c1-4-23-10-20(3)6-5-17(25)22-15(20)7-13(18(22)23)21-9-12(11(2)19(21)26)14(24)8-16(21)22/h12-13,15-19,25-26H,2,4-10H2,1,3H3/t12?,13-,15?,16?,17-,18+,19+,20-,21-,22-/m0/s1
SMILES=C=C1C2CC3(C1O)C1CC4C5(C)CCC(O)C4(C1N(CC)C5)C3CC2=O
SCANS=3326
IONMODE=positive
COMPOUND_NAME=AKOS003672986 M+H-H2O
SPECTRUM_ID=CCMSLIB00006688667
55.69482 2783.0 
56.049931 18577.0 
58.06554 32589.0 
81.07 4691.0 
92.375359 4187.0 
93.069847 4376.0 
98.096497 7710.0 
105.070053 5384.0 
110.096024 3670.0 
131.084961 3980.0 
136.202103 3419.0 
143.085815 3374.0 
145.101212 7397.0 
147.115891 6291.0 
154.339294 3004.0 
157.974701 3780.0 
164.820862 3470.0 
169.100754 5570.0 
171.115952 14792.0 
185.131454 6055.0 
195.117279 4008.0 
200.142548 7219.0 
207.117996 3099.0 
209.131348 4554.0 
214.158249 13993.0 
237.162033 3638.0 
251.17897 4722.0 
279.170685 3823.0 
322.214325 18508.0 
340.226501 8733527.0 
END IONS

BEGIN IONS
PRECURSOR_MZ=837.276
INCHI=InChI=1S/C22H21N5O2S/c1-2-8-16-13-18(28)26-22(23-16)30-14-19(29)25-21-20(15-9-4-3-5-10-15)24-17-11-6-7-12-27(17)21/h3-7,9-13H,2,8,14H2,1H3,(H,25,29)(H,23,26,28)
SMILES=CCCc1cc(O)nc(SCC(O)=Nc2c(-c3ccccc3)nc3ccccn23)n1
SCANS=15396
IONMODE=negative
COMPOUND_NAME=2-(4-hydroxy-6-propylpyrimidin-2-ylthio)-N-(2-phenyl(4-hydroimidazo[1,2-a]pyri din-3-yl))acetamide 2M-H
SPECTRUM_ID=CCMSLIB00006700737
64.713829 3279.0 
65.621841 3375.0 
71.308342 3450.0 
71.435478 3189.0 
99.964859 3333.0 
109.07682 8492.0 
114.985603 5557.0 
135.055923 38450.0 
136.232483 4647.0 
137.071838 20236.0 
161.031815 4137.0 
169.044342 32263.0 
175.923172 4531.0 
181.043564 8006.0 
183.059799 28742.0 
207.543365 3734.0 
208.087311 5739.0 
208.115051 9007.0 
208.137695 7448.0 
209.038452 27293.0 
233.083313 644027.0 
301.145996 5011.0 
307.106293 4130.0 
317.143951 4837.0 
344.151581 916494.0 
418.134247 87394.0 
592.73584 4400.0 
802.835388 4165.0 
END IONS

BEGIN IONS
PRECURSOR_MZ=783.578
INCHI=InChI=1S/C24H40O4/c1-14(4-9-22(27)28)18-7-8-19-17-6-5-15-12-16(25)10-11-23(15,2)20(17)13-21(26)24(18,19)3/h14-21,25-26H,4-13H2,1-3H3,(H,27,28)/t14-,15-,16-,17+,18-,19+,20+,21+,23+,24-/m1/s1
SMILES=CC(CCC(=O)O)C1CCC2C3CCC4CC(O)CCC4(C)C3CC(O)C12C
SCANS=19267
IONMODE=negative
COMPOUND_NAME=DEOXYCHOLIC ACID 2M-H
SPECTRUM_ID=CCMSLIB00006704608
60.62558 5346.0 
70.518356 5383.0 
73.942513 5284.0 
84.873352 4815.0 
122.399567 5102.0 
137.856979 6215.0 
157.949219 6708.0 
373.221405 6338.0 
373.275208 197001.0 
389.268585 9638.0 
391.286194 15332633.0 
392.290283 27145.0 
409.296509 974737.0 
783.578064 140709.0 
END IONS

BEGIN IONS
PRECURSOR_MZ=397.131
INCHI=InChI=1S/C22H21ClN2O3/c1-13-18(12-21(26)24-16-7-8-16)19-11-17(28-2)9-10-20(19)25(13)22(27)14-3-5-15(23)6-4-14/h3-6,9-11,16H,7-8,12H2,1-2H3,(H,24,26)
SMILES=COc1ccc2c(c1)c(CC(O)=NC1CC1)c(C)n2C(=O)c1ccc(Cl)cc1
SCANS=6967
IONMODE=positive
COMPOUND_NAME=2-{1-[(4-chlorophenyl)carbonyl]-5-methoxy-2-methylindol-3-yl}-N-cyclopropylace tamide M+H
SPECTRUM_ID=CCMSLIB00006692308
50.015591 7507.0 
51.023449 24145.0 
53.002449 3764.0 
54.142799 3544.0 
58.065521 1014323.0 
58.75145 3335.0 
61.73167 3456.0 
66.738922 4003.0 
75.023064 8414.0 
79.01783 7398.0 
84.044296 6927.0 
86.999641 58038.0 
93.034409 3618.0 
100.075462 14434.0 
104.282272 3297.0 
110.999901 19747.0 
114.994904 4580.0 
116.015152 3571.0 
119.085373 92697.0 
129.009918 20922.0 
138.994263 9215259.0 
157.005661 5536.0 
174.090759 118417.0 
202.085922 14005.0 
214.122269 13010.0 
239.117081 4691.0 
241.131989 23590.0 
243.112244 13090.0 
270.06781 69809.0 
277.109955 4460.0 
297.054688 6335.0 
298.061035 19692.0 
312.077545 2685583.0 
340.072357 96803.0 
351.123535 15461.0 
352.110931 3858.0 
355.120361 6375.0 
364.095245 6255.0 
379.119568 203136.0 
379.641449 4024.0 
397.130219 2692070.0 
399.176575 5373.0 
END IONS

BEGIN IONS
PRECURSOR_MZ=496.188
INCHI=InChI=1S/C28H25N3O3/c1-31-24-11-7-6-10-21(24)25(26(31)18-8-4-3-5-9-18)27(32)28(33)29-15-14-19-17-30-23-13-12-20(34-2)16-22(19)23/h3-13,16-17,30H,14-15H2,1-2H3,(H,29,33)
SMILES=COc1ccc2[nH]cc(CCNC(=O)C(=O)c3c(-c4ccccc4)n(C)c4ccccc34)c2c1
SCANS=16577
IONMODE=negative
COMPOUND_NAME=N-[2-(5-methoxyindol-3-yl)ethyl]-2-(1-methyl-2-phenylindol-3-yl)-2-oxoacetamid e M+formate
SPECTRUM_ID=CCMSLIB00006701918
60.584541 2305.0 
66.744423 2932.0 
71.202431 2304.0 
73.95713 3158.0 
81.064583 2715.0 
82.399986 2723.0 
104.286217 2903.0 
118.658539 2974.0 
120.596939 2455.0 
144.046112 19013.0 
157.976318 2740.0 
204.081924 43294.0 
218.062271 20982.0 
231.032684 2589.0 
258.914276 3345.0 
450.182251 308965.0 
END IONS

BEGIN IONS
PRECURSOR_MZ=296.904
INCHI=InChI=1S/C10H4Cl4O2/c11-5-1-2-8-6(3-5)7(15)4-9(16-8)10(12,13)14/h1-4H
SMILES=O=c1cc(C(Cl)(Cl)Cl)oc2ccc(Cl)cc12
SCANS=9112
IONMODE=positive
COMPOUND_NAME=6-chloro-2-(trichloromethyl)chromen-4-one M+H
SPECTRUM_ID=CCMSLIB00006694453
65.054672 2723.0 
71.048843 2551.0 
82.945351 4063.0 
84.960083 11349.0 
95.42675 2807.0 
104.290024 2793.0 
114.640511 3065.0 
116.906052 19340.0 
138.708298 2822.0 
147.191406 2832.0 
154.99025 5487.0 
157.977493 3824.0 
164.063416 2885.0 
186.921829 4539.0 
199.897873 2898.0 
204.934158 3360.0 
214.917297 15156.0 
214.966202 5339.0 
232.930969 212746.0 
240.91304 6307.0 
242.960617 18759.0 
244.957657 32167.0 
250.849472 3570.0 
250.938248 38013.0 
255.943695 11372.0 
260.926727 25644.0 
260.952393 3263.0 
261.934692 1835847.0 
268.908569 24963.0 
273.954224 5260.0 
279.230743 11988.0 
282.97287 3030.0 
296.903351 4449207.0 
297.241119 4794.0 
299.062408 5334.0 
325.2146 3355.0 
337.928436 32868.0 
441.065247 3471.0 
470.953888 3464.0 
498.102722 2942.0 
505.319153 2954.0 
END IONS

BEGIN IONS
PRECURSOR_MZ=391.149
INCHI=InChI=1S/C20H23FN2O3S/c1-12-9-19(26-4)20(10-13(12)2)27(24,25)22-8-7-16-14(3)23-18-6-5-15(21)11-17(16)18/h5-6,9-11,22-23H,7-8H2,1-4H3
SMILES=COc1cc(C)c(C)cc1S(=O)(=O)NCCc1c(C)[nH]c2ccc(F)cc12
SCANS=19851
IONMODE=positive
COMPOUND_NAME=[2-(5-fluoro-2-methylindol-3-yl)ethyl][(2-methoxy-4,5-dimethylphenyl)sulfonyl] amine M+H
SPECTRUM_ID=CCMSLIB00006705192
58.48135 2678.0 
72.284462 3415.0 
75.209923 3102.0 
82.435493 2738.0 
92.416161 3248.0 
109.044487 14113.0 
113.251167 3424.0 
128.06192 5098.0 
129.069916 61913.0 
133.044601 12616.0 
135.047821 33072.0 
135.060181 22894.0 
145.944214 3008.0 
147.061188 2857.0 
148.05571 61849.0 
149.023285 15928.0 
149.063812 6277.0 
149.076019 29408.0 
156.080811 67855.0 
158.040833 3508.0 
159.060623 27033.0 
160.056061 3365.0 
161.063538 813516.0 
162.071121 36142.0 
163.074829 23901.0 
174.071671 11316.0 
175.078979 21102.0 
175.48053 3670.0 
176.087067 4805532.0 
176.697739 3925.0 
209.204697 8395.0 
298.741394 3370.0 
391.146271 3471.0 
END IONS

BEGIN IONS
PRECURSOR_MZ=303.12
INCHI=InChI=1S/C13H14N6O3/c1-8(15-10-12(21)16-13(22)19-17-10)11(20)18-14-7-9-5-3-2-4-6-9/h2-8H,1H3,(H,15,17)(H,18,20)(H2,16,19,21,22)/b14-7+
SMILES=CC(Nc1nnc(O)nc1O)C(O)=NN=Cc1ccccc1
SCANS=8988
IONMODE=positive
COMPOUND_NAME=N-((1E)-2-phenyl-1-azavinyl)-2-[(3,5-dioxo(2H,4H-1,2,4-triazin-6-yl))amino]pro panamide M+H
SPECTRUM_ID=CCMSLIB00006694329
69.008774 3547.0 
71.747017 2742.0 
79.054443 5781.0 
84.055862 40734.0 
84.960121 5744.0 
87.649773 2468.0 
91.054802 4017.0 
104.049553 47965.0 
106.065193 45828.0 
108.487083 2767.0 
117.276466 3056.0 
121.076103 2163047.0 
138.029663 12036.0 
140.547714 2584.0 
147.091644 160534.0 
153.040756 52843.0 
155.056412 1563686.0 
159.065704 10154.0 
175.086716 72917.0 
181.035416 64032.0 
183.051254 118212.0 
198.062485 11954.0 
213.296875 2971.0 
232.082397 13761.0 
238.873413 3359.0 
256.883453 12843.0 
271.082825 16883.0 
273.654724 2880.0 
END IONS

BEGIN IONS
PRECURSOR_MZ=437.291
INCHI=InChI=1S/C24H40O4/c1-14(4-7-21(27)28)17-5-6-18-22-19(9-11-24(17,18)3)23(2)10-8-16(25)12-15(23)13-20(22)26/h14-20,22,25-26H,4-13H2,1-3H3,(H,27,28)/t14-,15+,16-,17-,18+,19+,20-,22+,23+,24-/m1/s1
SMILES=CC(CCC(=O)O)C1CCC2C3C(O)CC4CC(O)CCC4(C)C3CCC12C
SCANS=19279
IONMODE=negative
COMPOUND_NAME=chenodeoxycholic acid M+formate
SPECTRUM_ID=CCMSLIB00006704620
65.079483 2318.0 
73.975151 3274.0 
89.550407 2776.0 
92.405319 3681.0 
104.599892 2402.0 
111.990623 3233.0 
114.610626 2518.0 
164.927017 10851.0 
174.957001 3096.0 
227.250626 2921.0 
232.914062 3002.0 
244.606415 2639.0 
373.275757 11538.0 
391.286163 974099.0 
409.296143 43395.0 
861.852112 2794.0 
END IONS

BEGIN IONS
PRECURSOR_MZ=853.165
INCHI=InChI=1S/C18H23BrN2O5/c1-6-21-10(4)14(17(23)26-9(2)3)15(20-18(21)24)11-7-12(19)16(22)13(8-11)25-5/h7-9,15,22H,6H2,1-5H3,(H,20,24)
SMILES=CCN1C(O)=NC(c2cc(Br)c(O)c(OC)c2)C(C(=O)OC(C)C)=C1C
SCANS=8080
IONMODE=positive
COMPOUND_NAME=methylethyl 6-(3-bromo-4-hydroxy-5-methoxyphenyl)-3-ethyl-4-methyl-2-oxo-1,3,6 -trihydropyrimidine-5-carboxylate 2M+H
SPECTRUM_ID=CCMSLIB00006693421
130.086182 194503.0 
140.070709 7070.0 
155.044815 10457.0 
156.065308 84228.0 
172.132935 459404.0 
183.076157 70502.0 
198.112183 33419.0 
225.123444 36036.0 
228.985687 18865.0 
252.98584 21194.0 
254.964005 7905.0 
255.959778 559193.0 
266.858795 4016.0 
267.995941 17253.0 
270.011627 20518.0 
278.965057 8534.0 
295.990814 22839.0 
296.025848 5067.0 
296.975159 34533.0 
314.00293 9767.0 
324.02179 115452.0 
341.052368 4669.0 
342.032806 297401.0 
367.026031 5854.0 
384.079834 115958.0 
385.039734 34807.0 
427.085541 3253601.0 
467.050049 4370.0 
468.109283 8603.0 
574.311951 4125.0 
652.999939 4674.0 
1595.140869 5284.0 
END IONS

BEGIN IONS
PRECURSOR_MZ=651.797
INCHI=InChI=1S/C15H12I3NO4/c16-9-3-7(4-12(19)15(21)22)1-2-13(9)23-8-5-10(17)14(20)11(18)6-8/h1-3,5-6,12,20H,4,19H2,(H,21,22)/t12-/m0/s1
SMILES=N[C@@H](Cc1ccc(Oc2cc(I)c(O)c(I)c2)c(I)c1)C(=O)O
SCANS=24427
IONMODE=positive
COMPOUND_NAME=3,3',5'-Triiodo-L-thyronine M+H
SPECTRUM_ID=CCMSLIB00006709768
55.584702 148847.0 
65.312103 131957.0 
65.714203 198390.0 
69.787903 139634.0 
92.413399 233746.0 
104.325996 211113.0 
117.056999 1328090.0 
118.065002 276058.0 
160.014999 725463.0 
180.056 317231.0 
184.052002 2872290.0 
197.059998 2132370.0 
197.080002 282386.0 
198.067001 6356500.0 
208.050995 623010.0 
210.065994 687758.0 
211.037994 827110.0 
212.044998 950883.0 
216.949997 1030710.0 
219.936996 1242200.0 
224.070007 2314090.0 
225.054993 616482.0 
225.078003 5748450.0 
226.063004 1202750.0 
232.945007 1181160.0 
234.923996 870433.0 
236.044998 230456.0 
237.052994 183533.0 
238.612 155706.0 
253.048996 248438.0 
254.057007 1966550.0 
259.957001 1382610.0 
286.920013 248462.0 
306.959991 703839.0 
322.955994 744546.0 
323.963013 197767.0 
324.971985 2754890.0 
334.954987 684673.0 
335.963989 318850.0 
338.951996 177482.0 
349.963013 184041.0 
350.973999 1215700.0 
351.981995 792428.0 
352.96701 280949.0 
358.839996 164816.0 
362.951996 305457.0 
380.960999 336386.0 
395.342987 167253.0 
410.261993 170373.0 
450.868011 3899940.0 
451.876007 1565400.0 
461.860992 273020.0 
462.868011 573443.0 
465.860992 1242350.0 
477.877014 353413.0 
478.886993 6142600.0 
507.865997 8243780.0 
592.76001 1580670.0 
605.791016 38449000.0 
634.770996 2319690.0 
651.796997 38466200.0 
END IONS

BEGIN IONS
PRECURSOR_MZ=191.035
INCHI=InChI=1S/C10H8O4/c1-13-9-5-8-6(4-7(9)11)2-3-10(12)14-8/h2-5,11H,1H3
SMILES=COc1cc2oc(=O)ccc2cc1O
SCANS=7398
IONMODE=negative
COMPOUND_NAME=Isoscopoletin M-H
SPECTRUM_ID=CCMSLIB00006692739
63.144482 2052.0 
87.925209 12583.0 
100.340469 2086.0 
102.948738 121806.0 
103.920097 24034.0 
104.026649 3922.0 
104.276939 2201.0 
118.76062 2079.0 
122.958504 2048.0 
133.892365 2039.0 
146.938309 74657.0 
148.016464 25338.0 
157.192474 2484.0 
162.893219 2689.0 
163.003036 3947.0 
176.011307 783985.0 
190.999908 4682.0 
191.034821 147528.0 
252.247498 2883.0 
277.561829 2169.0 
END IONS

BEGIN IONS
PRECURSOR_MZ=217.098
INCHI=InChI=1S/C12H14N2O2/c1-13-11(12(15)16)6-8-7-14-10-5-3-2-4-9(8)10/h2-5,7,11,13-14H,6H2,1H3,(H,15,16)/t11-/m0/s1
SMILES=CNC(Cc1c[nH]c2ccccc12)C(=O)O
SCANS=20142
IONMODE=negative
COMPOUND_NAME=L-Abrine M-H
SPECTRUM_ID=CCMSLIB00006705483
53.239208 1899.0 
53.351841 2119.0 
54.611969 1844.0 
58.44067 1845.0 
59.913441 1808.0 
60.53772 2071.0 
72.308708 2274.0 
77.803368 1914.0 
82.742561 2164.0 
86.019943 2470.0 
86.024643 35114.0 
88.040337 43634.0 
90.259697 2102.0 
92.377068 2608.0 
104.280762 2071.0 
116.050621 146531.0 
118.652344 2159.0 
131.118164 2041.0 
142.066162 44260.0 
142.077606 3568.0 
157.967102 2225.0 
186.055969 8753.0 
210.170258 3764.0 
216.92186 14987.0 
217.098251 144737.0 
END IONS

BEGIN IONS
PRECURSOR_MZ=404.24
INCHI=InChI=1S/C19H29N7O3/c1-23-16-15(17(27)24(2)19(23)28)26(18(22-16)25-10-12-29-13-11-25)9-5-8-21-14-6-3-4-7-20-14/h3-13H2,1-2H3,(H,20,21)
SMILES=Cn1c(=O)c2c(nc(N3CCOCC3)n2CCCNC2=NCCCC2)n(C)c1=O
SCANS=2531
IONMODE=positive
COMPOUND_NAME=1,3-dimethyl-8-morpholin-4-yl-7-(4-(2-piperidylidene)-4-azabutyl)-1,3,7-trihyd ropurine-2,6-dione M+H
SPECTRUM_ID=CCMSLIB00006687872
58.065491 54022.0 
70.052979 38793.0 
70.056534 4796.0 
76.357094 4711.0 
82.065239 37904.0 
83.0606 8671.0 
84.080833 5879.0 
87.464844 4260.0 
87.522453 5481.0 
96.081093 5235.0 
97.07589 79078.0 
97.088448 27591.0 
97.433289 4271.0 
98.083763 1048468.0 
99.091583 576580.0 
99.345383 4715.0 
109.075943 132082.0 
110.976143 4852.0 
111.091469 314730.0 
111.100182 10584.0 
112.099327 908006.0 
115.086647 20933.0 
118.681847 5443.0 
123.104218 10321.0 
124.112106 8718.0 
125.107117 689414.0 
127.049782 88274.0 
130.073486 21547.0 
137.070709 454591.0 
137.107315 29941.0 
139.122757 4216065.0 
139.702698 4713.0 
140.130463 594279.0 
141.138443 34072.0 
144.08902 200578.0 
151.12149 6640.0 
155.081329 11582.0 
167.080261 17577.0 
172.120087 84933.0 
192.076553 8307.0 
192.112534 42461.0 
194.092041 562599.0 
217.109695 5908.0 
218.091064 6437.0 
221.100998 5691.0 
221.138931 20046.0 
234.098526 22629.0 
237.132965 7864.0 
248.149918 23554.0 
249.13324 131344.0 
262.129883 27962.0 
264.109314 61490.0 
265.116119 679536.0 
275.14743 20510.0 
278.124664 108751.0 
290.162109 10919.0 
306.155029 4456741.0 
316.174011 81713.0 
317.170288 125178.0 
347.217865 43500.0 
373.192444 10469.0 
402.143707 45843.0 
404.239441 34911292.0 
406.360504 47575.0 
END IONS

BEGIN IONS
PRECURSOR_MZ=525.207
INCHI=InChI=1S/C29H28N6O2S/c1-36-21-12-13-24(26(18-21)37-2)30-27-22-10-6-7-11-23(22)31-28(33-27)34-14-16-35(17-15-34)29-32-25(19-38-29)20-8-4-3-5-9-20/h3-13,18-19H,14-17H2,1-2H3,(H,30,31,33)
SMILES=COc1ccc(N=c2[nH]c(N3CCN(c4nc(-c5ccccc5)cs4)CC3)nc3ccccc23)c(OC)c1
SCANS=12487
IONMODE=positive
COMPOUND_NAME=(2,4-dimethoxyphenyl){2-[4-(4-phenyl(1,3-thiazol-2-yl))piperazinyl]quinazolin- 4-yl}amine M+H
SPECTRUM_ID=CCMSLIB00006697828
59.131199 5390.0 
59.51532 5246.0 
62.57803 5653.0 
65.038857 6775.0 
67.04184 10545.0 
68.049683 26166.0 
69.045021 42270.0 
70.065376 26165.0 
73.010773 22234.0 
79.054428 6129.0 
91.054207 330668.0 
95.048988 13833.0 
96.043892 6768.0 
100.021301 41892.0 
101.016457 9064.0 
102.38385 5434.0 
103.053932 9109.0 
104.049263 39698.0 
104.287827 6578.0 
106.064522 10342.0 
109.009933 6378.0 
109.065086 7251.0 
115.053703 10296.0 
117.057022 25832.0 
118.05201 8696.0 
118.064941 52864.0 
121.010384 12145.0 
122.036346 9806.0 
122.059677 49027.0 
123.02565 39591.0 
124.039307 8455.0 
124.075546 33124.0 
125.059647 9763.0 
127.032173 36741.0 
128.061722 24793.0 
129.044464 6815.0 
129.056839 7491.0 
130.064697 28845.0 
131.060257 26320.0 
132.044724 6523.0 
133.028564 27943.0 
134.018127 84333.0 
135.025986 794290.0 
138.055054 20408.0 
138.067429 39294.0 
139.062454 35242.0 
143.048065 29360.0 
143.060059 12442.0 
143.07254 26250.0 
144.055496 7154.0 
144.068924 6163.0 
144.080658 31031.0 
145.075668 26457.0 
146.070526 6747.0 
147.026047 12539.0 
147.055023 41683.0 
148.021194 33281.0 
148.05162 169229.0 
148.065094 6269.0 
149.044937 26403.0 
150.037003 101765.0 
150.05455 12954.0 
152.070236 32999.0 
154.085831 31342.0 
159.079163 11806.0 
160.021423 119734.0 
160.074051 227792.0 
160.087036 50957.0 
162.036469 111004.0 
162.066055 5889.0 
164.070541 27379.0 
169.075638 32881.0 
170.070694 309901.0 
171.078629 266035.0 
171.095032 7502.0 
172.08638 40072.0 
174.037201 12871.0 
175.030228 13397.0 
175.045898 55297.0 
175.072983 54447.0 
176.052628 306628.0 
177.048874 26265.0 
177.065659 9772.0 
184.072968 45268.0 
185.080261 135399.0 
185.097427 11784.0 
186.036758 12793.0 
187.097748 10509.0 
188.052078 34966.0 
188.081604 27074.0 
189.047791 35843.0 
195.091431 12676.0 
196.086349 87543.0 
197.095703 85873.0 
198.102188 24543.0 
200.052658 13855.0 
201.046997 69327.0 
202.06929 9872.0 
203.06337 3030432.0 
205.042114 62454.0 
209.095963 8161.0 
210.088806 5951.0 
211.097198 35690.0 
212.052948 27095.0 
212.080521 20011.0 
213.04808 10076.0 
213.076416 5627.0 
214.056015 12150.0 
214.09761 9207.0 
217.078445 9106.0 
220.087585 20339.0 
222.065033 12378.0 
222.104034 7164.0 
223.098511 103192.0 
224.081024 6959.0 
225.06456 51398.0 
227.062744 62755.0 
229.078766 909219.0 
230.074219 37245.0 
235.096146 28047.0 
236.057861 13562.0 
236.081039 43234.0 
237.112747 545320.0 
238.098053 11399.0 
239.092194 64469.0 
240.08873 95959.0 
241.097977 46379.0 
244.089737 9094.0 
247.098099 37306.0 
248.081573 15585.0 
248.105804 39331.0 
249.10788 52697.0 
250.060379 48117.0 
250.096237 184291.0 
251.081512 250199.0 
251.127853 13008.0 
252.089661 39175.0 
253.096237 69875.0 
255.111145 52945.0 
259.098206 7773.0 
261.077454 12081.0 
261.112335 29939.0 
262.090912 7077.0 
263.011505 6455.0 
263.06488 9434.0 
263.092865 61118.0 
263.12912 55848.0 
263.994019 6306.0 
264.113525 50210.0 
265.107849 5743632.0 
266.091339 1201738.0 
267.085907 21121.0 
267.11264 232011.0 
273.112793 8976.0 
274.095551 9045.0 
275.092133 78354.0 
276.099762 280796.0 
277.107605 397482.0 
278.0914 150036.0 
278.121948 7035.0 
279.123352 146865.0 
280.1073 277668.0 
281.127899 202113.0 
282.110687 48166.0 
289.107574 153722.0 
289.142242 9735.0 
289.839447 9433.0 
290.11731 133668.0 
291.123169 7713098.0 
292.090485 103142.0 
292.415283 9475.0 
293.102356 2894534.0 
294.117035 10661.0 
295.11792 713394.0 
296.139496 7697.0 
297.133575 43263.0 
302.114685 24925.0 
305.104492 10360.0 
305.13736 44835.0 
306.110626 94367.0 
307.117828 2865339.0 
308.125671 3534998.0 
309.133209 90068.0 
317.102142 11353.0 
317.13858 311103.0 
318.11264 29132.0 
319.117859 1042542.0 
320.113892 29289.0 
321.132996 136874.0 
322.130524 10000.0 
323.149139 3154662.0 
331.099182 50173.0 
333.093964 6921.0 
333.133392 401061.0 
334.141205 1120125.0 
335.139404 32983.0 
349.164703 628614.0 
350.16037 80769.0 
398.10141 9031.0 
409.018433 5976.0 
422.66452 6753.0 
424.122223 83907.0 
452.118744 10680.0 
456.14505 12904.0 
466.134644 10546.0 
467.143982 6948.0 
482.164337 12609.0 
522.105591 21633.0 
525.205322 15665391.0 
528.329407 22376.0 
END IONS

BEGIN IONS
PRECURSOR_MZ=297.073
INCHI=InChI=1S/C15H14O5/c1-17-12-7-11(20-15(16)8-12)4-2-10-3-5-13-14(6-10)19-9-18-13/h2-6,8,11H,7,9H2,1H3/b4-2+/t11-/m1/s1
SMILES=COC1=CC(=O)OC(C=Cc2ccc3c(c2)OCO3)C1
SCANS=17789
IONMODE=positive
COMPOUND_NAME=Methysticin M+Na
SPECTRUM_ID=CCMSLIB00006703130
56.20079 2008.0 
70.010246 1897.0 
70.985939 2231.0 
71.038353 2172.0 
84.959961 2706.0 
92.3731 2412.0 
104.282272 3092.0 
179.979614 2402.0 
210.412628 3125.0 
297.072601 524746.0 
315.082672 17325.0 
338.098846 10601.0 
453.383881 2488.0 
END IONS

BEGIN IONS
PRECURSOR_MZ=377.222
INCHI=InChI=1S/C24H28N2O2/c1-16-12-18(3)24-20(14-23(27)28-22(24)13-16)15-25-8-10-26(11-9-25)21-7-5-6-17(2)19(21)4/h5-7,12-14H,8-11,15H2,1-4H3
SMILES=Cc1cc(C)c2c(CN3CCN(c4cccc(C)c4C)CC3)cc(=O)oc2c1
SCANS=9033
IONMODE=positive
COMPOUND_NAME=4-{[4-(2,3-dimethylphenyl)piperazinyl]methyl}-5,7-dimethylchromen-2-one M+H
SPECTRUM_ID=CCMSLIB00006694374
70.065498 34437.0 
77.610863 2436.0 
82.406303 2839.0 
104.410973 2553.0 
107.137787 2979.0 
131.085587 13751.0 
132.081039 4685.0 
133.088257 15586.0 
134.096527 11132.0 
135.103516 2995.0 
136.223495 2912.0 
145.100845 6077.0 
146.0961 5963.0 
147.080887 3850.0 
147.103958 3906.0 
148.111923 548104.0 
159.080414 116901.0 
159.103897 3772.0 
160.112045 42744.0 
161.095825 49322.0 
174.127853 2996.0 
175.075043 45558.0 
187.075226 279858.0 
187.122955 19720.0 
188.130524 227908.0 
189.09079 33645.0 
189.138748 30114.0 
190.146301 82883.0 
191.153946 76178.0 
201.138794 4867.0 
202.121475 2980.0 
202.144287 4154.0 
203.15419 24377.0 
218.174393 3269.0 
230.116898 23352.0 
244.13562 2764.0 
250.181824 3074.0 
256.133453 2900.0 
261.440765 2808.0 
329.630402 3044.0 
333.523804 3229.0 
377.22168 2268960.0 
394.334442 3240.0 
END IONS

BEGIN IONS
PRECURSOR_MZ=255.065
INCHI=InChI=1S/C15H10O4/c16-10-7-4-8-11-12(10)13(17)14(18)15(19-11)9-5-2-1-3-6-9/h1-8,16,18H
SMILES=O=c1c(O)c(-c2ccccc2)oc2cccc(O)c12
SCANS=6589
IONMODE=positive
COMPOUND_NAME=3,5-Dihydroxyflavone M+H
SPECTRUM_ID=CCMSLIB00006691930
51.58519 2520.0 
55.48333 2487.0 
65.593941 2624.0 
82.380463 2823.0 
83.085876 2662.0 
93.036613 4061.0 
95.479019 2536.0 
105.033524 18408.0 
109.290359 2601.0 
127.28685 2752.0 
137.0233 40746.0 
149.023422 35436.0 
153.069595 4489.0 
180.575851 2898.0 
181.064484 2987.0 
199.075439 19360.0 
218.002411 2510.0 
254.007996 4588.0 
255.064911 5737933.0 
256.127167 2978.0 
END IONS

BEGIN IONS
PRECURSOR_MZ=319.115
INCHI=InChI=1S/C15H20O6/c1-18-12-6-5-10(7-13(12)19-2)11(8-14(16)20-3)9-15(17)21-4/h5-7,11H,8-9H2,1-4H3
SMILES=COC(=O)CC(CC(=O)OC)c1ccc(OC)c(OC)c1
SCANS=21386
IONMODE=positive
COMPOUND_NAME=dimethyl 3-(3,4-dimethoxyphenyl)pentane-1,5-dioate M+Na
SPECTRUM_ID=CCMSLIB00006706727
72.230423 2280.0 
92.886124 2348.0 
157.931076 3069.0 
168.596039 2247.0 
249.528961 2317.0 
319.114685 1006864.0 
END IONS

BEGIN IONS
PRECURSOR_MZ=443.115
INCHI=InChI=1S/C23H26Cl2O3/c1-3-5-13-27-22-12-9-18(15-23(22)28-14-6-4-2)21(26)11-8-17-7-10-19(24)16-20(17)25/h7-12,15-16H,3-6,13-14H2,1-2H3/b11-8+
SMILES=CCCCOc1ccc(C(=O)C=Cc2ccc(Cl)cc2Cl)cc1OCCCC
SCANS=19023
IONMODE=positive
COMPOUND_NAME=(2E)-1-(3,4-dibutoxyphenyl)-3-(2,4-dichlorophenyl)prop-2-en-1-one M+Na
SPECTRUM_ID=CCMSLIB00006704364
50.136662 2497.0 
61.601139 2065.0 
63.865028 2016.0 
66.556259 2456.0 
81.6558 2441.0 
90.976807 5709.0 
92.367538 2731.0 
144.866684 2419.0 
216.73613 2298.0 
266.605927 2432.0 
268.928192 2938.0 
298.09845 2483.0 
382.947357 2722.0 
443.116577 21952.0 
443.182037 2940.0 
443.337799 18468.0 
445.851746 2759.0 
END IONS

BEGIN IONS
PRECURSOR_MZ=350.093
INCHI=InChI=1S/C17H17N3O2S/c1-10-8-18-14(11(2)15(10)22-3)9-23-17-19-13-7-5-4-6-12(13)16(21)20-17/h4-8H,9H2,1-3H3,(H,19,20,21)
SMILES=COc1c(C)cnc(CSc2nc(O)c3ccccc3n2)c1C
SCANS=14916
IONMODE=positive
COMPOUND_NAME=2-[(4-methoxy-3,5-dimethyl-2-pyridyl)methylthio]quinazolin-4-ol M+Na
SPECTRUM_ID=CCMSLIB00006700257
59.494629 2138.0 
65.638573 2176.0 
67.768082 2203.0 
71.434929 2145.0 
72.318512 2205.0 
128.647034 2471.0 
136.184219 2504.0 
146.458008 2516.0 
157.938522 2409.0 
230.640915 2577.0 
299.62558 2449.0 
322.083832 2471.0 
350.092926 1145361.0 
END IONS

BEGIN IONS
PRECURSOR_MZ=181.051
INCHI=InChI=1S/C9H10O4/c1-13-8-4-6(5-9(11)12)2-3-7(8)10/h2-4,10H,5H2,1H3,(H,11,12)
SMILES=COc1cc(CC(=O)O)ccc1O
SCANS=174
IONMODE=negative
COMPOUND_NAME=Homovanillic acid M-H
SPECTRUM_ID=CCMSLIB00006685515
66.767799 85172.0 
82.428101 87577.796875 
95.050003 88000.601562 
105.035004 106462.0 
107.050003 359507.0 
121.028999 1177840.0 
122.037003 3010900.0 
122.046997 130806.0 
123.044998 562532.0 
124.016998 604832.0 
129.731995 87752.101562 
136.016006 716667.0 
136.052002 83342.796875 
137.024002 986268.0 
137.061005 11109500.0 
154.026993 1154310.0 
158.841995 76775.101562 
166.028 92003.796875 
168.042999 109976.0 
169.494003 75633.5 
181.050003 2386450.0 
181.067001 133752.0 
END IONS

BEGIN IONS
PRECURSOR_MZ=273.027
INCHI=InChI=1S/C10H9ClN2O5/c1-18-9(14)5-12-10(15)7-3-2-6(13(16)17)4-8(7)11/h2-4H,5H2,1H3,(H,12,15)
SMILES=COC(=O)CN=C(O)c1ccc([N+](=O)[O-])cc1Cl
SCANS=11733
IONMODE=positive
COMPOUND_NAME=methyl 2-[(2-chloro-4-nitrophenyl)carbonylamino]acetate M+H
SPECTRUM_ID=CCMSLIB00006697074
50.313011 2052.0 
54.97646 2058.0 
59.45026 2093.0 
62.604988 2189.0 
66.704018 2602.0 
66.740143 2566.0 
70.570877 2311.0 
73.186577 2114.0 
82.395866 2674.0 
92.374138 3504.0 
125.986839 46833.0 
153.981598 51419.0 
155.000305 2249.0 
169.976532 15505.0 
183.97966 975881.0 
194.990021 3415.0 
197.011459 10633.0 
201.990524 15542.0 
213.006088 450737.0 
227.021713 21153.0 
231.016495 40620.0 
238.44986 3276.0 
241.000824 265658.0 
255.016327 32101.0 
273.027588 44732.0 
273.061188 5083.0 
273.166199 18230.0 
END IONS

BEGIN IONS
PRECURSOR_MZ=360.144
INCHI=InChI=1S/C19H21NO6/c1-24-15-10-13(11-16(25-2)17(15)26-3)18(21)20-14(19(22)23)9-12-7-5-4-6-8-12/h4-8,10-11,14H,9H2,1-3H3,(H,20,21)(H,22,23)
SMILES=COc1cc(C(O)=NC(Cc2ccccc2)C(=O)O)cc(OC)c1OC
SCANS=16830
IONMODE=positive
COMPOUND_NAME=3-phenyl-2-[(3,4,5-trimethoxyphenyl)carbonylamino]propanoic acid M+H
SPECTRUM_ID=CCMSLIB00006702171
51.02354 3782.0 
53.002819 3254.0 
53.039108 87170.0 
54.959278 2887.0 
55.01844 7394.0 
55.054722 5427.0 
65.039047 51430.0 
66.046783 14814.0 
66.479698 3683.0 
67.01796 5550.0 
67.05481 21795.0 
68.026154 5252.0 
68.997307 13544.0 
69.033859 17728.0 
71.049454 7197.0 
75.044357 16750.0 
77.038887 6174.0 
78.046799 7392.0 
79.012962 3259.0 
79.054558 316391.0 
80.062813 3983.0 
81.033768 208012.0 
81.070152 143383.0 
82.041733 4763.0 
83.049316 17748.0 
85.028664 12323.0 
91.054237 17762.0 
92.025711 7724.0 
92.381866 3662.0 
93.033691 22990.0 
94.041473 50698.0 
95.049347 60251.0 
96.057083 153321.0 
97.02816 5063.0 
97.064796 6483.0 
98.036118 4001.0 
99.044228 5369.0 
103.054329 3875.0 
104.292236 3510.0 
105.044853 6498.0 
106.040894 5328.0 
107.012756 4735.0 
107.049438 22493.0 
108.057037 48394.0 
109.028618 34843.0 
109.064827 215717.0 
111.043694 5300.0 
111.080498 58039.0 
113.023407 35038.0 
113.059738 48289.0 
120.080887 64420.0 
121.028481 35426.0 
122.036217 206104.0 
123.044167 18506.0 
124.051903 326811.0 
125.05957 5303.0 
126.030724 4591.0 
127.039093 6836.0 
128.046829 60760.0 
135.043839 5586.0 
136.21373 3701.0 
137.023376 76630.0 
139.075348 482577.0 
141.018433 62946.0 
141.05397 3477.0 
143.070343 20671.0 
151.038727 78965.0 
152.046783 708991.0 
155.03389 4048.0 
156.041763 129372.0 
167.070847 7052.0 
170.056595 7391.0 
171.066742 5672.0 
180.041458 7229.0 
184.036774 53532.0 
185.081207 34846.0 
195.065186 4761995.0 
349.185516 3428.0 
360.142334 3965.0 
END IONS

BEGIN IONS
PRECURSOR_MZ=336.181
INCHI=InChI=1S/C18H25NO5/c1-23-15-8-7-12(11-16(15)24-2)9-10-19-17(20)13-5-3-4-6-14(13)18(21)22/h7-8,11,13-14H,3-6,9-10H2,1-2H3,(H,19,20)(H,21,22)
SMILES=COc1ccc(CCN=C(O)C2CCCCC2C(=O)O)cc1OC
SCANS=16785
IONMODE=positive
COMPOUND_NAME=2-{N-[2-(3,4-dimethoxyphenyl)ethyl]carbamoyl}cyclohexanecarboxylic acid M+H
SPECTRUM_ID=CCMSLIB00006702126
53.03891 5017.0 
58.30407 2556.0 
61.693272 2583.0 
73.953468 2705.0 
79.054451 61332.0 
81.070084 254821.0 
82.396767 2988.0 
91.053932 14680.0 
103.054192 43239.0 
104.061707 4619.0 
104.28521 3586.0 
105.069763 169069.0 
107.049004 22177.0 
109.064796 33720.0 
118.041397 28413.0 
119.048523 6242.0 
120.0569 28232.0 
121.064659 32481.0 
122.072304 16529.0 
127.075287 12105.0 
131.048996 4098.0 
133.064667 142890.0 
134.072403 104238.0 
135.043716 53103.0 
135.080292 64683.0 
137.059479 3661.0 
137.095795 4643.0 
138.067474 64946.0 
139.465759 2738.0 
149.059738 6571.0 
150.067368 680251.0 
152.106308 4549.0 
154.085846 3845.0 
155.069946 24617.0 
165.090866 1737002.0 
176.070862 3887.0 
180.102249 22311.0 
182.117157 117818.0 
208.095245 4350.0 
209.034332 2966.0 
268.452515 2780.0 
286.143066 57405.0 
318.169189 825204.0 
336.180237 72153.0 
END IONS

BEGIN IONS
PRECURSOR_MZ=437.214
INCHI=InChI=1S/C9H17NO5/c1-9(2,5-11)7(14)8(15)10-4-3-6(12)13/h7,11,14H,3-5H2,1-2H3,(H,10,15)(H,12,13)/t7-/m0/s1
SMILES=CC(C)(CO)C(O)C(O)=NCCC(=O)O
SCANS=21010
IONMODE=negative
COMPOUND_NAME=pantothenic acid 2M-H
SPECTRUM_ID=CCMSLIB00006706351
52.980179 2106.0 
62.928589 2681.0 
71.013657 24491.0 
71.050262 17020.0 
71.0541 2671.0 
80.132782 2883.0 
88.040413 167134.0 
99.04512 5437.0 
104.283867 2314.0 
108.745079 2289.0 
116.071899 2919.0 
146.082428 113354.0 
150.633514 2479.0 
218.103638 236152.0 
271.842163 2596.0 
END IONS

BEGIN IONS
PRECURSOR_MZ=266.102
INCHI=InChI=1S/C13H15NO5/c1-2-19-13(18)9-3-5-10(6-4-9)14-11(15)7-8-12(16)17/h3-6H,2,7-8H2,1H3,(H,14,15)(H,16,17)
SMILES=CCOC(=O)c1ccc(NC(=O)CCC(=O)O)cc1
SCANS=5313
IONMODE=positive
COMPOUND_NAME=3-{N-[4-(ethoxycarbonyl)phenyl]carbamoyl}propanoic acid M+H
SPECTRUM_ID=CCMSLIB00006690654
55.018341 54450.0 
56.528679 3140.0 
62.942749 2775.0 
63.686588 2916.0 
69.846413 2756.0 
70.086052 2817.0 
73.02877 54565.0 
84.718224 2870.0 
91.747231 3144.0 
92.049454 3281.0 
94.058456 5462.0 
94.065193 151698.0 
101.023262 406411.0 
104.290489 3287.0 
105.069939 6775.0 
106.064873 3218.0 
113.193176 2894.0 
115.494247 3389.0 
120.044289 263016.0 
120.080498 22867.0 
122.096283 22186.0 
130.065125 12236.0 
138.054886 453679.0 
144.080261 6791.0 
144.480301 3100.0 
148.075455 206876.0 
158.095505 6467.0 
164.034805 3815.0 
164.070816 10952.0 
166.086136 1491941.0 
176.070419 1155182.0 
186.091141 3756.0 
192.064941 33134.0 
195.102219 2940.0 
202.049667 105251.0 
204.100693 42991.0 
220.060364 105511.0 
220.096878 18048.0 
241.329391 2889.0 
248.091385 2254694.0 
266.069977 4561.0 
266.102234 120185.0 
END IONS

BEGIN IONS
PRECURSOR_MZ=413.23
INCHI=InChI=1S/C23H34O5/c1-21-7-5-15(24)10-14(21)3-4-17-16(21)6-8-22(2)20(13-9-19(26)28-12-13)18(25)11-23(17,22)27/h9,14-18,20,24-25,27H,3-8,10-12H2,1-2H3/t14-,15+,16+,17-,18+,20+,21+,22-,23+/m1/s1
SMILES=CC12CCC(O)CC1CCC1C2CCC2(C)C(C3=CC(=O)OC3)C(O)CC12O
SCANS=21049
IONMODE=positive
COMPOUND_NAME=Gitoxigenin M+Na
SPECTRUM_ID=CCMSLIB00006706390
51.851429 2698.0 
56.964859 12187.0 
57.364552 2338.0 
63.979919 2711.0 
66.747749 3088.0 
73.957809 3449.0 
74.897011 2574.0 
79.054291 5747.0 
79.834251 2966.0 
81.069923 5768.0 
91.525574 2873.0 
93.069923 4341.0 
95.084801 4771.0 
105.069656 5498.0 
107.084892 11810.0 
117.641922 2770.0 
135.115952 4638.0 
136.216629 3514.0 
149.020721 38958.0 
185.13623 2764.0 
351.228088 45205.0 
371.883484 2854.0 
374.200012 3439.0 
377.206787 46136.0 
389.412964 2815.0 
395.218323 1435641.0 
413.228851 2243797.0 
431.239136 169170.0 
436.242035 10301.0 
END IONS

BEGIN IONS
PRECURSOR_MZ=176.029
INCHI=InChI=1S/C5H9NO3/c6-3-4(7)1-2-5(8)9/h1-3,6H2,(H,8,9)
SMILES=NCC(=O)CCC(=O)O
SCANS=512
IONMODE=positive
COMPOUND_NAME=Aminolevulinic acid M-H+2Na
SPECTRUM_ID=CCMSLIB00006685853
62.982399 106470.0 
64.135101 2026.810059 
65.112503 1845.160034 
92.393799 2751.949951 
104.302002 2461.5 
115.013 11022.5 
116.972 4619.52002 
152.968994 4280.370117 
155.841995 1933.77002 
157.975006 2824.25 
158.018997 2681.949951 
159.003006 3087.320068 
163.692993 2442.169922 
175.983994 4676.669922 
176.029007 81620.703125 
END IONS

BEGIN IONS
PRECURSOR_MZ=495.125
INCHI=InChI=1S/C27H25ClN2O3/c1-32-24-9-5-6-19(27(24)33-2)26-25-22(29-20-7-3-4-8-21(20)30-26)14-17(15-23(25)31)16-10-12-18(28)13-11-16/h3-13,17,26,29-30H,14-15H2,1-2H3
SMILES=COc1cccc(C2Nc3ccccc3NC3=C2C(=O)CC(c2ccc(Cl)cc2)C3)c1OC
SCANS=3473
IONMODE=negative
COMPOUND_NAME=11-(2,3-dimethoxyphenyl)-3-(4-chlorophenyl)-2,3,4-trihydro-5H,10H,11H-benzo[b] benzo[2,1-f]1,4-diazepin-1-one M+Cl
SPECTRUM_ID=CCMSLIB00006688814
50.197189 2647.0 
68.701462 2360.0 
90.444099 2556.0 
112.985359 10339.0 
131.061554 12965.0 
138.837158 2780.0 
154.973251 3306.0 
168.989441 2859.0 
208.255493 12361.0 
216.661758 2447.0 
222.96167 3435.0 
290.949036 4421.0 
394.087921 4445.0 
409.109436 3436.0 
441.136047 12760.0 
459.147644 261893.0 
494.984192 4386.0 
495.124451 27190.0 
END IONS

BEGIN IONS
PRECURSOR_MZ=335.089
INCHI=InChI=1S/C18H16O5/c1-20-12-5-6-13-14(19)10-16(23-17(13)9-12)11-4-7-15(21-2)18(8-11)22-3/h4-10H,1-3H3
SMILES=COc1ccc2c(=O)cc(-c3ccc(OC)c(OC)c3)oc2c1
SCANS=17465
IONMODE=positive
COMPOUND_NAME=22395-24-0 M+Na
SPECTRUM_ID=CCMSLIB00006702806
54.435081 2228.0 
72.360619 2325.0 
76.330727 2503.0 
82.387177 2553.0 
92.362122 2992.0 
105.618698 2319.0 
126.039703 2315.0 
312.453766 2345.0 
335.088654 639543.0 
335.218597 264616.0 
349.992493 2564.0 
350.540863 2544.0 
353.099365 21771.0 
371.838684 2336.0 
376.115173 32292.0 
END IONS

BEGIN IONS
PRECURSOR_MZ=517.247
INCHI=InChI=1S/C28H38N2O5/c1-18-9-10-19(2)22(14-18)29-25(31)17-30-13-12-28(32)11-7-6-8-21(28)26(30)20-15-23(33-3)27(35-5)24(16-20)34-4/h9-10,14-16,21,26,32H,6-8,11-13,17H2,1-5H3,(H,29,31)
SMILES=COc1cc(C2C3CCCCC3(O)CCN2CC(O)=Nc2cc(C)ccc2C)cc(OC)c1OC
SCANS=4865
IONMODE=negative
COMPOUND_NAME=N-(2,5-dimethylphenyl)-2-[6-hydroxy-2-(3,4,5-trimethoxyphenyl)-3-azabicyclo[4. 4.0]dec-3-yl]acetamide M+Cl
SPECTRUM_ID=CCMSLIB00006690206
60.71447 3134.0 
73.960632 4131.0 
80.614532 2654.0 
92.385742 3091.0 
100.432007 2551.0 
118.66243 3385.0 
126.689194 2652.0 
172.889572 2461.0 
243.676498 2550.0 
245.277039 2569.0 
517.247192 35358.0 
END IONS

BEGIN IONS
PRECURSOR_MZ=345.109
INCHI=InChI=1S/C17H18N2O6/c1-23-14-8-11(9-15(24-2)16(14)25-3)10-18-17(20)12-4-6-13(7-5-12)19(21)22/h4-9H,10H2,1-3H3,(H,18,20)
SMILES=COc1cc(CNC(=O)c2ccc([N+](=O)[O-])cc2)cc(OC)c1OC
SCANS=17617
IONMODE=negative
COMPOUND_NAME=(4-nitrophenyl)-N-[(3,4,5-trimethoxyphenyl)methyl]carboxamide M-H
SPECTRUM_ID=CCMSLIB00006702958
92.02668 19724.0 
92.388893 3608.0 
94.029694 3854.0 
95.013763 44205.0 
102.035072 4459.0 
108.021523 87539.0 
113.727142 2830.0 
122.024643 1937766.0 
130.992599 6306.0 
133.065613 5731.0 
134.04718 16221.0 
134.069 6615.0 
135.050095 3961.0 
138.019684 87104.0 
140.035172 58224.0 
149.097 327968.0 
150.019424 123172.0 
150.100388 397521.0 
151.102936 54070.0 
152.106079 23644.0 
153.055511 4671.0 
157.992233 4002.0 
163.027145 16949.0 
164.034912 6876.0 
165.042953 701582.0 
166.014435 285821.0 
166.030914 3610.0 
167.020432 6685.0 
168.014633 69293.0 
168.989365 50944.0 
169.018723 38220.0 
178.050903 171462.0 
179.05954 4025.0 
180.066467 708227.0 
192.030472 90701.0 
192.066437 5879.0 
193.037476 22307.0 
194.03035 188194.0 
195.033722 128108.0 
200.058609 13438.0 
206.044708 3895.0 
207.053711 5114.0 
222.076996 25437.0 
232.047668 17649.0 
272.043793 19571.0 
280.982697 106358.0 
284.044861 3445.0 
300.038513 225725.0 
314.054443 6713.0 
315.062134 89707.0 
324.970032 5487.0 
329.078186 62060.0 
330.085815 17801.0 
345.108429 2895506.0 
424.057648 3247.0 
END IONS

BEGIN IONS
PRECURSOR_MZ=400.107
INCHI=InChI=1S/C20H20ClN3O4/c1-12-9-18(21)24(23-12)15-7-5-14(6-8-15)22-20(25)13-10-16(26-2)19(28-4)17(11-13)27-3/h5-11H,1-4H3,(H,22,25)
SMILES=COc1cc(C(=O)Nc2ccc(-n3nc(C)cc3Cl)cc2)cc(OC)c1OC
SCANS=3426
IONMODE=negative
COMPOUND_NAME=N-[4-(5-chloro-3-methylpyrazolyl)phenyl](3,4,5-trimethoxyphenyl)carboxamide M-H
SPECTRUM_ID=CCMSLIB00006688767
52.019451 2810.0 
61.03458 2341.0 
70.540947 3062.0 
70.545273 3243.0 
73.197441 2691.0 
74.84407 2501.0 
79.408524 2438.0 
81.034248 2966.0 
92.382553 3117.0 
93.034897 2806.0 
104.29435 3575.0 
109.029457 12923.0 
120.009613 4310.0 
133.001144 3228.0 
135.032669 19812.0 
136.149429 2721.0 
136.219986 3147.0 
137.024567 41955.0 
153.01918 6483.0 
155.035004 4095.0 
157.04213 2570.0 
169.517136 2741.0 
182.03656 2785.0 
208.427429 6897.0 
308.081177 6307.0 
315.040222 6651.0 
323.103943 10235.0 
324.111786 4729.0 
326.033447 14099.0 
334.086426 4267.0 
342.067566 4893.0 
349.107971 16153.0 
352.049377 24395.0 
354.069702 4787.0 
355.037354 76687.0 
356.080292 19886.0 
359.542542 3256.0 
369.052368 34354.0 
370.060181 586655.0 
384.075348 74707.0 
385.083679 165620.0 
385.139832 5732.0 
400.107208 1813380.0 
END IONS

BEGIN IONS
PRECURSOR_MZ=76.0393
INCHI=InChI=1S/C2H5NO2/c3-1-2(4)5/h1,3H2,(H,4,5)
SMILES=NCC(=O)O
SCANS=24491
IONMODE=positive
COMPOUND_NAME=glycine M+H
SPECTRUM_ID=CCMSLIB00006709832
52.1068 1945.910034 
57.449402 1923.26001 
58.0658 116570.0 
59.0737 80029.601562 
62.4823 1895.22998 
65.2771 1905.790039 
66.512398 1770.430054 
70.038399 1977.859985 
76.039902 43615.0 
76.076401 34094.398438 
END IONS

BEGIN IONS
PRECURSOR_MZ=255.074
INCHI=InChI=1S/C12H12N2O3/c1-3-14-6-9(12(16)17)10(15)8-5-4-7(2)13-11(8)14/h4-6H,3H2,1-2H3,(H,16,17)
SMILES=CCn1cc(C(=O)O)c(=O)c2ccc(C)nc21
SCANS=3075
IONMODE=positive
COMPOUND_NAME=nalidixic acid M+Na
SPECTRUM_ID=CCMSLIB00006688416
58.954891 2964.0 
66.74131 2844.0 
70.220741 1974.0 
73.951469 2610.0 
75.934349 2092.0 
137.502747 2620.0 
148.744659 2495.0 
150.886169 2555.0 
154.048889 2183.0 
174.449066 2615.0 
211.084045 3686.0 
213.923126 2687.0 
226.895813 2244.0 
255.073547 1217086.0 
END IONS

BEGIN IONS
PRECURSOR_MZ=448.144
INCHI=InChI=1S/C23H21F2N3O3/c24-15-8-9-18(25)19(12-15)26-21(29)14-28-20-7-3-2-6-16(20)17(13-22(28)30)23(31)27-10-4-1-5-11-27/h2-3,6-9,12-13H,1,4-5,10-11,14H2,(H,26,29)
SMILES=O=C(c1cc(=O)n(CC(O)=Nc2cc(F)ccc2F)c2ccccc12)N1CCCCC1
SCANS=20389
IONMODE=positive
COMPOUND_NAME=N-(2,5-difluorophenyl)-2-[2-oxo-4-(piperidylcarbonyl)hydroquinolyl]acetamide M+Na
SPECTRUM_ID=CCMSLIB00006705730
53.112431 3252.0 
61.329979 2837.0 
70.113426 2970.0 
82.396721 3418.0 
127.111511 2961.0 
136.2117 3188.0 
210.173828 5199.0 
215.014877 3210.0 
297.124939 12236.0 
303.654724 3286.0 
330.289124 3460.0 
365.072327 24385.0 
430.133484 16899.0 
445.680756 5208.0 
448.143677 5547552.0 
450.618256 3106.0 
466.154175 6354.0 
END IONS

BEGIN IONS
PRECURSOR_MZ=215.05
INCHI=InChI=1S/C8H12N2O3S/c1-8(2)4(7(12)13)10-5(11)3(9)6(10)14-8/h3-4,6H,9H2,1-2H3,(H,12,13)/t3?,4-,6?/m0/s1
SMILES=CC1(C)SC2C(N)C(=O)N2C1C(=O)O
SCANS=22243
IONMODE=negative
COMPOUND_NAME=(+)-6-Aminopenicillanic acid M-H
SPECTRUM_ID=CCMSLIB00006707584
54.024841 2137.0 
60.154621 2153.0 
63.962349 2626.0 
75.349564 1922.0 
82.017143 163409.0 
83.024986 29050.0 
87.027313 111120.0 
91.771294 2048.0 
92.374161 2271.0 
97.04084 12417.0 
131.017334 114605.0 
136.16069 2546.0 
137.072083 395689.0 
141.030472 3143.0 
144.009201 8960.0 
170.832611 2344.0 
181.061859 30890.0 
208.855515 7797.0 
214.927383 13043.0 
215.01088 49704.0 
215.049454 83401.0 
END IONS

BEGIN IONS
PRECURSOR_MZ=264.124
INCHI=InChI=1S/C14H19NO4/c1-9(2)8-12(14(17)18)15-13(16)10-4-6-11(19-3)7-5-10/h4-7,9,12H,8H2,1-3H3,(H,15,16)(H,17,18)
SMILES=COc1ccc(C(=O)NC(CC(C)C)C(=O)O)cc1
SCANS=15833
IONMODE=negative
COMPOUND_NAME=2-[(4-methoxyphenyl)carbonylamino]-4-methylpentanoic acid M-H
SPECTRUM_ID=CCMSLIB00006701174
63.895222 2084.0 
82.065857 9974.0 
93.034554 33276.0 
95.013771 5778.0 
104.309143 2192.0 
108.022003 17045.0 
118.683113 2902.0 
120.045288 14868.0 
125.342201 2413.0 
148.040527 87290.0 
149.050858 2174.0 
150.056107 5093.0 
150.512665 2415.0 
151.039566 2435.0 
162.056213 133448.0 
205.111115 2704.0 
210.092743 2640.0 
210.110718 4318.0 
220.134445 249135.0 
243.987778 8111.0 
264.124329 1104866.0 
END IONS

BEGIN IONS
PRECURSOR_MZ=116.034
INCHI=InChI=1S/C4H7NO4/c5-2(4(8)9)1-3(6)7/h2H,1,5H2,(H,6,7)(H,8,9)/t2-/m1/s1
SMILES=N[C@H](CC(=O)O)C(=O)O
SCANS=24512
IONMODE=positive
COMPOUND_NAME=1783-96-6 M+H-H2O
SPECTRUM_ID=CCMSLIB00006709853
66.646103 2180.97998 
70.065598 8989.25 
74.0243 284883.0 
75.739304 1960.449951 
88.039803 3317.97998 
90.210701 1871.900024 
101.815002 1928.300049 
104.303001 2429.179932 
116.107002 2465.419922 
END IONS

BEGIN IONS
PRECURSOR_MZ=511.197
INCHI=InChI=1S/C26H33ClN2O5/c1-32-21-14-17(15-22(33-2)25(21)34-3)24-20-6-4-5-11-26(20,31)12-13-29(24)16-23(30)28-19-9-7-18(27)8-10-19/h7-10,14-15,20,24,31H,4-6,11-13,16H2,1-3H3,(H,28,30)
SMILES=COc1cc(C2C3CCCCC3(O)CCN2CC(=O)Nc2ccc(Cl)cc2)cc(OC)c1OC
SCANS=15917
IONMODE=positive
COMPOUND_NAME=N-(4-chlorophenyl)-2-[6-hydroxy-2-(3,4,5-trimethoxyphenyl)-3-azabicyclo[4.4.0] dec-3-yl]acetamide M+Na
SPECTRUM_ID=CCMSLIB00006701258
50.105511 2428.0 
55.173981 2794.0 
63.009472 2589.0 
98.687363 2928.0 
104.127617 2502.0 
144.33255 2766.0 
224.782318 2889.0 
224.807037 3281.0 
281.46521 2975.0 
511.196716 2496952.0 
END IONS

BEGIN IONS
PRECURSOR_MZ=699.084
INCHI=InChI=1S/C19H11ClN2O3/c20-13-4-1-11(2-5-13)14-8-16(22-19(23)15(14)9-21)12-3-6-17-18(7-12)25-10-24-17/h1-8H,10H2,(H,22,23)
SMILES=N#Cc1c(-c2ccc(Cl)cc2)cc(-c2ccc3c(c2)OCO3)nc1O
SCANS=18433
IONMODE=negative
COMPOUND_NAME=6-(2H-benzo[3,4-d]1,3-dioxolan-5-yl)-4-(4-chlorophenyl)-2-oxohydropyridine-3-c arbonitrile 2M-H
SPECTRUM_ID=CCMSLIB00006703774
62.05122 2935.0 
62.94735 2999.0 
66.75386 3337.0 
93.034409 6888.0 
99.372841 2891.0 
104.309677 3594.0 
109.183937 3057.0 
141.198166 3119.0 
162.764023 2961.0 
178.953583 3025.0 
201.022903 3672.0 
297.354248 2967.0 
319.027039 12877.0 
321.04364 43085.0 
349.038269 116435.0 
349.388184 3069.0 
542.826965 3010.0 
END IONS

BEGIN IONS
PRECURSOR_MZ=419.113
INCHI=InChI=1S/C22H21ClN2O3/c1-4-11-24-21(26)13-18-14(2)25(20-10-9-17(28-3)12-19(18)20)22(27)15-5-7-16(23)8-6-15/h4-10,12H,1,11,13H2,2-3H3,(H,24,26)
SMILES=C=CCN=C(O)Cc1c(C)n(C(=O)c2ccc(Cl)cc2)c2ccc(OC)cc12
SCANS=6932
IONMODE=positive
COMPOUND_NAME=2-{1-[(4-chlorophenyl)carbonyl]-5-methoxy-2-methylindol-3-yl}-N-prop-2-enylace tamide M+Na
SPECTRUM_ID=CCMSLIB00006692273
72.008247 2968.0 
75.893471 2970.0 
91.20401 2862.0 
136.283844 3453.0 
138.993698 5113.0 
151.629379 3164.0 
174.73111 2891.0 
206.678406 3294.0 
240.235886 3622.0 
261.282837 3540.0 
404.08725 3811.0 
419.112122 7532585.0 
421.3396 4529.0 
END IONS

BEGIN IONS
PRECURSOR_MZ=416.147
INCHI=InChI=1S/C23H23NO5/c1-26-21-12-11-17(15-22(21)27-2)23(25)24-13-14-28-19-9-6-10-20(16-19)29-18-7-4-3-5-8-18/h3-12,15-16H,13-14H2,1-2H3,(H,24,25)
SMILES=COc1ccc(C(O)=NCCOc2cccc(Oc3ccccc3)c2)cc1OC
SCANS=3920
IONMODE=positive
COMPOUND_NAME=(3,4-dimethoxyphenyl)-N-[2-(3-phenoxyphenoxy)ethyl]carboxamide M+Na
SPECTRUM_ID=CCMSLIB00006689261
73.604134 3104.0 
91.054291 5747.0 
100.9384 3220.0 
119.085243 827039.0 
120.088562 492919.0 
133.064896 13502.0 
134.067993 6159.0 
135.080215 4623.0 
208.095581 3894.0 
212.615982 3558.0 
230.078171 3549.0 
237.148941 3510.0 
239.731995 3661.0 
284.667725 3603.0 
401.124298 15131.0 
413.962677 6691.0 
416.145477 9470710.0 
418.343384 4305.0 
457.170685 81188.0 
478.518158 4332.0 
END IONS

BEGIN IONS
PRECURSOR_MZ=383.116
INCHI=InChI=1S/C21H19ClN2O3/c1-26-20-11-17(21(25)24-13-16-3-2-10-23-12-16)6-9-19(20)27-14-15-4-7-18(22)8-5-15/h2-12H,13-14H2,1H3,(H,24,25)
SMILES=COc1cc(C(O)=NCc2cccnc2)ccc1OCc1ccc(Cl)cc1
SCANS=13510
IONMODE=positive
COMPOUND_NAME={4-[(4-chlorophenyl)methoxy]-3-methoxyphenyl}-N-(3-pyridylmethyl)carboxamide M+H
SPECTRUM_ID=CCMSLIB00006698851
65.038879 1128098.0 
66.046654 395328.0 
66.345123 79368.0 
67.041946 524396.0 
79.042107 101874.0 
80.049591 3921295.0 
82.06546 124170.0 
86.59481 92522.0 
89.038528 179690.0 
92.049431 14826112.0 
93.057243 44331168.0 
94.065224 169776.0 
95.049057 88967.0 
99.007362 162060.0 
107.060143 6308646.0 
108.044022 152185.0 
108.067886 3149693.0 
109.075821 18274824.0 
110.059807 2500038.0 
111.030937 586810.0 
118.516533 86785.0 
118.661324 91742.0 
121.028183 7898011.0 
123.043793 135669.0 
125.014977 38320708.0 
133.028076 2957893.0 
134.05954 1051233.0 
135.054871 1358125.0 
137.022491 278175.0 
141.070328 112174.0 
148.039139 188104.0 
149.02298 29591630.0 
150.030609 102948.0 
150.054459 85456.0 
151.038498 3169065.0 
154.02565 2406920.0 
154.064804 147687.0 
156.079865 184921.0 
157.064331 366071.0 
160.343964 98873.0 
162.054932 103504.0 
163.038284 182774.0 
166.049515 1152022.0 
167.072754 395063.0 
168.080292 619430.0 
169.076172 331463.0 
182.059113 165288.0 
183.090775 569009.0 
184.075378 666640.0 
184.099579 91339.0 
195.066772 176137.0 
195.091293 403615.0 
196.075348 449241.0 
197.070145 1637508.0 
198.056 84815.0 
200.071976 181440.0 
210.054352 163762.0 
211.063995 218170.0 
211.085876 5586118.0 
212.071777 130238.0 
212.094208 762221.0 
215.081055 1069289.0 
223.08728 934814.0 
227.081161 360014.0 
228.086899 124099.0 
229.096405 10426539.0 
239.080658 8414791.0 
240.063782 324499.0 
240.089645 347063.0 
241.095917 927195.0 
243.047043 150608.0 
243.075729 4799513.0 
244.083405 1290785.0 
255.078079 289992.0 
257.091248 151494688.0 
258.09906 13184885.0 
275.047028 968284.0 
367.082428 141371.0 
383.114441 137597616.0 
END IONS

BEGIN IONS
PRECURSOR_MZ=359.07
INCHI=InChI=1S/C17H14N2O5S/c1-10-6-17(20)18-14-4-3-12(8-13(10)14)25(21,22)19-11-2-5-15-16(7-11)24-9-23-15/h2-8,19H,9H2,1H3,(H,18,20)
SMILES=Cc1cc(O)nc2ccc(S(=O)(=O)Nc3ccc4c(c3)OCO4)cc12
SCANS=18948
IONMODE=positive
COMPOUND_NAME=6-[(2H-benzo[3,4-d]1,3-dioxolen-5-ylamino)sulfonyl]-4-methylhydroquinolin-2-on e M+H
SPECTRUM_ID=CCMSLIB00006704289
52.031212 3608.0 
54.034241 44651.0 
67.042137 5136.0 
80.049667 15339.0 
81.057663 6582.0 
84.959869 3501.0 
90.046677 13545.0 
92.361908 4867.0 
100.260384 3003.0 
106.065292 3607.0 
107.03656 15095.0 
107.072739 34528.0 
108.044319 32173.0 
109.051987 30923.0 
130.029297 3079.0 
130.065292 40313.0 
131.072754 4106.0 
134.059906 3691.0 
135.067841 42793.0 
136.039307 182591.0 
137.047104 2328980.0 
140.049683 26413.0 
141.057251 60023.0 
147.068008 5484.0 
152.656784 2982.0 
153.041702 6941.0 
158.059814 37516.0 
159.067276 93430.0 
162.054947 33972.0 
173.046738 4901.0 
174.055099 6726.0 
175.062775 70465.0 
191.057495 4161458.0 
193.061508 15084.0 
206.026825 18445.0 
223.203812 3211.0 
237.100235 4950.0 
332.938934 3599.0 
359.06897 3014390.0 
END IONS

BEGIN IONS
PRECURSOR_MZ=274.083
INCHI=InChI=1S/C13H13N3O4/c1-8(20-9-5-3-2-4-6-9)11(17)15-10-7-14-13(19)16-12(10)18/h2-8H,1H3,(H,15,17)(H2,14,16,18,19)
SMILES=CC(Oc1ccccc1)C(O)=Nc1cnc(O)nc1O
SCANS=8782
IONMODE=negative
COMPOUND_NAME=N-(2,4-dioxo(1,3-dihydropyrimidin-5-yl))-2-phenoxypropanamide M-H
SPECTRUM_ID=CCMSLIB00006694123
51.817001 2199.0 
60.554379 2112.0 
63.7747 2478.0 
73.974564 2528.0 
79.588493 2847.0 
82.422783 3617.0 
84.958961 2472.0 
92.405388 2771.0 
93.03463 186242.0 
93.04554 11955.0 
109.040947 5152.0 
110.024979 5622.0 
125.023193 66849.0 
126.030792 13687.0 
136.015076 5970.0 
137.035706 524095.0 
137.590012 2457.0 
149.836487 3129.0 
152.045807 4834.0 
159.0569 4380.0 
180.041565 125420.0 
231.076172 20583.0 
243.278107 2931.0 
245.417191 2510.0 
274.083557 1359547.0 
END IONS

BEGIN IONS
PRECURSOR_MZ=449.147
INCHI=InChI=1S/C23H22N4O6/c1-4-33-22(29)14-6-7-15-16(12-14)27(20-19(24-15)21(28)26-23(30)25-20)10-9-13-5-8-17(31-2)18(11-13)32-3/h5-8,11-12H,4,9-10H2,1-3H3,(H,26,28,30)
SMILES=CCOC(=O)c1ccc2nc3c(O)nc(=O)nc-3n(CCc3ccc(OC)c(OC)c3)c2c1
SCANS=18784
IONMODE=negative
COMPOUND_NAME=ethyl 10-[2-(3,4-dimethoxyphenyl)ethyl]-2,4-dioxo-3,10-dihydrobenzo[g]pteridin e-8-carboxylate M-H
SPECTRUM_ID=CCMSLIB00006704125
83.745049 2538.0 
92.398697 3317.0 
102.232552 2790.0 
136.240387 3210.0 
154.973999 4421.0 
158.01207 2922.0 
208.890472 10824.0 
242.05899 10792.0 
285.062866 54341.0 
303.224884 2987.0 
449.146851 92800.0 
END IONS

BEGIN IONS
PRECURSOR_MZ=425.105
INCHI=InChI=1S/C23H20O6S/c1-26-19-13-9-16(21(27-2)22(19)28-3)8-12-18(24)15-6-10-17(11-7-15)29-23(25)20-5-4-14-30-20/h4-14H,1-3H3/b12-8+
SMILES=COc1ccc(C=CC(=O)c2ccc(OC(=O)c3cccs3)cc2)c(OC)c1OC
SCANS=1767
IONMODE=positive
COMPOUND_NAME=4-[(2E)-3-(2,3,4-trimethoxyphenyl)prop-2-enoyl]phenyl thiophene-2-carboxylate M+H
SPECTRUM_ID=CCMSLIB00006687108
53.154991 3401.0 
53.46423 3524.0 
98.989822 7024.0 
110.989937 5680682.0 
113.879547 3172.0 
121.028526 6192.0 
129.070023 4580.0 
136.202164 4594.0 
137.060364 3656.0 
154.062988 13812.0 
165.018539 22644.0 
167.070175 31682.0 
169.085831 166572.0 
173.041855 12814.0 
177.054489 5643.0 
190.061874 3992.0 
191.033478 48571.0 
195.065155 147552.0 
195.084793 6960.0 
205.049103 4218.0 
206.057373 38915.0 
217.031631 38477.0 
220.622345 3834.0 
221.080643 239758.0 
231.010849 697426.0 
257.026367 586254.0 
271.097839 15736.0 
288.922668 6943.0 
290.056946 4283.0 
351.06839 4160.0 
379.064545 4686.0 
383.094055 761630.0 
393.077881 8261.0 
402.166901 7702.0 
407.096741 3970.0 
425.104614 5237983.0 
END IONS

BEGIN IONS
PRECURSOR_MZ=493.184
INCHI=InChI=1S/C12H13N3O3/c13-12(18)15-10(11(16)17)5-7-6-14-9-4-2-1-3-8(7)9/h1-4,6,10,14H,5H2,(H,16,17)(H3,13,15,18)
SMILES=N=C(O)NC(Cc1c[nH]c2ccccc12)C(=O)O
SCANS=20512
IONMODE=negative
COMPOUND_NAME=2-(aminocarbonylamino)-3-indol-3-ylpropanoic acid 2M-H
SPECTRUM_ID=CCMSLIB00006705853
55.946388 2418.0 
56.960789 2595.0 
60.54641 2835.0 
72.008713 82918.0 
73.964592 3024.0 
74.024384 71109.0 
78.335426 2628.0 
82.410606 3042.0 
88.014954 2522.0 
92.391083 2932.0 
104.301392 3200.0 
105.31842 2570.0 
116.050568 308268.0 
118.693024 2486.0 
130.065857 13352.0 
136.22879 3300.0 
142.055557 3361.0 
142.066193 91909.0 
159.092682 86249.0 
186.056244 15499.0 
203.082657 783995.0 
209.021927 9054.0 
212.687485 2807.0 
229.062515 4565.0 
246.088348 276432.0 
END IONS

BEGIN IONS
PRECURSOR_MZ=443.198
INCHI=InChI=1S/C27H28N2O4/c1-18-22(13-14-28-27(30)20-9-12-25(31-2)26(15-20)32-3)23-16-21(10-11-24(23)29-18)33-17-19-7-5-4-6-8-19/h4-12,15-16,29H,13-14,17H2,1-3H3,(H,28,30)
SMILES=COc1ccc(C(O)=NCCc2c(C)[nH]c3ccc(OCc4ccccc4)cc23)cc1OC
SCANS=18863
IONMODE=negative
COMPOUND_NAME=(3,4-dimethoxyphenyl)-N-{2-[2-methyl-5-(phenylmethoxy)indol-3-yl]ethyl}carboxa mide M-H
SPECTRUM_ID=CCMSLIB00006704204
66.763771 2926.0 
68.995392 106849.0 
69.890343 2914.0 
102.956863 31530.0 
108.021553 4775.0 
112.985489 121374.0 
117.035027 4151.0 
120.044853 4386.0 
123.008919 3369.0 
144.045273 131161.0 
145.053055 26327.0 
151.02742 4091.0 
157.052216 5009.0 
158.060883 735268.0 
158.980133 3078.0 
159.068939 35693.0 
161.047928 10396.0 
162.055466 3698.0 
163.02681 22996.0 
164.034637 11230.0 
170.944183 3814.0 
171.068542 21047.0 
173.047882 60738.0 
174.055603 5658.0 
178.050812 26103.0 
180.066147 17276.0 
186.080002 5458.0 
188.034668 31520.0 
190.051285 4265.0 
191.057983 14587.0 
238.931747 13740.0 
262.121979 3037.0 
316.335876 3008.0 
322.093384 3819.0 
352.1427 1818963.0 
430.483582 3419.0 
442.988281 4630.0 
443.129272 5761.0 
443.197632 120738.0 
END IONS

BEGIN IONS
PRECURSOR_MZ=242.102
INCHI=InChI=1S/C11H12O5/c1-7(12)16-9-4-3-8(6-11(13)14)5-10(9)15-2/h3-5H,6H2,1-2H3,(H,13,14)
SMILES=COc1cc(CC(=O)O)ccc1OC(C)=O
SCANS=21319
IONMODE=positive
COMPOUND_NAME=2-(4-acetyloxy-3-methoxyphenyl)acetic acid M+NH4
SPECTRUM_ID=CCMSLIB00006706660
58.385559 2789.0 
73.105011 2499.0 
74.499237 2816.0 
79.054527 3119.0 
81.070152 4448.0 
91.05426 5854.0 
92.407837 3158.0 
94.041313 19410.0 
104.320831 2613.0 
107.048576 3171.0 
112.245422 3055.0 
122.036011 105251.0 
137.059586 5805439.0 
137.474442 3928.0 
164.047363 4281.0 
179.070236 20702.0 
185.022354 2687.0 
207.064468 34592.0 
211.433609 4645.0 
225.075378 117199.0 
228.000534 3027.0 
242.101822 59455.0 
END IONS

BEGIN IONS
PRECURSOR_MZ=504.058
INCHI=InChI=1S/C21H19BrFN3O3/c1-2-9-24-21(29)15-11-20(28)26(18-6-4-3-5-14(15)18)12-19(27)25-17-8-7-13(22)10-16(17)23/h3-8,10-11H,2,9,12H2,1H3,(H,24,29)(H,25,27)
SMILES=CCCN=C(O)c1cc(=O)n(CC(O)=Nc2ccc(Br)cc2F)c2ccccc12
SCANS=10411
IONMODE=negative
COMPOUND_NAME=N-(4-bromo-2-fluorophenyl)-2-[2-oxo-4-(N-propylcarbamoyl)hydroquinolyl]acetami de M+formate
SPECTRUM_ID=CCMSLIB00006695752
58.981831 2659.0 
68.028709 2801.0 
78.918663 21271.0 
79.095062 2532.0 
82.404617 3519.0 
86.252136 2477.0 
99.889214 2714.0 
104.296783 3867.0 
113.507446 2521.0 
141.177383 2695.0 
158.048004 3488.0 
158.061462 3102.0 
177.75174 2443.0 
199.124405 17203.0 
208.536606 11162.0 
213.104019 9624.0 
229.098938 5641.0 
243.113815 4164.0 
269.091278 3045.0 
305.300537 2653.0 
324.993317 2717.0 
340.786835 2732.0 
352.99231 13867.0 
372.999115 3141.0 
373.420166 2560.0 
438.046021 29304.0 
458.052582 239832.0 
END IONS

BEGIN IONS
PRECURSOR_MZ=632.396
INCHI=InChI=1S/C38H53NO4/c1-24(40)43-30-15-16-36(6)29(33(30,2)3)14-17-38(8)31(36)28(41)22-26-27-23-35(5,32(42)39-25-12-10-9-11-13-25)19-18-34(27,4)20-21-37(26,38)7/h9-13,22,27,29-31H,14-21,23H2,1-8H3,(H,39,42)
SMILES=CC(=O)OC1CCC2(C)C(CCC3(C)C2C(=O)C=C2C4CC(C)(C(O)=Nc5ccccc5)CCC4(C)CCC23C)C1(C)C
SCANS=6953
IONMODE=negative
COMPOUND_NAME=1,2,6,6,10,17,20-heptamethyl-12-oxo-17-(N-phenylcarbamoyl)pentacyclo[12.8.0.0< 2,11>.0<5,10>.0<15,20>]docos-13-en-7-yl acetate M+formate
SPECTRUM_ID=CCMSLIB00006692294
92.05043 5896.0 
92.386238 3084.0 
115.920677 4348.0 
136.217133 3593.0 
169.066162 3250.0 
275.594299 3533.0 
430.151611 3462.0 
451.321472 4484.0 
526.369385 29795.0 
570.369019 3548.0 
586.39093 3590897.0 
612.973267 5407.0 
631.983093 18345.0 
632.396301 139376.0 
632.980164 83908.0 
END IONS

BEGIN IONS
PRECURSOR_MZ=402.17
INCHI=InChI=1S/C25H23NO4/c1-29-21-14-19(15-22(16-21)30-2)23(27)17-8-10-18(11-9-17)24(28)26-25(12-13-25)20-6-4-3-5-7-20/h3-11,14-16H,12-13H2,1-2H3,(H,26,28)
SMILES=COc1cc(OC)cc(C(=O)c2ccc(C(=O)NC3(c4ccccc4)CC3)cc2)c1
SCANS=18761
IONMODE=positive
COMPOUND_NAME={4-[(3,5-dimethoxyphenyl)carbonyl]phenyl}-N-(phenylcyclopropyl)carboxamide M+H
SPECTRUM_ID=CCMSLIB00006704102
62.27327 2763.0 
62.60162 2685.0 
72.811249 3418.0 
82.444069 3312.0 
91.054199 57964.0 
103.017776 4723.0 
103.054024 13910.0 
105.033234 3670.0 
115.054008 6866.0 
117.069519 3968.0 
121.028488 32457.0 
127.0541 5958.0 
129.069427 5483.0 
136.522888 2678.0 
139.05394 4630.0 
141.070129 5571.0 
142.076935 10304.0 
145.06459 3895.0 
151.039078 21201.0 
152.061859 104200.0 
153.069641 185851.0 
153.082306 6556.0 
154.076843 5189.0 
155.04863 37112.0 
155.060699 4561.0 
155.085175 6315.0 
165.05426 45410.0 
165.069702 18942.0 
168.055984 24052.0 
169.064285 41381.0 
170.072296 28505.0 
171.044312 4048.0 
180.057037 12155.0 
181.064377 80906.0 
182.071991 15884.0 
183.043884 183595.0 
183.062637 6366.0 
183.080811 13516.0 
185.059326 3576.0 
194.034851 3486.0 
195.044174 5447.0 
195.079666 7018.0 
196.05127 15976.0 
197.059372 132518.0 
198.067276 149231.0 
208.051392 6134.0 
209.059006 17717.0 
210.066833 6338.0 
211.038635 642435.0 
213.05426 35643.0 
213.090591 11647.0 
225.054153 88340.0 
226.061996 340292.0 
227.070236 23458.0 
228.041 15807.0 
230.056808 112390.0 
237.065491 46832.0 
239.032791 15430.0 
241.085464 103243.0 
242.056808 302918.0 
244.418762 3021.0 
245.080414 20369.0 
253.047318 5419.0 
254.055801 19863.0 
256.07193 5109.0 
258.052399 26490.0 
269.080261 1721394.0 
273.074463 3650.0 
402.045502 4107.0 
402.165863 12397.0 
END IONS

BEGIN IONS
PRECURSOR_MZ=535.085
INCHI=InChI=1S/C25H20O12/c1-11(26)32-17-9-20(35-14(4)29)22-21(10-17)37-24(25(23(22)31)36-15(5)30)16-6-7-18(33-12(2)27)19(8-16)34-13(3)28/h6-10H,1-5H3
SMILES=CC(=O)Oc1cc(OC(C)=O)c2c(=O)c(OC(C)=O)c(-c3ccc(OC(C)=O)c(OC(C)=O)c3)oc2c1
SCANS=7232
IONMODE=positive
COMPOUND_NAME=Peracetate Quercetin M+Na
SPECTRUM_ID=CCMSLIB00006692573
58.469219 3078.0 
59.26643 3463.0 
62.94873 3411.0 
104.273773 3711.0 
305.737488 3806.0 
367.042053 14066.0 
408.045532 7967.0 
409.052704 138572.0 
450.054565 7123.0 
451.062988 356966.0 
492.066589 44965.0 
493.0737 2028741.0 
494.07782 38755.0 
499.382721 4911.0 
531.896179 8410.0 
534.102661 20455.0 
535.084534 10612744.0 
538.298767 6371.0 
551.591736 4036.0 
END IONS

BEGIN IONS
PRECURSOR_MZ=401.233
INCHI=InChI=1S/C24H34O5/c1-13(4-7-21(28)29)16-5-6-17-22-18(12-20(27)24(16,17)3)23(2)9-8-15(25)10-14(23)11-19(22)26/h13-14,16-18,22H,4-12H2,1-3H3,(H,28,29)/t13-,14+,16-,17+,18+,22+,23+,24-/m1/s1
SMILES=CC(CCC(=O)O)C1CCC2C3C(=O)CC4CC(=O)CCC4(C)C3CC(=O)C12C
SCANS=22252
IONMODE=negative
COMPOUND_NAME=dehydrocholic acid M-H
SPECTRUM_ID=CCMSLIB00006707593
52.158909 2480.0 
54.609341 2403.0 
56.41518 2539.0 
57.034069 4592.0 
61.562401 2340.0 
69.03421 57864.0 
71.013329 3368.0 
71.049873 33714.0 
78.193733 2567.0 
80.677017 2365.0 
83.050034 3331.0 
93.03363 2623.0 
94.041023 2394.0 
107.050133 10579.0 
109.065643 66770.0 
120.057892 11332.0 
121.06562 33673.0 
123.081337 3193.0 
133.065506 3154.0 
135.081223 6047.0 
137.09671 4961.0 
146.073059 5877.0 
147.081223 56996.0 
149.684952 2533.0 
152.047546 12750.0 
163.013763 2608.0 
171.08165 11331.0 
187.112335 6127.0 
202.636978 2891.0 
205.158859 33171.0 
208.161057 11029.0 
215.143829 116370.0 
231.13942 22178.0 
233.190948 3017.0 
241.122803 10279.0 
243.174622 2717.0 
247.169189 2790.0 
249.149277 157104.0 
249.178528 5408.0 
253.160828 10065.0 
259.169556 3895.0 
269.191437 30372.0 
271.171082 22701.0 
273.150482 4548.0 
277.180725 10317.0 
287.200623 18336.0 
289.179718 9774.0 
291.159363 22039.0 
295.17041 3585.0 
297.150024 5205.0 
313.180634 30078.0 
314.873871 3625.0 
331.191376 74968.0 
383.221863 9864.0 
401.233154 789876.0 
END IONS

BEGIN IONS
PRECURSOR_MZ=441.261
INCHI=InChI=1S/C25H38O5/c1-14(26)20-8-9-21-19-7-6-17-12-18(29-15(2)27)10-11-24(17,4)22(19)13-23(25(20,21)5)30-16(3)28/h17-23H,6-13H2,1-5H3/t17-,18-,19+,20-,21+,22+,23+,24+,25-/m1/s1
SMILES=CC(=O)OC1CCC2(C)C(CCC3C2CC(OC(C)=O)C2(C)C(C(C)=O)CCC32)C1
SCANS=15830
IONMODE=positive
COMPOUND_NAME=ST082265 M+Na
SPECTRUM_ID=CCMSLIB00006701171
57.394161 2569.0 
73.951889 3001.0 
92.376663 3172.0 
104.285477 3048.0 
122.231812 2725.0 
136.21199 2936.0 
185.698761 3081.0 
191.888443 2661.0 
321.217651 20329.0 
381.239532 119319.0 
422.269043 5918.0 
441.261047 2011560.0 
END IONS

BEGIN IONS
PRECURSOR_MZ=367.138
INCHI=InChI=1S/C17H20N4O4/c1-3-6-18-17(23)15-12(10-19-21(15)2)20-16(22)11-4-5-13-14(9-11)25-8-7-24-13/h4-5,9-10H,3,6-8H2,1-2H3,(H,18,23)(H,20,22)
SMILES=CCCNC(=O)c1c(N=C(O)c2ccc3c(c2)OCCO3)cnn1C
SCANS=16179
IONMODE=positive
COMPOUND_NAME=[4-(2H,3H-benzo[e]1,4-dioxan-6-ylcarbonylamino)-1-methylpyrazol-5-yl]-N-propyl carboxamide M+Na
SPECTRUM_ID=CCMSLIB00006701520
60.47007 2351.0 
67.201523 2892.0 
84.437592 2242.0 
84.960457 2737.0 
84.974152 2136.0 
88.116676 2867.0 
92.405457 2901.0 
101.606979 2539.0 
104.317528 4473.0 
118.212929 2357.0 
209.943909 5887.0 
209.965652 2820.0 
291.507324 2536.0 
298.714233 2617.0 
367.137726 2243693.0 
END IONS

BEGIN IONS
PRECURSOR_MZ=168.029
INCHI=InChI=1S/C7H5NO4/c9-6(10)4-2-1-3-8-5(4)7(11)12/h1-3H,(H,9,10)(H,11,12)
SMILES=O=C(O)c1cccnc1C(=O)O
SCANS=11624
IONMODE=positive
COMPOUND_NAME=quinolinic acid M+H
SPECTRUM_ID=CCMSLIB00006696965
53.79916 13515.0 
64.337646 15823.0 
68.050331 69461.0 
70.50238 14614.0 
78.034439 400689.0 
78.039223 21144.0 
80.050034 157607.0 
82.519188 13326.0 
85.300484 18127.0 
86.206291 14771.0 
96.044884 1459265.0 
106.029083 88247.0 
112.040123 17326.0 
122.024101 80849.0 
124.039543 7303662.0 
128.77507 16394.0 
140.001434 49164.0 
140.034485 126762.0 
150.018631 6870809.0 
156.087753 15839.0 
158.012482 33091.0 
168.029358 241154.0 
174.565018 13816.0 
185.366745 14451.0 
END IONS

BEGIN IONS
PRECURSOR_MZ=433.13
INCHI=InChI=1S/C21H22N4O3S/c1-14-8-10-16(11-9-14)25-19(15-6-4-3-5-7-15)23-18(24-25)20(26)22-17(21(27)28)12-13-29-2/h3-11,17H,12-13H2,1-2H3,(H,22,26)(H,27,28)
SMILES=CSCCC(NC(=O)c1nc(-c2ccccc2)n(-c2ccc(C)cc2)n1)C(=O)O
SCANS=3925
IONMODE=positive
COMPOUND_NAME=2-{[1-(4-methylphenyl)-5-phenyl(1,2,4-triazol-3-yl)]carbonylamino}-4-methylthi obutanoic acid M+Na
SPECTRUM_ID=CCMSLIB00006689266
102.96917 3092.0 
104.275497 3202.0 
109.015968 2880.0 
111.819038 2625.0 
126.031029 28565.0 
136.200012 3237.0 
155.057877 55605.0 
194.096115 107211.0 
215.437012 2962.0 
258.099731 509770.0 
276.1091 5815.0 
280.10672 3557.0 
299.126648 6629.0 
301.099884 4437.0 
302.089172 143350.0 
335.899963 4802.0 
377.553772 3101.0 
379.115112 4542.0 
385.129517 5099.0 
387.124268 4335.0 
411.148193 4124.0 
418.106232 5223.0 
433.129578 4148304.0 
451.140442 14963.0 
END IONS

BEGIN IONS
PRECURSOR_MZ=464.094
INCHI=InChI=1S/C23H18ClN5O2S/c1-13-7-9-15(10-8-13)29-20-19(21(30)26-12-25-20)28-23(29)32-11-18-14(2)31-22(27-18)16-5-3-4-6-17(16)24/h3-10,12H,11H2,1-2H3,(H,25,26,30)
SMILES=Cc1ccc(-n2c(SCc3nc(-c4ccccc4Cl)oc3C)nc3c(O)ncnc32)cc1
SCANS=6862
IONMODE=positive
COMPOUND_NAME=8-{[2-(2-chlorophenyl)-5-methyl(1,3-oxazol-4-yl)]methylthio}-9-(4-methylphenyl )hydropurin-6-one M+H
SPECTRUM_ID=CCMSLIB00006692203
58.89188 4423.0 
69.033859 300552.0 
74.203392 4101.0 
81.641319 4140.0 
92.376663 4517.0 
105.06955 5489.0 
112.490929 4653.0 
138.010406 1840118.0 
138.994827 21091.0 
156.020874 20818.0 
167.001785 8910.0 
179.036621 7153.0 
205.275787 9428.0 
206.036499 10976601.0 
206.801773 7416.0 
247.062607 110150.0 
259.064301 1060419.0 
266.094727 7944.0 
327.090729 8970.0 
461.525879 5247.0 
464.093597 7549376.0 
END IONS

BEGIN IONS
PRECURSOR_MZ=130.062
INCHI=InChI=1S/C4H9N3O2/c1-7(4(5)6)2-3(8)9/h2H2,1H3,(H3,5,6)(H,8,9)
SMILES=CN(CC(=O)O)C(=N)N
SCANS=24012
IONMODE=negative
COMPOUND_NAME=creatine M-H
SPECTRUM_ID=CCMSLIB00006709353
50.488098 3037.080078 
55.181599 2847.919922 
56.8815 2537.02002 
75.9076 3222.129883 
82.433502 3145.040039 
88.040298 391618.0 
92.415497 4140.870117 
104.327003 4779.089844 
END IONS

BEGIN IONS
PRECURSOR_MZ=207.998
INCHI=InChI=1S/C3H8NO6P/c4-2(3(5)6)1-10-11(7,8)9/h2H,1,4H2,(H,5,6)(H2,7,8,9)/t2-/m0/s1
SMILES=N[C@@H](COP(=O)(O)O)C(=O)O
SCANS=908
IONMODE=positive
COMPOUND_NAME=O-phospho-L-serine M+Na
SPECTRUM_ID=CCMSLIB00006686249
51.368801 2166.110107 
52.1647 2127.040039 
69.494003 2100.459961 
70.988098 2199.959961 
73.974098 2519.23999 
82.026802 8452.230469 
85.686798 1938.459961 
87.196098 2095.449951 
93.445602 2183.280029 
104.313004 3883.050049 
110.013 3061.530029 
110.022003 84127.398438 
112.389999 2120.639893 
120.966003 347786.0 
127.511002 1855.599976 
128.031998 10155.700195 
129.936996 2107.159912 
161.990997 3679.340088 
165.138 8982.179688 
207.998001 136679.0 
208.182007 7794.790039 
END IONS

BEGIN IONS
PRECURSOR_MZ=497.192
INCHI=InChI=1S/C26H28N2O8/c1-31-19-11-15(12-20(32-2)23(19)35-5)25(29)27-17-9-7-8-10-18(17)28-26(30)16-13-21(33-3)24(36-6)22(14-16)34-4/h7-14H,1-6H3,(H,27,29)(H,28,30)
SMILES=COc1cc(C(O)=Nc2ccccc2N=C(O)c2cc(OC)c(OC)c(OC)c2)cc(OC)c1OC
SCANS=18222
IONMODE=positive
COMPOUND_NAME=(3,4,5-trimethoxyphenyl)-N-{2-[(3,4,5-trimethoxyphenyl)carbonylamino]phenyl}ca rboxamide M+H
SPECTRUM_ID=CCMSLIB00006703563
51.023399 8232.0 
53.002541 3528.0 
53.039059 125057.0 
55.0182 13307.0 
55.054649 8324.0 
57.03405 3082.0 
58.474979 3034.0 
58.98801 3494.0 
60.060829 3065.0 
60.57143 3469.0 
63.61742 2802.0 
65.03891 50973.0 
66.046623 13778.0 
67.018387 4152.0 
67.054527 22848.0 
68.026039 8288.0 
68.062057 3447.0 
68.997337 6359.0 
69.033768 16509.0 
70.26049 3501.0 
71.049248 5379.0 
72.386841 3094.0 
73.941307 2929.0 
75.044373 25834.0 
77.038841 6161.0 
78.046593 14462.0 
79.054451 333518.0 
80.06234 4449.0 
81.033669 240259.0 
81.064957 5907.0 
81.070084 161217.0 
82.041527 4306.0 
83.049271 17630.0 
85.02861 14445.0 
91.054153 18484.0 
92.025848 16106.0 
93.033661 31478.0 
94.04129 68286.0 
95.04921 65038.0 
96.056976 160362.0 
97.028328 4249.0 
98.035942 4942.0 
98.044777 3438.0 
99.044037 12699.0 
105.033607 5011.0 
105.044418 4566.0 
106.041039 3978.0 
107.012489 7115.0 
107.049133 29933.0 
108.020348 3230.0 
108.056717 68990.0 
109.028427 48957.0 
109.064697 268338.0 
111.044197 4597.0 
111.080383 62527.0 
113.023293 33495.0 
113.059563 58321.0 
118.639679 3745.0 
121.028297 42631.0 
122.036057 205240.0 
123.043793 16073.0 
124.051773 392224.0 
125.02179 3608.0 
125.059563 6334.0 
128.0466 77207.0 
137.023148 109055.0 
137.06012 3838.0 
139.075211 497140.0 
141.017883 68818.0 
141.055008 3814.0 
143.070282 20476.0 
151.03862 97291.0 
152.046585 733409.0 
155.034851 4530.0 
156.041489 123434.0 
167.070496 6148.0 
170.056747 6580.0 
171.065155 5330.0 
180.039749 8018.0 
184.036377 57381.0 
185.080353 31171.0 
194.362534 4421.0 
195.064941 4783246.0 
196.098694 12191.0 
224.093185 12010.0 
227.080215 5740.0 
239.081177 34331.0 
251.079086 5352.0 
255.075668 32541.0 
269.092041 11942.0 
285.122528 306771.0 
END IONS

BEGIN IONS
PRECURSOR_MZ=638.262
INCHI=InChI=1S/C35H37N5O7/c1-21(2)32(42)38-34-37-31-30(33(43)39-34)36-20-40(31)29-18-27(41)28(47-29)19-46-35(22-8-6-5-7-9-22,23-10-14-25(44-3)15-11-23)24-12-16-26(45-4)17-13-24/h5-17,20-21,27-29,41H,18-19H2,1-4H3,(H2,37,38,39,42,43)
SMILES=COc1ccc(C(OCC2OC(n3cnc4c(O)nc(N=C(O)C(C)C)nc43)CC2O)(c2ccccc2)c2ccc(OC)cc2)cc1
SCANS=9258
IONMODE=negative
COMPOUND_NAME=N2-Isobutyryl-5'-O-(4,4'-dimethoxytrityl)-2'-deoxyguanosine M-H
SPECTRUM_ID=CCMSLIB00006694599
51.67218 3384.0 
52.69783 3193.0 
60.531052 4013.0 
82.041023 7038.0 
82.387131 4990.0 
92.368103 5054.0 
103.941513 3420.0 
106.028503 5150.0 
107.036293 62224.0 
108.02034 48848.0 
111.056099 12806.0 
118.642433 3847.0 
125.046867 7099.0 
126.030617 28372.0 
132.030884 4056.0 
133.015594 286677.0 
133.05217 5195.0 
134.036346 17295.0 
135.791672 3583.0 
149.034714 31309.0 
149.046341 4775.0 
150.04213 1842358.0 
162.030685 4884.0 
164.05777 189937.0 
176.057739 162842.0 
186.042282 5759.0 
188.046967 17001.0 
190.073578 9184.0 
204.052765 20167.0 
211.257614 4720.0 
220.084 280775.0 
227.905075 4165.0 
230.068527 17277.0 
234.100311 14743.0 
246.099823 17760.0 
264.07254 14765.0 
266.934174 5108.0 
269.358032 3780.0 
280.10556 14943.0 
568.22052 826875.0 
569.222961 4497.0 
638.263 4008927.0 
639.264526 32621.0 
END IONS

BEGIN IONS
PRECURSOR_MZ=315.102
INCHI=InChI=1S/C14H14N6OS/c1-8-2-4-9(5-3-8)18-10(21)6-22-14-19-11-12(15)16-7-17-13(11)20-14/h2-5,7H,6H2,1H3,(H,18,21)(H3,15,16,17,19,20)
SMILES=Cc1ccc(NC(=O)CSc2nc3c(N)ncnc3[nH]2)cc1
SCANS=2602
IONMODE=positive
COMPOUND_NAME=2-(6-aminopurin-8-ylthio)-N-(4-methylphenyl)acetamide M+H
SPECTRUM_ID=CCMSLIB00006687943
55.167622 3327.0 
59.81852 2670.0 
74.309647 3454.0 
108.080772 5923.0 
110.578247 3101.0 
120.080467 5755.0 
131.072495 11388.0 
136.061722 15232.0 
136.233459 3156.0 
139.4617 3097.0 
166.017227 23566.0 
168.0336 13631.0 
180.033463 1648997.0 
186.819077 3124.0 
208.028351 4163555.0 
237.311752 3389.0 
280.917297 3301.0 
297.091187 86234.0 
315.101196 2713675.0 
END IONS

BEGIN IONS
PRECURSOR_MZ=331.116
INCHI=InChI=1S/C14H16N6O4/c1-2-24-10-6-4-3-5-9(10)7-16-18-11(21)8-15-12-13(22)17-14(23)20-19-12/h3-7H,2,8H2,1H3,(H,15,19)(H,18,21)(H2,17,20,22,23)/b16-7+
SMILES=CCOc1ccccc1C=NN=C(O)CNc1nnc(O)nc1O
SCANS=7679
IONMODE=negative
COMPOUND_NAME=N-[(1E)-2-(2-ethoxyphenyl)-1-azavinyl]-2-[(3,5-dioxo(2H,4H-1,2,4-triazin-6-yl) )amino]acetamide M-H
SPECTRUM_ID=CCMSLIB00006693020
62.367001 9087.0 
67.556717 9292.0 
68.025063 22462.0 
69.009132 392746.0 
71.024963 16785.0 
72.008957 16224.0 
79.017662 50566.0 
80.01992 14895.0 
80.025284 415297.0 
80.030411 19166.0 
81.009193 124398.0 
81.079742 10888.0 
82.017197 24711.0 
82.404213 10925.0 
83.012718 11660.0 
83.024986 39129.0 
84.020241 235042.0 
85.004288 50006.0 
90.975227 8881.0 
92.382736 17507.0 
96.020416 706764.0 
97.004501 223573.0 
97.028091 157060.0 
98.036087 6965036.0 
100.015701 24427.0 
104.290604 13863.0 
106.042419 81604.0 
107.05043 67070.0 
109.99968 21804.0 
111.020348 74375.0 
111.031807 17680.0 
112.015373 184675.0 
113.047279 20162.0 
117.046043 2778292.0 
118.030029 218089.0 
120.045258 75414.0 
122.145897 9616.0 
123.007713 14295.0 
123.03167 15985.0 
124.015404 1967703.0 
125.023529 77383.0 
126.018578 62079.0 
126.030563 37572.0 
127.015121 124531.0 
127.026527 152998.0 
137.011017 16724.0 
138.032288 37880.0 
139.026352 1880708.0 
140.012253 13328.0 
140.034286 488069.0 
140.046051 29039.0 
141.041992 588858.0 
154.02623 114722.0 
155.0215 102284.0 
159.056717 12596.0 
162.057098 11481.0 
163.087509 47017.0 
166.013702 40499.0 
166.037704 84981.0 
167.021286 6349936.0 
169.073608 43499.0 
172.052353 12918.0 
174.043533 13127.0 
182.018539 13347.0 
182.03215 616533.0 
183.03952 76406.0 
184.047806 646815.0 
190.061584 13502.0 
190.089539 9961.0 
195.052765 308229.0 
199.062683 291372.0 
212.078949 333671.0 
213.062454 81336.0 
218.093384 38926.0 
242.068817 110697.0 
245.10498 233001.0 
260.078491 11208.0 
274.07074 38217.0 
285.0755 54661.0 
288.110565 2406845.0 
303.084015 21210.0 
329.540283 22781.0 
331.116577 30734446.0 
332.665863 11384.0 
332.703217 18869.0 
END IONS

BEGIN IONS
PRECURSOR_MZ=246.076
INCHI=InChI=1S/C13H11NO4/c1-16-11-7-3-4-9(15)12(17-2)10(7)14-13-8(11)5-6-18-13/h3-6,15H,1-2H3
SMILES=COc1c2ccoc2nc2c(OC)c(O)ccc12
SCANS=1612
IONMODE=positive
COMPOUND_NAME=Haplopine M+H
SPECTRUM_ID=CCMSLIB00006686953
54.602131 2957.0 
71.246002 2893.0 
80.842438 3205.0 
92.364998 2996.0 
103.139809 3057.0 
134.9198 4176.0 
135.04393 83433.0 
136.191406 3186.0 
136.202499 3404.0 
149.944565 3832.0 
150.417282 2862.0 
167.953415 22270.0 
184.039627 7990.0 
185.931442 5264.0 
185.96434 45166.0 
199.479263 3287.0 
200.069351 25661.0 
202.050201 7708.0 
216.02858 77285.0 
228.064758 36287.0 
230.144867 5805.0 
231.052536 4327757.0 
245.079453 7381.0 
246.075882 9370493.0 
247.078094 12449.0 
263.942078 20898.0 
END IONS

BEGIN IONS
PRECURSOR_MZ=341.162
INCHI=InChI=1S/C20H23NO4/c1-4-24-11-10-21-13(3)18(20(23)25-5-2)16-12-17(22)14-8-6-7-9-15(14)19(16)21/h6-9,12,22H,4-5,10-11H2,1-3H3
SMILES=CCOCCn1c(C)c(C(=O)OCC)c2cc(O)c3ccccc3c21
SCANS=18344
IONMODE=positive
COMPOUND_NAME=ethyl 1-(2-ethoxyethyl)-5-hydroxy-2-methylbenzo[g]indole-3-carboxylate M-e
SPECTRUM_ID=CCMSLIB00006703685
60.410709 2747.0 
61.53944 2619.0 
63.958359 2388.0 
66.735397 3914.0 
73.06517 10924.0 
77.740349 2482.0 
148.10112 2391.0 
167.073212 12899.0 
180.080795 10199.0 
181.087769 30856.0 
182.096237 41031.0 
185.116409 3774.0 
195.067291 13414.0 
195.102264 6024.0 
196.075409 112555.0 
196.110413 32816.0 
197.082672 29990.0 
197.115356 4703.0 
199.062408 3959.0 
207.067062 4603.0 
208.075211 80624.0 
209.060089 5794.0 
209.083237 255272.0 
210.091049 530752.0 
222.054733 11738.0 
222.090881 23466.0 
223.06221 62390.0 
223.098709 136627.0 
224.070114 4854.0 
224.080673 3145.0 
224.106415 62682.0 
225.072495 4131.0 
225.110626 5032.0 
226.086609 22088.0 
236.070236 82072.0 
238.12204 228604.0 
239.08989 3366.0 
240.065125 28620.0 
241.072144 24792.0 
241.104874 13284.0 
250.085678 30394.0 
254.080627 300155.0 
266.081116 10413.0 
266.93515 2850.0 
268.096466 34175.0 
268.128143 5045.0 
269.103577 27385.0 
282.111847 120947.0 
296.127472 11853.0 
297.131714 11264.0 
313.128143 10835.0 
341.160889 1277575.0 
477.751923 2835.0 
END IONS

BEGIN IONS
PRECURSOR_MZ=218.058
INCHI=InChI=1S/C13H9NO/c15-13-9-5-1-3-7-11(9)14-12-8-4-2-6-10(12)13/h1-8H,(H,14,15)
SMILES=O=c1c2ccccc2[nH]c2ccccc12
SCANS=13053
IONMODE=positive
COMPOUND_NAME=acridone M+Na
SPECTRUM_ID=CCMSLIB00006698394
50.611679 2079.0 
51.466129 2097.0 
52.31551 1874.0 
56.965191 2267.0 
57.7006 1964.0 
61.01096 3218.0 
70.869873 1951.0 
73.966499 2240.0 
76.552948 2021.0 
79.021378 3188.0 
84.959808 2755.0 
85.914558 2299.0 
86.096481 2080.0 
98.667229 2037.0 
98.975098 8735.0 
116.985878 2613.0 
136.230865 2452.0 
144.530304 2107.0 
153.535507 3499.0 
165.528595 2380.0 
172.865967 1929.0 
185.962311 10348.0 
194.944763 2056.0 
194.968277 3295.0 
194.999771 3427.0 
207.583435 2111.0 
218.057434 127469.0 
218.081375 5008.0 
218.107666 3077.0 
236.069199 2974.0 
END IONS

BEGIN IONS
PRECURSOR_MZ=231.113
INCHI=InChI=1S/C13H14N2O2/c1-7-12-9(6-11(14-7)13(16)17)8-4-2-3-5-10(8)15-12/h2-5,7,11,14-15H,6H2,1H3,(H,16,17)
SMILES=CC1NC(C(=O)O)Cc2c1[nH]c1ccccc21
SCANS=3988
IONMODE=positive
COMPOUND_NAME=5470-37-1 M+H
SPECTRUM_ID=CCMSLIB00006689329
53.33477 2647.0 
56.049999 48201.0 
70.065598 5256.0 
74.023956 111108.0 
77.249763 2726.0 
77.369331 2732.0 
79.301178 2498.0 
100.039688 3339.0 
101.003113 77743.0 
102.054832 98546.0 
113.972961 3349.0 
118.065063 6535.0 
130.065125 526242.0 
132.08075 47407.0 
136.974564 4680.0 
143.073074 22587.0 
143.08493 3096.0 
144.045181 3528.0 
144.080765 202222.0 
144.093796 6510.0 
145.076157 17147.0 
146.059937 286899.0 
146.096298 19449.0 
152.945236 6829.0 
154.065048 135599.0 
154.985214 10986.0 
156.080566 17323.0 
157.088531 66251.0 
158.09639 2986263.0 
159.091537 24419.0 
164.982925 3238.0 
167.074753 3223.0 
168.080673 417442.0 
169.088547 11659.0 
170.060074 18941.0 
170.096405 56824.0 
170.955383 21431.0 
172.075333 21932.0 
175.605988 3211.0 
185.107285 83041.0 
187.122955 54292.0 
188.070496 1330725.0 
188.965698 12900.0 
196.075714 49460.0 
214.08609 1279745.0 
231.112564 1036723.0 
END IONS

BEGIN IONS
PRECURSOR_MZ=481.24
INCHI=InChI=1S/C30H29FN4O/c1-21-17-27(22(2)35(21)29-10-6-5-9-28(29)31)18-32-33-30(36)25-13-11-23(12-14-25)19-34-16-15-24-7-3-4-8-26(24)20-34/h3-14,17-18H,15-16,19-20H2,1-2H3,(H,33,36)/b32-18+
SMILES=Cc1cc(C=NNC(=O)c2ccc(CN3CCc4ccccc4C3)cc2)c(C)n1-c1ccccc1F
SCANS=12815
IONMODE=positive
COMPOUND_NAME=N-{(1E)-2-[1-(2-fluorophenyl)-2,5-dimethylpyrrol-3-yl]-1-azavinyl}[4-(2-1,2,3, 4-tetrahydroisoquinolylmethyl)phenyl]carboxamide M+H
SPECTRUM_ID=CCMSLIB00006698156
51.023449 8275.0 
53.03912 22501.0 
54.01268 3602.0 
54.444901 3708.0 
55.01833 5276.0 
65.03904 188472.0 
66.04686 8766.0 
67.042007 4853.0 
67.054688 69720.0 
68.049873 19363.0 
77.038887 6317.0 
79.054581 62506.0 
80.050003 33477.0 
81.044998 24422.0 
82.065376 4287.0 
83.029587 15251.0 
89.038521 6488.0 
90.046883 5606.0 
91.05439 507822.0 
92.049744 51412.0 
93.05732 27134.0 
94.0653 191029.0 
95.049873 30720.0 
95.060509 91796.0 
96.044487 33021.0 
103.054077 66238.0 
104.049492 57929.0 
105.033493 100124.0 
105.040993 5988.0 
105.045097 6591.0 
105.057457 17074.0 
105.069817 36624.0 
106.06517 1865309.0 
107.049049 26435.0 
109.044777 23336.0 
109.064873 51366.0 
109.075996 230211.0 
110.040176 64712.0 
110.059937 4465.0 
111.048111 69251.0 
115.054413 21935.0 
116.049454 7484.0 
116.061974 6759.0 
117.044983 29888.0 
117.057381 8802.0 
117.069847 80496.0 
118.041252 35282.0 
118.064873 8109.0 
118.657204 5094.0 
119.049316 2419605.0 
119.060028 314134.0 
120.068192 68153.0 
121.044441 7456.0 
121.063362 5322.0 
122.04007 59024.0 
124.056099 6858.0 
128.050186 6137.0 
130.064987 50673.0 
131.060333 124686.0 
132.044403 201241.0 
132.080811 264671.0 
133.044601 5096.0 
134.060059 263562.0 
135.046677 7685.0 
135.056854 7817.0 
136.055725 166157.0 
139.053833 5362.0 
142.065033 6702.0 
144.080658 7490.0 
145.045181 7021.0 
145.088608 297954.0 
146.052841 20489.0 
146.096603 4896.0 
147.059616 9850.0 
148.055634 134132.0 
149.06366 19793.0 
154.065552 8194.0 
157.975739 5353.0 
159.060486 29385.0 
161.062607 4959.0 
161.076385 4657.0 
162.071243 83309.0 
162.905685 3791.0 
165.069 5130.0 
166.064713 54233.0 
167.073013 20481.0 
168.081161 35035.0 
169.075882 5098.0 
170.060074 5075.0 
172.040009 7220.0 
172.055649 128860.0 
173.049957 4574.0 
173.064117 49095.0 
174.071762 7290.0 
175.079315 8907.0 
176.086761 29657.0 
180.08165 4240.0 
182.096237 28473.0 
183.091644 7448.0 
184.056137 5020.0 
185.063477 79882.0 
186.07132 317142.0 
187.079208 19110.0 
188.087173 133183.0 
189.080215 16713.0 
189.096558 9539.0 
190.102615 212851.0 
192.067535 39728.0 
193.075851 79614.0 
194.084045 5203.0 
195.091431 58622.0 
196.055603 8509.0 
197.051529 33525.0 
197.10701 7168.0 
198.056641 77129.0 
198.077209 5177.0 
199.066086 108779.0 
200.072479 117700.0 
200.090759 5092.0 
201.081741 31695.0 
202.103516 49772.0 
203.097702 77450.0 
204.080841 4801.0 
207.980209 11609.0 
210.102875 42589.0 
211.066727 15305.0 
212.073914 24823.0 
213.082199 3016117.0 
214.090103 753782.0 
215.098587 594389.0 
216.081558 22031.0 
216.104828 5627.0 
218.097061 15914.0 
219.068863 19851.0 
220.111374 19008.0 
222.128052 7638.0 
228.093201 218183.0 
229.10054 51796.0 
230.108719 434347.0 
231.092606 9721.0 
250.122498 139510.0 
267.148163 24009.0 
268.132629 4611.0 
275.109711 7197.0 
276.116821 15023.0 
289.11731 5530.0 
290.132355 27222.0 
291.141022 22042.0 
292.148315 8025.0 
303.129242 9047.0 
303.212158 7895.0 
318.129944 6533.0 
320.154633 5205.0 
348.15036 2546908.0 
349.13446 31794.0 
350.165771 133219.0 
413.061371 5527.0 
481.239563 3161618.0 
END IONS

BEGIN IONS
PRECURSOR_MZ=273.076
INCHI=InChI=1S/C13H15ClN2O/c1-2-13(17)15-6-5-9-8-16-12-4-3-10(14)7-11(9)12/h3-4,7-8,16H,2,5-6H2,1H3,(H,15,17)
SMILES=CCC(O)=NCCc1c[nH]c2ccc(Cl)cc12
SCANS=13628
IONMODE=positive
COMPOUND_NAME=N-[2-(5-chloroindol-3-yl)ethyl]propanamide M+Na
SPECTRUM_ID=CCMSLIB00006698969
54.036419 1969.0 
56.451721 2032.0 
63.24099 2459.0 
94.820763 2215.0 
101.949852 2513.0 
147.53949 2480.0 
165.188278 2698.0 
230.028061 2649.0 
273.075775 1045629.0 
END IONS

BEGIN IONS
PRECURSOR_MZ=821.398
INCHI=InChI=1S/C43H58N4O12/c1-21-12-11-13-22(2)42(55)45-33-28(20-44-47-17-15-46(9)16-18-47)37(52)30-31(38(33)53)36(51)26(6)40-32(30)41(54)43(8,59-40)57-19-14-29(56-10)23(3)39(58-27(7)48)25(5)35(50)24(4)34(21)49/h11-14,19-21,23-25,29,34-35,39,49-53H,15-18H2,1-10H3,(H,45,55)/b12-11+,19-14+,22-13+,44-20+
SMILES=COC1C=COC2(C)Oc3c(C)c(O)c4c(O)c(c(C=NN5CCN(C)CC5)c(O)c4c3C2=O)N=C(O)C(C)=CC=CC(C)C(O)C(C)C(O)C(C)C(OC(C)=O)C1C
SCANS=5952
IONMODE=negative
COMPOUND_NAME=Rifampicin M-H
SPECTRUM_ID=CCMSLIB00006691293
59.013371 26093.0 
59.4683 3723.0 
60.535702 3893.0 
66.57711 3983.0 
67.208267 3957.0 
83.049957 17484.0 
91.191757 4018.0 
104.283157 5174.0 
113.944794 4663.0 
118.647797 6890.0 
123.081337 42487.0 
125.060539 5370.0 
136.07663 48209.0 
143.403473 4618.0 
164.071228 38605.0 
204.103546 5449.0 
225.832397 4314.0 
259.050354 8425.0 
270.040649 186255.0 
271.048309 29689.0 
272.058197 18925.0 
282.042511 19327.0 
283.050049 22021.0 
284.057678 16960.0 
285.06601 18742.0 
296.056854 50011.0 
297.051605 498333.0 
298.059387 442655.0 
299.067902 122396.0 
300.049713 6621.0 
303.038177 17710.0 
309.06369 8003.0 
310.072754 5457.0 
322.073608 17109.0 
323.081024 24763.0 
324.088715 18998.0 
325.048431 24184.0 
325.096466 21082.0 
364.083862 6846.0 
376.083313 18078.0 
377.079102 6924.0 
380.128326 23809.0 
381.132904 28697.0 
382.140991 23730.0 
390.090851 22375.0 
391.093628 38448.0 
393.114716 5284.0 
397.151764 631908.0 
401.116608 9215.0 
404.112671 4631.0 
419.118713 4818.0 
420.135376 37757.0 
476.223145 4441.0 
490.188721 22402.0 
501.217041 5688.0 
519.223816 7179.0 
534.212891 4759.0 
606.270935 6360.0 
626.265747 20337.0 
627.260193 4239.0 
630.262512 20183.0 
690.275208 19058.0 
722.309387 54706.0 
729.349304 30839.0 
761.380737 5479.0 
789.376099 18429.0 
821.400024 4300792.0 
822.391418 38798.0 
END IONS

BEGIN IONS
PRECURSOR_MZ=552.139
INCHI=InChI=1S/C29H32BrNO5/c1-5-35-23-14-19(13-20(30)27(23)33)25-24(28(34)36-12-11-18-9-7-6-8-10-18)17(2)31-21-15-29(3,4)16-22(32)26(21)25/h6-10,13-14,25,31,33H,5,11-12,15-16H2,1-4H3
SMILES=CCOc1cc(C2C(C(=O)OCCc3ccccc3)=C(C)NC3=C2C(=O)CC(C)(C)C3)cc(Br)c1O
SCANS=5251
IONMODE=negative
COMPOUND_NAME=2-phenylethyl 4-(3-bromo-5-ethoxy-4-hydroxyphenyl)-2,7,7-trimethyl-5-oxo-1,4,6 ,7,8-pentahydroquinoline-3-carboxylate M-H
SPECTRUM_ID=CCMSLIB00006690592
53.09726 3438.0 
54.596088 3245.0 
78.918716 993514.0 
82.8162 3235.0 
99.965919 3016.0 
101.202133 3281.0 
154.078201 3065.0 
161.374924 3054.0 
161.949448 3314.0 
170.097687 13699.0 
185.932251 482771.0 
186.940079 300486.0 
188.108139 232574.0 
214.087845 5761.0 
214.971512 216333.0 
216.066483 15541.0 
231.088058 4370.0 
232.097992 93403.0 
238.04866 3796.0 
293.105927 3690.0 
320.131531 4518.0 
321.099701 17287.0 
336.16095 155692.0 
374.040344 13572.0 
386.00235 21472.0 
402.034058 4444.0 
430.066345 34586.0 
448.075134 7243.0 
552.139587 3143043.0 
END IONS

BEGIN IONS
PRECURSOR_MZ=357.098
INCHI=InChI=1S/C19H18O7/c1-22-13-6-5-10(7-11(13)20)14-8-12(21)17-15(26-14)9-16(23-2)18(24-3)19(17)25-4/h5-9,20H,1-4H3
SMILES=COc1ccc(-c2cc(=O)c3c(OC)c(OC)c(OC)cc3o2)cc1O
SCANS=13783
IONMODE=negative
COMPOUND_NAME=Eupatorin-5-methylether M-H
SPECTRUM_ID=CCMSLIB00006699124
51.16679 2089.0 
61.80331 2395.0 
64.035423 2104.0 
65.356216 2265.0 
73.782463 2056.0 
73.966553 2238.0 
132.021286 22376.0 
139.517624 2753.0 
147.04393 3346.0 
158.080658 2381.0 
224.860382 5134.0 
240.041168 3330.0 
241.014145 4239.0 
253.014648 4171.0 
255.029297 9344.0 
256.037598 10196.0 
269.009125 122206.0 
283.025696 9395.0 
284.032196 74575.0 
292.982452 2926.0 
297.003815 214553.0 
299.056427 59998.0 
312.027222 152518.0 
327.05069 64468.0 
342.074493 157083.0 
357.097534 179797.0 
END IONS

BEGIN IONS
PRECURSOR_MZ=348.033
INCHI=InChI=1S/C14H12ClN5O2S/c1-20-12-11(13(22)17-7-16-12)19-14(20)23-6-10(21)18-9-5-3-2-4-8(9)15/h2-5,7H,6H2,1H3,(H,18,21)(H,16,17,22)
SMILES=Cn1c(SCC(O)=Nc2ccccc2Cl)nc2c(O)ncnc21
SCANS=20699
IONMODE=negative
COMPOUND_NAME=N-(2-chlorophenyl)-2-(9-methyl-6-oxohydropurin-8-ylthio)acetamide M-H
SPECTRUM_ID=CCMSLIB00006706040
51.085579 2395.0 
57.975201 25210.0 
62.405682 2621.0 
65.997864 3507.0 
73.954826 2586.0 
79.029846 40924.0 
102.893913 2607.0 
106.041077 15805.0 
122.035744 4575.0 
123.630234 2901.0 
134.023224 25739.0 
136.009872 2483.0 
137.04686 5503.0 
138.01329 50211.0 
147.030548 19867.0 
149.046844 272601.0 
151.007233 3297.0 
162.053955 2890.0 
164.057831 5640.0 
164.998795 18023.0 
165.041702 15604.0 
169.983185 10416.0 
171.263596 2993.0 
179.003387 121720.0 
180.011185 573747.0 
181.018951 387603.0 
193.019348 22316.0 
195.034607 55208.0 
197.978729 51246.0 
211.045822 3913.0 
221.013519 66025.0 
223.050034 2727.0 
235.658829 2553.0 
238.073685 2896.0 
274.050232 69226.0 
312.054291 15456.0 
348.032654 196284.0 
END IONS

BEGIN IONS
PRECURSOR_MZ=402.17
INCHI=InChI=1S/C25H23NO4/c1-29-21-14-19(15-22(16-21)30-2)23(27)17-8-10-18(11-9-17)24(28)26-25(12-13-25)20-6-4-3-5-7-20/h3-11,14-16H,12-13H2,1-2H3,(H,26,28)
SMILES=COc1cc(OC)cc(C(=O)c2ccc(C(=O)NC3(c4ccccc4)CC3)cc2)c1
SCANS=7422
IONMODE=positive
COMPOUND_NAME={4-[(3,5-dimethoxyphenyl)carbonyl]phenyl}-N-(phenylcyclopropyl)carboxamide M+H
SPECTRUM_ID=CCMSLIB00006692763
74.824249 2552.0 
77.810913 3196.0 
82.440063 2688.0 
91.054382 33505.0 
92.42205 3130.0 
104.333488 3434.0 
117.070053 3186.0 
121.028511 24746.0 
128.903763 3368.0 
135.080566 5504.0 
151.038406 4556.0 
152.062469 7436.0 
153.069778 34848.0 
157.063766 3142.0 
165.053833 30922.0 
170.072495 3795.0 
181.064667 20198.0 
182.071625 4521.0 
183.045258 3584.0 
183.080139 4630.0 
183.65274 3183.0 
185.060059 3545.0 
195.078934 4343.0 
197.059097 32700.0 
198.0672 39363.0 
209.060242 5515.0 
211.038544 118014.0 
213.053818 32594.0 
213.091644 12838.0 
225.05452 16062.0 
226.062012 314515.0 
227.070312 39361.0 
230.056992 55254.0 
237.065445 51241.0 
241.085403 196182.0 
242.056747 96084.0 
245.08107 16827.0 
253.222305 4123.0 
254.057327 50884.0 
258.051331 6029.0 
268.096222 5580.0 
269.080292 5162455.0 
273.075134 15908.0 
279.074646 3526.0 
402.168884 379830.0 
END IONS

BEGIN IONS
PRECURSOR_MZ=368.118
INCHI=InChI=1S/C18H17N5O2S/c1-10-4-6-12(7-5-10)17-21-13(11(2)25-17)8-26-18-22-14-15(23(18)3)19-9-20-16(14)24/h4-7,9H,8H2,1-3H3,(H,19,20,24)
SMILES=Cc1ccc(-c2nc(CSc3nc4c(O)ncnc4n3C)c(C)o2)cc1
SCANS=18044
IONMODE=positive
COMPOUND_NAME=9-methyl-8-{[5-methyl-2-(4-methylphenyl)(1,3-oxazol-4-yl)]methylthio}hydropuri n-6-one M+H
SPECTRUM_ID=CCMSLIB00006703385
66.751633 2941.0 
69.033928 52145.0 
91.05442 14477.0 
117.069733 6898.0 
118.065071 1886124.0 
119.049088 15492.0 
136.075745 4746.0 
159.091431 6721.0 
180.746216 3199.0 
183.033676 15228.0 
185.436707 3792.0 
186.091232 2723860.0 
186.750763 3252.0 
213.06813 3409.0 
227.117599 16710.0 
282.936066 4173.0 
368.11673 160825.0 
368.160736 14127.0 
END IONS

BEGIN IONS
PRECURSOR_MZ=122.025
INCHI=InChI=1S/C6H5NO2/c8-6(9)5-2-1-3-7-4-5/h1-4H,(H,8,9)
SMILES=O=C(O)c1cccnc1
SCANS=16290
IONMODE=negative
COMPOUND_NAME=nicotinic acid M-H
SPECTRUM_ID=CCMSLIB00006701631
75.026978 4179.0 
78.034737 29975.0 
82.400223 6209.0 
94.029823 41187.0 
108.604797 4813.0 
116.180634 4467.0 
122.024788 113833.0 
END IONS

BEGIN IONS
PRECURSOR_MZ=441.218
INCHI=InChI=1S/C28H30N2O3/c31-26(30-25(27(32)33)12-21-16-29-24-4-2-1-3-23(21)24)20-5-7-22(8-6-20)28-13-17-9-18(14-28)11-19(10-17)15-28/h1-8,16-19,25,29H,9-15H2,(H,30,31)(H,32,33)
SMILES=O=C(NC(Cc1c[nH]c2ccccc12)C(=O)O)c1ccc(C23CC4CC(CC(C4)C2)C3)cc1
SCANS=19903
IONMODE=negative
COMPOUND_NAME=2-[(4-adamantanylphenyl)carbonylamino]-3-indol-3-ylpropanoic acid M-H
SPECTRUM_ID=CCMSLIB00006705244
66.761864 3553.0 
68.995422 4098.0 
73.974907 2936.0 
104.312271 2667.0 
116.050407 96917.0 
118.684097 2816.0 
130.065781 16460.0 
136.247086 3143.0 
142.066177 21297.0 
154.993088 4654.0 
157.077423 2678.0 
158.015594 3475.0 
162.527954 3040.0 
167.048355 3053.0 
174.954437 3315.0 
185.070572 4246.0 
209.185364 12333.0 
238.300339 3409.0 
250.160248 16941.0 
254.154617 219354.0 
254.985596 4692.0 
255.138535 39500.0 
266.154114 12526.0 
268.17038 197883.0 
280.170013 11543.0 
294.149628 113918.0 
298.143768 5630.0 
300.158966 3372.0 
304.984589 3956.0 
312.160461 122136.0 
354.185242 4523.0 
354.981354 15268.0 
379.217987 5414.0 
397.228271 94824.0 
420.970306 14094.0 
440.984283 26865.0 
441.217834 1130779.0 
END IONS

BEGIN IONS
PRECURSOR_MZ=301.035
INCHI=InChI=1S/C15H10O7/c16-7-4-10(19)12-11(5-7)22-15(14(21)13(12)20)6-1-2-8(17)9(18)3-6/h1-5,16-19,21H
SMILES=O=c1c(O)c(-c2ccc(O)c(O)c2)oc2cc(O)cc(O)c12
SCANS=16030
IONMODE=negative
COMPOUND_NAME=quercetin M-H
SPECTRUM_ID=CCMSLIB00006701371
63.023609 122081.0 
65.002876 210900.0 
68.156403 3030.0 
73.952766 3301.0 
83.013588 149537.0 
90.811996 2681.0 
92.376488 3094.0 
93.034393 60449.0 
95.013344 11437.0 
101.330856 2719.0 
104.283432 2776.0 
107.01371 375812.0 
107.285461 2539.0 
108.992844 3114.0 
109.029358 43810.0 
111.007812 3711.0 
121.029312 280426.0 
121.572693 3090.0 
124.016342 10110.0 
125.023788 11962.0 
135.008865 4151.0 
136.931885 17369.0 
139.039871 44065.0 
146.961563 2915.0 
147.008163 3528.0 
147.044434 4003.0 
148.016525 3479.0 
149.024246 45927.0 
151.003479 741269.0 
152.011139 5319.0 
157.062973 3106.0 
159.044891 17701.0 
161.024109 20632.0 
162.031479 3896.0 
163.003296 23324.0 
163.039764 13427.0 
164.011154 24707.0 
164.927185 21573.0 
165.018936 4559.0 
169.014404 44363.0 
173.061661 3072.0 
174.956207 3007.0 
175.039917 12958.0 
177.056046 3845.0 
178.998337 149293.0 
183.044968 3573.0 
185.060806 4419.0 
187.03978 13794.0 
192.006363 3229.0 
193.013672 12784.0 
196.000946 5904.0 
199.040131 4745.0 
201.055115 14824.0 
203.035248 11564.0 
205.051163 5157.0 
209.330566 3193.0 
211.039749 17379.0 
213.019409 3311.0 
214.913223 26670.0 
215.034409 3815.0 
217.049973 4555.0 
227.0354 21672.0 
229.050858 19123.0 
230.022095 4434.0 
231.029114 4610.0 
232.925217 21936.0 
239.034042 2890.0 
243.029602 14440.0 
245.045837 26679.0 
254.906235 13496.0 
255.029541 11620.0 
256.037598 3508.0 
257.047058 4046.0 
271.023224 3909.0 
273.041901 25074.0 
284.032227 3859.0 
299.021606 3810.0 
300.026245 3619.0 
301.035431 1249443.0 
END IONS

BEGIN IONS
PRECURSOR_MZ=459.383
INCHI=InChI=1S/C30H52O4/c1-25(2)12-9-13-30(8,34-25)18-10-15-28(6)23(18)19(31)16-21-27(5)14-11-22(33)26(3,4)24(27)20(32)17-29(21,28)7/h18-24,31-33H,9-17H2,1-8H3/t18-,19+,20-,21+,22-,23-,24-,27+,28+,29+,30-/m0/s1
SMILES=CC1(C)CCCC(C)(C2CCC3(C)C2C(O)CC2C4(C)CCC(O)C(C)(C)C4C(O)CC23C)O1
SCANS=16818
IONMODE=positive
COMPOUND_NAME=Panaxatriol M+H-H2O
SPECTRUM_ID=CCMSLIB00006702159
53.039101 9173.0 
53.567581 4057.0 
53.990829 3898.0 
55.054649 60502.0 
57.033989 18629.0 
57.070339 89290.0 
59.049561 177479.0 
64.669922 4608.0 
65.039078 22051.0 
67.054558 412335.0 
68.162743 3800.0 
69.033836 16589.0 
69.070183 544670.0 
71.049408 52815.0 
71.085602 32926.0 
79.054428 194670.0 
81.070084 988230.0 
82.409607 4432.0 
83.049377 8329.0 
83.085732 136214.0 
85.064819 28346.0 
91.054237 162590.0 
93.069893 439407.0 
95.049217 24992.0 
95.085533 813790.0 
97.064529 27333.0 
97.101143 47302.0 
99.080383 178923.0 
103.054413 4970.0 
105.069763 463554.0 
107.07914 13580.0 
107.085373 684946.0 
109.064919 64221.0 
109.101067 1146931.0 
111.080116 48267.0 
111.116623 47239.0 
113.09584 21842.0 
115.054466 5521.0 
117.069908 58779.0 
119.085388 776758.0 
119.250252 3764.0 
121.064438 8087.0 
121.101013 448549.0 
123.080093 37171.0 
123.116608 568464.0 
125.096031 19594.0 
127.111633 129066.0 
128.062653 5625.0 
129.069748 21730.0 
130.077881 5798.0 
131.085373 163778.0 
133.100983 715262.0 
135.080353 32286.0 
135.116562 242042.0 
136.226624 3631.0 
137.09584 51909.0 
137.132538 48395.0 
139.111557 42267.0 
143.085312 55031.0 
144.093216 20469.0 
145.100967 450349.0 
147.116577 343394.0 
149.09613 22476.0 
149.132233 134078.0 
151.111389 67856.0 
151.148346 15133.0 
153.127563 9726.0 
155.085388 17296.0 
156.093109 18470.0 
157.101151 98032.0 
158.108658 25895.0 
159.116653 258526.0 
160.124298 6076.0 
161.132294 254228.0 
163.111557 31220.0 
163.147614 96925.0 
165.128265 14359.0 
165.164734 4307.0 
169.100769 29974.0 
170.108841 7811.0 
171.116379 95437.0 
172.124756 23360.0 
173.132309 174032.0 
175.111969 15819.0 
175.147827 125119.0 
177.126587 28147.0 
177.163559 64986.0 
179.143265 9526.0 
179.179062 4375.0 
181.101227 5898.0 
183.11618 39057.0 
185.132355 85986.0 
186.140518 4627.0 
187.147781 332690.0 
189.128311 6891.0 
189.163254 152946.0 
191.143387 16301.0 
191.179276 27620.0 
193.15773 6989.0 
195.117538 9669.0 
196.124527 4864.0 
197.132095 38677.0 
197.380524 4354.0 
198.140106 5075.0 
199.147964 51298.0 
201.163422 74802.0 
203.143799 13926.0 
203.179123 123056.0 
205.158218 77932.0 
205.194672 15203.0 
207.173874 76807.0 
209.132187 6407.0 
211.148636 23208.0 
213.163406 45049.0 
215.179062 102359.0 
217.158417 5205.0 
217.194656 119535.0 
219.173172 15331.0 
221.189743 63358.0 
223.147934 14264.0 
225.163834 33858.0 
227.179047 30865.0 
229.195084 31751.0 
231.174774 4981.0 
231.209991 8137.0 
233.188705 29415.0 
235.205551 7999.0 
237.163422 7331.0 
239.179352 18770.0 
241.194611 44324.0 
243.2108 21588.0 
245.190521 6560.0 
245.225876 8776.0 
251.180161 7045.0 
253.194931 19996.0 
255.210556 41831.0 
257.191284 8573.0 
257.225769 24102.0 
259.205597 19731.0 
259.241486 3786.0 
265.194061 8038.0 
267.209961 15682.0 
269.22583 21806.0 
271.208221 7167.0 
271.241394 23077.0 
273.220154 4948.0 
275.235596 5943.0 
279.21167 8711.0 
281.225952 9086.0 
283.241913 14837.0 
285.22052 6083.0 
287.235779 5068.0 
293.226166 8527.0 
295.241821 15888.0 
297.257172 8120.0 
299.237061 6788.0 
309.256622 8301.0 
311.273193 23872.0 
313.251892 16427.0 
315.270416 4854.0 
321.257355 6088.0 
322.262817 5098.0 
323.273071 5454.0 
329.283722 9652.0 
331.261475 4815.0 
335.274567 5036.0 
337.290985 8603.0 
339.268677 7411.0 
341.282196 4159.0 
349.288177 15802.0 
353.281281 6138.0 
364.82309 4101.0 
365.319397 59239.0 
367.300262 23472.0 
383.330811 39543.0 
385.306885 7912.0 
405.35083 159413.0 
405.407837 7896.0 
423.360931 335487.0 
441.371643 244282.0 
459.382111 3553348.0 
END IONS

BEGIN IONS
PRECURSOR_MZ=327.207
INCHI=InChI=1S/C20H26N2O2/c1-3-10-11-8-14-17-20(12-6-4-5-7-13(12)21(17)2)9-15(16(11)18(20)23)22(14)19(10)24/h4-7,10-11,14-19,23-24H,3,8-9H2,1-2H3/t10-,11-,14-,15-,16-,17-,18+,19+,20+/m0/s1
SMILES=CCC1C2CC3C4N(C)c5ccccc5C45CC(C2C5O)N3C1O
SCANS=13367
IONMODE=positive
COMPOUND_NAME=Ajmaline M+H
SPECTRUM_ID=CCMSLIB00006698708
53.038658 3297.0 
54.535561 3092.0 
55.054482 5735.0 
56.049919 43919.0 
57.033958 6460.0 
58.065529 4169.0 
67.054512 19354.0 
68.049767 18753.0 
69.033699 17016.0 
69.070328 5611.0 
70.065399 5291.0 
72.044563 15413.0 
72.081062 44771.0 
79.054512 37616.0 
79.704987 3281.0 
80.049728 114041.0 
81.033783 9166.0 
81.070107 51041.0 
82.065392 68875.0 
83.049263 5324.0 
83.085426 4512.0 
84.044662 45772.0 
84.081169 36943.0 
91.054321 32914.0 
92.37738 4394.0 
93.069939 60341.0 
94.065117 27994.0 
95.049507 5442.0 
95.085541 22550.0 
96.080467 16112.0 
97.06498 6538.0 
98.06012 4089.0 
98.096512 20050.0 
98.984192 45697.0 
100.075203 6901.0 
105.069687 24383.0 
106.064987 36713.0 
107.072891 5696.0 
107.085274 34581.0 
108.080673 120970.0 
109.064911 46887.0 
109.100983 9045.0 
110.060059 74645.0 
110.096367 380464.0 
111.080643 53587.0 
117.057381 6593.0 
117.069687 4706.0 
118.065224 38478.0 
119.085373 19784.0 
120.080627 59729.0 
122.096336 40126.0 
123.080482 6959.0 
124.112137 3969.0 
126.091072 43342.0 
127.07505 4121.0 
130.065109 67721.0 
131.072922 36750.0 
131.083481 5121.0 
132.080719 74262.0 
133.101074 21870.0 
134.096344 33661.0 
135.079987 7877.0 
136.075623 39583.0 
136.111969 23675.0 
138.091232 252950.0 
138.127106 4513.0 
139.075821 5458.0 
143.0728 8851.0 
143.085358 6051.0 
144.080704 737378.0 
145.076767 5844.0 
145.088287 28777.0 
145.101181 14885.0 
146.059875 22167.0 
146.084213 8387.0 
146.096283 142375.0 
147.080505 6417.0 
148.075241 12594.0 
148.112549 5486.0 
150.092239 5500.0 
150.127594 4550.0 
152.106979 20211.0 
154.086929 5212.0 
156.080704 8124.0 
156.102127 23320.0 
157.088348 59346.0 
158.096329 847632.0 
159.091599 6897.0 
160.075287 33818.0 
160.111267 25820.0 
162.091293 68182.0 
164.107315 38502.0 
166.121506 5273.0 
167.073029 26192.0 
168.080948 46942.0 
169.08812 38731.0 
170.096283 176256.0 
171.089813 5996.0 
171.104355 22194.0 
172.075409 60827.0 
172.098083 6559.0 
172.112274 101887.0 
173.084152 31215.0 
174.091003 88326.0 
174.991089 6041.0 
176.107681 8475.0 
178.122604 6493.0 
180.081055 15993.0 
180.100342 4388.0 
181.088242 37405.0 
182.096466 336225.0 
182.116577 31720.0 
183.088257 6881.0 
183.105621 47532.0 
184.111877 241117.0 
185.107437 56656.0 
186.091782 29024.0 
188.106613 16028.0 
194.096268 207711.0 
195.104263 58038.0 
196.077545 4683.0 
196.112122 113514.0 
197.083267 16214.0 
197.10524 7985.0 
198.091522 16063.0 
198.127762 21648.0 
199.098816 5265.0 
199.121353 6660.0 
200.106735 30382.0 
205.089218 14963.0 
206.096222 7975.0 
207.103714 9223.0 
208.111984 73339.0 
209.119522 24290.0 
210.093399 55467.0 
210.127441 335736.0 
211.099609 8395.0 
211.123535 16750.0 
212.106781 275089.0 
212.14386 20786.0 
212.796875 4927.0 
219.10582 7955.0 
220.111938 187719.0 
221.11972 8921.0 
222.128052 83004.0 
223.099808 10177.0 
223.134125 22057.0 
224.106277 23270.0 
224.14267 20575.0 
225.152069 5645.0 
226.122223 92261.0 
226.158478 42479.0 
228.137665 18082.0 
231.104004 4310.0 
232.112366 15480.0 
233.120102 6936.0 
234.128586 14072.0 
235.121216 56320.0 
236.105682 13398.0 
236.14328 39714.0 
237.114059 8506.0 
237.137802 154131.0 
238.122223 272429.0 
238.158432 75111.0 
239.153793 229258.0 
240.138596 22695.0 
245.119873 22646.0 
246.125946 4468.0 
247.12262 4804.0 
248.143219 31769.0 
250.122742 5610.0 
250.158813 7849.0 
252.13649 5316.0 
252.171875 7360.0 
254.15509 30827.0 
254.190796 7976.0 
255.148682 77771.0 
259.135864 7220.0 
261.139008 7280.0 
262.155945 23094.0 
263.154327 19653.0 
264.138367 30582.0 
264.17395 66588.0 
265.169891 15330.0 
266.154297 45629.0 
274.157288 41796.0 
276.16214 5809.0 
277.145172 4936.0 
280.169159 31949.0 
281.166962 5928.0 
281.201416 6996.0 
282.148499 4382.0 
282.184631 23050.0 
284.16391 14570.0 
291.185211 115496.0 
292.169006 66406.0 
307.181671 6714.0 
309.195557 179201.0 
310.178864 54893.0 
312.182495 7328.0 
327.206085 11681420.0 
328.746246 5293.0 
396.078552 4143.0 
END IONS

BEGIN IONS
PRECURSOR_MZ=404.119
INCHI=InChI=1S/C21H19N5O2S/c1-13-6-8-16(9-7-13)26-19-18(20(28)23-12-22-19)25-21(26)29-11-17(27)24-15-5-3-4-14(2)10-15/h3-10,12H,11H2,1-2H3,(H,24,27)(H,22,23,28)
SMILES=Cc1ccc(-n2c(SCC(O)=Nc3cccc(C)c3)nc3c(O)ncnc32)cc1
SCANS=20154
IONMODE=negative
COMPOUND_NAME=N-(3-methylphenyl)-2-[9-(4-methylphenyl)-6-oxohydropurin-8-ylthio]acetamide M-H
SPECTRUM_ID=CCMSLIB00006705495
56.41901 2719.0 
57.975159 128639.0 
64.66214 2981.0 
64.666603 2822.0 
65.014076 194926.0 
65.998154 100362.0 
68.013878 12636.0 
87.146477 2623.0 
92.025352 102055.0 
93.009262 5285.0 
95.979057 3036.0 
96.986298 4463.0 
118.651993 3291.0 
124.98056 3236.0 
131.061081 11465.0 
135.031662 5566.0 
136.21283 3093.0 
138.578125 2890.0 
144.033051 5936.0 
144.045486 143591.0 
144.058136 5358.0 
155.061523 1124925.0 
156.056641 28589.0 
157.972351 3282.0 
176.60231 2734.0 
178.033325 57214.0 
182.072052 70911.0 
187.03299 41924.0 
197.059341 77645.0 
198.068298 30407.0 
212.070618 6676.0 
214.044754 12726.0 
222.199966 3295.0 
223.062729 6119.0 
225.078186 986524.0 
228.023575 28845.0 
236.070007 18705.0 
238.087967 3929.0 
241.072784 17985.0 
255.034668 309305.0 
256.042419 405863.0 
257.050232 193387.0 
257.08194 3767.0 
264.065369 4078.0 
269.051514 31414.0 
271.065643 59538.0 
297.044769 55917.0 
330.136108 73532.0 
404.11853 491648.0 
END IONS

BEGIN IONS
PRECURSOR_MZ=327.086
INCHI=InChI=1S/C18H14O6/c1-22-15-7-10(3-5-13(15)19)8-16-17(20)12-9-11(18(21)23-2)4-6-14(12)24-16/h3-9,19H,1-2H3/b16-8-
SMILES=COC(=O)c1ccc2c(c1)C(=O)C(=Cc1ccc(O)c(OC)c1)O2
SCANS=18364
IONMODE=positive
COMPOUND_NAME=methyl 2-[(4-hydroxy-3-methoxyphenyl)methylene]-3-oxobenzo[b]furan-5-carboxyla te M+H
SPECTRUM_ID=CCMSLIB00006703705
53.039082 4601.0 
53.89735 2816.0 
58.66362 3108.0 
65.039001 4047.0 
67.054619 4219.0 
73.971008 4217.0 
78.046471 6234.0 
79.054558 4048.0 
81.567139 2958.0 
82.416008 3479.0 
89.038727 40184.0 
91.054512 23506.0 
95.049217 22373.0 
98.645203 2777.0 
98.98423 55278.0 
103.05442 23210.0 
104.309143 4119.0 
105.033569 28091.0 
105.069778 29108.0 
106.041359 6785.0 
107.049568 3407.0 
110.036087 3536.0 
117.033379 16072.0 
118.041168 5696.0 
119.012733 47664.0 
119.049057 7164.0 
121.028168 32458.0 
121.065323 22426.0 
123.043777 45703.0 
131.048813 5347.0 
133.028397 3930.0 
134.036194 676584.0 
135.044098 13683.0 
136.015717 36574.0 
136.242737 3843.0 
136.648071 3452.0 
137.023132 6980.0 
141.069183 7526.0 
143.976181 3332.0 
145.027924 6909.0 
148.051559 7615.0 
149.059845 31861.0 
150.031265 4129.0 
151.039032 61825.0 
152.061966 61747.0 
153.069656 7197.0 
155.048798 7396.0 
160.505112 3276.0 
161.023636 4274.0 
163.039261 6126.0 
165.01799 99846.0 
165.069962 65368.0 
166.07753 21850.0 
167.048553 4222.0 
167.085236 39199.0 
168.056793 33590.0 
169.064346 21915.0 
173.022781 13923.0 
174.991928 5936.0 
175.039383 17130.0 
177.069534 7451.0 
178.077988 29844.0 
179.033798 644927.0 
179.047928 28129.0 
179.084442 12083.0 
180.056839 37229.0 
181.064728 31281.0 
183.044312 5260.0 
183.080261 5198.0 
184.051697 7452.0 
188.523438 2887.0 
189.054535 19329.0 
192.056824 31106.0 
193.065155 15142.0 
194.072998 7762.0 
195.079788 41162.0 
196.035675 21311.0 
196.05336 35580.0 
197.042801 4912.0 
197.060089 68464.0 
202.062607 6501.0 
205.04892 91498.0 
207.043442 33270.0 
208.051849 88448.0 
209.060791 23330.0 
211.039383 6351.0 
211.075455 57284.0 
212.047012 39146.0 
212.083054 4588.0 
213.053848 7414.0 
218.05751 19652.0 
221.060135 7729.0 
222.06778 3310.0 
223.038986 19866.0 
223.075302 34581.0 
224.046326 39403.0 
225.054749 44297.0 
227.032928 3313.0 
227.06987 13622.0 
228.042023 4946.0 
228.077576 4182.0 
229.04866 6504.0 
235.038361 65245.0 
236.046844 52767.0 
237.053894 40078.0 
239.069931 233554.0 
240.041946 30281.0 
240.076645 23733.0 
241.049316 16591.0 
241.841217 3221.0 
243.065369 7087.0 
249.054352 7329.0 
250.063171 4261.0 
251.069336 7637.0 
252.040848 50224.0 
253.049286 60688.0 
255.06488 220740.0 
256.04007 11671.0 
256.072327 53093.0 
263.033722 15064.0 
265.048828 12963.0 
266.057159 83193.0 
267.064819 933480.0 
268.037109 78495.0 
268.073517 14650.0 
269.044098 5143.0 
270.052002 15181.0 
279.063995 6929.0 
280.037109 11893.0 
281.044495 102276.0 
281.078735 9401.0 
283.059662 39915.0 
284.031006 252648.0 
284.067169 88792.0 
286.045685 24888.0 
291.100708 3347.0 
294.051147 23680.0 
295.059753 863595.0 
298.048004 16884.0 
299.092529 3294.0 
309.075195 7300.0 
311.054565 558485.0 
312.062469 243404.0 
326.07254 4708.0 
327.085754 3453923.0 
328.309967 3645.0 
END IONS

BEGIN IONS
PRECURSOR_MZ=410.116
INCHI=InChI=1S/C24H18FNO3/c1-2-28-19-13-9-17(10-14-19)23(27)20(15-16-7-11-18(25)12-8-16)24-26-21-5-3-4-6-22(21)29-24/h3-15H,2H2,1H3/b20-15+
SMILES=CCOc1ccc(C(=O)C(=Cc2ccc(F)cc2)c2nc3ccccc3o2)cc1
SCANS=1025
IONMODE=positive
COMPOUND_NAME=(2Z)-2-benzoxazol-2-yl-1-(4-ethoxyphenyl)-3-(4-fluorophenyl)prop-2-en-1-one M+Na
SPECTRUM_ID=CCMSLIB00006686366
73.944778 43563.0 
76.020523 50952.0 
91.231567 48732.0 
92.367889 46648.0 
100.185226 48258.0 
113.434357 47772.0 
136.199493 59456.0 
147.005905 50344.0 
157.961212 48823.0 
179.656219 57638.0 
208.944473 64920.0 
208.961823 81998.0 
381.076477 119563.0 
394.084381 54885.0 
407.985046 59604.0 
409.109802 72264.0 
410.11557 173233696.0 
428.127045 414619.0 
END IONS

BEGIN IONS
PRECURSOR_MZ=427.209
INCHI=InChI=1S/C23H32O6/c1-13(24)29-12-19(27)23(28)9-7-17-16-5-4-14-10-15(25)6-8-21(14,2)20(16)18(26)11-22(17,23)3/h10,16-18,20,26,28H,4-9,11-12H2,1-3H3/t16-,17-,18-,20+,21-,22-,23-/m0/s1
SMILES=CC(=O)OCC(=O)C1(O)CCC2C3CCC4=CC(=O)CCC4(C)C3C(O)CC21C
SCANS=13768
IONMODE=positive
COMPOUND_NAME=50-03-3 M+Na
SPECTRUM_ID=CCMSLIB00006699109
50.43594 8418.0 
61.081779 8120.0 
71.147369 9388.0 
246.138153 8634.0 
288.138489 9208.0 
340.33197 8625.0 
427.208435 4429668.0 
445.215851 9133.0 
END IONS

BEGIN IONS
PRECURSOR_MZ=385.176
INCHI=InChI=1S/C21H24N2O5/c1-26-16-7-4-6-15(14-16)20(24)22-10-12-23(13-11-22)21(25)17-8-5-9-18(27-2)19(17)28-3/h4-9,14H,10-13H2,1-3H3
SMILES=COc1cccc(C(=O)N2CCN(C(=O)c3cccc(OC)c3OC)CC2)c1
SCANS=15837
IONMODE=positive
COMPOUND_NAME=2,3-dimethoxyphenyl 4-[(3-methoxyphenyl)carbonyl]piperazinyl ketone M+H
SPECTRUM_ID=CCMSLIB00006701178
50.01564 6213.0 
50.072369 3364.0 
51.02351 15773.0 
53.039059 48600.0 
55.01833 6755.0 
58.75214 3515.0 
59.941021 3722.0 
64.031181 4619.0 
65.039139 7927.0 
66.046722 17855.0 
68.026093 31992.0 
68.997612 5436.0 
77.03862 30038.0 
79.018204 20612.0 
79.054512 248010.0 
81.033836 32182.0 
81.070198 62156.0 
82.392647 3690.0 
83.049438 5172.0 
91.05442 20867.0 
91.061043 3722.0 
92.025757 79998.0 
94.041313 39559.0 
95.049294 103943.0 
104.280823 5227.0 
105.033836 27914.0 
105.044563 27846.0 
107.012268 25268.0 
107.049187 57887.0 
108.020576 16113.0 
109.028427 812440.0 
109.064774 160765.0 
109.073151 8185.0 
111.043892 7625.0 
113.336311 3731.0 
119.012787 18604.0 
121.028412 372002.0 
122.036186 1340828.0 
125.059608 200626.0 
133.028122 5439.0 
135.044037 744013.0 
135.054779 47393.0 
137.0233 374005.0 
137.035583 6012.0 
137.059174 28110.0 
143.192154 4336.0 
149.023193 24130.0 
150.031052 432926.0 
153.018051 4296.0 
165.054596 11448975.0 
165.605286 4331.0 
168.041504 521300.0 
183.064957 37244.0 
208.746674 7828.0 
210.112579 4792.0 
225.112381 5187.0 
385.174957 363235.0 
END IONS

BEGIN IONS
PRECURSOR_MZ=307.058
INCHI=InChI=1S/C16H12O5/c1-20-11-4-2-9(3-5-11)12-8-21-14-7-10(17)6-13(18)15(14)16(12)19/h2-8,17-18H,1H3
SMILES=COc1ccc(-c2coc3cc(O)cc(O)c3c2=O)cc1
SCANS=2044
IONMODE=positive
COMPOUND_NAME=biochanin A M+Na
SPECTRUM_ID=CCMSLIB00006687385
50.90472 2371.0 
67.675346 2359.0 
72.832237 2155.0 
73.942299 3109.0 
85.80806 2187.0 
91.19841 2392.0 
124.045914 2329.0 
129.927231 2374.0 
136.191986 3457.0 
225.222046 3354.0 
307.057343 783081.0 
307.187561 81280.0 
325.067322 9587.0 
END IONS

BEGIN IONS
PRECURSOR_MZ=433.057
INCHI=InChI=1S/C19H18BrFN2O/c1-11-3-8-16(21)17-15(12(2)23-18(11)17)9-10-22-19(24)13-4-6-14(20)7-5-13/h3-8,23H,9-10H2,1-2H3,(H,22,24)
SMILES=Cc1[nH]c2c(C)ccc(F)c2c1CCNC(=O)c1ccc(Br)cc1
SCANS=6340
IONMODE=negative
COMPOUND_NAME=(4-bromophenyl)-N-[2-(4-fluoro-2,7-dimethylindol-3-yl)ethyl]carboxamide M+formate
SPECTRUM_ID=CCMSLIB00006691681
55.732422 2352.0 
61.362862 2375.0 
92.398651 2516.0 
98.169518 2147.0 
107.738052 2524.0 
117.403763 2837.0 
131.200638 2188.0 
134.718338 2240.0 
144.415573 2232.0 
158.013397 2800.0 
169.179504 2240.0 
192.989304 4544.0 
197.956482 36825.0 
199.953842 9937.0 
227.806244 2514.0 
306.981323 9976.0 
326.990112 4088.0 
328.982697 4375.0 
335.790619 2982.0 
348.990112 2823.0 
366.979645 5723.0 
372.973999 3609.0 
387.051636 139037.0 
392.979797 18159.0 
412.984772 17819.0 
432.985748 70442.0 
END IONS

BEGIN IONS
PRECURSOR_MZ=350.089
INCHI=InChI=1S/C17H13N5O4/c1-21-13(23)11-14(22(2)16(21)25)26-12(19)9(7-18)17(11)8-5-3-4-6-10(8)20-15(17)24/h3-6H,19H2,1-2H3,(H,20,24)
SMILES=Cn1c2c(c(=O)n(C)c1=O)C1(C(O)=Nc3ccccc31)C(C#N)=C(N)O2
SCANS=23601
IONMODE=negative
COMPOUND_NAME=ST007035 M-H
SPECTRUM_ID=CCMSLIB00006708942
55.290958 2407.0 
65.014214 420685.0 
76.174828 2340.0 
76.869476 2367.0 
78.602547 2221.0 
80.916649 18572.0 
86.636581 2664.0 
105.021828 9271.0 
117.473022 2664.0 
118.658241 3367.0 
120.723717 2358.0 
136.817429 2268.0 
142.029617 38832.0 
148.321091 2341.0 
156.032761 40063.0 
157.973999 2633.0 
170.024704 85296.0 
171.056183 56659.0 
199.051071 65004.0 
256.072937 38593.0 
265.884033 2446.0 
284.067657 200890.0 
316.953217 2824.0 
319.974792 10600.0 
333.989502 2781.0 
350.022522 42487.0 
350.085693 10867.0 
END IONS

BEGIN IONS
PRECURSOR_MZ=501.224
INCHI=InChI=1S/C26H34N2O8/c1-31-19-11-15(12-20(32-2)23(19)35-5)25(29)27-17-9-7-8-10-18(17)28-26(30)16-13-21(33-3)24(36-6)22(14-16)34-4/h11-14,17-18H,7-10H2,1-6H3,(H,27,29)(H,28,30)
SMILES=COc1cc(C(O)=NC2CCCCC2N=C(O)c2cc(OC)c(OC)c(OC)c2)cc(OC)c1OC
SCANS=15999
IONMODE=negative
COMPOUND_NAME=(3,4,5-trimethoxyphenyl)-N-{2-[(3,4,5-trimethoxyphenyl)carbonylamino]cyclohexy l}carboxamide M-H
SPECTRUM_ID=CCMSLIB00006701340
60.547951 3592.0 
65.002922 7148.0 
66.755608 4312.0 
81.034157 6069.0 
82.413254 3678.0 
95.013847 6731.0 
97.02919 18848.0 
104.302673 3568.0 
109.029228 19793.0 
110.000801 21892.0 
112.987892 5336.0 
120.009018 17911.0 
120.99276 7175.0 
123.008278 12705.0 
124.016571 16441.0 
125.024246 23420.0 
125.995728 26254.0 
137.024323 85639.0 
137.995544 31229.0 
138.032394 20851.0 
139.003647 7948.0 
139.039856 7871.0 
140.011108 4057.0 
141.019165 13540.0 
148.004807 3320.0 
149.024399 17465.0 
151.040024 12684.0 
153.019272 76699.0 
153.056168 28038.0 
153.990616 15910.0 
155.034653 17262.0 
160.3983 3546.0 
163.027161 4398.0 
163.998642 25996.0 
164.035416 6649.0 
164.047897 138410.0 
166.014496 66622.0 
166.028885 4590.0 
166.050385 4085.0 
167.022461 7121.0 
168.04245 13772.0 
178.013321 12993.0 
178.05101 5618.0 
179.071289 267866.0 
180.029877 17212.0 
181.037949 156474.0 
191.022415 4069.0 
192.030273 62403.0 
193.03804 6621.0 
194.045837 6656.0 
195.053787 29948.0 
196.061295 46214.0 
204.030655 3826.0 
205.038101 6304.0 
206.045105 16849.0 
207.053665 67162.0 
208.061584 23811.0 
210.054337 6937.0 
210.077148 216252.0 
211.521713 4650.0 
217.075073 6509.0 
218.046539 7729.0 
219.054565 4667.0 
220.058853 4240.0 
221.070511 3991.0 
222.077408 26454.0 
228.0672 15531.0 
231.052734 4851.0 
232.062317 6557.0 
232.097961 20877.0 
233.06955 14585.0 
242.082092 5107.0 
244.06015 8249.0 
244.085785 4376.0 
245.068924 30130.0 
246.078232 34321.0 
246.112946 30913.0 
259.083282 7900.0 
260.092041 14358.0 
261.089874 33164.0 
274.109467 5420.0 
275.115234 21316.0 
276.109955 34093.0 
290.140778 26737.0 
291.13623 13061.0 
333.145813 16131.0 
455.148956 4754.0 
456.153534 6095.0 
471.177429 19939.0 
486.200378 99886.0 
501.224609 4883851.0 
END IONS

BEGIN IONS
PRECURSOR_MZ=362.017
INCHI=InChI=1S/C16H11ClFN3O2S/c17-11-7-9(5-6-12(11)18)19-14(22)8-24-16-20-13-4-2-1-3-10(13)15(23)21-16/h1-7H,8H2,(H,19,22)(H,20,21,23)
SMILES=OC(CSc1nc(O)c2ccccc2n1)=Nc1ccc(F)c(Cl)c1
SCANS=7702
IONMODE=negative
COMPOUND_NAME=N-(3-chloro-4-fluorophenyl)-2-(4-hydroxyquinazolin-2-ylthio)acetamide M-H
SPECTRUM_ID=CCMSLIB00006693043
57.975208 5635.0 
80.719063 2572.0 
136.216171 2635.0 
144.001938 4577.0 
145.04068 16336.0 
161.035812 12958.0 
167.372574 2865.0 
168.997086 43307.0 
177.012787 125525.0 
181.143616 2831.0 
189.013382 22864.0 
191.028366 80162.0 
217.007889 95537.0 
288.034882 1914431.0 
362.017426 404233.0 
362.575287 2924.0 
END IONS

BEGIN IONS
PRECURSOR_MZ=373.128
INCHI=InChI=1S/C20H20O7/c1-22-13-7-6-11(8-15(13)23-2)14-9-12(21)18-16(27-14)10-17(24-3)19(25-4)20(18)26-5/h6-10H,1-5H3
SMILES=COc1ccc(-c2cc(=O)c3c(OC)c(OC)c(OC)cc3o2)cc1OC
SCANS=2396
IONMODE=positive
COMPOUND_NAME=Sinensetin M+H
SPECTRUM_ID=CCMSLIB00006687737
57.59341 4163.0 
59.240429 3264.0 
62.316269 4805.0 
73.766724 3684.0 
118.706596 3430.0 
119.829437 4384.0 
151.038956 81344.0 
162.067764 30057.0 
165.054871 14444.0 
179.033325 7510.0 
203.032425 4266.0 
268.070557 13135.0 
269.079895 43122.0 
281.080353 15694.0 
283.060394 14062.0 
283.095734 90340.0 
284.103485 22091.0 
287.089539 6985.0 
294.088684 4421.0 
296.067413 25044.0 
297.075531 123639.0 
298.082001 4702.0 
299.056244 4874.0 
299.090668 35952.0 
310.082672 24891.0 
311.05957 7894.0 
311.090271 261759.0 
312.09845 796495.0 
313.069733 26268.0 
313.105316 6400.0 
314.078308 51769.0 
315.08551 129155.0 
325.070953 34290.0 
327.085632 1046140.0 
328.057037 25629.0 
328.093933 9052.0 
329.101074 932813.0 
330.073212 7138.0 
339.085419 372293.0 
340.093353 367038.0 
341.064087 20593.0 
341.102264 174670.0 
342.071503 24693.0 
342.110413 14376.0 
343.080414 2373405.0 
344.091125 29017.0 
355.079834 7041.0 
357.095886 947849.0 
358.103973 472001.0 
361.398865 4484.0 
371.266144 7673.0 
373.127258 15006243.0 
375.001892 6128.0 
END IONS

BEGIN IONS
PRECURSOR_MZ=377.118
INCHI=InChI=1S/C19H16N6OS/c20-8-11-7-13-15(21)16(27-19(13)25-17(11)22)18(26)23-6-5-10-9-24-14-4-2-1-3-12(10)14/h1-4,7,9,24H,5-6,21H2,(H2,22,25)(H,23,26)
SMILES=N#Cc1cc2c(N)c(C(=O)NCCc3c[nH]c4ccccc34)sc2[nH]c1=N
SCANS=6415
IONMODE=positive
COMPOUND_NAME=(3,6-diamino-5-cyanothiopheno[2,3-b]pyridin-2-yl)-N-(2-indol-3-ylethyl)carboxa mide M+H
SPECTRUM_ID=CCMSLIB00006691756
82.399452 3589.0 
88.832397 3360.0 
92.380852 3936.0 
93.537537 2997.0 
104.2826 3556.0 
115.871422 3697.0 
117.07 16976.0 
118.653091 3218.0 
121.921257 3297.0 
143.073044 36418.0 
144.08078 4137144.0 
155.058563 3577.0 
161.107254 2323950.0 
162.333588 3380.0 
177.022598 35234.0 
189.022812 655088.0 
207.032135 4789.0 
217.0177 1040163.0 
331.972351 21949.0 
359.109222 3406.0 
376.957031 74017.0 
377.116455 49090.0 
377.193054 4246.0 
END IONS

BEGIN IONS
PRECURSOR_MZ=336.099
INCHI=InChI=1S/C21H15NO2/c23-20-17-13-7-8-14-18(17)22(16-11-5-2-6-12-16)21(24)19(20)15-9-3-1-4-10-15/h1-14,23H
SMILES=O=c1c(-c2ccccc2)c(O)c2ccccc2n1-c1ccccc1
SCANS=4757
IONMODE=positive
COMPOUND_NAME=4-hydroxy-1,3-diphenylhydroquinolin-2-one M+Na
SPECTRUM_ID=CCMSLIB00006690098
82.387688 3671.0 
92.36097 3121.0 
102.091072 4204.0 
118.63829 4123.0 
123.1166 5951.0 
143.094543 3086.0 
193.13913 3944.0 
283.261932 4924.0 
302.895172 5471.0 
336.09906 3845626.0 
354.10907 21007.0 
END IONS

BEGIN IONS
PRECURSOR_MZ=464.088
INCHI=InChI=1S/C17H17N5O6S/c23-5-11-13(24)14(25)17(28-11)21-8-20-12-15(21)18-7-19-16(12)29-6-9-1-3-10(4-2-9)22(26)27/h1-4,7-8,11,13-14,17,23-25H,5-6H2
SMILES=O=[N+]([O-])c1ccc(CSc2ncnc3c2ncn3C2OC(CO)C(O)C2O)cc1
SCANS=7699
IONMODE=negative
COMPOUND_NAME=2-(hydroxymethyl)-5-{6-[(4-nitrophenyl)methylthio]purin-9-yl}oxolane-3,4-diol M+formate
SPECTRUM_ID=CCMSLIB00006693040
57.795158 2697.0 
82.407051 4273.0 
86.454391 3075.0 
92.386276 3126.0 
104.295341 3820.0 
144.125275 2926.0 
150.000412 295705.0 
150.954346 2608.0 
165.347702 2862.0 
227.058731 12113.0 
228.631088 2737.0 
240.047974 5915.0 
252.053818 13225.0 
253.060593 256846.0 
277.558594 3025.0 
286.040619 2786662.0 
418.07962 24846.0 
464.087982 145796.0 
END IONS

BEGIN IONS
PRECURSOR_MZ=144.067
INCHI=InChI=1S/C6H11NO3/c1-5(8)7-4-2-3-6(9)10/h2-4H2,1H3,(H,7,8)(H,9,10)
SMILES=CC(O)=NCCCC(=O)O
SCANS=21308
IONMODE=negative
COMPOUND_NAME=4-Acetamidobutyric acid M-H
SPECTRUM_ID=CCMSLIB00006706649
58.029301 1237666.0 
82.399246 37758.0 
83.56601 40541.0 
84.045227 229448.0 
92.377792 58667.0 
94.660751 37275.0 
98.060913 163375.0 
100.076736 2047787.0 
102.056023 3151916.0 
104.28553 47972.0 
126.056122 424820.0 
133.983459 40082.0 
144.06636 783346.0 
149.455322 42194.0 
157.274734 40706.0 
END IONS

BEGIN IONS
PRECURSOR_MZ=346.119
INCHI=InChI=1S/C20H15N3O3/c1-11-18-14(12-6-2-4-8-15(12)22-18)10-17(21-11)19(24)23-16-9-5-3-7-13(16)20(25)26/h2-10,22H,1H3,(H,23,24)(H,25,26)
SMILES=Cc1nc(C(=O)Nc2ccccc2C(=O)O)cc2c1[nH]c1ccccc12
SCANS=3903
IONMODE=positive
COMPOUND_NAME=2-[(1-methylbeta-carbolin-3-yl)carbonylamino]benzoic acid M+H
SPECTRUM_ID=CCMSLIB00006689244
58.81665 3341.0 
70.866226 3344.0 
77.400917 3802.0 
98.666313 3700.0 
101.747513 3941.0 
104.276947 4994.0 
120.044312 493526.0 
136.191956 5041.0 
145.862823 3582.0 
181.04895 4252.0 
181.075241 149142.0 
182.084503 5098.0 
199.086411 4625707.0 
201.090317 6683.0 
209.070511 94537.0 
212.055298 3828.0 
222.102509 35969.0 
227.081238 6004368.0 
229.08432 5768.0 
304.148529 27178.0 
305.152069 142202.0 
313.150574 14788.0 
328.107513 497787.0 
344.463104 4050.0 
345.109222 5519.0 
346.118011 7761583.0 
347.784241 5447.0 
530.602173 4151.0 
583.2099 4805.0 
END IONS

BEGIN IONS
PRECURSOR_MZ=498.133
INCHI=InChI=1S/C25H24ClNO5/c1-16-23(25(29)32-14-13-30-2)19-15-21(28)17-7-3-4-8-18(17)24(19)27(16)11-12-31-22-10-6-5-9-20(22)26/h3-10,15,28H,11-14H2,1-2H3
SMILES=COCCOC(=O)c1c(C)n(CCOc2ccccc2Cl)c2c1cc(O)c1ccccc12
SCANS=21066
IONMODE=negative
COMPOUND_NAME=2-methoxyethyl 1-[2-(2-chlorophenoxy)ethyl]-5-hydroxy-2-methylbenzo[g]indole-3 -carboxylate M+formate
SPECTRUM_ID=CCMSLIB00006706407
86.829323 2597.0 
92.392792 3326.0 
95.01368 4071.0 
126.995583 13053.0 
137.353653 2711.0 
184.204086 2577.0 
194.061234 4256.0 
195.068619 3389.0 
254.282883 2570.0 
260.847443 2744.0 
297.101562 24623.0 
303.24173 16588.0 
410.568054 2612.0 
452.128113 23952.0 
460.062164 13393.0 
462.061035 15322.0 
END IONS

BEGIN IONS
PRECURSOR_MZ=555.297
INCHI=InChI=1S/C33H38N4O4/c1-4-41-33(38)27-20-25-24-9-5-6-10-26(24)34-32(25)31(35-27)22-13-14-29(39-2)23(19-22)21-36-15-17-37(18-16-36)28-11-7-8-12-30(28)40-3/h5-14,19,27,31,34-35H,4,15-18,20-21H2,1-3H3
SMILES=CCOC(=O)C1Cc2c([nH]c3ccccc23)C(c2ccc(OC)c(CN3CCN(c4ccccc4OC)CC3)c2)N1
SCANS=8062
IONMODE=positive
COMPOUND_NAME=ethyl 1-(4-methoxy-3-{[4-(2-methoxyphenyl)piperazinyl]methyl}phenyl)-1,2,3,4-t etrahydrobeta-carboline-3-carboxylate M+H
SPECTRUM_ID=CCMSLIB00006693403
59.20393 3171.0 
71.987839 3315.0 
86.355049 3460.0 
95.049057 8499.0 
102.054131 7233.0 
105.069458 8169.0 
121.064369 7847.0 
130.064896 34927.0 
135.080673 33273.0 
136.075546 32393.0 
137.219223 3678.0 
142.064301 17668.0 
144.080643 122299.0 
148.062698 5561.0 
148.075424 87320.0 
150.091248 35057.0 
150.203949 3790.0 
157.976151 4148.0 
160.074936 13757.0 
162.090836 6621.0 
163.085999 20610.0 
169.075821 80985.0 
170.059814 40823.0 
172.197968 3710.0 
174.09166 6793.0 
182.059402 5767.0 
185.06958 17536.0 
190.110031 72199.0 
191.117569 274486.0 
192.064987 17975.0 
192.124023 4352.0 
195.055969 4083.0 
195.372147 3723.0 
200.068939 4809.0 
204.064713 13620.0 
213.065567 89462.0 
216.101395 14804.0 
217.088425 39822.0 
218.097351 32422.0 
219.1035 15884.0 
220.093185 26886.0 
230.096359 82731.0 
231.103958 183401.0 
232.074463 5890.0 
232.113708 54496.0 
233.082687 17896.0 
234.128387 46099.0 
241.096481 69359.0 
243.11203 27407.0 
244.11116 15573.0 
246.088745 7679.0 
246.113876 7289.0 
247.098709 370596.0 
248.106705 223398.0 
248.136368 5167.0 
250.122711 14249.0 
257.10672 20438.0 
258.114624 14699.0 
259.122711 8942.0 
260.106262 168128.0 
261.115479 26437.0 
262.122223 458706.0 
263.116425 57542.0 
264.137695 133589.0 
272.106323 50492.0 
273.113983 17332.0 
274.110016 28201.0 
275.117157 25313.0 
276.124664 7122.0 
285.103149 8388.0 
286.219757 4055.0 
287.117645 13711.0 
288.098206 33430.0 
289.132965 630600.0 
290.111359 6421.0 
290.142059 19490.0 
291.113556 7208.0 
291.148621 170701.0 
317.128815 56771.0 
318.110657 14147.0 
319.143127 4982.0 
323.177277 5911.0 
334.139984 14188.0 
335.137421 45076.0 
346.144684 44524.0 
361.155701 4528.0 
362.162292 6604.0 
363.169617 730858.0 
365.184204 17183.0 
381.175415 7660.0 
395.163635 4892.0 
454.24826 379723.0 
555.295959 5852272.0 
END IONS

BEGIN IONS
PRECURSOR_MZ=262.071
INCHI=InChI=1S/C13H11NO5/c1-2-14-5-8(13(16)17)12(15)7-3-10-11(4-9(7)14)19-6-18-10/h3-5H,2,6H2,1H3,(H,16,17)
SMILES=CCn1cc(C(=O)O)c(=O)c2cc3c(cc21)OCO3
SCANS=13254
IONMODE=positive
COMPOUND_NAME=oxolinic acid M+H
SPECTRUM_ID=CCMSLIB00006698595
52.93425 70839.0 
74.805367 67344.0 
79.05407 88779.0 
82.409554 71061.0 
104.049637 74801.0 
106.028168 92205.0 
106.065369 78497.0 
115.054001 173840.0 
118.064911 2791016.0 
130.06488 3756036.0 
130.075821 144215.0 
132.080032 371292.0 
133.02861 97558.0 
136.039307 90663.0 
137.022476 99426.0 
138.992752 82418.0 
142.064606 1401315.0 
143.049011 163558.0 
146.059738 3127860.0 
148.038986 5376325.0 
149.02301 102461.0 
158.023773 1320553.0 
158.059799 9331123.0 
160.023727 172139.0 
160.039093 4849632.0 
160.074554 162658.0 
163.025665 88343.0 
170.059677 1326264.0 
172.038956 4202567.0 
174.054428 298293.0 
176.033783 1206831.0 
176.070251 2639441.0 
177.041565 96563.0 
186.054596 2105945.0 
187.025955 801396.0 
187.042862 100413.0 
187.062302 869050.0 
188.034012 4797216.0 
188.070175 3111709.0 
190.048676 108840.0 
198.05365 81656.0 
200.07019 4240881.0 
201.041504 2260560.0 
212.509735 91653.0 
214.014236 575503.0 
214.048569 352363.0 
215.020767 4147844.0 
216.028503 10335829.0 
216.064987 9855379.0 
217.075165 90198.0 
229.036652 2213032.0 
232.059738 155206.0 
233.031464 2099319.0 
234.039169 26098520.0 
242.043564 317919.0 
244.059921 66643244.0 
247.046936 149315.0 
262.070465 312897536.0 
264.073425 402274.0 
END IONS

BEGIN IONS
PRECURSOR_MZ=489.203
INCHI=InChI=1S/C27H28N2O4/c1-18-22(13-14-28-27(30)20-9-12-25(31-2)26(15-20)32-3)23-16-21(10-11-24(23)29-18)33-17-19-7-5-4-6-8-19/h4-12,15-16,29H,13-14,17H2,1-3H3,(H,28,30)
SMILES=COc1ccc(C(O)=NCCc2c(C)[nH]c3ccc(OCc4ccccc4)cc23)cc1OC
SCANS=18864
IONMODE=negative
COMPOUND_NAME=(3,4-dimethoxyphenyl)-N-{2-[2-methyl-5-(phenylmethoxy)indol-3-yl]ethyl}carboxa mide M+formate
SPECTRUM_ID=CCMSLIB00006704205
50.27216 2438.0 
66.76001 2922.0 
72.742027 2494.0 
79.988968 2503.0 
90.673576 2492.0 
92.995483 2671.0 
120.961761 11976.0 
121.260963 3102.0 
144.04541 26666.0 
145.052994 2677.0 
148.956406 38570.0 
158.06105 133535.0 
159.068649 9938.0 
162.054581 3197.0 
171.069839 4497.0 
173.048187 14489.0 
177.771637 2953.0 
178.051102 4486.0 
180.067474 3907.0 
188.0354 5279.0 
216.943268 3655.0 
281.15329 3461.0 
284.931091 17699.0 
288.557648 3010.0 
352.142731 445510.0 
443.197235 165044.0 
443.266357 5838.0 
END IONS

BEGIN IONS
PRECURSOR_MZ=431.098
INCHI=InChI=1S/C21H20O10/c22-8-16-18(26)19(27)20(28)21(31-16)29-11-5-12(24)17-13(25)7-14(30-15(17)6-11)9-1-3-10(23)4-2-9/h1-7,16,18-24,26-28H,8H2/t16-,18+,19+,20-,21-/m1/s1
SMILES=O=c1cc(-c2ccc(O)cc2)oc2cc(OC3OC(CO)C(O)C(O)C3O)cc(O)c12
SCANS=9432
IONMODE=negative
COMPOUND_NAME=Cosmosiine M-H
SPECTRUM_ID=CCMSLIB00006694773
55.0037 4751.0 
60.991501 4401.0 
72.309402 3918.0 
73.967781 4660.0 
79.677567 4324.0 
83.795097 6317.0 
111.587601 4482.0 
117.034859 17237.0 
125.026131 4859.0 
149.024185 43805.0 
151.003174 41087.0 
193.013519 6108.0 
201.055069 17375.0 
208.01091 15095.0 
220.679352 6215.0 
225.055252 29025.0 
240.042175 11218.0 
253.049835 8189.0 
267.030609 17867.0 
268.03772 8753932.0 
269.045471 3210667.0 
281.04538 31611.0 
283.060883 70414.0 
311.055847 178294.0 
323.057495 25465.0 
341.069489 32840.0 
428.759064 11861.0 
431.098206 21307926.0 
432.098907 10728.0 
433.457184 10357.0 
END IONS

BEGIN IONS
PRECURSOR_MZ=436.08
INCHI=InChI=1S/C19H18ClNO6/c1-9(2)25-19(24)15-14(10-3-5-11(20)6-4-10)17-16(27-18(15)21)13(23)7-12(8-22)26-17/h3-7,9,14,22H,8,21H2,1-2H3
SMILES=CC(C)OC(=O)C1=C(N)Oc2c(oc(CO)cc2=O)C1c1ccc(Cl)cc1
SCANS=7908
IONMODE=negative
COMPOUND_NAME=methylethyl 2-amino-4-(4-chlorophenyl)-6-(hydroxymethyl)-8-oxo-4H-pyrano[3,2-b ]pyran-3-carboxylate M+formate
SPECTRUM_ID=CCMSLIB00006693249
53.140171 2732.0 
63.20895 2087.0 
65.998207 39147.0 
73.948143 2895.0 
82.395668 2945.0 
87.64196 2630.0 
100.957428 2331.0 
104.282387 2482.0 
126.05616 193190.0 
128.034058 2589.0 
141.019821 24909.0 
175.035629 2391.0 
208.657181 5159.0 
390.075592 58054.0 
END IONS

BEGIN IONS
PRECURSOR_MZ=396.1
INCHI=InChI=1S/C22H18ClNO4/c23-16-2-6-18(7-3-16)28-19-8-4-17(5-9-19)24-12-11-20(25)15-1-10-21-22(13-15)27-14-26-21/h1-10,13,24H,11-12,14H2
SMILES=O=C(CCNc1ccc(Oc2ccc(Cl)cc2)cc1)c1ccc2c(c1)OCO2
SCANS=13436
IONMODE=positive
COMPOUND_NAME=1-(2H-benzo[d]1,3-dioxolen-5-yl)-3-{[4-(4-chlorophenoxy)phenyl]amino}propan-1- one M+H
SPECTRUM_ID=CCMSLIB00006698777
53.03907 14527.0 
55.018372 3413.0 
60.53677 3058.0 
65.038986 69102.0 
78.046547 16652.0 
92.049568 39593.0 
92.378067 4455.0 
93.033707 27343.0 
95.049263 7775.0 
98.999481 53386.0 
100.005417 3092.0 
104.041161 5231.0 
104.049347 322790.0 
105.057243 682065.0 
111.044113 45990.0 
112.007683 4363.0 
120.044449 12864.0 
121.051826 7019.0 
125.014923 7142.0 
126.994377 125111.0 
134.061462 3755.0 
137.046997 212618.0 
141.069824 38000.0 
149.023453 55908.0 
152.061569 37986.0 
164.045959 4065.0 
164.642166 2954.0 
165.054489 87924.0 
168.020554 4431.0 
168.056793 48735.0 
168.080811 5577.0 
169.064438 27404.0 
169.089279 4562.0 
170.072052 56826.0 
172.73259 3157.0 
175.031738 23546.0 
176.038177 20041.0 
176.517776 3379.0 
196.075394 34218.0 
197.08223 24695.0 
204.033371 119721.0 
204.054749 4799.0 
230.036804 6448.0 
231.043686 6524.0 
232.052002 8123180.0 
233.055618 25597.0 
266.683716 4783.0 
273.079468 5263.0 
396.09491 31869.0 
END IONS

BEGIN IONS
PRECURSOR_MZ=337.142
INCHI=InChI=1S/C17H18N6O2/c1-4-11-12(10-8-6-5-7-9-10)19-20-16-18-14-13(23(11)16)15(24)22(3)17(25)21(14)2/h5-9,11H,4H2,1-3H3,(H,18,20)
SMILES=CCC1C(c2ccccc2)=NNc2nc3c(c(=O)n(C)c(=O)n3C)n21
SCANS=17205
IONMODE=negative
COMPOUND_NAME=4-ethyl-7,9-dimethyl-3-phenyl-5,7,9-trihydro-1H,4H-1,2,4-triazino[4,3-h]purine -6,8-dione M-H
SPECTRUM_ID=CCMSLIB00006702546
52.916 2587.0 
53.668991 2710.0 
66.009407 29322.0 
66.741867 2469.0 
73.95356 3148.0 
81.045631 5280.0 
88.039177 2351.0 
92.375603 3067.0 
94.004402 2608.0 
107.036423 16190.0 
118.647163 3150.0 
118.655647 3015.0 
121.015747 16046.0 
136.0392 287695.0 
137.022766 6382.0 
149.083694 14900.0 
172.887329 9599.0 
177.078384 29317.0 
178.037186 369858.0 
193.060638 1360842.0 
194.044479 2982.0 
194.067505 2675.0 
200.881653 5195.0 
201.364105 2871.0 
204.053055 40746.0 
204.989273 3261.0 
209.787384 5365.0 
218.068176 20505.0 
219.076263 92107.0 
222.136307 2567.0 
234.099731 356045.0 
236.057922 4028.0 
279.085602 3032.0 
293.079285 13682.0 
308.102417 5270.0 
310.951233 2558.0 
316.984253 3313.0 
337.141998 629162.0 
342.250885 2496.0 
END IONS

BEGIN IONS
PRECURSOR_MZ=285.076
INCHI=InChI=1S/C16H12O5/c1-20-11-6-12(18)16-13(19)8-14(21-15(16)7-11)9-2-4-10(17)5-3-9/h2-8,17-18H,1H3
SMILES=COc1cc(O)c2c(=O)cc(-c3ccc(O)cc3)oc2c1
SCANS=16936
IONMODE=positive
COMPOUND_NAME=Genkwanin M+H
SPECTRUM_ID=CCMSLIB00006702277
57.034 6870.0 
60.53228 3682.0 
63.297581 3519.0 
65.038727 4770.0 
67.018097 61768.0 
68.682373 4390.0 
68.99752 18705.0 
71.049652 3535.0 
78.715797 3620.0 
81.033661 32151.0 
83.012741 5313.0 
84.959877 4317.0 
91.054237 56927.0 
99.043854 21881.0 
103.293091 3077.0 
105.436012 3723.0 
111.044487 5809.0 
119.049049 273426.0 
120.056847 46815.0 
121.028267 94054.0 
124.015343 238875.0 
125.023392 4306.0 
129.995285 3428.0 
137.048279 4261.0 
139.038498 7610.0 
141.054581 17376.0 
141.069962 5475.0 
145.015427 5811.0 
145.02829 159929.0 
147.043808 3967.0 
149.022522 4592.0 
157.064026 4354.0 
160.051056 29682.0 
163.038589 6004.0 
167.033661 784237.0 
168.056839 20122.0 
169.064972 28505.0 
171.042923 5050.0 
176.046417 7878.0 
184.050812 8415.0 
185.044006 108255.0 
185.059967 17410.0 
186.067627 38398.0 
187.038712 114854.0 
196.051483 55229.0 
197.059219 189079.0 
197.079987 7192.0 
200.046051 4736.0 
213.054214 145709.0 
214.062225 26134.0 
217.084045 6140.0 
224.047379 30173.0 
225.054153 97610.0 
228.039917 5502.0 
229.048599 5274.0 
240.231766 14301.0 
241.049149 26795.0 
242.056854 3590472.0 
243.063614 26155.0 
253.048843 20580.0 
257.08017 41193.0 
270.051697 1697659.0 
283.831268 4827.0 
285.075134 11443958.0 
299.542328 4047.0 
END IONS

BEGIN IONS
PRECURSOR_MZ=615.202
INCHI=InChI=1S/C19H16O4/c20-16-7-1-14(2-8-16)5-11-18(22)13-19(23)12-6-15-3-9-17(21)10-4-15/h1-12,20-21H,13H2/b11-5+,12-6+
SMILES=O=C(C=Cc1ccc(O)cc1)CC(=O)C=Cc1ccc(O)cc1
SCANS=6576
IONMODE=negative
COMPOUND_NAME=Bisdemethoxycurcumin 2M-H
SPECTRUM_ID=CCMSLIB00006691917
83.022308 2683.0 
93.818222 2933.0 
101.120811 2684.0 
104.307289 2905.0 
119.049896 30962.0 
143.049744 15654.0 
145.029449 47221.0 
187.040405 23838.0 
197.059372 3310.0 
199.077164 3401.0 
211.076523 6838.0 
215.071899 24402.0 
241.051346 17428.0 
251.071915 15014.0 
283.061798 11912.0 
289.087921 4318.0 
307.097229 31981.0 
349.107971 27629.0 
361.108276 15676.0 
398.069122 3375.0 
403.11911 6535.0 
449.187683 3078.0 
451.153442 26114.0 
453.13443 6507.0 
495.145569 25666.0 
615.203247 98505.0 
END IONS

BEGIN IONS
PRECURSOR_MZ=341.094
INCHI=InChI=1S/C20H17ClO3/c21-17-10-16-14-8-4-5-9-15(14)20(22)24-18(16)11-19(17)23-12-13-6-2-1-3-7-13/h1-3,6-7,10-11H,4-5,8-9,12H2
SMILES=O=c1oc2cc(OCc3ccccc3)c(Cl)cc2c2c1CCCC2
SCANS=8617
IONMODE=positive
COMPOUND_NAME=2-chloro-3-(phenylmethoxy)-7,8,9,10-tetrahydrobenzo[2,1-c]chromen-6-one M+H
SPECTRUM_ID=CCMSLIB00006693958
54.882938 3427.0 
65.039032 27051.0 
73.944618 2902.0 
79.952377 2726.0 
83.410301 3041.0 
84.037743 2809.0 
91.054352 2691020.0 
92.057327 5671.0 
120.102493 3107.0 
178.128677 2960.0 
220.744553 2992.0 
235.051315 5890.0 
249.029663 20382.0 
250.038666 100006.0 
263.046875 6932.0 
323.278229 5353.0 
341.093323 4400773.0 
353.869995 3242.0 
END IONS

BEGIN IONS
PRECURSOR_MZ=246.185
INCHI=InChI=1S/C16H23NO/c18-16-9-5-4-8-14(16)15(17-11-10-16)12-13-6-2-1-3-7-13/h1-3,6-7,14-15,17-18H,4-5,8-12H2
SMILES=OC12CCCCC1C(Cc1ccccc1)NCC2
SCANS=12703
IONMODE=positive
COMPOUND_NAME=5-benzyl-4-azabicyclo[4.4.0]decan-1-ol M+H
SPECTRUM_ID=CCMSLIB00006698044
50.761379 11526.0 
53.039211 9225.0 
55.054771 112845.0 
62.736359 10944.0 
65.039124 294452.0 
65.510094 8652.0 
67.054718 18291282.0 
69.070343 788716.0 
71.326813 9711.0 
73.942863 13033.0 
79.054527 222228.0 
80.050247 14124.0 
81.070229 2102427.0 
82.065514 17502.0 
83.073334 173277.0 
83.085854 110317.0 
90.941032 9513.0 
91.054413 645832.0 
92.365509 10052.0 
93.069977 66194.0 
94.065536 38371.0 
94.077698 17004.0 
95.073189 125936.0 
95.085663 172224.0 
103.054314 86014.0 
104.049828 11017.0 
104.601601 9075.0 
104.95417 10303.0 
105.069977 1628531.0 
107.085541 345024.0 
108.080841 760230.0 
108.093361 25053.0 
109.088013 384443.0 
109.10128 13162426.0 
111.116837 157380.0 
115.054062 83061.0 
117.057404 224972.0 
117.069946 291062.0 
118.064934 20070.0 
118.637177 12912.0 
119.085678 68975.0 
120.080856 4015393.0 
121.101562 10711.0 
122.096283 97685.0 
124.112473 108919.0 
129.069855 329655.0 
130.06514 127899.0 
131.08551 104729.0 
132.080856 3742367.0 
134.096527 817910.0 
136.112183 3121913.0 
137.119995 6367419.0 
141.070175 43550.0 
143.086075 145247.0 
146.096512 301524.0 
155.086273 14785.0 
157.101074 19141.0 
183.117126 46057.0 
199.1474 98571.0 
200.143021 141514.0 
226.159012 18150.0 
228.174683 32826674.0 
246.185196 16105144.0 
250.458405 12124.0 
END IONS

BEGIN IONS
PRECURSOR_MZ=482.295
INCHI=InChI=1S/C26H45NO5S/c1-17(4-9-24(29)27-14-15-33(30,31)32)21-7-8-22-20-6-5-18-16-19(28)10-12-25(18,2)23(20)11-13-26(21,22)3/h17-23,28H,4-16H2,1-3H3,(H,27,29)(H,30,31,32)/t17-,18-,19-,20+,21-,22+,23+,25+,26-/m1/s1
SMILES=CC(CCC(O)=NCCS(=O)(=O)O)C1CCC2C3CCC4CC(O)CCC4(C)C3CCC12C
SCANS=16860
IONMODE=negative
COMPOUND_NAME=Taurolithocholate M-H
SPECTRUM_ID=CCMSLIB00006702201
55.225922 185570.0 
65.179848 184205.0 
66.012909 216647.0 
68.12159 181920.0 
79.957153 15735504.0 
80.964996 5361984.0 
89.096657 185189.0 
94.980652 296899.0 
104.327217 266217.0 
106.980759 8173302.0 
124.007317 8892301.0 
139.983536 249333.0 
199.716797 190104.0 
208.10437 1478738.0 
274.055542 202579.0 
374.307434 307755.0 
416.318207 968236.0 
418.329468 270554.0 
482.295319 194452384.0 
483.304382 252843.0 
END IONS

BEGIN IONS
PRECURSOR_MZ=291.063
INCHI=InChI=1S/C16H12O4/c1-19-12-5-2-10(3-6-12)15-9-14(18)13-7-4-11(17)8-16(13)20-15/h2-9,17H,1H3
SMILES=COc1ccc(-c2cc(=O)c3ccc(O)cc3o2)cc1
SCANS=13818
IONMODE=positive
COMPOUND_NAME=7-Hydroxy-4'-methoxyflavone M+Na
SPECTRUM_ID=CCMSLIB00006699159
51.78891 1982.0 
52.04752 2114.0 
58.039249 2396.0 
99.454529 2076.0 
104.291634 2553.0 
142.35701 2131.0 
291.062073 273502.0 
309.072052 8719.0 
END IONS

BEGIN IONS
PRECURSOR_MZ=346.083
INCHI=InChI=1S/C19H13N3O4/c20-8-13-16(12-5-6-22-14-4-2-1-3-11(12)14)18-17(26-19(13)21)15(24)7-10(9-23)25-18/h1-7,16,23H,9,21H2
SMILES=N#CC1=C(N)Oc2c(oc(CO)cc2=O)C1c1ccnc2ccccc12
SCANS=5369
IONMODE=negative
COMPOUND_NAME=2-amino-6-(hydroxymethyl)-8-oxo-4-(4-quinolyl)-4H-pyrano[3,2-b]pyran-3-carboni trile M-H
SPECTRUM_ID=CCMSLIB00006690710
51.91687 2198.0 
65.014107 1628835.0 
67.659576 2326.0 
68.013687 15474.0 
80.013863 4015.0 
94.029533 3594.0 
95.01355 20647.0 
99.008873 3479.0 
108.009163 24231.0 
122.02494 19851.0 
136.218018 2822.0 
154.065811 5094.0 
182.0616 3903.0 
186.171753 2599.0 
218.072327 33795.0 
223.050751 28068.0 
234.06813 3075.0 
237.067352 26218.0 
238.050995 48185.0 
245.054947 3911.0 
246.066467 15668.0 
248.081345 3698.0 
260.083435 5215.0 
263.047516 4955.0 
265.061188 33587.0 
272.082642 3305.0 
275.085449 3792.0 
280.06076 6116.0 
288.079376 3581.0 
301.064423 3476.0 
302.092529 10165.0 
303.076508 4868.0 
319.07254 325594.0 
328.073334 23089.0 
346.082916 141265.0 
END IONS

BEGIN IONS
PRECURSOR_MZ=447.225
INCHI=InChI=1S/C25H32N2O4/c1-17-6-9-19(10-7-17)26-23(29)16-27-14-13-25(30)12-4-3-5-20(25)24(27)18-8-11-21(28)22(15-18)31-2/h6-11,15,20,24,28,30H,3-5,12-14,16H2,1-2H3,(H,26,29)
SMILES=COc1cc(C2C3CCCCC3(O)CCN2CC(=O)Nc2ccc(C)cc2)ccc1O
SCANS=16012
IONMODE=positive
COMPOUND_NAME=2-[6-hydroxy-2-(4-hydroxy-3-methoxyphenyl)-3-azabicyclo[4.4.0]dec-3-yl]-N-(4-m ethylphenyl)acetamide M+Na
SPECTRUM_ID=CCMSLIB00006701353
54.303181 2477.0 
60.543892 2426.0 
62.621231 2405.0 
71.676811 2687.0 
82.407204 2604.0 
87.181389 2555.0 
92.387138 3471.0 
96.497559 2395.0 
144.336761 2542.0 
203.450394 2956.0 
267.553497 2610.0 
403.065796 2587.0 
429.216217 4654.0 
447.225037 1210849.0 
END IONS

BEGIN IONS
PRECURSOR_MZ=486.067
INCHI=InChI=1S/C21H20BrN3O3/c1-2-11-23-21(28)17-12-20(27)25(18-6-4-3-5-16(17)18)13-19(26)24-15-9-7-14(22)8-10-15/h3-10,12H,2,11,13H2,1H3,(H,23,28)(H,24,26)
SMILES=CCCN=C(O)c1cc(=O)n(CC(=O)Nc2ccc(Br)cc2)c2ccccc12
SCANS=22826
IONMODE=negative
COMPOUND_NAME=N-(4-bromophenyl)-2-[2-oxo-4-(N-propylcarbamoyl)hydroquinolyl]acetamide M+formate
SPECTRUM_ID=CCMSLIB00006708167
60.67828 2099.0 
62.954639 2257.0 
78.918617 25259.0 
104.292679 3199.0 
107.051064 3079.0 
109.845833 2777.0 
116.050247 10623.0 
128.050476 36537.0 
130.065842 36599.0 
142.067429 2345.0 
142.509842 2609.0 
144.045486 45897.0 
146.960953 3108.0 
156.046143 2749.0 
158.04837 19027.0 
158.061356 32641.0 
169.961044 10739.0 
174.05658 3497.0 
176.071548 10317.0 
184.040421 12313.0 
197.108994 3609.0 
199.123993 13609.0 
201.10289 3542.0 
202.051773 5902.0 
213.102585 19111.0 
229.098236 28059.0 
230.124222 2890.0 
262.843292 2947.0 
269.093079 10745.0 
347.540344 2855.0 
355.010345 13632.0 
440.061523 187984.0 
END IONS

BEGIN IONS
PRECURSOR_MZ=1175.8
INCHI=InChI=1S/C38H53NO4/c1-24(40)43-30-15-16-36(6)29(33(30,2)3)14-17-38(8)31(36)28(41)22-26-27-23-35(5,32(42)39-25-12-10-9-11-13-25)19-18-34(27,4)20-21-37(26,38)7/h9-13,22,27,29-31H,14-21,23H2,1-8H3,(H,39,42)
SMILES=CC(=O)OC1CCC2(C)C(CCC3(C)C2C(=O)C=C2C4CC(C)(C(O)=Nc5ccccc5)CCC4(C)CCC23C)C1(C)C
SCANS=18292
IONMODE=positive
COMPOUND_NAME=1,2,6,6,10,17,20-heptamethyl-12-oxo-17-(N-phenylcarbamoyl)pentacyclo[12.8.0.0< 2,11>.0<5,10>.0<15,20>]docos-13-en-7-yl acetate 2M+H
SPECTRUM_ID=CCMSLIB00006703633
81.033524 18711.0 
81.07016 3801627.0 
82.389236 11345.0 
83.049423 1035026.0 
83.085777 681753.0 
85.06498 63194.0 
91.054367 1387789.0 
92.049606 153443.0 
93.070023 2502052.0 
94.065247 343845.0 
95.049332 413126.0 
95.08564 5572763.0 
97.06485 386065.0 
97.094177 16694.0 
97.101189 447373.0 
99.080566 27200.0 
103.053917 120159.0 
104.061783 18590.0 
104.275757 14420.0 
105.069908 3329358.0 
106.041588 21533.0 
106.065376 56887.0 
107.049149 141285.0 
107.085518 4363742.0 
109.06485 398399.0 
109.101173 2638037.0 
111.08036 251291.0 
111.08815 17873.0 
111.11628 89317.0 
115.053757 94753.0 
116.061867 13099.0 
117.069794 268663.0 
118.065063 69896.0 
119.049019 65871.0 
119.08551 6678386.0 
120.044312 427830.0 
120.081017 13060.0 
120.093437 25541.0 
121.064842 368543.0 
121.101143 4116580.0 
122.059998 25506.0 
123.08046 440031.0 
123.116737 1634141.0 
125.096191 129078.0 
127.111961 18172.0 
128.062225 80656.0 
129.069946 140680.0 
130.077744 60004.0 
131.085495 922542.0 
133.064804 129732.0 
133.101135 4935843.0 
135.080383 948723.0 
135.11673 3091058.0 
136.075714 22617.0 
137.096054 264615.0 
137.132401 653728.0 
139.075897 13033.0 
139.111725 262473.0 
141.070007 59665.0 
142.077667 113246.0 
143.085358 512812.0 
144.093323 69830.0 
145.065308 46245.0 
145.101151 1461160.0 
146.073166 18499.0 
146.09668 36304.0 
146.109024 125263.0 
147.080917 412768.0 
147.093323 452517.0 
147.116837 3264020.0 
148.0755 13014.0 
149.096024 2065011.0 
149.132355 719153.0 
151.111801 128241.0 
151.148514 14849.0 
153.127625 61511.0 
155.085709 132224.0 
156.093384 126517.0 
157.10112 1008710.0 
158.109085 107499.0 
159.08107 163550.0 
159.11673 1415799.0 
160.088364 16946.0 
160.124588 127647.0 
161.096115 1078777.0 
161.132324 1466790.0 
162.091476 127549.0 
162.104797 25137.0 
163.111542 422421.0 
163.147827 274925.0 
165.127487 69014.0 
165.163391 16210.0 
169.100967 273891.0 
170.109161 70427.0 
171.081207 21458.0 
171.116669 827133.0 
172.124878 50082.0 
173.096817 269867.0 
173.13237 2191101.0 
174.104187 21560.0 
174.140259 74999.0 
175.112 756810.0 
175.14801 3921413.0 
177.127182 197545.0 
177.163559 657047.0 
181.101517 27821.0 
182.108887 64555.0 
183.116562 311677.0 
184.125229 127402.0 
185.096603 23721.0 
185.13237 373619.0 
186.140244 49605.0 
187.112183 160228.0 
187.14801 776412.0 
189.127502 485381.0 
189.163605 8063891.0 
191.144592 143349.0 
191.179184 762086.0 
193.158371 15706.0 
195.116745 100860.0 
196.124985 28923.0 
197.13237 531982.0 
198.141754 26848.0 
199.11261 68689.0 
199.147919 1369442.0 
200.104019 13739.0 
200.155838 21412.0 
201.12793 245610.0 
201.163483 531609.0 
202.121353 29929.0 
203.14328 205538.0 
203.178314 135286.0 
205.158234 16258.0 
207.174301 72632.0 
209.131332 131744.0 
210.14003 19625.0 
211.147797 374581.0 
212.155579 16253.0 
213.126831 60624.0 
213.163483 465374.0 
214.120911 18571.0 
214.171768 12201.0 
215.142975 663823.0 
215.178741 200473.0 
216.137451 238271.0 
217.158615 1992532.0 
217.196472 63395.0 
219.172165 88277.0 
221.13208 15009.0 
223.148544 135850.0 
224.156204 46788.0 
225.1633 185819.0 
227.142822 29226.0 
227.178802 288675.0 
228.138397 53780.0 
228.188416 17236.0 
229.158798 243405.0 
229.195297 139379.0 
230.154312 25567.0 
231.174438 186854.0 
233.190231 20861.0 
235.146378 21425.0 
235.169067 125360.0 
237.164398 93921.0 
238.171204 51944.0 
239.178635 182251.0 
240.135971 15367.0 
241.158173 62764.0 
241.194046 155494.0 
242.154556 56775.0 
243.174423 72934.0 
243.210617 217830.0 
244.167908 107423.0 
245.189331 173771.0 
251.178665 86142.0 
252.187225 14690.0 
253.194794 559528.0 
253.224564 26043.0 
255.174438 66291.0 
255.210632 119242.0 
256.168243 23183.0 
257.190125 238286.0 
257.221771 21212.0 
259.20517 65055.0 
263.176361 11747.0 
265.195038 91268.0 
267.210785 228659.0 
268.170807 19860.0 
269.189972 66576.0 
269.225189 46878.0 
271.205109 775044.0 
277.178741 318831.0 
279.210022 58177.0 
281.226044 55502.0 
282.185333 51989.0 
283.208405 97170.0 
284.201141 16193.0 
285.221863 97820.0 
291.213043 42625.0 
293.225708 49173.0 
295.240417 17175.0 
296.200867 51778.0 
297.221191 48321.0 
305.225128 57976.0 
307.242615 53709.0 
310.215485 493247.0 
311.2388 20582.0 
312.232452 61473.0 
319.241302 25157.0 
323.234772 16878.0 
328.22702 52951.0 
331.240723 15684.0 
333.257202 44967.0 
337.251221 16611.0 
338.212311 15130.0 
345.240601 17014.0 
347.271362 12209.0 
352.225342 13857.0 
389.320038 235277.0 
392.257782 71930.0 
404.257202 16851.0 
407.330475 363686.0 
449.339203 53199.0 
467.351562 793331.0 
510.370148 44375.0 
528.382629 1111241.0 
584.711487 22462.0 
588.404358 47226056.0 
589.402649 124710.0 
592.124756 23239.0 
605.003174 14429.0 
610.390259 13997.0 
629.431641 102727.0 
633.457214 22734.0 
661.465698 15302.0 
END IONS

BEGIN IONS
PRECURSOR_MZ=416.075
INCHI=InChI=1S/C21H14F3NO5/c1-28-19(26)16-14(10-6-8-11(9-7-10)21(22,23)24)15-17(30-18(16)25)12-4-2-3-5-13(12)29-20(15)27/h2-9,14H,25H2,1H3
SMILES=COC(=O)C1=C(N)Oc2c(c(=O)oc3ccccc23)C1c1ccc(C(F)(F)F)cc1
SCANS=5281
IONMODE=negative
COMPOUND_NAME=methyl 2-amino-5-oxo-4-[4-(trifluoromethyl)phenyl]-4H-pyrano[3,2-c]chromene-3- carboxylate M-H
SPECTRUM_ID=CCMSLIB00006690622
53.2131 13204.0 
60.546928 14770.0 
60.857021 11180.0 
65.998199 10723968.0 
66.071533 10945.0 
95.112289 12220.0 
97.955009 28728.0 
98.024696 31443092.0 
117.034531 396178.0 
120.898811 14055.0 
127.376732 12415.0 
157.995682 16626.0 
160.017136 18558.0 
161.024323 28129850.0 
185.412796 13486.0 
209.255432 50501.0 
274.108917 11303.0 
276.846893 15070.0 
355.190735 17068.0 
384.048676 3461844.0 
416.074799 6232681.0 
END IONS

BEGIN IONS
PRECURSOR_MZ=246.044
INCHI=InChI=1S/C8H11NO3S/c1-8-3-2-6(10)9(8)5(4-13-8)7(11)12/h5H,2-4H2,1H3,(H,11,12)
SMILES=CC12CCC(=O)N1C(C(=O)O)CS2
SCANS=18445
IONMODE=negative
COMPOUND_NAME=7a-methyl-5-oxo-2,3,6,7,7a-pentahydrothiapyrrolizine-3-carboxylic acid M+formate
SPECTRUM_ID=CCMSLIB00006703786
56.36274 2148.0 
67.793327 2517.0 
84.939079 1980.0 
92.400391 2409.0 
96.673271 2102.0 
124.141617 2428.0 
156.04866 2726.0 
158.009369 2537.0 
200.0383 3048.0 
245.434326 2116.0 
259.521179 2172.0 
END IONS

BEGIN IONS
PRECURSOR_MZ=344.28
INCHI=InChI=1S/C19H37NO4/c1-5-6-7-8-9-10-11-12-13-14-19(23)24-17(15-18(21)22)16-20(2,3)4/h17H,5-16H2,1-4H3/p+1/t17-/m1/s1
SMILES=CCCCCCCCCCCC(=O)OC(CC(=O)O)C[N+](C)(C)C
SCANS=1143
IONMODE=positive
COMPOUND_NAME=dodecanoylcarnitine M
SPECTRUM_ID=CCMSLIB00006686484
57.03426 5890098.0 
57.07066 5885272.0 
57.503639 1410572.0 
60.081501 76376608.0 
62.222752 1129431.0 
71.086227 5706732.0 
73.942268 1309202.0 
83.085732 1639099.0 
85.029022 606531840.0 
85.101646 2675007.0 
95.086037 7305306.0 
104.268547 1497131.0 
109.10144 5363378.0 
144.101715 16843922.0 
183.17421 15963210.0 
201.185516 1886572.0 
215.250198 1378034.0 
285.205811 65799616.0 
344.279175 818008576.0 
END IONS

BEGIN IONS
PRECURSOR_MZ=437.171
INCHI=InChI=1S/C24H24N2O6/c1-3-31-23(29)15-13-21(27)25-19-11-7-5-9-17(19)18-10-6-8-12-20(18)26-22(28)14-16-24(30)32-4-2/h5-16H,3-4H2,1-2H3,(H,25,27)(H,26,28)/b15-13+,16-14+
SMILES=CCOC(=O)C=CC(O)=Nc1ccccc1-c1ccccc1N=C(O)C=CC(=O)OCC
SCANS=5479
IONMODE=positive
COMPOUND_NAME=ethyl (2E)-3-[N-(2-{2-[(2E)-3-(ethoxycarbonyl)prop-2-enoylamino]phenyl}phenyl) carbamoyl]prop-2-enoate M+H
SPECTRUM_ID=CCMSLIB00006690820
53.00275 38469.0 
55.018299 274191.0 
59.82579 3699.0 
71.013092 155977.0 
82.145683 4471.0 
99.007637 1498295.0 
99.043968 71349.0 
117.018097 15748.0 
127.038841 1379613.0 
131.345718 3589.0 
157.972778 4876.0 
167.073166 16503.0 
168.080948 27007.0 
168.231705 3718.0 
185.106705 51157.0 
195.091568 18712.0 
204.080368 15578.0 
219.091278 326933.0 
220.074814 56779.0 
220.099228 46552.0 
221.106506 14819.0 
237.101837 45927.0 
246.078339 6041.0 
247.08606 964947.0 
248.070038 20963.0 
257.069824 4805.0 
265.096558 1433403.0 
266.077545 3873.0 
271.085052 8733.0 
273.06778 4636.0 
275.08017 17718.0 
275.112976 4856.0 
281.069214 14075.0 
282.079041 5656.0 
283.083923 6456.0 
291.827057 4336.0 
292.119904 5908.0 
293.127747 5815689.0 
299.080536 85383.0 
303.075043 6139.0 
309.064423 69244.0 
311.138031 196583.0 
313.816315 4051.0 
317.091339 79420.0 
321.122406 55318.0 
321.159882 7774.0 
327.075623 155840.0 
327.116333 8403.0 
345.085083 240283.0 
345.123718 21872.0 
355.106201 73873.0 
363.086975 53837.0 
363.139465 76726.0 
373.117615 120901.0 
374.217834 4166.0 
391.127686 644817.0 
395.15979 61572.0 
396.138733 7166.0 
401.148163 23291.0 
419.159058 1230861.0 
437.169556 4145310.0 
END IONS

BEGIN IONS
PRECURSOR_MZ=431.031
INCHI=InChI=1S/C9H9ClO4/c10-6-2-1-3-5(4(2)8(11)12)9(13)14-7(3)6/h2-7H,1H2,(H,11,12)
SMILES=O=C(O)C1C2CC3C(OC(=O)C31)C2Cl
SCANS=12035
IONMODE=negative
COMPOUND_NAME=9-chloro-4-oxo-5-oxatricyclo[4.2.1.0<3,7>]nonane-2-carboxylic acid 2M-H
SPECTRUM_ID=CCMSLIB00006697376
56.561821 2374.0 
57.66161 2666.0 
61.015759 2300.0 
66.73632 2973.0 
82.39032 3233.0 
87.168373 2348.0 
90.933403 2988.0 
118.643692 3896.0 
192.929276 4364.0 
215.011932 244641.0 
221.523712 2752.0 
270.424011 2709.0 
326.159241 2502.0 
431.032318 18923.0 
END IONS

BEGIN IONS
PRECURSOR_MZ=663.168
INCHI=InChI=1S/C32H32O14/c1-10-8-9-15-18-16(10)29(38)45-26-17-13(23(35)20(19(18)26)30(39)43-15)6-5-7-14(17)44-32-28(24(36)21(33)11(2)42-32)46-31-25(37)27(40-4)22(34)12(3)41-31/h5-9,11-12,21-22,24-25,27-28,31-37H,1-4H3/t11-,12-,21+,22+,24+,25-,27+,28-,31-,32+/m1/s1
SMILES=COC1C(O)C(C)OC(OC2C(Oc3cccc4c(O)c5c(=O)oc6ccc(C)c7c(=O)oc(c34)c5c67)OC(C)C(O)C2O)C1O
SCANS=11128
IONMODE=positive
COMPOUND_NAME=Lambdamycin M+Na
SPECTRUM_ID=CCMSLIB00006696469
59.0495 13075.0 
71.048737 3860.0 
75.043907 22000.0 
76.940529 3927.0 
81.307426 3721.0 
81.849998 3819.0 
83.049004 7882.0 
85.028526 40799.0 
85.064903 8746.0 
85.285858 3843.0 
87.044197 108393.0 
98.8032 4398.0 
99.043457 4076.0 
111.043373 19028.0 
112.818169 3626.0 
129.054184 7658.0 
141.458572 3513.0 
147.895554 3820.0 
168.039124 4636.0 
169.04689 462463.0 
183.062531 89897.0 
210.098587 3757.0 
245.386108 3457.0 
329.119781 1164294.0 
333.92392 3684.0 
356.028076 51849.0 
357.035767 96989.0 
357.083527 6096.0 
431.784363 4326.0 
485.085815 5116.0 
503.093597 264190.0 
533.47113 4073.0 
663.167175 4625025.0 
END IONS

BEGIN IONS
PRECURSOR_MZ=330.17
INCHI=InChI=1S/C19H23NO4/c1-13-9-14(2)11-16(10-13)24-8-7-20-19(21)15-5-6-17(22-3)18(12-15)23-4/h5-6,9-12H,7-8H2,1-4H3,(H,20,21)
SMILES=COc1ccc(C(O)=NCCOc2cc(C)cc(C)c2)cc1OC
SCANS=15278
IONMODE=positive
COMPOUND_NAME=(3,4-dimethoxyphenyl)-N-[2-(3,5-dimethylphenoxy)ethyl]carboxamide M+H
SPECTRUM_ID=CCMSLIB00006700619
51.023472 4547.0 
53.03907 58914.0 
55.018421 3555.0 
65.038811 22219.0 
66.046738 49448.0 
67.054298 2897.0 
68.997551 25542.0 
69.000938 2957.0 
69.033821 15971.0 
75.044159 4135.0 
77.038834 15239.0 
79.018242 12213.0 
79.054451 201345.0 
81.033524 14258.0 
81.070038 37138.0 
82.041313 12558.0 
82.400703 3628.0 
83.049141 5652.0 
85.028427 5604.0 
91.054382 21666.0 
92.025917 5735.0 
93.033577 3317.0 
94.041382 130610.0 
95.012451 5085.0 
95.049156 26263.0 
97.028023 3804.0 
98.03624 34307.0 
98.983902 4708.0 
100.239273 3116.0 
105.033012 18597.0 
105.044662 11959.0 
107.012627 6696.0 
107.048607 18624.0 
109.028343 59226.0 
109.06469 124387.0 
110.035912 3668.0 
111.007919 30465.0 
113.059593 3964.0 
119.08535 5535.0 
121.028152 22386.0 
121.06469 3882.0 
122.036102 168241.0 
123.043892 14994.0 
126.031036 106032.0 
126.040688 4481.0 
130.064789 4727.0 
131.049225 6487.0 
131.072815 79422.0 
132.056641 4719.0 
135.044571 4892.0 
136.051453 6114.0 
137.022888 6422.0 
137.059692 12590.0 
141.054245 23500.0 
146.036423 11311.0 
146.096268 155913.0 
147.068161 4492.0 
149.059937 5352.0 
150.031097 5878.0 
150.06752 34326.0 
154.025894 33100.0 
155.070129 146088.0 
157.982956 3108.0 
164.070328 23929.0 
165.054459 5113638.0 
174.091187 20608.0 
179.055695 2928.0 
192.06517 111740.0 
192.101685 57695.0 
193.073456 52641.0 
208.096588 1360126.0 
252.102585 4571.0 
265.902069 3210.0 
266.11676 3815.0 
282.147949 13159.0 
294.147247 5351.0 
312.158386 18351.0 
330.169128 130991.0 
END IONS

BEGIN IONS
PRECURSOR_MZ=803.419
INCHI=InChI=1S/C41H64O14/c1-19-36(47)28(42)15-34(50-19)54-38-21(3)52-35(17-30(38)44)55-37-20(2)51-33(16-29(37)43)53-24-8-10-39(4)23(13-24)6-7-26-27(39)14-31(45)40(5)25(9-11-41(26,40)48)22-12-32(46)49-18-22/h12,19-21,23-31,33-38,42-45,47-48H,6-11,13-18H2,1-5H3/t19-,20-,21-,23-,24+,25-,26-,27+,28+,29+,30+,31-,33+,34+,35+,36-,37-,38-,39+,40+,41+/m1/s1
SMILES=CC1OC(OC2C(O)CC(OC3C(O)CC(OC4CCC5(C)C(CCC6C5CC(O)C5(C)C(C7=CC(=O)OC7)CCC65O)C4)OC3C)OC2C)CC(O)C1O
SCANS=7857
IONMODE=positive
COMPOUND_NAME=digoxin M+Na
SPECTRUM_ID=CCMSLIB00006693198
59.262699 4757.0 
66.895889 4786.0 
71.896446 4923.0 
92.37175 5522.0 
114.604584 4642.0 
242.640182 4676.0 
266.967163 5489.0 
283.114685 92785.0 
387.162292 68294.0 
495.723755 4993.0 
797.557922 17722.0 
803.418213 13569158.0 
803.914429 213397.0 
804.41095 99851.0 
809.343262 10727.0 
END IONS

BEGIN IONS
PRECURSOR_MZ=481.912
INCHI=InChI=1S/C14H15Br2N3O4/c1-22-9-5-7(8(15)6-10(9)23-2)3-4-19-12(17)11(16)13(20)18-14(19)21/h5-6H,3-4,17H2,1-2H3,(H,18,20,21)
SMILES=COc1cc(Br)c(CCn2c(N)c(Br)c(O)nc2=O)cc1OC
SCANS=21753
IONMODE=negative
COMPOUND_NAME=6-amino-5-bromo-1-[2-(2-bromo-4,5-dimethoxyphenyl)ethyl]-1,3-dihydropyrimidine -2,4-dione M+Cl
SPECTRUM_ID=CCMSLIB00006707094
74.071373 2139.0 
78.918518 28358.0 
92.379784 3047.0 
110.042969 2437.0 
117.930008 15914.0 
131.781784 2550.0 
136.215393 2947.0 
160.935623 82375.0 
160.950668 2940.0 
203.941269 266892.0 
329.858887 2883.0 
341.875397 2563.0 
445.935547 42321.0 
480.028503 2478.0 
520.649536 2571.0 
770.303162 2547.0 
END IONS

BEGIN IONS
PRECURSOR_MZ=124.039
INCHI=InChI=1S/C6H5NO2/c8-6(9)5-2-1-3-7-4-5/h1-4H,(H,8,9)
SMILES=O=C(O)c1cccnc1
SCANS=4949
IONMODE=positive
COMPOUND_NAME=nicotinic acid M+H
SPECTRUM_ID=CCMSLIB00006690290
71.20433 176513.0 
78.034447 1754755.0 
79.628326 201615.0 
80.05011 11523686.0 
96.038651 349710.0 
96.044899 5975764.0 
124.039528 173287152.0 
129.985825 201548.0 
133.424667 199792.0 
140.034653 426820.0 
END IONS

BEGIN IONS
PRECURSOR_MZ=283.061
INCHI=InChI=1S/C16H12O5/c1-20-11-4-2-9(3-5-11)12-8-21-14-7-10(17)6-13(18)15(14)16(12)19/h2-8,17-18H,1H3
SMILES=COc1ccc(-c2coc3cc(O)cc(O)c3c2=O)cc1
SCANS=2041
IONMODE=negative
COMPOUND_NAME=biochanin A M-H
SPECTRUM_ID=CCMSLIB00006687382
50.873981 2626.0 
59.013168 3933.0 
59.484039 2384.0 
66.73954 3767.0 
71.123917 2928.0 
82.393631 3435.0 
104.277817 3306.0 
107.153648 2760.0 
112.999031 2736.0 
129.890686 3276.0 
132.02063 3543.0 
152.97879 9425.0 
208.225021 13221.0 
211.039444 5048.0 
215.165039 19880.0 
223.039001 3756.0 
224.047745 17054.0 
226.026901 3934.0 
236.930069 11359.0 
239.034775 26162.0 
240.043411 11274.0 
265.17923 3619.0 
267.029846 42417.0 
268.03772 1669669.0 
281.817383 4278.0 
283.061279 4020772.0 
284.314911 3642.0 
END IONS

BEGIN IONS
PRECURSOR_MZ=447.202
INCHI=InChI=1S/C23H30O6/c1-13(24)29-12-19(27)23(28)9-7-17-16-5-4-14-10-15(25)6-8-21(14,2)20(16)18(26)11-22(17,23)3/h6,8,10,16-18,20,26,28H,4-5,7,9,11-12H2,1-3H3/t16-,17-,18-,20+,21-,22-,23-/m0/s1
SMILES=CC(=O)OCC(=O)C1(O)CCC2C3CCC4=CC(=O)C=CC4(C)C3C(O)CC21C
SCANS=18147
IONMODE=negative
COMPOUND_NAME=prednisolone acetate M+formate
SPECTRUM_ID=CCMSLIB00006703488
101.024483 25892.0 
117.691353 2771.0 
118.966103 6127.0 
121.065933 2574.0 
123.045311 13297.0 
125.060822 18839.0 
137.060715 13185.0 
146.961288 144904.0 
148.957962 2889.0 
151.076965 3131.0 
159.045319 3954.0 
172.05336 6669.0 
174.956268 202911.0 
181.035553 2552.0 
187.076614 40221.0 
218.754944 2761.0 
242.943726 88275.0 
256.291656 3142.0 
267.13974 2699.0 
280.110809 47210.0 
295.133759 57365.0 
299.164856 22191.0 
310.931213 17887.0 
311.165558 10085.0 
313.14444 13049.0 
316.322449 3244.0 
327.160309 68176.0 
327.325714 2927.0 
329.17627 40082.0 
341.176514 32539.0 
359.184998 4750.0 
361.1633 3242.0 
371.18689 42331.0 
383.185669 16320.0 
401.197205 211019.0 
447.203888 17485.0 
559.922668 3733.0 
END IONS

BEGIN IONS
PRECURSOR_MZ=467.317
INCHI=InChI=1S/C30H44O4/c1-25(2)21-8-11-30(7)23(28(21,5)10-9-22(25)32)20(31)16-18-19-17-27(4,24(33)34)13-12-26(19,3)14-15-29(18,30)6/h16,19,21,23H,8-15,17H2,1-7H3,(H,33,34)
SMILES=CC1(C(=O)O)CCC2(C)CCC3(C)C(=CC(=O)C4C5(C)CCC(=O)C(C)(C)C5CCC43C)C2C1
SCANS=9070
IONMODE=negative
COMPOUND_NAME=1,2,5,8,15,19,19-heptamethyl-13,18-dioxopentacyclo[12.8.0.0<2,11>.0<5,10>.0<15 ,20>]docos-11-ene-8-carboxylic acid M-H
SPECTRUM_ID=CCMSLIB00006694411
65.207314 2810.0 
73.891563 3156.0 
87.056633 2459.0 
125.324677 2700.0 
136.236389 2489.0 
177.848572 2853.0 
194.923325 2996.0 
250.795944 3068.0 
336.313965 2908.0 
338.315399 2720.0 
423.326721 73337.0 
423.389069 4360.0 
466.981476 31565.0 
467.316528 2476373.0 
556.499451 3359.0 
660.046204 3078.0 
822.084534 3156.0 
END IONS

BEGIN IONS
PRECURSOR_MZ=522.261
INCHI=InChI=1S/C32H37NO4/c1-7-37-27-14-20(10-13-24(27)34)28-29-22(15-31(3,4)17-25(29)35)33(21-11-8-19(2)9-12-21)23-16-32(5,6)18-26(36)30(23)28/h8-14,28,34H,7,15-18H2,1-6H3
SMILES=CCOc1cc(C2C3=C(CC(C)(C)CC3=O)N(c3ccc(C)cc3)C3=C2C(=O)CC(C)(C)C3)ccc1O
SCANS=19513
IONMODE=positive
COMPOUND_NAME=9-(3-ethoxy-4-hydroxyphenyl)-3,3,6,6-tetramethyl-10-(4-methylphenyl)-2,3,4,5,6 ,7,9,10-octahydroacridine-1,8-dione M+Na
SPECTRUM_ID=CCMSLIB00006704854
61.031101 2573.0 
82.397499 2797.0 
101.912743 2541.0 
104.284378 2868.0 
136.20813 3217.0 
208.459778 8038.0 
208.482788 5483.0 
221.54097 3208.0 
253.545624 3048.0 
261.769348 2691.0 
299.324585 3430.0 
362.211273 16589.0 
522.260681 1088125.0 
548.788818 3261.0 
END IONS

BEGIN IONS
PRECURSOR_MZ=408.156
INCHI=InChI=1S/C21H21N3O3/c1-2-12-22-21(27)17-13-20(26)24(18-11-7-6-10-16(17)18)14-19(25)23-15-8-4-3-5-9-15/h3-11,13H,2,12,14H2,1H3,(H,22,27)(H,23,25)
SMILES=CCCN=C(O)c1cc(=O)n(CC(O)=Nc2ccccc2)c2ccccc12
SCANS=10618
IONMODE=negative
COMPOUND_NAME=2-[2-oxo-4-(N-propylcarbamoyl)hydroquinolyl]-N-phenylacetamide M+formate
SPECTRUM_ID=CCMSLIB00006695959
66.095268 2394.0 
77.106003 2418.0 
87.976158 2496.0 
92.050247 9750.0 
92.37487 2730.0 
96.056923 2442.0 
130.066254 14509.0 
132.044983 5852.0 
144.045334 21349.0 
158.048325 4874.0 
158.060898 24247.0 
160.040298 16773.0 
176.071686 10043.0 
184.039734 9740.0 
199.123886 70231.0 
201.103348 5702.0 
202.051407 4948.0 
213.103195 41269.0 
215.118576 4953.0 
229.097061 23896.0 
231.113541 3350.0 
243.113724 16624.0 
245.093506 11045.0 
269.093323 20828.0 
275.103668 10435.0 
277.097809 123323.0 
296.180573 2254.0 
362.151001 754649.0 
408.156128 3741.0 
END IONS

BEGIN IONS
PRECURSOR_MZ=694.483
INCHI=InChI=1S/C46H60O4/c1-43(2,3)35-19-27-15-31-23-37(45(7,8)9)25-33(41(31)49-13)17-29-21-36(44(4,5)6)22-30(40(29)48)18-34-26-38(46(10,11)12)24-32(42(34)50-14)16-28(20-35)39(27)47/h19-26,47-48H,15-18H2,1-14H3
SMILES=COc1c2cc(C(C)(C)C)cc1Cc1cc(C(C)(C)C)cc(c1O)Cc1cc(C(C)(C)C)cc(c1OC)Cc1cc(C(C)(C)C)cc(c1O)C2
SCANS=1242
IONMODE=positive
COMPOUND_NAME=26,28-dimethoxy-5,11,17,23-tetrakis(tert-butyl)pentacyclo[19.3.1.1<3,7>.1<9,13 >.1<15,19>]octacosa-1(25),3,5,7(26),9,11,13(27),15(28),16,18,21,23-dodecaene-2 5,27-diol M+NH4
SPECTRUM_ID=CCMSLIB00006686583
54.07835 3824.0 
55.16988 4098.0 
57.070309 54321.0 
57.671341 3670.0 
60.551811 4411.0 
82.94426 4407.0 
89.03054 3702.0 
104.307457 5663.0 
107.04937 36135.0 
118.023262 4172.0 
119.048767 29589.0 
119.118973 3726.0 
121.055397 7650.0 
121.064697 183800.0 
121.100594 3986.0 
131.049637 5311.0 
135.080307 46623.0 
145.064911 58126.0 
147.116928 4616.0 
149.095154 7368.0 
149.62999 4046.0 
154.738876 3935.0 
159.080017 5928.0 
163.111649 28987.0 
173.095825 6552.0 
175.111572 206392.0 
176.651123 4568.0 
177.127167 386466.0 
182.616913 4540.0 
185.219818 4070.0 
187.111313 102930.0 
188.11908 23443.0 
191.142319 9766.0 
197.095291 4253.0 
201.127335 50464.0 
202.13475 8482.0 
207.079239 5211.0 
209.152451 5035.0 
211.074692 7562.0 
213.091354 27682.0 
225.090851 260947.0 
227.106354 197941.0 
239.106354 184828.0 
241.122009 156964.0 
241.188644 4405.0 
253.121185 38402.0 
265.158356 4777.0 
269.154083 9708.0 
281.153198 116318.0 
283.16861 98636.0 
295.168762 50248.0 
297.183197 34478.0 
309.184723 5604.0 
315.137054 5472.0 
321.218353 6531.0 
331.130859 19646.0 
331.309143 4587.0 
333.148041 18100.0 
337.216125 111266.0 
339.229675 50264.0 
345.147736 66514.0 
347.163605 244380.0 
351.231171 20661.0 
353.249329 5444.0 
359.162933 36913.0 
389.207458 8586.0 
401.210144 25816.0 
403.224915 30937.0 
421.179779 17212.0 
451.188599 9621.0 
453.205139 745751.0 
457.271942 8323.0 
459.291412 6449.0 
477.24231 18107.0 
486.411499 3829.0 
496.562958 4478.0 
507.254425 9387.0 
509.268036 744443.0 
513.335083 16159.0 
533.302185 43913.0 
563.314758 5041.0 
565.33075 840028.0 
589.367493 77908.0 
621.392761 1036072.0 
645.429321 100782.0 
677.455566 2243239.0 
694.482178 1906751.0 
END IONS

BEGIN IONS
PRECURSOR_MZ=202.107
INCHI=InChI=1S/C9H17NO5/c1-9(2,5-11)7(14)8(15)10-4-3-6(12)13/h7,11,14H,3-5H2,1-2H3,(H,10,15)(H,12,13)
SMILES=CC(C)(CO)C(O)C(O)=NCCC(=O)O
SCANS=24098
IONMODE=positive
COMPOUND_NAME=D-pantothenic acid M+H-H2O
SPECTRUM_ID=CCMSLIB00006709439
52.085201 3608.290039 
55.0186 80033.101562 
55.055 4381.97998 
56.013901 12367.0 
57.070702 399805.0 
59.0499 38136.101562 
60.045101 5441.290039 
65.039398 5848.790039 
66.7519 4002.689941 
67.055 191821.0 
69.070602 552115.0 
70.029404 329156.0 
71.050102 3930.699951 
72.045097 979739.0 
73.029099 974535.0 
74.024399 97131.398438 
81.070602 9357.910156 
83.049896 108318.0 
84.081398 8497.580078 
85.065498 425503.0 
86.060204 3808.379883 
86.097099 470585.0 
87.0811 376687.0 
88.040497 4237.25 
90.055603 251311.0 
91.039803 18301.0 
95.049698 615300.0 
96.081299 102004.0 
98.0242 1615280.0 
98.097 7628.890137 
99.080803 63158.300781 
100.040001 856438.0 
103.075996 243412.0 
104.300003 4298.120117 
111.074997 3407.310059 
112.075996 100995.0 
112.374001 3628.909912 
113.059998 316599.0 
114.092003 26339.300781 
116.035004 2273730.0 
118.050003 34028.5 
120.102997 5345.430176 
124.075996 1757390.0 
128.035004 51748.0 
130.087006 142330.0 
131.070007 141096.0 
132.102005 191738.0 
138.091995 32152.900391 
142.085999 2187050.0 
148.097 111705.0 
154.085999 8545.580078 
156.102005 285307.0 
157.085999 14413.900391 
160.097 1119880.0 
166.085999 340332.0 
172.097 18944.400391 
173.080994 8086.77002 
174.113007 457525.0 
178.983994 4210.72998 
184.097 3063730.0 
196.817001 5272.5 
201.367996 4361.609863 
202.106995 8949770.0 
END IONS

BEGIN IONS
PRECURSOR_MZ=223.082
INCHI=InChI=1S/C6H12O5/c7-2-4-6(10)3(8)1-5(9)11-4/h3-10H,1-2H2/t3-,4-,5?,6+/m1/s1
SMILES=OC[C@H]1OC(O)C[C@@H](O)[C@@H]1O
SCANS=23814
IONMODE=negative
COMPOUND_NAME=2-deoxyglucose M+acetate
SPECTRUM_ID=CCMSLIB00006709155
58.0294 23018.099609 
59.013302 5174.529785 
73.975998 5310.950195 
85.029198 3649.280029 
101.207001 3687.949951 
118.682999 4783.799805 
120.045998 60647.398438 
121.611 3888.949951 
158.016006 4225.959961 
161.072998 6462.839844 
179.082993 340987.0 
223.029007 5578.430176 
223.072998 88738.703125 
END IONS

BEGIN IONS
PRECURSOR_MZ=358.095
INCHI=InChI=1S/C18H16ClN3O3/c1-11-13(14-4-2-3-5-17(14)21-11)8-9-20-18(23)15-10-12(22(24)25)6-7-16(15)19/h2-7,10,21H,8-9H2,1H3,(H,20,23)
SMILES=Cc1[nH]c2ccccc2c1CCN=C(O)c1cc([N+](=O)[O-])ccc1Cl
SCANS=19670
IONMODE=positive
COMPOUND_NAME=(2-chloro-5-nitrophenyl)-N-[2-(2-methylindol-3-yl)ethyl]carboxamide M+H
SPECTRUM_ID=CCMSLIB00006705011
80.049393 3735.0 
81.668419 3388.0 
91.054222 27464.0 
109.333366 3084.0 
115.054153 45731.0 
116.062019 4978.0 
117.05722 51756.0 
117.069733 107686.0 
118.065338 7453.0 
128.062469 4879.0 
129.069824 33902.0 
130.065155 97491.0 
131.072922 23660.0 
131.085434 87966.0 
132.080536 24027.0 
141.069824 60331.0 
142.065338 12881.0 
143.072937 1620196.0 
144.080795 40991.0 
145.084244 25713.0 
156.080872 87177.0 
157.088379 72671.0 
157.582809 6616.0 
158.096405 8332338.0 
158.612869 8527.0 
169.976059 25344.0 
171.092117 3721.0 
171.973465 45269.0 
172.099091 35984.0 
176.545822 3751.0 
183.97966 72065.0 
185.9767 55254.0 
213.01857 50753.0 
227.021149 84295.0 
227.045837 3906.0 
321.902191 3250.0 
341.068909 15097.0 
358.095337 457529.0 
END IONS

BEGIN IONS
PRECURSOR_MZ=526.211
INCHI=InChI=1S/C27H32ClN3O3/c1-19-23(18-26(32)29-13-6-16-30-14-4-3-5-15-30)24-17-22(34-2)11-12-25(24)31(19)27(33)20-7-9-21(28)10-8-20/h7-12,17H,3-6,13-16,18H2,1-2H3,(H,29,32)
SMILES=COc1ccc2c(c1)c(CC(O)=NCCCN1CCCCC1)c(C)n2C(=O)c1ccc(Cl)cc1
SCANS=2059
IONMODE=negative
COMPOUND_NAME=2-{1-[(4-chlorophenyl)carbonyl]-5-methoxy-2-methylindol-3-yl}-N-(3-piperidylpr opyl)acetamide M+formate
SPECTRUM_ID=CCMSLIB00006687400
53.778358 2407.0 
63.1059 2421.0 
73.958168 3154.0 
74.544601 2812.0 
76.605164 2369.0 
92.380653 2969.0 
112.219902 2812.0 
154.990112 35843.0 
327.190277 3152.0 
342.218414 26457.0 
364.070679 2601.0 
526.208984 5687.0 
END IONS

BEGIN IONS
PRECURSOR_MZ=338.139
INCHI=InChI=1S/C20H19NO4/c22-18-7-6-15-16(14-4-2-1-3-5-14)12-19(23)25-20(15)17(18)13-21-8-10-24-11-9-21/h1-7,12,22H,8-11,13H2
SMILES=O=c1cc(-c2ccccc2)c2ccc(O)c(CN3CCOCC3)c2o1
SCANS=12183
IONMODE=positive
COMPOUND_NAME=7-hydroxy-8-(morpholin-4-ylmethyl)-4-phenylchromen-2-one M+H
SPECTRUM_ID=CCMSLIB00006697524
50.267521 2323.0 
68.59008 2437.0 
70.065498 10248.0 
73.87336 3498.0 
77.162048 2427.0 
86.060112 6140.0 
88.075951 413713.0 
91.027321 2737.0 
116.462051 2314.0 
118.638672 3203.0 
119.910423 2539.0 
132.357224 2798.0 
195.080719 5908.0 
197.060287 18345.0 
212.783676 3274.0 
223.075439 18863.0 
251.070129 770103.0 
314.882843 5811.0 
332.892914 4218.0 
338.138275 1205375.0 
END IONS

BEGIN IONS
PRECURSOR_MZ=466.077
INCHI=InChI=1S/C23H22BrN3O3/c24-16-8-10-17(11-9-16)25-21(28)15-27-20-7-3-2-6-18(20)19(14-22(27)29)23(30)26-12-4-1-5-13-26/h2-3,6-11,14H,1,4-5,12-13,15H2,(H,25,28)
SMILES=O=C(Cn1c(=O)cc(C(=O)N2CCCCC2)c2ccccc21)Nc1ccc(Br)cc1
SCANS=12021
IONMODE=negative
COMPOUND_NAME=N-(4-bromophenyl)-2-[2-oxo-4-(piperidylcarbonyl)hydroquinolyl]acetamide M-H
SPECTRUM_ID=CCMSLIB00006697362
50.158859 2821.0 
53.187439 3431.0 
61.987961 33460.0 
62.417091 2772.0 
66.759323 3566.0 
78.918648 54118.0 
88.673477 3056.0 
92.40107 3036.0 
102.60141 3366.0 
128.050568 255525.0 
138.536362 3566.0 
140.966202 2635.0 
142.06601 6386.0 
144.045364 6728.0 
146.061249 5986.0 
156.045029 21338.0 
157.038406 4941.0 
157.053299 130932.0 
157.067245 6150.0 
158.025558 20809.0 
169.961304 94035.0 
172.040573 26877.0 
174.056091 5180.0 
176.035187 6015.0 
184.040482 241665.0 
185.048141 20231.0 
194.293869 2842.0 
202.050903 5958.0 
209.110168 3512.0 
209.140137 6816.0 
225.1409 25037.0 
226.124283 5883.0 
227.120026 36718.0 
229.134949 3597.0 
237.104538 11781.0 
239.119965 6047.0 
241.134766 133972.0 
243.113724 13695.0 
250.042282 3976.0 
255.114014 227389.0 
269.1297 215497.0 
271.108948 67108.0 
273.550598 2923.0 
295.108795 173090.0 
426.361481 3150.0 
428.117767 51186.0 
430.11615 56978.0 
438.081635 3558.0 
466.077393 2359309.0 
END IONS

BEGIN IONS
PRECURSOR_MZ=267.066
INCHI=InChI=1S/C16H12O4/c1-19-12-6-7-13-14(18)9-15(20-16(13)8-12)10-2-4-11(17)5-3-10/h2-9,17H,1H3
SMILES=COc1ccc2c(=O)cc(-c3ccc(O)cc3)oc2c1
SCANS=14361
IONMODE=negative
COMPOUND_NAME=4'-Hydroxy-7-methoxyflavone M-H
SPECTRUM_ID=CCMSLIB00006699702
56.001049 2539.0 
61.703098 2939.0 
61.966221 2433.0 
64.386467 2771.0 
78.78656 2701.0 
83.805634 2859.0 
91.01902 12975.0 
108.021988 29299.0 
116.027328 3313.0 
117.034683 1278660.0 
132.021683 29360.0 
135.008835 111946.0 
147.045166 47542.0 
153.01947 31207.0 
166.800461 2863.0 
167.04892 2953.0 
180.058411 4872.0 
182.037674 3390.0 
195.045563 18042.0 
196.053329 19076.0 
198.03302 9325.0 
210.03273 4885.0 
223.040268 105995.0 
224.048111 92964.0 
251.034912 35600.0 
252.043213 2053728.0 
267.066681 1823456.0 
412.698517 2950.0 
469.671661 2966.0 
END IONS

BEGIN IONS
PRECURSOR_MZ=322.108
INCHI=InChI=1S/C19H17NO4/c1-2-24-19(23)13-8-9-16-14(11-13)17(21)15(18(22)20-16)10-12-6-4-3-5-7-12/h3-9,11H,2,10H2,1H3,(H2,20,21,22)
SMILES=CCOC(=O)c1ccc2nc(O)c(Cc3ccccc3)c(O)c2c1
SCANS=17642
IONMODE=negative
COMPOUND_NAME=ethyl 4-hydroxy-2-oxo-3-benzylhydroquinoline-6-carboxylate M-H
SPECTRUM_ID=CCMSLIB00006702983
57.05545 2507.0 
67.703331 2817.0 
83.815933 2563.0 
91.178017 2828.0 
92.050423 2919.0 
92.379677 3961.0 
118.030037 11192.0 
118.66066 3375.0 
119.049278 3143.0 
121.016853 10674.0 
128.559128 3271.0 
131.037598 295813.0 
131.047638 9882.0 
136.214676 3144.0 
144.04538 172851.0 
146.024902 2957.0 
148.040283 3414.0 
159.032532 257684.0 
162.019638 5629.0 
172.040314 51018.0 
174.019836 12128.0 
175.027496 4974.0 
203.058807 38878.0 
204.029343 3908.0 
204.081512 4942.0 
205.038528 3568.0 
205.089371 6415.0 
206.097687 64670.0 
216.067001 10406.0 
220.076431 13926.0 
231.053589 6767.0 
232.077606 11376.0 
237.07959 51762.0 
244.05986 3647.0 
248.072021 29653.0 
249.080521 15314.0 
250.087448 1431870.0 
252.065903 20305.0 
253.073654 6397.0 
266.082428 3750.0 
281.068848 21653.0 
294.077301 210965.0 
322.10849 1627704.0 
END IONS

BEGIN IONS
PRECURSOR_MZ=474.164
INCHI=InChI=1S/C24H25N3O6/c1-31-20-8-7-16(13-21(20)32-2)25-22(28)15-27-19-6-4-3-5-17(19)18(14-23(27)29)24(30)26-9-11-33-12-10-26/h3-8,13-14H,9-12,15H2,1-2H3,(H,25,28)
SMILES=COc1ccc(N=C(O)Cn2c(=O)cc(C(=O)N3CCOCC3)c3ccccc32)cc1OC
SCANS=11486
IONMODE=positive
COMPOUND_NAME=N-(3,4-dimethoxyphenyl)-2-[4-(morpholin-4-ylcarbonyl)-2-oxohydroquinolyl]aceta mide M+Na
SPECTRUM_ID=CCMSLIB00006696827
118.68866 3424.0 
144.321762 3020.0 
150.903687 3218.0 
158.014465 4897.0 
161.315826 3411.0 
271.107788 3566.0 
281.722382 3594.0 
434.168091 4165.0 
454.276276 3605.0 
456.149902 14790.0 
474.162994 4583081.0 
END IONS

BEGIN IONS
PRECURSOR_MZ=265.122
INCHI=InChI=1S/C18H16O2/c1-20-16-10-6-13(7-11-16)12-15-9-8-14-4-2-3-5-17(14)18(15)19/h2-7,10-12H,8-9H2,1H3/b15-12+
SMILES=COc1ccc(C=C2CCc3ccccc3C2=O)cc1
SCANS=5557
IONMODE=positive
COMPOUND_NAME=2-[(4-methoxyphenyl)methylene]-3,4-dihydronaphthalen-1-one M+H
SPECTRUM_ID=CCMSLIB00006690898
59.329361 2307.0 
81.518959 2703.0 
91.048286 5020.0 
91.054253 73811.0 
92.378967 2539.0 
93.069847 15968.0 
103.054169 10991.0 
107.048767 3363.0 
109.064659 35957.0 
111.127663 2496.0 
115.054733 3056.0 
118.652786 3521.0 
121.064697 628591.0 
129.069794 94031.0 
130.045197 2938.0 
130.72261 3359.0 
131.049438 3914.0 
135.043762 19627.0 
137.059647 54690.0 
147.080109 61289.0 
149.059219 3550.0 
157.065033 20281.0 
159.080307 15574.0 
198.655762 2603.0 
215.08493 33385.0 
216.093277 13374.0 
232.087982 39954.0 
236.887039 3709.0 
237.126022 5799.0 
247.11116 172024.0 
265.121857 2528840.0 
END IONS

BEGIN IONS
PRECURSOR_MZ=348.144
INCHI=InChI=1S/C18H21NO6/c1-21-12-6-7-14(22-2)13(10-12)19-18(20)11-8-15(23-3)17(25-5)16(9-11)24-4/h6-10H,1-5H3,(H,19,20)
SMILES=COc1ccc(OC)c(N=C(O)c2cc(OC)c(OC)c(OC)c2)c1
SCANS=14831
IONMODE=positive
COMPOUND_NAME=N-(2,5-dimethoxyphenyl)(3,4,5-trimethoxyphenyl)carboxamide M+H
SPECTRUM_ID=CCMSLIB00006700172
51.023312 6794.0 
53.039028 77767.0 
55.018318 6115.0 
65.038986 45832.0 
66.046722 12220.0 
67.05452 20432.0 
68.997429 4656.0 
69.033699 12664.0 
71.049377 11575.0 
75.044243 17772.0 
77.381599 2681.0 
78.046623 13291.0 
79.054482 274994.0 
81.033707 185338.0 
81.064941 6095.0 
81.070107 143921.0 
82.041542 5073.0 
83.049187 7652.0 
85.028473 7275.0 
87.746712 3026.0 
89.727814 3117.0 
91.054092 13944.0 
92.025681 4742.0 
93.033432 19071.0 
94.041397 48921.0 
95.049232 47187.0 
96.057007 133569.0 
97.028641 4038.0 
97.064941 6664.0 
99.043961 6185.0 
104.282112 2993.0 
105.033363 5906.0 
105.044739 5096.0 
106.041641 3612.0 
107.012207 3914.0 
107.048866 23128.0 
108.056908 51354.0 
109.028503 36181.0 
109.064758 225423.0 
111.043777 7085.0 
111.080437 53283.0 
113.023209 38386.0 
113.059509 41331.0 
121.028641 33094.0 
121.064301 5837.0 
122.03614 179406.0 
123.044052 14384.0 
124.051804 306861.0 
125.059807 6332.0 
127.038422 4148.0 
128.0466 55711.0 
135.044235 6120.0 
137.023087 75961.0 
137.059204 3990.0 
139.038513 14703.0 
139.075256 436827.0 
141.018265 62755.0 
141.054825 4792.0 
143.069885 14197.0 
151.038696 73427.0 
152.046616 631426.0 
154.062759 29636.0 
155.034256 3933.0 
156.041611 110948.0 
157.965881 3029.0 
165.042236 17320.0 
167.035156 3269.0 
167.069748 4338.0 
169.086151 5899.0 
170.056747 4619.0 
180.041779 7130.0 
184.036957 45908.0 
185.080795 24808.0 
195.065033 4249321.0 
196.069275 3047.0 
222.637405 2944.0 
336.259186 3516.0 
348.144226 59390.0 
END IONS

BEGIN IONS
PRECURSOR_MZ=366.11
INCHI=InChI=1S/C22H17NO3/c24-21-18-13-17(26-14-15-7-3-1-4-8-15)11-12-19(18)23-22(25)20(21)16-9-5-2-6-10-16/h1-13H,14H2,(H2,23,24,25)
SMILES=Oc1nc2ccc(OCc3ccccc3)cc2c(O)c1-c1ccccc1
SCANS=4401
IONMODE=positive
COMPOUND_NAME=4-hydroxy-3-phenyl-6-(phenylmethoxy)hydroquinolin-2-one M+Na
SPECTRUM_ID=CCMSLIB00006689742
63.349751 2208.0 
80.114563 2777.0 
184.543076 2453.0 
189.446075 2488.0 
258.739807 2584.0 
275.054596 13711.0 
309.338623 2855.0 
366.109436 2311939.0 
384.121368 4441.0 
END IONS

BEGIN IONS
PRECURSOR_MZ=269.081
INCHI=InChI=1S/C16H12O4/c1-19-13-3-2-4-14-16(13)12(18)9-15(20-14)10-5-7-11(17)8-6-10/h2-9,17H,1H3
SMILES=COc1cccc2oc(-c3ccc(O)cc3)cc(=O)c12
SCANS=2263
IONMODE=positive
COMPOUND_NAME=Untitled M+H
SPECTRUM_ID=CCMSLIB00006687604
73.267014 2896.0 
73.955856 3720.0 
74.697441 4096.0 
77.667053 3412.0 
108.022507 3373.0 
118.042458 3942.0 
136.217972 3495.0 
145.028275 5628.0 
151.038864 15283.0 
160.922043 3732.0 
215.204987 4208.0 
226.060867 13726.0 
253.049347 35564.0 
254.057022 2705531.0 
267.94397 15955.0 
268.072968 13585.0 
269.080414 14921193.0 
270.225067 18488.0 
END IONS

BEGIN IONS
PRECURSOR_MZ=375.225
INCHI=InChI=1S/C8H16N2O3/c1-3-4-6(8(12)13)10-7(11)5(2)9/h5-6H,3-4,9H2,1-2H3,(H,10,11)(H,12,13)
SMILES=CCCC(N=C(O)C(C)N)C(=O)O
SCANS=14763
IONMODE=negative
COMPOUND_NAME=2-(2-aminopropanoylamino)pentanoic acid 2M-H
SPECTRUM_ID=CCMSLIB00006700104
82.420952 2568.0 
116.07148 3989.0 
116.360001 2605.0 
118.855553 2517.0 
124.740334 2272.0 
143.118896 12715.0 
151.379196 2121.0 
153.719635 2420.0 
184.52626 2542.0 
187.108932 49773.0 
210.715912 3695.0 
248.518219 2386.0 
249.22403 2704.0 
END IONS

BEGIN IONS
PRECURSOR_MZ=407.158
INCHI=InChI=1S/C21H24N2O5/c1-26-17-7-5-4-6-16(17)21(25)23-12-10-22(11-13-23)20(24)15-8-9-18(27-2)19(14-15)28-3/h4-9,14H,10-13H2,1-3H3
SMILES=COc1ccc(C(=O)N2CCN(C(=O)c3ccccc3OC)CC2)cc1OC
SCANS=16574
IONMODE=positive
COMPOUND_NAME=3,4-dimethoxyphenyl 4-[(2-methoxyphenyl)carbonyl]piperazinyl ketone M+Na
SPECTRUM_ID=CCMSLIB00006701915
70.078583 3238.0 
83.194237 2943.0 
90.954033 2684.0 
92.382851 3295.0 
103.470123 2935.0 
104.289459 3756.0 
136.21875 3181.0 
195.437302 3188.0 
197.912994 2880.0 
245.225525 3514.0 
251.264603 2709.0 
292.310333 3035.0 
392.133148 5859.0 
407.157379 4878952.0 
END IONS

BEGIN IONS
PRECURSOR_MZ=132.102
INCHI=InChI=1S/C6H13NO2/c1-2-3-4-5(7)6(8)9/h5H,2-4,7H2,1H3,(H,8,9)/t5-/m0/s1
SMILES=CCCC[C@H](N)C(=O)O
SCANS=24363
IONMODE=positive
COMPOUND_NAME=L-Norleucine M+H
SPECTRUM_ID=CCMSLIB00006709704
63.822498 55015.398438 
66.7584 96019.5 
69.070396 826416.0 
80.741798 57160.800781 
82.420303 72730.101562 
86.096901 15275600.0 
102.535004 59061.601562 
104.310997 73775.398438 
132.102997 99620.203125 
END IONS

BEGIN IONS
PRECURSOR_MZ=357.145
INCHI=InChI=1S/C19H20N2O5/c1-24-15-9-12(10-16(25-2)17(15)26-3)18(22)21-14-8-11-6-4-5-7-13(11)20-19(14)23/h4-7,9-10,14H,8H2,1-3H3,(H,20,23)(H,21,22)
SMILES=COc1cc(C(O)=NC2Cc3ccccc3N=C2O)cc(OC)c1OC
SCANS=8255
IONMODE=positive
COMPOUND_NAME=N-(2-oxo(3-1,3,4-trihydroquinolyl))(3,4,5-trimethoxyphenyl)carboxamide M+H
SPECTRUM_ID=CCMSLIB00006693596
65.038887 4047.0 
66.092911 3095.0 
70.033524 2782.0 
75.044479 3567.0 
79.054489 37671.0 
81.033943 14762.0 
81.069931 17076.0 
82.408623 3929.0 
85.664726 3182.0 
90.976837 3876.0 
96.05732 4295.0 
104.293427 4133.0 
109.064781 35060.0 
111.044037 3106.0 
111.080566 7711.0 
113.023361 14289.0 
122.036324 18439.0 
124.052017 31074.0 
128.046936 22674.0 
135.8582 3999.0 
136.224609 3406.0 
137.023041 4248.0 
139.075424 96017.0 
141.018433 30364.0 
143.070435 5309.0 
146.060104 19435.0 
151.037674 4720.0 
152.046844 101679.0 
156.041595 54305.0 
165.05365 3393.0 
180.041245 6720.0 
184.037338 5707.0 
185.081268 22961.0 
192.411514 3722.0 
194.361603 10940.0 
195.065247 8809822.0 
195.771973 15231.0 
247.00824 3265.0 
256.564392 4360.0 
288.923035 5328.0 
333.846741 3997.0 
337.109985 3709.0 
339.132477 23122.0 
357.144135 570890.0 
END IONS

BEGIN IONS
PRECURSOR_MZ=347.222
INCHI=InChI=1S/C21H30O4/c1-20-8-7-13(23)9-12(20)3-4-14-15-5-6-16(18(25)11-22)21(15,2)10-17(24)19(14)20/h9,14-17,19,22,24H,3-8,10-11H2,1-2H3/t14-,15-,16+,17-,19+,20-,21-/m0/s1
SMILES=CC12CCC(=O)C=C1CCC1C2C(O)CC2(C)C(C(=O)CO)CCC12
SCANS=16457
IONMODE=positive
COMPOUND_NAME=50-22-6 M+H
SPECTRUM_ID=CCMSLIB00006701798
50.59547 199661.0 
52.989262 218435.0 
53.039261 393384.0 
55.018391 436198.0 
55.054878 799918.0 
58.788052 221192.0 
67.054909 2331167.0 
69.034248 694962.0 
69.070312 974426.0 
69.079872 177003.0 
79.054832 4389885.0 
81.070457 3593941.0 
83.049744 2832444.0 
83.086029 193589.0 
87.044167 997722.0 
91.054718 3782040.0 
93.070343 5028201.0 
95.049698 319145.0 
95.08596 4137141.0 
97.065231 8917348.0 
101.052818 211445.0 
101.059914 1327292.0 
105.070122 6188736.0 
107.0495 861925.0 
107.085777 5323661.0 
109.065048 5254282.0 
109.101471 466641.0 
111.044434 314619.0 
111.080513 208307.0 
115.055069 283919.0 
117.070236 1775188.0 
118.584778 201420.0 
119.085693 4764175.0 
121.064949 15415365.0 
121.101219 1335931.0 
123.080544 6909299.0 
128.062317 316842.0 
129.069733 1608588.0 
131.085846 3557517.0 
133.064621 464793.0 
133.101212 3882558.0 
135.080551 2862762.0 
135.116623 1076261.0 
137.096085 456084.0 
141.069656 418359.0 
142.077271 932916.0 
143.085434 3340606.0 
145.064865 245031.0 
145.101044 5045084.0 
147.080475 1783746.0 
147.11618 2609031.0 
149.095795 1051032.0 
155.085144 1563733.0 
156.09343 1163063.0 
157.100983 3747362.0 
159.081161 609490.0 
159.116806 2948454.0 
161.096313 2104671.0 
161.132553 441521.0 
163.111771 3514861.0 
167.085373 312986.0 
169.101212 1834630.0 
171.079971 273871.0 
171.116562 3179495.0 
173.096344 1419621.0 
173.131897 885676.0 
175.11203 1859593.0 
177.126907 785798.0 
179.085266 304188.0 
181.100708 1145273.0 
182.109711 294809.0 
183.116318 1525556.0 
185.132599 1038044.0 
187.111038 1063347.0 
187.147995 462136.0 
189.126785 1288196.0 
193.101486 395887.0 
193.122177 921548.0 
195.11647 1206775.0 
197.132599 1303968.0 
199.111588 273581.0 
199.147919 279412.0 
201.126984 859095.0 
207.116287 352189.0 
207.137558 230199.0 
209.131897 817707.0 
210.553558 382553.0 
211.112213 319095.0 
211.147659 884356.0 
213.127106 466201.0 
215.142944 285034.0 
223.147827 775602.0 
225.163498 819681.0 
227.142639 399733.0 
229.158203 1289012.0 
233.155411 256716.0 
235.146973 444365.0 
237.165894 327379.0 
241.157837 975400.0 
245.1539 332120.0 
247.145844 255049.0 
251.179062 1072060.0 
253.158813 1087894.0 
253.192978 222765.0 
263.179504 207246.0 
265.159454 476718.0 
265.194214 865686.0 
267.173279 295815.0 
269.189178 1429626.0 
271.169739 314681.0 
271.204926 382339.0 
275.179718 457768.0 
281.189453 778138.0 
283.170197 632462.0 
283.20578 1105688.0 
293.189423 4301229.0 
299.201111 325832.0 
311.200073 6073291.0 
327.464935 216870.0 
329.210449 15055622.0 
344.362793 212822.0 
347.221039 47276200.0 
END IONS

BEGIN IONS
PRECURSOR_MZ=619.203
INCHI=InChI=1S/C15H18O7/c1-12(2,18)6-7-10(16)20-8(6)9-13(3)14(7,19)4-5-15(13,22-5)11(17)21-9/h5-9,18-19H,4H2,1-3H3/t5-,6+,7-,8-,9-,13-,14-,15+/m1/s1
SMILES=CC(C)(O)C1C2OC(=O)C1C1(O)CC3OC34C(=O)OC2C14C
SCANS=19004
IONMODE=negative
COMPOUND_NAME=picrotin 2M-H
SPECTRUM_ID=CCMSLIB00006704345
55.018421 6118.0 
57.034191 8906.0 
59.013359 15016.0 
63.65118 3626.0 
65.039253 20860.0 
66.752563 4993.0 
66.756462 3406.0 
67.018669 7848.0 
69.034286 14525.0 
71.013474 4196.0 
71.049927 105951.0 
79.055153 21735.0 
81.03437 25054.0 
83.013969 6536.0 
83.050049 61098.0 
87.00869 15446.0 
93.034439 39358.0 
95.013718 25629.0 
95.050209 18956.0 
97.02948 19055.0 
97.065804 3860.0 
106.042641 15201.0 
106.674728 3521.0 
107.050209 120651.0 
108.021477 16595.0 
109.029472 1208797.0 
109.065811 89697.0 
111.04512 833381.0 
111.063721 5160.0 
115.055573 6381.0 
117.070938 23082.0 
119.050003 9169.0 
119.086967 26257.0 
120.057823 4811.0 
121.029442 4543.0 
121.065697 58550.0 
122.037079 22374.0 
123.045143 74740.0 
123.054443 6557.0 
125.02462 14660.0 
125.060883 65612.0 
127.040443 3637.0 
127.076103 27925.0 
130.042252 24840.0 
133.064896 26961.0 
134.037079 7858.0 
135.045044 48977.0 
135.081528 102821.0 
136.236145 3617.0 
137.024323 1305375.0 
137.06102 18925.0 
139.039764 14600.0 
142.026901 5671.0 
143.050186 83537.0 
144.058838 4006.0 
145.029388 6885.0 
145.065735 111326.0 
146.037247 8224.0 
147.044922 6988.0 
148.053009 50993.0 
149.096436 6068.0 
151.039886 6924.0 
151.076431 15941.0 
155.03389 4819.0 
159.081802 4484.0 
159.117233 4582.0 
161.060623 96293.0 
163.076202 51655.0 
165.055099 6850.0 
165.091232 4912.0 
171.066284 47971.0 
174.031708 14535.0 
175.112564 56990.0 
177.092209 18829.0 
177.128052 42054.0 
177.745926 3839.0 
178.099564 6676.0 
179.071167 47232.0 
189.055573 55497.0 
193.123337 192970.0 
203.107773 22498.0 
207.06604 53567.0 
209.153458 13562.0 
219.102234 8868.0 
221.118042 16050.0 
237.1129 106434.0 
247.096146 8754.0 
251.056137 16597.0 
281.103149 68459.0 
309.097931 3594585.0 
END IONS

BEGIN IONS
PRECURSOR_MZ=467.171
INCHI=InChI=1S/C13H14O4/c1-16-11-8-7-10(9-12(11)17-2)5-3-4-6-13(14)15/h3-9H,1-2H3,(H,14,15)/b5-3+,6-4+
SMILES=COc1ccc(C=CC=CC(=O)O)cc1OC
SCANS=22712
IONMODE=negative
COMPOUND_NAME=(2E,4E)-5-(3,4-dimethoxyphenyl)penta-2,4-dienoic acid 2M-H
SPECTRUM_ID=CCMSLIB00006708053
53.248909 2313.0 
59.06353 2137.0 
59.06736 2122.0 
60.542561 2841.0 
104.293488 2662.0 
121.029694 4696.0 
253.366119 2638.0 
319.096985 3244.0 
334.122345 3714.0 
349.144012 3298.0 
364.166656 27004.0 
379.195984 5438.0 
389.949463 2402.0 
END IONS

BEGIN IONS
PRECURSOR_MZ=409.138
INCHI=InChI=1S/C20H21F3N2O4/c1-11-13(16-10-12(29-20(21,22)23)6-7-17(16)25-11)8-9-24-18(26)14-4-2-3-5-15(14)19(27)28/h2-3,6-7,10,14-15,25H,4-5,8-9H2,1H3,(H,24,26)(H,27,28)
SMILES=Cc1[nH]c2ccc(OC(F)(F)F)cc2c1CCN=C(O)C1CC=CCC1C(=O)O
SCANS=3632
IONMODE=negative
COMPOUND_NAME=6-(N-{2-[2-methyl-5-(trifluoromethoxy)indol-3-yl]ethyl}carbamoyl)cyclohex-3-en ecarboxylic acid M-H
SPECTRUM_ID=CCMSLIB00006688973
84.990448 18748.0 
90.012093 3545.0 
95.010727 3163.0 
96.008598 4379.0 
104.308159 2667.0 
111.142738 2815.0 
116.792023 3019.0 
124.076698 26884.0 
126.011543 5702.0 
136.230453 3237.0 
150.055969 2090101.0 
163.443436 2774.0 
167.467194 3260.0 
168.066833 6597.0 
183.069351 3145.0 
232.711838 3264.0 
240.065704 3292.0 
257.090393 127049.0 
278.913544 3515.0 
282.979034 6080.0 
302.985138 4242.0 
304.983063 201291.0 
324.988922 119665.0 
344.996429 4635.0 
348.972992 6864.0 
365.147797 70135.0 
368.981049 15944.0 
388.986328 17988.0 
391.127686 489686.0 
408.989685 51124.0 
409.138184 2391633.0 
END IONS

BEGIN IONS
PRECURSOR_MZ=426.022
INCHI=InChI=1S/C10H15N5O10P2/c11-8-5-9(13-2-12-8)15(3-14-5)10-7(17)6(16)4(24-10)1-23-27(21,22)25-26(18,19)20/h2-4,6-7,10,16-17H,1H2,(H,21,22)(H2,11,12,13)(H2,18,19,20)/t4-,6-,7-,10-/m1/s1
SMILES=Nc1ncnc2c1ncn2[C@@H]1O[C@H](COP(=O)(O)OP(=O)(O)O)[C@@H](O)[C@H]1O
SCANS=23684
IONMODE=negative
COMPOUND_NAME=Adenosine diphosphate M-H
SPECTRUM_ID=CCMSLIB00006709025
53.326 6563.939941 
54.7715 5453.330078 
58.638599 5795.529785 
63.235802 7443.279785 
73.391701 6195.830078 
76.996101 5926.120117 
78.9589 626410.0 
82.551697 6586.430176 
96.969803 25128.5 
104.255997 6224.220215 
120.293999 5875.029785 
134.046997 380131.0 
139.362 6276.560059 
158.925995 468060.0 
193.078003 6597.450195 
235.462997 6295.459961 
267.031006 8100.52002 
272.958008 55026.0 
290.363007 6578.700195 
290.970001 10407.400391 
304.016998 15006.200195 
328.04599 254241.0 
346.054993 10182.700195 
408.011993 87507.898438 
426.02301 1215100.0 
END IONS

BEGIN IONS
PRECURSOR_MZ=323.212
INCHI=InChI=1S/C21H26N2O/c1-23(20(24)18-12-22-19-5-3-2-4-17(18)19)13-21-9-14-6-15(10-21)8-16(7-14)11-21/h2-5,12,14-16,22H,6-11,13H2,1H3
SMILES=CN(CC12CC3CC(CC(C3)C1)C2)C(=O)c1c[nH]c2ccccc12
SCANS=12502
IONMODE=positive
COMPOUND_NAME=N-(adamantanylmethyl)indol-3-yl-N-methylcarboxamide M+H
SPECTRUM_ID=CCMSLIB00006697843
55.05479 139280.0 
57.77821 90001.0 
64.135567 77885.0 
65.038971 507366.0 
65.964531 73531.0 
67.054604 9776976.0 
69.070236 2112482.0 
72.517517 89554.0 
79.049248 190613.0 
79.054466 5654185.0 
81.070099 16283135.0 
81.507713 83149.0 
83.085762 1721678.0 
89.038879 141696.0 
91.054329 1478919.0 
93.069946 27370184.0 
95.085533 1665510.0 
105.069771 545835.0 
107.085449 18554476.0 
116.049294 987768.0 
118.065033 1200297.0 
121.101044 10093441.0 
127.216057 89510.0 
135.116348 167008.0 
138.662659 79359.0 
144.04425 90725704.0 
147.116547 351807.0 
149.132324 94037016.0 
157.075653 954982.0 
175.086212 2529959.0 
180.174408 35890888.0 
206.154495 96333.0 
323.211121 166625648.0 
END IONS

BEGIN IONS
PRECURSOR_MZ=571.088
INCHI=InChI=1S/C15H10O6/c16-8-1-2-9-10(17)6-13(21-14(9)5-8)7-3-11(18)15(20)12(19)4-7/h1-6,16,18-20H
SMILES=O=c1cc(-c2cc(O)c(O)c(O)c2)oc2cc(O)ccc12
SCANS=8130
IONMODE=negative
COMPOUND_NAME=7,3',4',5'-Tetrahydroxyflavone 2M-H
SPECTRUM_ID=CCMSLIB00006693471
61.186218 2879.0 
62.288059 2919.0 
73.950211 2744.0 
76.212967 2989.0 
82.396919 2769.0 
118.329514 2809.0 
129.077377 2431.0 
135.009521 4763.0 
149.024216 28645.0 
150.967026 2771.0 
168.4198 3690.0 
191.816315 2955.0 
284.697021 2753.0 
285.040619 927980.0 
310.473816 2693.0 
395.613586 3010.0 
434.870148 6740.0 
502.862091 3354.0 
542.31311 3405.0 
END IONS

BEGIN IONS
PRECURSOR_MZ=272.139
INCHI=InChI=1S/C15H17N3O2/c1-2-8-16-14(19)15(20)17-9-7-11-10-18-13-6-4-3-5-12(11)13/h2-6,10,18H,1,7-9H2,(H,16,19)(H,17,20)
SMILES=C=CCNC(=O)C(=O)NCCc1c[nH]c2ccccc12
SCANS=17382
IONMODE=positive
COMPOUND_NAME=N-(2-indol-3-ylethyl)-N'-prop-2-enylethane-1,2-diamide M+H
SPECTRUM_ID=CCMSLIB00006702723
56.049881 6727.0 
58.06546 13655.0 
63.55579 2962.0 
70.41552 2741.0 
72.044724 6994.0 
75.389557 3103.0 
84.044342 33801.0 
84.959396 3523.0 
91.0541 37917.0 
91.059647 3575.0 
92.383476 3457.0 
98.005058 3286.0 
103.053947 151695.0 
103.061607 5382.0 
104.049263 4451.0 
110.66423 3214.0 
115.053978 125644.0 
115.062431 6308.0 
116.048714 6268.0 
116.062424 3649.0 
117.057404 32122.0 
117.069557 774758.0 
118.065117 40972.0 
127.053688 14354.0 
128.049179 27092.0 
128.061676 18414.0 
130.065002 54477.0 
131.068558 8354.0 
131.739319 3871.0 
132.080383 98375.0 
134.059906 6164.0 
136.216309 4682.0 
142.065048 28707.0 
143.072678 493247.0 
143.63472 5296.0 
144.080444 12294131.0 
145.064575 64813.0 
146.059525 28228.0 
155.05983 87725.0 
156.080109 5496.0 
158.060089 34269.0 
169.075317 129771.0 
170.059464 91031.0 
171.092468 9891.0 
184.111099 35744.0 
187.086014 6102.0 
195.079773 7005.0 
197.071457 5418.0 
213.088181 6554.0 
215.080307 26249.0 
225.088196 6368.0 
236.11705 14984.0 
243.112152 48409.0 
254.12796 973521.0 
255.111359 90454.0 
272.138489 161863.0 
272.172089 5437.0 
END IONS

BEGIN IONS
PRECURSOR_MZ=357.3
INCHI=InChI=1S/C21H40O4/c1-2-3-4-5-10-13-16-19(21(24)25)17-14-11-8-6-7-9-12-15-18-20(22)23/h19H,2-18H2,1H3,(H,22,23)(H,24,25)
SMILES=CCCCCCCCC(CCCCCCCCCCC(=O)O)C(=O)O
SCANS=16207
IONMODE=positive
COMPOUND_NAME=2-octyltridecanedioic acid M+H
SPECTRUM_ID=CCMSLIB00006701548
50.989281 2297.0 
55.054741 3665.0 
57.070412 5083.0 
59.169689 2165.0 
66.734444 2705.0 
67.054619 9023.0 
69.070198 11413.0 
71.085823 3485.0 
73.942657 2331.0 
81.070259 5217.0 
83.085716 5190.0 
86.477966 2283.0 
90.976883 4632.0 
93.069893 3243.0 
95.085602 11067.0 
104.272171 2631.0 
107.085251 2528.0 
109.101387 2736.0 
119.71933 2068.0 
121.101372 2375.0 
148.533142 2320.0 
161.974579 2447.0 
193.688858 2352.0 
208.728455 4032.0 
208.748611 3714.0 
220.932892 4706.0 
293.283325 4276.0 
311.291565 3752.0 
321.278381 9648.0 
327.075256 2442.0 
341.092621 12004.0 
357.124603 32054.0 
END IONS

BEGIN IONS
PRECURSOR_MZ=332.103
INCHI=InChI=1S/C19H13N3O3/c20-9-13-15(10-4-3-5-11(23)8-10)16-17(25-18(13)21)12-6-1-2-7-14(12)22-19(16)24/h1-8,15,23H,21H2,(H,22,24)
SMILES=N#CC1=C(N)Oc2c(c(O)nc3ccccc23)C1c1cccc(O)c1
SCANS=8606
IONMODE=positive
COMPOUND_NAME=2-amino-4-(3-hydroxyphenyl)-5-oxo-6-hydro-4H-pyrano[3,2-c]quinoline-3-carbonit rile M+H
SPECTRUM_ID=CCMSLIB00006693947
64.104736 3774.0 
82.40155 2819.0 
84.808617 3220.0 
88.101898 3186.0 
120.044273 44324.0 
131.45546 3687.0 
139.634155 3522.0 
162.055298 4505.0 
163.114761 3612.0 
168.687088 3430.0 
172.744858 3033.0 
211.049133 6771.0 
220.052185 10176.0 
220.073822 7765.0 
237.113907 15012.0 
238.060669 8538419.0 
239.014511 8532.0 
239.041031 4620.0 
266.079651 5332.0 
287.079315 7145.0 
288.064758 4612.0 
292.08374 31205.0 
305.091309 144968.0 
314.089569 4665.0 
315.0755 52405.0 
330.540253 4037.0 
332.102203 3189355.0 
END IONS

BEGIN IONS
PRECURSOR_MZ=267.098
INCHI=InChI=1S/C12H14N2O5/c13-10(15)6-9(11(16)17)14-12(18)19-7-8-4-2-1-3-5-8/h1-5,9H,6-7H2,(H2,13,15)(H,14,18)(H,16,17)/t9-/m1/s1
SMILES=N=C(O)CC(N=C(O)OCc1ccccc1)C(=O)O
SCANS=21761
IONMODE=positive
COMPOUND_NAME=Carbobenzoxy-L-asparagine M+H
SPECTRUM_ID=CCMSLIB00006707102
51.023571 2467.0 
56.965328 2880.0 
65.038857 27175.0 
69.264839 2394.0 
74.023987 4509.0 
87.055191 4445.0 
91.054314 1533379.0 
93.801079 2317.0 
94.591537 2333.0 
104.261757 2516.0 
108.080139 3371.0 
109.641502 2433.0 
109.99131 4239.0 
113.675133 2383.0 
125.00177 3627.0 
128.001755 11517.0 
143.012894 4273.0 
145.027863 2485.0 
146.01268 5662.0 
164.070358 26853.0 
177.10199 25093.0 
178.085419 8173.0 
189.016724 3922.0 
201.921875 3176.0 
203.938965 3561.0 
223.107605 99971.0 
239.077179 12756.0 
242.684189 2719.0 
249.021652 13361.0 
267.03653 2374.0 
267.073181 3536.0 
267.121063 12206.0 
267.15448 3508.0 
285.082581 14988.0 
END IONS

BEGIN IONS
PRECURSOR_MZ=488.183
INCHI=InChI=1S/C26H25N3O4/c1-17-21(22-7-3-4-8-23(22)28-17)13-14-27-26(31)24(16-20-6-5-15-33-20)29-25(30)18-9-11-19(32-2)12-10-18/h3-12,15-16,28H,13-14H2,1-2H3,(H,27,31)(H,29,30)/b24-16-
SMILES=COc1ccc(C(=O)NC(=Cc2ccco2)C(O)=NCCc2c(C)[nH]c3ccccc23)cc1
SCANS=19171
IONMODE=negative
COMPOUND_NAME=(2Z)-3-(2-furyl)-2-[(4-methoxyphenyl)carbonylamino]-N-[2-(2-methylindol-3-yl)e thyl]prop-2-enamide M+formate
SPECTRUM_ID=CCMSLIB00006704512
56.261742 2364.0 
73.961121 2300.0 
78.28006 2601.0 
80.703148 2637.0 
85.431313 2894.0 
92.389847 3977.0 
95.574509 2849.0 
105.020027 2450.0 
109.615677 2715.0 
134.938797 2513.0 
225.515915 2691.0 
442.177307 23057.0 
END IONS

BEGIN IONS
PRECURSOR_MZ=429.077
INCHI=InChI=1S/C23H18O5S/c1-15-7-11-17(12-8-15)22-23(21(24)19-5-3-4-6-20(19)27-22)28-29(25,26)18-13-9-16(2)10-14-18/h3-14H,1-2H3
SMILES=Cc1ccc(-c2oc3ccccc3c(=O)c2OS(=O)(=O)c2ccc(C)cc2)cc1
SCANS=14077
IONMODE=positive
COMPOUND_NAME=2-(4-methylphenyl)-4-oxochromen-3-yl 4-methylbenzenesulfonate M+Na
SPECTRUM_ID=CCMSLIB00006699418
50.835049 2173.0 
72.05899 2222.0 
92.363617 3446.0 
98.983727 2600.0 
104.264923 2533.0 
113.508072 2729.0 
118.63488 3280.0 
147.428146 2653.0 
157.942383 2683.0 
203.624802 2559.0 
242.203613 2801.0 
266.936493 3190.0 
274.059845 732949.0 
315.085907 4305.0 
360.447876 3120.0 
387.395386 2957.0 
420.854218 2847.0 
429.076477 164366.0 
END IONS

BEGIN IONS
PRECURSOR_MZ=312.114
INCHI=InChI=1S/C15H19N3OS/c19-15-4-1-3-14-13-7-12(9-18(14)15)8-17(10-13)6-2-5-16-11-20/h1,3-4,12-13H,2,5-10H2
SMILES=O=c1cccc2n1CC1CC2CN(CCCN=C=S)C1
SCANS=17716
IONMODE=positive
COMPOUND_NAME=3-(6-oxo-7,11-diazatricyclo[7.3.1.0<2,7>]trideca-2,4-dien-11-yl)propanisothioc yanate M+Na
SPECTRUM_ID=CCMSLIB00006703057
73.7379 3132.0 
74.02581 2575.0 
84.95961 4606.0 
92.367882 3356.0 
140.085907 2966.0 
157.956757 2956.0 
171.242767 3172.0 
213.099686 245279.0 
228.112717 13421.0 
238.094894 82894.0 
240.109467 26380.0 
256.143433 53092.0 
260.930817 5231.0 
288.92688 18096.0 
295.034058 3413.0 
312.113556 5699085.0 
END IONS

BEGIN IONS
PRECURSOR_MZ=354.088
INCHI=InChI=1S/C16H17N3O3S/c17-8-11-7-10-3-1-4-12(10)18-15(11)23-9-14(20)19-6-2-5-13(19)16(21)22/h7,13H,1-6,9H2,(H,21,22)/t13-/m0/s1
SMILES=N#Cc1cc2c(nc1SCC(=O)N1CCCC1C(=O)O)CCC2
SCANS=18703
IONMODE=positive
COMPOUND_NAME=(2S)-1-[2-(3-cyano(5,6,7-trihydrocyclopenta[1,2-e]pyridin-2-ylthio))acetyl]pyr rolidine-2-carboxylic acid M+Na
SPECTRUM_ID=CCMSLIB00006704044
50.489552 2178.0 
89.908073 2630.0 
90.903412 2202.0 
92.374741 2516.0 
104.281464 3123.0 
122.850861 2461.0 
138.052505 40777.0 
189.048706 2809.0 
239.024902 24378.0 
257.035065 103827.0 
354.087463 532370.0 
END IONS

BEGIN IONS
PRECURSOR_MZ=367.176
INCHI=InChI=1S/C20H22N4O3/c1-24-13-22-23-20(24)14-4-7-16(8-5-14)21-11-10-17(25)15-6-9-18(26-2)19(12-15)27-3/h4-9,12-13,21H,10-11H2,1-3H3
SMILES=COc1ccc(C(=O)CCNc2ccc(-c3nncn3C)cc2)cc1OC
SCANS=14907
IONMODE=positive
COMPOUND_NAME=1-(3,4-dimethoxyphenyl)-3-{[4-(4-methyl(1,2,4-triazol-3-yl))phenyl]amino}propa n-1-one M+H
SPECTRUM_ID=CCMSLIB00006700248
50.85881 3848.0 
55.018372 3803.0 
57.045109 6488.0 
57.517479 3959.0 
59.090038 3653.0 
63.69696 5416.0 
79.054428 25448.0 
89.038712 8857.0 
91.054352 22576.0 
92.049026 6753.0 
103.054161 32422.0 
104.049309 66488.0 
104.062073 8663.0 
105.057129 5895.0 
105.069862 44862.0 
106.065201 28136.0 
115.054176 26351.0 
117.057121 63819.0 
118.05275 7614.0 
118.054993 7582.0 
118.064911 72546.0 
119.060448 106160.0 
124.051773 80848.0 
130.053879 10172.0 
130.065186 43047.0 
131.060486 124720.0 
131.072998 35900.0 
132.080734 1374410.0 
133.065002 5188.0 
133.076035 15257.0 
134.059036 5282.0 
134.071152 8933.0 
137.047134 71946.0 
139.075409 74949.0 
144.068268 27147.0 
145.063202 41127.0 
145.076141 48041.0 
146.071259 398840.0 
147.079025 18391.0 
151.039032 6290.0 
157.076538 7021.0 
158.071198 146524.0 
158.083908 10253.0 
159.078674 14230.0 
159.091949 86094.0 
160.086945 263595.0 
161.046738 5852.0 
165.054596 48521.0 
166.062958 21154.0 
172.074127 47631.0 
173.082199 276886.0 
174.089951 193790.0 
175.097794 40248.0 
180.077744 15304.0 
181.086227 80419.0 
185.081589 62210.0 
186.09053 21295.0 
186.43576 9000.0 
187.097748 18828348.0 
187.763412 6985.0 
188.105286 113571.0 
188.123413 8209.0 
191.068787 195745.0 
199.09761 6455.0 
200.106598 5450.0 
201.113159 197846.0 
215.12999 6344.0 
220.095871 98142.0 
255.058136 4572.0 
303.123688 4885.0 
305.140259 19413.0 
309.134583 83093.0 
321.13446 58718.0 
323.149353 103215.0 
333.132477 7910.0 
349.125366 6272.0 
351.144592 1025790.0 
352.153961 8110.0 
367.175934 7986488.0 
END IONS

BEGIN IONS
PRECURSOR_MZ=283.096
INCHI=InChI=1S/C17H14O4/c1-19-15-5-3-2-4-12(15)6-8-14(18)13-7-9-16-17(10-13)21-11-20-16/h2-10H,11H2,1H3/b8-6+
SMILES=COc1ccccc1C=CC(=O)c1ccc2c(c1)OCO2
SCANS=13756
IONMODE=positive
COMPOUND_NAME=(2E)-1-(2H-benzo[3,4-d]1,3-dioxolan-5-yl)-3-(2-methoxyphenyl)prop-2-en-1-one M+H
SPECTRUM_ID=CCMSLIB00006699097
51.02354 10684.0 
53.002659 14477.0 
53.03904 12478.0 
55.018299 18831.0 
65.038971 52369.0 
67.018211 4941.0 
68.997498 37631.0 
77.038689 4325.0 
79.054527 89989.0 
84.959953 4109.0 
89.038887 3472.0 
91.054703 20070.0 
95.012962 36220.0 
95.049278 4288.0 
97.549896 2875.0 
103.054207 26010.0 
104.271027 3602.0 
105.033463 12322.0 
105.069893 328609.0 
107.049088 13985.0 
113.41523 3549.0 
115.054108 11573.0 
118.041267 112286.0 
119.049957 4249.0 
125.02356 6648.0 
131.048706 6352.0 
133.064545 22663.0 
134.639542 3231.0 
135.044022 2942578.0 
137.060226 3959.0 
139.0392 4332.0 
141.069214 3173.0 
143.383392 3162.0 
146.036041 128060.0 
147.044083 19925.0 
149.023315 1182018.0 
161.059647 483150.0 
165.068863 20073.0 
175.038559 30265.0 
177.054276 3991.0 
182.072021 5112.0 
183.08046 20866.0 
211.075302 14839.0 
225.054123 3184.0 
241.085678 1389958.0 
268.072937 3917.0 
283.09613 860348.0 
293.78598 3138.0 
END IONS

BEGIN IONS
PRECURSOR_MZ=317.066
INCHI=InChI=1S/C16H12O7/c1-22-11-3-2-7(4-9(11)18)16-15(21)14(20)13-10(19)5-8(17)6-12(13)23-16/h2-6,17-19,21H,1H3
SMILES=COc1ccc(-c2oc3cc(O)cc(O)c3c(=O)c2O)cc1O
SCANS=17356
IONMODE=positive
COMPOUND_NAME=Tamarixetin M+H
SPECTRUM_ID=CCMSLIB00006702697
65.039223 3711.0 
66.728622 3189.0 
68.99733 5081.0 
92.025726 45606.0 
93.033607 52157.0 
109.027893 3761.0 
111.007401 13813.0 
121.028473 53178.0 
124.05146 3281.0 
126.031281 20377.0 
136.179367 2832.0 
137.023041 12817.0 
139.039413 23105.0 
150.031937 3360.0 
151.039001 34735.0 
153.01828 388297.0 
162.728821 2602.0 
163.038757 12560.0 
165.018387 32573.0 
166.026154 4070.0 
173.059418 4688.0 
177.05423 15611.0 
183.028015 5535.0 
191.035751 2804.0 
200.045868 6240.0 
201.054367 37976.0 
203.033447 19446.0 
204.041641 3176.0 
208.112213 5220.0 
210.12056 3054.0 
217.049637 38316.0 
218.057053 32528.0 
219.02829 5681.0 
228.041428 65563.0 
229.04953 128786.0 
231.029236 24972.0 
232.03595 4569.0 
243.064987 6546.0 
245.043884 51918.0 
246.0522 100054.0 
256.036926 15899.0 
257.044464 119737.0 
259.023224 3267.0 
260.031738 26468.0 
261.07605 16185.0 
271.061188 20006.0 
273.039001 116904.0 
274.047058 280215.0 
284.031494 35459.0 
285.039215 163830.0 
286.04599 5244.0 
287.018738 4833.0 
288.063507 13004.0 
301.033661 6427.0 
302.041931 771617.0 
317.06543 2143231.0 
491.567505 2997.0 
END IONS

BEGIN IONS
PRECURSOR_MZ=403.321
INCHI=InChI=1S/C26H44O4/c1-5-30-24(29)11-6-16(2)20-9-10-21-19-8-7-17-14-18(27)12-13-25(17,3)22(19)15-23(28)26(20,21)4/h16-23,27-28H,5-15H2,1-4H3/t16-,17-,18-,19+,20-,21+,22+,23+,25+,26-/m1/s1
SMILES=CCOC(=O)CCC(C)C1CCC2C3CCC4CC(O)CCC4(C)C3CC(O)C12C
SCANS=18793
IONMODE=positive
COMPOUND_NAME=ethyl 4-((1S,2S,11S,16S,5R,7R,10R,14R,15R)-5,16-dihydroxy-2,15-dimethyltetracy clo[8.7.0.0<2,7>.0<11,15>]heptadec-14-yl)pentanoate M+H-H2O
SPECTRUM_ID=CCMSLIB00006704134
53.03915 4416.0 
55.054741 32261.0 
57.07021 3226.0 
59.04958 2887.0 
67.054581 90275.0 
69.070221 37382.0 
77.881897 3083.0 
79.054413 59676.0 
81.070137 181505.0 
83.049461 11667.0 
83.085854 27368.0 
85.064949 10944.0 
91.054321 51034.0 
93.069992 138144.0 
93.07518 2474.0 
95.085617 152347.0 
97.06485 10545.0 
97.101181 5001.0 
101.059563 39813.0 
105.069847 103395.0 
107.085449 154834.0 
109.065048 12157.0 
109.101067 92029.0 
111.080597 3787.0 
117.069809 15319.0 
119.085487 106779.0 
121.101051 96184.0 
121.110298 4657.0 
123.080467 12564.0 
123.116608 15221.0 
129.091064 12983.0 
131.08548 36969.0 
133.101089 100348.0 
135.080551 5637.0 
135.116745 97522.0 
136.50618 3190.0 
137.096146 4801.0 
143.085495 14010.0 
143.106598 4723.0 
145.101166 52762.0 
147.116714 87971.0 
149.095993 13843.0 
149.132263 53862.0 
151.111298 5476.0 
155.085602 4242.0 
157.100983 16922.0 
159.11676 56836.0 
161.132431 66695.0 
163.110764 5276.0 
163.147827 16603.0 
169.100815 5276.0 
169.121872 3169.0 
171.116867 5744.0 
173.095215 3638.0 
173.132217 31986.0 
175.111862 3625.0 
175.147675 39777.0 
177.127457 12816.0 
177.163223 10473.0 
183.117081 6504.0 
183.136429 3160.0 
185.132309 15740.0 
187.113434 4070.0 
187.14798 39049.0 
189.163055 22781.0 
195.137558 6652.0 
197.131943 5373.0 
199.147827 6589.0 
201.163696 36545.0 
203.142822 4573.0 
203.178925 21100.0 
209.153198 9250.0 
211.148193 13139.0 
213.163727 5689.0 
215.179276 40101.0 
217.193985 3940.0 
219.173309 4121.0 
221.153091 5019.0 
223.16861 21090.0 
225.163483 5984.0 
227.178543 6096.0 
229.158386 14291.0 
229.194397 31894.0 
235.170029 3705.0 
239.178238 3262.0 
241.19487 4292.0 
243.175369 3942.0 
243.210556 16549.0 
247.166214 3139.0 
249.184784 21284.0 
263.199768 4611.0 
275.199982 17863.0 
289.216339 11724.0 
297.257568 5581.0 
303.232025 12347.0 
311.273682 12953.0 
311.759033 3395.0 
321.256866 45268.0 
339.267456 97108.0 
357.277863 28260.0 
385.309418 444168.0 
403.321747 21021.0 
END IONS

BEGIN IONS
PRECURSOR_MZ=399.1
INCHI=InChI=1S/C19H16N6OS/c20-8-11-7-13-15(21)16(27-19(13)25-17(11)22)18(26)23-6-5-10-9-24-14-4-2-1-3-12(10)14/h1-4,7,9,24H,5-6,21H2,(H2,22,25)(H,23,26)
SMILES=N#Cc1cc2c(N)c(C(=O)NCCc3c[nH]c4ccccc34)sc2[nH]c1=N
SCANS=17753
IONMODE=positive
COMPOUND_NAME=(3,6-diamino-5-cyanothiopheno[2,3-b]pyridin-2-yl)-N-(2-indol-3-ylethyl)carboxa mide M+Na
SPECTRUM_ID=CCMSLIB00006703094
55.846828 2423.0 
84.959869 2521.0 
104.271927 2885.0 
135.345505 2662.0 
144.081329 4101.0 
318.837738 2631.0 
380.006409 2766.0 
396.805939 2488.0 
399.099121 1074432.0 
END IONS

BEGIN IONS
PRECURSOR_MZ=669.422
INCHI=InChI=1S/C36H62O11/c1-10-34(31-20(3)16-26(43-31)28-19(2)15-21(4)36(41,18-37)46-28)12-11-27(44-34)33(8)13-14-35(47-33)17-25(38)22(5)30(45-35)23(6)29(42-9)24(7)32(39)40/h19-31,37-38,41H,10-18H2,1-9H3,(H,39,40)/t19-,20-,21+,22+,23-,24?,25-,26+,27+,28-,29+,30-,31+,33-,34-,35+,36-/m0/s1
SMILES=CCC1(C2OC(C3OC(O)(CO)C(C)CC3C)CC2C)CCC(C2(C)CCC3(CC(O)C(C)C(C(C)C(OC)C(C)C(=O)O)O3)O2)O1
SCANS=14921
IONMODE=negative
COMPOUND_NAME=AC1L9PTI M-H
SPECTRUM_ID=CCMSLIB00006700262
51.94315 2960.0 
55.884121 2865.0 
57.034119 35760.0 
58.005341 3789.0 
66.745567 3463.0 
68.45002 3028.0 
71.049744 5756.0 
73.95575 3317.0 
77.454193 2745.0 
85.029243 14131.0 
85.128906 2963.0 
87.044937 93573.0 
97.065643 4695.0 
99.044884 13419.0 
101.060791 72844.0 
104.287193 4593.0 
111.081581 12095.0 
113.061073 6121.0 
123.081123 3927.0 
125.060181 2961.0 
137.096909 24055.0 
137.624283 2689.0 
141.091858 6476.0 
141.890396 3285.0 
153.092407 4307.0 
177.128387 3526.0 
223.739883 3425.0 
253.643021 3008.0 
276.339478 2981.0 
293.676392 2898.0 
409.220764 3433.0 
526.931519 3636.0 
637.404907 5539.0 
669.423035 728981.0 
END IONS

BEGIN IONS
PRECURSOR_MZ=419.134
INCHI=InChI=1S/C21H22O9/c1-24-13-7-10(8-14(25-2)17(13)26-3)12-9-11(22)15-16(23)19(27-4)21(29-6)20(28-5)18(15)30-12/h7-9,23H,1-6H3
SMILES=COc1cc(-c2cc(=O)c3c(O)c(OC)c(OC)c(OC)c3o2)cc(OC)c1OC
SCANS=10586
IONMODE=positive
COMPOUND_NAME=Gardenin M+H
SPECTRUM_ID=CCMSLIB00006695927
57.938568 3410.0 
61.781261 3150.0 
66.480087 2990.0 
82.38308 3223.0 
90.976624 5909.0 
136.185532 4855.0 
157.94429 4147.0 
167.033997 14024.0 
169.279373 3377.0 
178.062805 3754.0 
193.08609 7536.0 
195.028702 3903.0 
195.063812 6278.0 
197.008347 7472.0 
215.018494 4884.0 
227.054611 42791.0 
283.060028 3599.0 
310.046204 7483.0 
311.057709 3151.0 
313.073303 4339.0 
315.084473 5943.0 
325.069977 23214.0 
328.057709 50371.0 
328.098358 5086.0 
329.1008 5257.0 
330.108917 14095.0 
332.087891 8100.0 
343.041992 14616.0 
343.080994 52567.0 
345.056793 4936.0 
345.0979 6881.0 
346.060852 10402.0 
350.89209 7668.0 
353.066803 6009.0 
356.049957 33249.0 
357.097961 47290.0 
358.06076 6232.0 
358.104858 109611.0 
359.039124 19645.0 
361.091522 47571.0 
369.098328 7772.0 
371.075623 581446.0 
373.092041 232203.0 
373.130768 4438.0 
374.061279 34482.0 
375.106415 28296.0 
385.091125 67545.0 
386.098663 89872.0 
389.086365 1778686.0 
390.095764 6790.0 
403.101624 106660.0 
404.109863 154047.0 
416.907501 5498.0 
419.133209 7045167.0 
421.376862 5853.0 
END IONS

BEGIN IONS
PRECURSOR_MZ=630.071
INCHI=InChI=1S/C17H27N3O17P2/c1-6(22)18-10-13(26)11(24)7(4-21)35-16(10)36-39(31,32)37-38(29,30)33-5-8-12(25)14(27)15(34-8)20-3-2-9(23)19-17(20)28/h2-3,7-8,10-16,21,24-27H,4-5H2,1H3,(H,18,22)(H,29,30)(H,31,32)(H,19,23,28)/t7-,8-,10-,11+,12-,13-,14-,15?,16-/m1/s1
SMILES=CC(O)=N[C@H]1[C@@H](OP(=O)(O)OP(=O)(O)OC[C@H]2OC(n3ccc(O)nc3=O)[C@H](O)[C@@H]2O)O[C@H](CO)[C@H](O)[C@@H]1O
SCANS=758
IONMODE=positive
COMPOUND_NAME=UDP-N-acetyl-D-galactosamine M+Na
SPECTRUM_ID=CCMSLIB00006686099
53.941002 2984.909912 
92.395302 3515.75 
97.009903 2564.419922 
97.028702 14706.299805 
97.091103 2642.73999 
104.307999 2810.310059 
109.078003 3315.699951 
119.389999 3034.530029 
119.886002 2830.77002 
120.966003 12005.099609 
184.061005 2976.360107 
200.932007 66713.0 
216.987 12541.799805 
226.067993 18875.400391 
227.065994 4112.330078 
234.998001 4878.350098 
249.048004 25433.699219 
296.953003 13762.200195 
314.963989 6584.0 
329.013 20602.900391 
347.02301 32895.300781 
426.990997 492796.0 
629.950989 10865.700195 
630.070007 32755.099609 
END IONS

BEGIN IONS
PRECURSOR_MZ=165.019
INCHI=InChI=1S/C8H6O4/c9-8(10)5-1-2-6-7(3-5)12-4-11-6/h1-3H,4H2,(H,9,10)
SMILES=O=C(O)c1ccc2c(c1)OCO2
SCANS=23542
IONMODE=negative
COMPOUND_NAME=PIPERONYLIC ACID M-H
SPECTRUM_ID=CCMSLIB00006708883
59.139809 2338.0 
63.02343 3425.0 
65.002968 29031.0 
67.018646 7780.0 
69.033997 9469.0 
71.716637 1961.0 
74.699173 1958.0 
79.018387 4636.0 
91.018852 271812.0 
92.371727 2064.0 
93.034363 3303.0 
95.013947 21013.0 
96.959999 12104.0 
96.969513 9168.0 
97.0298 3499.0 
102.539284 2074.0 
104.278069 2240.0 
106.005737 8599.0 
107.014091 4781.0 
108.021599 65456.0 
108.937477 17378.0 
109.029457 237451.0 
121.029427 42367.0 
123.008713 12949.0 
132.855301 2038.0 
136.932251 99896.0 
164.895798 4777.0 
164.926849 3249.0 
165.019196 213113.0 
183.91478 2364.0 
END IONS

BEGIN IONS
PRECURSOR_MZ=296.128
INCHI=InChI=1S/C18H17NO3/c1-2-22-13-8-9-16-14(11-13)17(20)15(18(21)19-16)10-12-6-4-3-5-7-12/h3-9,11H,2,10H2,1H3,(H2,19,20,21)
SMILES=CCOc1ccc2nc(O)c(Cc3ccccc3)c(O)c2c1
SCANS=1816
IONMODE=positive
COMPOUND_NAME=6-ethoxy-4-hydroxy-3-benzylhydroquinolin-2-one M+H
SPECTRUM_ID=CCMSLIB00006687157
50.208881 3235.0 
53.741829 3467.0 
55.018299 36319.0 
57.880829 3503.0 
63.15918 4236.0 
64.026947 3362.0 
65.128754 3335.0 
82.393257 4571.0 
87.057358 3447.0 
91.054367 106660.0 
92.375267 3876.0 
99.471817 3527.0 
108.044228 5256.0 
134.059799 5003.0 
136.039551 7376.0 
136.07608 22206.0 
136.204544 3984.0 
143.657806 4388.0 
144.043961 3937.0 
148.040253 4066.0 
162.05484 87665.0 
164.070465 8502.0 
172.037933 6525.0 
189.041748 5064.0 
190.049698 850650.0 
190.084869 25720.0 
202.048416 4189.0 
217.245193 4635.0 
218.081009 7940171.0 
250.085846 25567.0 
259.106842 16530.0 
267.089935 16955.0 
268.096313 41986.0 
278.117889 7394.0 
280.095703 4813.0 
294.801788 6415.0 
295.121063 14427.0 
296.127716 15690826.0 
297.460175 14410.0 
END IONS

BEGIN IONS
PRECURSOR_MZ=165.019
INCHI=InChI=1S/C8H6O4/c9-8(10)5-1-2-6-7(3-5)12-4-11-6/h1-3H,4H2,(H,9,10)
SMILES=O=C(O)c1ccc2c(c1)OCO2
SCANS=12215
IONMODE=negative
COMPOUND_NAME=PIPERONYLIC ACID M-H
SPECTRUM_ID=CCMSLIB00006697556
63.33593 2429.0 
65.002724 10770.0 
66.736671 1915.0 
66.788712 2424.0 
67.01841 5063.0 
68.71122 2011.0 
68.997704 2640.0 
69.034111 4223.0 
72.672234 1955.0 
79.018661 9302.0 
91.018784 164612.0 
95.013367 18377.0 
96.959877 14761.0 
96.969643 12084.0 
97.029716 2752.0 
108.021767 93036.0 
108.25631 2475.0 
109.029472 328688.0 
114.947311 2092.0 
117.273033 2066.0 
118.638206 2658.0 
121.02951 100827.0 
123.008858 5142.0 
136.932434 144028.0 
156.879913 2402.0 
164.895508 11595.0 
164.927811 18812.0 
165.019409 438550.0 
168.662415 2053.0 
175.16626 2013.0 
189.409409 2331.0 
208.828644 10547.0 
285.126099 2725.0 
303.412659 2769.0 
END IONS

BEGIN IONS
PRECURSOR_MZ=273.031
INCHI=InChI=1S/C15H9ClO3/c16-11-3-1-2-9(6-11)13-7-10-4-5-12(17)8-14(10)19-15(13)18/h1-8,17H
SMILES=O=c1oc2cc(O)ccc2cc1-c1cccc(Cl)c1
SCANS=15639
IONMODE=positive
COMPOUND_NAME=3-(3-chlorophenyl)-7-hydroxychromen-2-one M+H
SPECTRUM_ID=CCMSLIB00006700980
55.018349 15258.0 
59.359341 2569.0 
68.997391 14860.0 
104.274231 3881.0 
109.044403 5220.0 
115.053772 2962.0 
136.19519 3223.0 
138.054749 3505.0 
138.708389 3135.0 
149.015366 7221.0 
152.06189 34405.0 
153.015457 2932.0 
153.069565 138299.0 
154.077576 69476.0 
165.069702 163170.0 
165.085419 6673.0 
166.077667 125297.0 
168.056702 21410.0 
175.030655 16031.0 
176.061752 13791.0 
181.064529 710447.0 
182.072418 1775076.0 
189.046265 7029.0 
194.072327 263427.0 
199.030685 102829.0 
199.075226 17987.0 
207.03949 3309.0 
209.058548 15898.0 
209.074051 3564.0 
210.067276 1867045.0 
215.024353 23196.0 
217.041138 1807820.0 
227.037003 14405.0 
229.041138 15740.0 
237.054184 152492.0 
238.061966 231529.0 
245.03479 48563.0 
271.86731 4329.0 
272.602844 52241.0 
273.030762 3574621.0 
END IONS

BEGIN IONS
PRECURSOR_MZ=370.105
INCHI=InChI=1S/C20H18O7/c1-23-16-8-11(9-17(24-2)19(16)25-3)7-15-18(21)13-10-12(20(22)26-4)5-6-14(13)27-15/h5-10H,1-4H3/b15-7+
SMILES=COC(=O)c1ccc2c(c1)C(=O)C(=Cc1cc(OC)c(OC)c(OC)c1)O2
SCANS=2026
IONMODE=positive
COMPOUND_NAME=methyl 3-oxo-2-[(3,4,5-trimethoxyphenyl)methylene]benzo[b]furan-5-carboxylate M-e
SPECTRUM_ID=CCMSLIB00006687367
53.74892 2779.0 
54.359631 2728.0 
60.86581 2905.0 
76.076424 5460.0 
81.070457 14861.0 
82.40934 4030.0 
84.081444 4290.0 
87.522209 2723.0 
102.091751 12715.0 
116.106911 56682.0 
117.110802 11175.0 
118.665604 2765.0 
123.116737 29809.0 
124.120583 6004.0 
149.060059 2713.0 
159.754639 2716.0 
167.069962 3689.0 
177.054199 25740.0 
179.033585 55554.0 
181.464218 3437.0 
182.718918 3178.0 
249.053909 3416.0 
267.064575 40852.0 
281.044037 4275.0 
283.263062 23926.0 
284.265808 18728.0 
295.059509 123018.0 
296.067078 15165.0 
297.038849 23033.0 
297.074066 9929.0 
299.093048 3422.0 
309.0737 4229.0 
310.047058 14458.0 
311.054535 5825.0 
311.091797 3975.0 
312.062439 96587.0 
316.21228 15169.0 
317.21402 12599.0 
323.054962 56588.0 
324.062408 142887.0 
324.106598 5920.0 
325.070007 69987.0 
327.085663 163663.0 
328.092377 6325.0 
339.047333 4633.0 
339.085876 54442.0 
340.057953 12049.0 
340.319641 20796.0 
341.32254 18335.0 
355.080719 766705.0 
356.084747 4564.0 
369.094757 6727.0 
369.80661 395125.0 
370.104156 2463926.0 
370.307678 112301.0 
371.112579 88277.0 
456.353668 3615.0 
541.426758 5865.0 
END IONS

BEGIN IONS
PRECURSOR_MZ=227.085
INCHI=InChI=1S/C10H16N2O3S/c13-8(14)4-2-1-3-7-9-6(5-16-7)11-10(15)12-9/h6-7,9H,1-5H2,(H,13,14)(H2,11,12,15)/t6-,7-,9-/m0/s1
SMILES=O=C(O)CCCCC1SCC2N=C(O)NC21
SCANS=7406
IONMODE=positive
COMPOUND_NAME=biotin M+H-H2O
SPECTRUM_ID=CCMSLIB00006692747
61.040539 77134.0 
64.970284 10463.0 
67.05481 21469.0 
76.022118 55819.0 
79.05452 21048.0 
81.070358 19419.0 
85.011414 10651.0 
86.006027 9568.0 
97.011597 71312.0 
97.040176 396279.0 
97.065483 9545.0 
98.096779 16026.0 
100.021927 18901.0 
101.042313 11403.0 
105.070183 52177.0 
107.08564 14390.0 
108.080917 17887.0 
111.026253 15476.0 
111.108551 9983.0 
113.042053 42447.0 
115.057411 41718.0 
121.065041 12427.0 
122.096832 21208.0 
122.633499 9845.0 
123.026543 167437.0 
125.041908 23322.0 
131.026947 12903.0 
133.064285 11545.0 
133.088669 18686.0 
138.038132 11860.0 
139.057526 163816.0 
143.027496 42573.0 
149.041534 74820.0 
150.091583 43729.0 
151.086914 38838.0 
153.101395 10178.0 
155.026749 9058.0 
156.084534 22857.0 
166.068604 353887.0 
167.052429 305960.0 
182.062592 33354.0 
184.079254 317116.0 
184.096405 9904.0 
185.074295 52865.0 
192.047882 88028.0 
193.09787 23707.0 
199.090179 326868.0 
203.938614 14388.0 
209.074615 353122.0 
210.058517 19587.0 
226.201843 23393.0 
227.084961 19165104.0 
227.972168 37854.0 
241.538422 11534.0 
END IONS

BEGIN IONS
PRECURSOR_MZ=555.062
INCHI=InChI=1S/C14H11ClO4/c15-9-1-4-11(5-2-9)19-8-14(18)12-6-3-10(16)7-13(12)17/h1-7,16-17H,8H2
SMILES=O=C(COc1ccc(Cl)cc1)c1ccc(O)cc1O
SCANS=15452
IONMODE=negative
COMPOUND_NAME=1-(2,4-dihydroxyphenyl)-2-(4-chlorophenoxy)ethan-1-one 2M-H
SPECTRUM_ID=CCMSLIB00006700793
50.117371 2372.0 
68.346413 3192.0 
104.300583 3919.0 
107.82711 2595.0 
114.762398 2745.0 
118.668869 3026.0 
121.029381 66424.0 
122.037399 11847.0 
123.045143 3216.0 
126.995216 6451.0 
149.024155 31244.0 
149.531418 2502.0 
150.03241 23081.0 
277.027161 65992.0 
402.092072 2966.0 
END IONS

BEGIN IONS
PRECURSOR_MZ=349.003
INCHI=InChI=1S/C17H10Cl2O4/c18-10-1-2-15-12(4-10)14(20)6-16(23-15)13-5-11(19)3-9-7-21-8-22-17(9)13/h1-6H,7-8H2
SMILES=O=c1cc(-c2cc(Cl)cc3c2OCOC3)oc2ccc(Cl)cc12
SCANS=18434
IONMODE=positive
COMPOUND_NAME=6-chloro-2-(6-chloro(2H,4H-benzo[e]1,3-dioxin-8-yl))chromen-4-one M+H
SPECTRUM_ID=CCMSLIB00006703775
51.023602 3815.0 
68.682091 3296.0 
68.997513 30925.0 
81.359161 3616.0 
81.572113 3675.0 
86.999924 12996.0 
98.999352 37882.0 
100.384499 3187.0 
102.046547 51066.0 
123.191177 3270.0 
126.994659 21614.0 
129.009979 19499.0 
131.996948 3645.0 
136.008209 3309.0 
137.015106 48483.0 
138.108887 3164.0 
138.994675 7780.0 
139.00563 5402.0 
145.005402 12472.0 
154.989517 2248658.0 
157.946411 3437.0 
162.994354 61184.0 
165.010284 389449.0 
165.069702 37974.0 
172.999405 28906.0 
176.062454 5688.0 
185.000549 5099.0 
190.989517 87530.0 
192.057449 14031.0 
193.064789 15868.0 
199.031006 36258.0 
200.037704 33470.0 
205.064392 14007.0 
208.999878 62307.0 
212.038284 34227.0 
220.052658 5122.0 
221.059372 27221.0 
227.025238 31880.0 
228.0336 108379.0 
235.007324 4151.0 
239.025864 13713.0 
240.032425 7806.0 
247.007812 3820.0 
255.020325 115977.0 
255.047562 6748.0 
256.028687 84131.0 
263.001526 29199.0 
264.981934 101842.0 
272.984802 7408.0 
275.003998 5263.0 
276.98053 5273.0 
283.015717 50517.0 
284.023285 93023.0 
288.018036 4097.0 
290.997192 1822751.0 
317.520996 4257.0 
318.992035 7422626.0 
320.470642 6770.0 
349.002655 894331.0 
349.185394 20944.0 
END IONS

BEGIN IONS
PRECURSOR_MZ=225.091
INCHI=InChI=1S/C15H12O2/c16-13-10-15(11-6-2-1-3-7-11)17-14-9-5-4-8-12(13)14/h1-9,15H,10H2
SMILES=O=C1CC(c2ccccc2)Oc2ccccc21
SCANS=4256
IONMODE=positive
COMPOUND_NAME=FLAVANONE M+H
SPECTRUM_ID=CCMSLIB00006689597
51.45763 3707.0 
55.175282 3114.0 
65.038918 31053.0 
66.73587 3472.0 
73.948189 3772.0 
77.039017 6890.0 
79.006882 3601.0 
79.021584 4477.0 
79.054619 25497.0 
91.054428 54829.0 
93.033577 30504.0 
95.049232 180120.0 
103.054153 264111.0 
104.27755 3976.0 
105.033463 208843.0 
105.041557 6806.0 
105.069763 59525.0 
107.049179 84880.0 
111.043922 15579.0 
119.049171 101260.0 
121.028412 5348087.0 
131.049164 1645043.0 
139.039047 60705.0 
140.38858 3999.0 
147.044022 1173916.0 
154.077377 4818.0 
155.086273 6637.0 
156.976059 6625.0 
160.988083 5588.0 
165.006073 12995.0 
165.069077 25875.0 
169.101135 23523.0 
178.077698 62521.0 
178.957291 4836.0 
178.977829 6484.0 
179.085449 1265920.0 
182.071808 14665.0 
183.07988 108167.0 
197.095993 170337.0 
201.972153 24739.0 
201.993744 16208.0 
207.080322 1073126.0 
210.067413 2051806.0 
224.082733 4168.0 
225.09082 10353390.0 
227.040543 5294.0 
END IONS

BEGIN IONS
PRECURSOR_MZ=345.163
INCHI=InChI=1S/C19H24N2O2S/c1-21(11-12-22)13-16-15-9-5-6-10-17(15)24-19(16)20-18(23)14-7-3-2-4-8-14/h2-4,7-8,22H,5-6,9-13H2,1H3,(H,20,23)
SMILES=CN(CCO)Cc1c(N=C(O)c2ccccc2)sc2c1CCCC2
SCANS=1835
IONMODE=positive
COMPOUND_NAME=N-(3-{[(2-hydroxyethyl)methylamino]methyl}(4,5,6,7-tetrahydrobenzo[b]thiophen- 2-yl))benzamide M+H
SPECTRUM_ID=CCMSLIB00006687176
51.023472 4014.0 
52.34943 3449.0 
53.039188 16444.0 
58.065659 209607.0 
58.069 6743.0 
76.076088 2344826.0 
77.039017 7598.0 
91.054611 19700.0 
91.82357 3397.0 
93.441223 3440.0 
95.049301 12965.0 
105.033577 3431909.0 
138.30397 3393.0 
167.051819 18627.0 
192.047775 164936.0 
236.107025 29020.0 
269.084015 3959.0 
270.094543 5654680.0 
310.52356 3403.0 
336.647858 3493.0 
345.162811 414401.0 
END IONS

BEGIN IONS
PRECURSOR_MZ=579.286
INCHI=InChI=1S/C35H38N2O3/c1-3-4-15-33(38)35-32(20-27(21-34(35)39)26-13-9-6-10-14-26)36-19-18-29-24(2)37-31-17-16-28(22-30(29)31)40-23-25-11-7-5-8-12-25/h5-14,16-17,22,27,36-37H,3-4,15,18-21,23H2,1-2H3
SMILES=CCCCC(=O)C1=C(NCCc2c(C)[nH]c3ccc(OCc4ccccc4)cc23)CC(c2ccccc2)CC1=O
SCANS=14136
IONMODE=negative
COMPOUND_NAME=3-({2-[2-methyl-5-(phenylmethoxy)indol-3-yl]ethyl}amino)-2-pentanoyl-5-phenylc yclohex-2-en-1-one M+formate
SPECTRUM_ID=CCMSLIB00006699477
52.110401 2558.0 
57.034271 4182.0 
62.932949 2817.0 
82.419189 3199.0 
88.000679 2694.0 
92.402962 3759.0 
99.081612 13031.0 
102.956802 16002.0 
112.985924 4381.0 
141.091568 21034.0 
158.060974 35154.0 
171.068817 16629.0 
179.094177 3934.0 
184.076721 4003.0 
186.092422 63093.0 
192.103088 5906.0 
212.411545 2993.0 
226.087219 55354.0 
238.930664 4420.0 
268.133301 4940.0 
270.149689 255546.0 
282.14975 4259.0 
302.58725 3166.0 
306.917694 3510.0 
442.225586 272039.0 
469.706543 2833.0 
533.280518 198506.0 
552.974792 3054.0 
578.982727 5463.0 
END IONS

BEGIN IONS
PRECURSOR_MZ=531.127
INCHI=InChI=1S/C24H26N2O5S2/c1-30-21-10-9-17(14-22(21)31-2)11-12-25-24(27)20-15-18-6-3-4-7-19(18)16-26(20)33(28,29)23-8-5-13-32-23/h3-10,13-14,20H,11-12,15-16H2,1-2H3,(H,25,27)
SMILES=COc1ccc(CCN=C(O)C2Cc3ccccc3CN2S(=O)(=O)c2cccs2)cc1OC
SCANS=15049
IONMODE=negative
COMPOUND_NAME=N-[2-(3,4-dimethoxyphenyl)ethyl][2-(2-thienylsulfonyl)(3-1,2,3,4-tetrahydroiso quinolyl)]carboxamide M+formate
SPECTRUM_ID=CCMSLIB00006700390
53.32439 2514.0 
53.621189 2478.0 
57.341301 2562.0 
60.552441 2726.0 
82.42012 2826.0 
82.995911 67708.0 
92.403091 3433.0 
112.318947 2541.0 
118.685127 3337.0 
119.577232 2485.0 
146.957932 44566.0 
158.010056 2839.0 
185.448181 2849.0 
198.563965 2549.0 
199.363373 2681.0 
475.485931 2889.0 
488.612 2580.0 
END IONS

BEGIN IONS
PRECURSOR_MZ=316.094
INCHI=InChI=1S/C18H15NO3/c20-16(10-11-19-14-7-2-1-3-8-14)15-12-13-6-4-5-9-17(13)22-18(15)21/h1-9,12,19H,10-11H2
SMILES=O=C(CCNc1ccccc1)c1cc2ccccc2oc1=O
SCANS=14389
IONMODE=positive
COMPOUND_NAME=3-[3-(phenylamino)propanoyl]chromen-2-one M+Na
SPECTRUM_ID=CCMSLIB00006699730
52.072411 2668.0 
52.410721 2201.0 
54.183319 2596.0 
60.539391 2166.0 
73.95295 2539.0 
74.075302 2246.0 
82.399292 2323.0 
104.288986 2350.0 
128.352051 2529.0 
185.401093 2839.0 
197.020828 56755.0 
211.036407 699836.0 
223.036102 12073.0 
229.047409 4004.0 
242.057663 2373.0 
252.063065 13796.0 
275.02951 2468.0 
316.093994 735942.0 
END IONS

BEGIN IONS
PRECURSOR_MZ=379.205
INCHI=InChI=1S/C22H32O3/c1-12-9-15-17-6-5-16(13(2)23)22(17,4)11-19(25)20(15)21(3)8-7-14(24)10-18(12)21/h10,12,15-17,19-20,25H,5-9,11H2,1-4H3/t12-,15-,16+,17-,19-,20+,21-,22+/m0/s1
SMILES=CC(=O)C1CCC2C3CC(C)C4=CC(=O)CCC4(C)C3C(O)CC12C
SCANS=5506
IONMODE=negative
COMPOUND_NAME=medrysone M+Cl
SPECTRUM_ID=CCMSLIB00006690847
55.95602 2347.0 
55.972641 2648.0 
58.290668 2144.0 
80.181313 2327.0 
92.995811 2587.0 
104.29921 2942.0 
112.022339 2528.0 
112.985771 4113.0 
126.564331 2372.0 
146.961212 27731.0 
148.197159 2403.0 
174.956131 232778.0 
223.081085 2202.0 
230.986176 4654.0 
242.943726 120945.0 
242.987839 7879.0 
266.988068 2700.0 
272.672577 2558.0 
291.54715 2653.0 
292.983978 11842.0 
294.663422 2624.0 
310.93161 14893.0 
318.980042 3351.0 
358.976929 10656.0 
378.982086 97178.0 
379.204437 16953.0 
428.583008 2629.0 
END IONS

BEGIN IONS
PRECURSOR_MZ=437.119
INCHI=InChI=1S/C25H23ClN2O/c1-29-20-12-8-18(9-13-20)25-24-22(21-4-2-3-5-23(21)27-24)14-15-28(25)16-17-6-10-19(26)11-7-17/h2-13,25,27H,14-16H2,1H3
SMILES=COc1ccc(C2c3[nH]c4ccccc4c3CCN2Cc2ccc(Cl)cc2)cc1
SCANS=2368
IONMODE=negative
COMPOUND_NAME=1-{2-[(4-chlorophenyl)methyl](1,2,3,4-tetrahydrobeta-carbolinyl)}-4-methoxyben zene M+Cl
SPECTRUM_ID=CCMSLIB00006687709
54.12912 2681.0 
73.960007 2397.0 
82.407417 2259.0 
92.389832 2224.0 
93.363243 2405.0 
104.860817 2707.0 
117.951248 2462.0 
118.673187 2580.0 
164.928207 3426.0 
185.42099 2235.0 
225.631882 2244.0 
266.988098 3358.0 
300.902008 2793.0 
332.980103 3252.0 
336.623474 2367.0 
352.984558 3885.0 
358.963409 2470.0 
436.985535 5399.0 
END IONS

BEGIN IONS
PRECURSOR_MZ=514.116
INCHI=InChI=1S/C24H21N5O5S/c1-30-18-12-15(13-19(31-2)21(18)32-3)23-27-25-20(34-23)14-35-24-28-26-22(17-10-7-11-33-17)29(24)16-8-5-4-6-9-16/h4-13H,14H2,1-3H3
SMILES=COc1cc(-c2nnc(CSc3nnc(-c4ccco4)n3-c3ccccc3)o2)cc(OC)c1OC
SCANS=14367
IONMODE=positive
COMPOUND_NAME=5-{5-[(5-(2-furyl)-4-phenyl(1,2,4-triazol-3-ylthio))methyl](1,3,4-oxadiazol-2- yl)}-1,2,3-trimethoxybenzene M+Na
SPECTRUM_ID=CCMSLIB00006699708
55.903061 2553.0 
92.409073 3293.0 
109.680801 2966.0 
116.010834 5186.0 
127.158859 2591.0 
135.704376 3071.0 
179.391327 3178.0 
185.463211 3141.0 
209.149277 6599.0 
209.169571 3572.0 
234.063751 76336.0 
265.027802 66785.0 
303.040771 15058.0 
321.041412 3368.0 
346.519501 3112.0 
400.665039 2909.0 
489.365814 3443.0 
499.095947 5136.0 
514.115295 2739536.0 
532.133362 8496.0 
END IONS

BEGIN IONS
PRECURSOR_MZ=440.061
INCHI=InChI=1S/C21H20BrN3O3/c1-2-11-23-21(28)17-12-20(27)25(18-6-4-3-5-16(17)18)13-19(26)24-15-9-7-14(22)8-10-15/h3-10,12H,2,11,13H2,1H3,(H,23,28)(H,24,26)
SMILES=CCCN=C(O)c1cc(=O)n(CC(=O)Nc2ccc(Br)cc2)c2ccccc12
SCANS=22827
IONMODE=negative
COMPOUND_NAME=N-(4-bromophenyl)-2-[2-oxo-4-(N-propylcarbamoyl)hydroquinolyl]acetamide M-H
SPECTRUM_ID=CCMSLIB00006708168
58.367859 2673.0 
59.013371 13810.0 
59.53458 2347.0 
59.70805 2410.0 
62.006371 2864.0 
78.918587 176900.0 
82.403763 3010.0 
82.409813 3264.0 
86.060753 3764.0 
92.050247 12152.0 
100.076477 12901.0 
115.055412 16062.0 
116.050392 92505.0 
119.030403 3093.0 
128.050568 329182.0 
130.066223 318007.0 
132.045517 5251.0 
142.029678 5597.0 
142.066345 20224.0 
143.061722 4210.0 
144.045395 355536.0 
144.081665 6939.0 
146.060669 12725.0 
156.045425 42254.0 
156.069229 19790.0 
157.053467 11127.0 
157.076431 27725.0 
158.048157 103187.0 
158.061111 231222.0 
160.040192 70649.0 
167.061127 4423.0 
169.077042 5680.0 
169.961319 46803.0 
171.115585 3648.0 
172.040207 60188.0 
174.055801 22070.0 
176.071716 46606.0 
182.048218 13623.0 
183.056274 3040.0 
183.092682 5730.0 
184.040176 66507.0 
195.093491 6991.0 
197.108566 39349.0 
199.123962 141340.0 
201.103027 73777.0 
202.050659 52544.0 
211.972946 3448.0 
213.103149 97791.0 
215.119339 17509.0 
229.098038 192864.0 
231.113785 4646.0 
235.925507 5471.0 
243.113632 64978.0 
245.093079 62874.0 
269.092926 89754.0 
275.10379 82826.0 
287.103516 4036.0 
305.204681 3161.0 
305.306366 2641.0 
355.008423 334617.0 
398.997559 3919.0 
440.061249 698072.0 
END IONS

BEGIN IONS
PRECURSOR_MZ=197.072
INCHI=InChI=1S/C12H10N2O/c1-7-12-10(4-5-13-7)9-3-2-8(15)6-11(9)14-12/h2-6,14-15H,1H3
SMILES=Cc1nccc2c1[nH]c1cc(O)ccc12
SCANS=13401
IONMODE=negative
COMPOUND_NAME=harmol///HarmolHCl2H2O///Harmol M-H
SPECTRUM_ID=CCMSLIB00006698742
55.978031 2071.0 
58.787991 2165.0 
82.413193 2400.0 
92.39296 3153.0 
99.179283 2440.0 
104.303047 2838.0 
136.230591 2754.0 
169.077179 3609.0 
182.048477 37219.0 
196.064178 23927.0 
197.072006 255634.0 
END IONS

BEGIN IONS
PRECURSOR_MZ=491.123
INCHI=InChI=1S/C9H11FN2O5/c1-3-5(13)6(14)8(17-3)12-2-4(10)7(15)11-9(12)16/h2-3,5-6,8,13-14H,1H3,(H,11,15,16)
SMILES=CC1OC(n2cc(F)c(O)nc2=O)C(O)C1O
SCANS=10633
IONMODE=negative
COMPOUND_NAME=1-(5-deoxypentofuranosyl)-5-fluoropyrimidine-2,4(1h,3h)-dione 2M-H
SPECTRUM_ID=CCMSLIB00006695974
55.17569 2373.0 
60.72187 2704.0 
66.764099 2758.0 
81.50705 2743.0 
82.422348 3293.0 
90.368446 2696.0 
104.319092 4255.0 
129.010788 3026.0 
158.017776 2746.0 
219.098099 2883.0 
228.194534 3073.0 
235.294907 2552.0 
245.058228 51248.0 
267.033966 2467.0 
513.480957 2564.0 
END IONS

BEGIN IONS
PRECURSOR_MZ=396.046
INCHI=InChI=1S/C17H18INO2/c1-20-15-9-11-6-7-19-17(14(11)10-16(15)21-2)12-4-3-5-13(18)8-12/h3-5,8-10,17,19H,6-7H2,1-2H3
SMILES=COc1cc2c(cc1OC)C(c1cccc(I)c1)NCC2
SCANS=2868
IONMODE=positive
COMPOUND_NAME=1-(3-iodophenyl)-6,7-dimethoxy-1,2,3,4-tetrahydroisoquinoline M+H
SPECTRUM_ID=CCMSLIB00006688209
55.476471 4504.0 
58.43721 4373.0 
66.0467 9533.0 
72.282143 4594.0 
75.044418 48536.0 
79.054657 10928.0 
82.433578 4991.0 
90.046417 68610.0 
91.054283 64023.0 
105.069672 31891.0 
107.04921 9409.0 
108.056633 4998.0 
115.054062 74848.0 
116.061737 10036.0 
117.057243 19364.0 
118.041801 4752.0 
118.064346 5908.0 
119.049141 45544.0 
121.065239 8413.0 
125.059471 26422.0 
128.062302 6939.0 
130.065201 19366.0 
131.04921 36544.0 
131.072861 142567.0 
132.045151 9504.0 
132.05687 20685.0 
133.064926 33177.0 
134.072205 18375.0 
135.043945 9514.0 
135.080566 25910.0 
136.052017 38858.0 
136.075775 31956.0 
137.059586 115027.0 
138.067383 24820.0 
146.060013 29712.0 
147.06781 108487.0 
148.051926 11260.0 
148.075363 19163.0 
149.059555 29182.0 
150.067322 255920.0 
151.075058 146044.0 
152.08316 19878.0 
158.035767 5863.0 
160.075851 53949.0 
161.060303 59518.0 
161.083344 244210.0 
162.067276 90392.0 
162.090744 7015.0 
164.070358 1687044.0 
165.090836 1230523.0 
166.078094 8400.0 
167.085846 19227.0 
175.07547 10496.0 
177.0784 10229.0 
178.07843 29651.0 
179.093842 6283093.0 
181.100586 91992.0 
183.080307 6808.0 
189.069336 5030.0 
191.084763 49461.0 
192.10228 92594.0 
193.066223 8751.0 
193.101273 6304.0 
194.072266 145427.0 
195.080078 49190.0 
197.096512 45276.0 
205.064819 31858.0 
206.072449 11471.0 
207.080551 10725.0 
208.087708 106752.0 
209.095764 1039538.0 
211.074997 24309.0 
216.950531 2421188.0 
219.080383 38928.0 
220.08812 32850.0 
221.095703 879649.0 
222.067734 22614.0 
222.103546 23325.0 
223.074188 7196.0 
224.083115 35779.0 
225.090164 128543.0 
230.964005 5469.0 
231.96109 179030.0 
237.090515 1185338.0 
238.098511 156371.0 
239.106079 390815.0 
240.114029 166778.0 
240.950348 177224.0 
251.106277 365439.0 
252.113998 3102694.0 
254.11647 10824.0 
257.976562 23860.0 
268.133453 72574.0 
269.140778 37234.0 
284.103516 5387.0 
303.974915 11804.0 
304.981995 11716.0 
316.982483 8879.0 
319.966553 8698.0 
320.976776 11780.0 
331.968231 42332.0 
332.974487 56066.0 
334.99115 9445.0 
346.991425 46150.0 
347.999603 531472.0 
348.968079 41329.0 
351.99292 8997.0 
353.003052 133118.0 
363.990021 153898.0 
365.001282 128557.0 
367.018036 742708.0 
377.000946 34270.0 
379.018097 2473151.0 
381.019348 46067.0 
396.044647 21232346.0 
END IONS

BEGIN IONS
PRECURSOR_MZ=301.072
INCHI=InChI=1S/C16H14O6/c17-10-2-1-8-13-9-4-12(19)11(18)3-7(9)5-16(13,21)6-22-15(8)14(10)20/h1-4,13,17-21H,5-6H2/t13-,16+/m1/s1
SMILES=Oc1cc2c(cc1O)C1c3ccc(O)c(O)c3OCC1(O)C2
SCANS=22608
IONMODE=negative
COMPOUND_NAME=HEMATOXYLIN M-H
SPECTRUM_ID=CCMSLIB00006707949
59.047081 2465.0 
72.757591 2427.0 
81.034317 3450.0 
82.399918 3322.0 
92.377419 2439.0 
93.034477 4689.0 
95.013733 4825.0 
107.050194 4902.0 
108.021599 9837.0 
109.029556 71053.0 
117.034317 2968.0 
121.029694 21146.0 
123.008926 44051.0 
123.045013 46544.0 
124.01638 12945.0 
125.024529 48396.0 
133.029129 3674.0 
135.04509 44920.0 
136.016464 9067.0 
136.932571 10876.0 
137.024445 164912.0 
145.029526 5094.0 
147.045242 13359.0 
149.024918 4689.0 
151.040085 75902.0 
153.802292 2538.0 
159.045105 16058.0 
160.017288 3336.0 
161.024612 44604.0 
162.03241 23533.0 
163.040298 49070.0 
164.011642 91108.0 
164.927399 15575.0 
165.018997 5622.0 
165.056381 18690.0 
175.040985 18479.0 
177.019608 4682.0 
178.026886 11656.0 
178.906769 2389.0 
179.035233 199483.0 
191.03537 3118.0 
197.061218 2850.0 
199.041107 3201.0 
209.061096 3180.0 
211.040512 4813.0 
213.057068 3056.0 
214.914352 18170.0 
215.036743 3430.0 
215.343552 3054.0 
227.072922 5820.0 
232.924454 22606.0 
237.055313 9506.0 
239.034592 4972.0 
240.04393 15195.0 
241.05101 25997.0 
243.030212 34550.0 
244.037094 14532.0 
254.058701 3141.0 
254.90686 13460.0 
255.065582 17757.0 
257.04599 48446.0 
258.053467 4483.0 
259.062134 5447.0 
265.05072 16192.0 
268.037933 3630.0 
283.060944 39004.0 
301.07196 866409.0 
417.156433 2493.0 
END IONS

BEGIN IONS
PRECURSOR_MZ=567.13
INCHI=InChI=1S/C16H12O5/c1-20-11-4-2-9(3-5-11)12-8-21-14-7-10(17)6-13(18)15(14)16(12)19/h2-8,17-18H,1H3
SMILES=COc1ccc(-c2coc3cc(O)cc(O)c3c2=O)cc1
SCANS=2048
IONMODE=negative
COMPOUND_NAME=biochanin A 2M-H
SPECTRUM_ID=CCMSLIB00006687389
56.111172 2365.0 
69.855614 2571.0 
82.395523 2821.0 
157.972244 2929.0 
268.00882 2962.0 
268.038452 17021.0 
283.06131 86038.0 
END IONS

BEGIN IONS
PRECURSOR_MZ=398.128
INCHI=InChI=1S/C19H19N5O3S/c1-10-14(22-18(27-10)12-5-7-13(26-4)8-6-12)9-28-19-23-15-16(24(19)3)20-11(2)21-17(15)25/h5-8H,9H2,1-4H3,(H,20,21,25)
SMILES=COc1ccc(-c2nc(CSc3nc4c(O)nc(C)nc4n3C)c(C)o2)cc1
SCANS=15710
IONMODE=positive
COMPOUND_NAME=8-{[2-(4-methoxyphenyl)-5-methyl(1,3-oxazol-4-yl)]methylthio}-2,9-dimethylhydr opurin-6-one M+H
SPECTRUM_ID=CCMSLIB00006701051
69.033867 33841.0 
78.134277 3306.0 
91.04187 5829.0 
119.036362 29310.0 
120.636887 3306.0 
133.065094 34589.0 
134.059998 3609403.0 
135.044098 43403.0 
152.070862 4579.0 
159.068787 3483.0 
175.087372 6798.0 
187.063431 3174.0 
187.968124 2784.0 
197.048645 44259.0 
202.086166 4684924.0 
243.112717 16138.0 
243.144684 2940.0 
354.225342 3166.0 
398.127655 227330.0 
END IONS

BEGIN IONS
PRECURSOR_MZ=377.135
INCHI=InChI=1S/C18H22N2O7/c1-25-13-8-10(9-14(26-2)15(13)27-3)16(21)19-20-17(22)11-6-4-5-7-12(11)18(23)24/h4-5,8-9,11-12H,6-7H2,1-3H3,(H,19,21)(H,20,22)(H,23,24)
SMILES=COc1cc(C(O)=NN=C(O)C2CC=CCC2C(=O)O)cc(OC)c1OC
SCANS=7332
IONMODE=negative
COMPOUND_NAME=6-{N-[(3,4,5-trimethoxyphenyl)carbonylamino]carbamoyl}cyclohex-3-enecarboxylic acid M-H
SPECTRUM_ID=CCMSLIB00006692673
52.93288 3235.0 
57.008869 5827.0 
59.64904 3432.0 
60.54623 3329.0 
76.842987 3623.0 
105.763062 3003.0 
107.043114 4078.0 
107.050293 74504.0 
123.044983 11135.0 
125.023811 3654.0 
137.996277 7964.0 
138.032181 14393.0 
150.055893 172740.0 
151.039902 1044133.0 
152.010651 4832.0 
153.019165 225934.0 
153.055542 501066.0 
167.034515 6091.0 
173.82074 3515.0 
181.050537 5957.0 
182.021103 3749.0 
185.428436 3675.0 
195.040909 46703.0 
209.05571 14211.0 
210.064484 1787457.0 
218.033463 3723.0 
224.850006 4355.0 
225.087967 6297840.0 
274.959778 3229.0 
303.096619 3450.0 
329.075806 26603.0 
333.144409 3943.0 
344.101868 7621.0 
359.124512 272297.0 
377.13501 1512136.0 
END IONS

BEGIN IONS
PRECURSOR_MZ=310.063
INCHI=InChI=1S/C18H14ClNO3/c19-13-5-3-6-14(11-13)20-9-8-16(21)15-10-12-4-1-2-7-17(12)23-18(15)22/h1-7,10-11,20H,8-9H2
SMILES=O=C(CCNc1cccc(Cl)c1)c1cc2ccccc2oc1=O
SCANS=14993
IONMODE=positive
COMPOUND_NAME=3-{3-[(3-chlorophenyl)amino]propanoyl}chromen-2-one M+H-H2O
SPECTRUM_ID=CCMSLIB00006700334
51.023602 2918.0 
51.223129 2795.0 
53.03912 4018.0 
70.165421 2622.0 
73.947403 2830.0 
79.054222 16168.0 
91.054237 43412.0 
92.623413 2533.0 
102.046951 3123.0 
103.054131 144069.0 
107.041298 5320.0 
107.049026 119077.0 
115.054123 109721.0 
117.070419 4485.0 
118.650223 3488.0 
127.018082 3678.0 
128.049866 6352.0 
130.065125 16445.0 
131.049332 33579.0 
131.764343 2875.0 
133.029526 3420.0 
137.014877 18326.0 
138.010162 19836.0 
140.02565 38090.0 
145.064514 5207.0 
147.043884 127844.0 
148.919144 2788.0 
154.065628 5194.0 
155.048767 85135.0 
159.043655 111938.0 
164.025909 891935.0 
166.004837 4010.0 
169.051788 13706.0 
173.059174 23583.0 
182.059402 5724.0 
183.043991 38249.0 
188.025909 160037.0 
188.045319 5750.0 
190.004364 5001.0 
202.077942 13914.0 
203.084671 6502.0 
204.020844 113568.0 
204.080658 4380.0 
206.037506 5389.0 
216.020844 247349.0 
217.028824 39144.0 
217.088745 30957.0 
218.095612 34313.0 
219.081558 8730.0 
219.103699 17346.0 
227.073059 4553.0 
228.079712 23182.0 
229.088409 46477.0 
230.097122 25685.0 
231.079742 6035.0 
232.075958 3378.0 
244.075165 149780.0 
245.083008 171434.0 
246.090866 210417.0 
247.073318 5411.0 
247.098953 52391.0 
254.073135 4443.0 
256.07486 6417.0 
257.08432 32207.0 
258.06601 12214.0 
258.092346 38002.0 
260.069672 13157.0 
261.077515 4920.0 
263.905518 3519.0 
264.056793 81933.0 
267.044006 6388.0 
272.069977 57979.0 
273.077942 198580.0 
274.085663 1171636.0 
275.093506 160657.0 
280.052673 6257.0 
282.030487 17865.0 
282.066956 44065.0 
286.91864 4177.0 
292.052795 18979.0 
295.039734 4737.0 
308.046112 65967.0 
310.062164 1093209.0 
END IONS

BEGIN IONS
PRECURSOR_MZ=561.137
INCHI=InChI=1S/C13H15NO4S/c15-13(16)8-5-11-3-6-12(7-4-11)19(17,18)14-9-1-2-10-14/h3-8H,1-2,9-10H2,(H,15,16)/b8-5+
SMILES=O=C(O)C=Cc1ccc(S(=O)(=O)N2CCCC2)cc1
SCANS=18758
IONMODE=negative
COMPOUND_NAME=(2E)-3-[4-(pyrrolidinylsulfonyl)phenyl]prop-2-enoic acid 2M-H
SPECTRUM_ID=CCMSLIB00006704099
53.947609 2590.0 
63.962132 97943.0 
63.965912 3818.0 
64.969994 76302.0 
66.752579 3528.0 
75.188797 3010.0 
75.921181 3002.0 
79.957169 4672.0 
82.410271 3450.0 
92.592682 3363.0 
108.645432 2731.0 
133.030167 2795.0 
134.028152 338574.0 
177.405334 2955.0 
197.998734 4664.0 
200.354675 2822.0 
204.009689 3422.0 
236.075089 38617.0 
250.937469 2708.0 
263.302094 3157.0 
280.064911 286209.0 
303.234314 4186.0 
530.532349 2988.0 
END IONS

BEGIN IONS
PRECURSOR_MZ=335.142
INCHI=InChI=1S/C17H22N2O3S/c1-11-10-15(20)18-14-9-12(2)17(13(3)16(11)14)23(21,22)19-7-5-4-6-8-19/h9-10H,4-8H2,1-3H3,(H,18,20)
SMILES=Cc1cc2[nH]c(=O)cc(C)c2c(C)c1S(=O)(=O)N1CCCCC1
SCANS=14670
IONMODE=positive
COMPOUND_NAME=4,5,7-trimethyl-6-(piperidylsulfonyl)hydroquinolin-2-one M+H
SPECTRUM_ID=CCMSLIB00006700011
56.049999 13134.0 
56.612431 2762.0 
62.86219 2672.0 
67.467712 2785.0 
69.033951 7002.0 
69.070236 19086.0 
71.992439 3471.0 
76.697693 3027.0 
80.049759 6066.0 
82.390671 3108.0 
84.080994 162424.0 
85.08886 14180.0 
86.096642 762937.0 
91.054482 26858.0 
91.060371 3026.0 
115.054123 22670.0 
117.057343 19202.0 
117.06974 12977.0 
118.06485 14643.0 
125.209717 3091.0 
128.062057 13030.0 
129.069962 7640.0 
130.065384 34894.0 
131.085587 57045.0 
132.08017 3600.0 
141.069824 78262.0 
143.072891 168690.0 
144.081146 16012.0 
146.060211 11712.0 
146.096313 5531.0 
153.056747 48401.0 
156.081558 12359.0 
157.088226 23004.0 
158.096359 503908.0 
159.080338 22377.0 
160.073792 3504.0 
167.072723 119473.0 
168.080658 150438.0 
169.064636 7588.0 
170.06015 30243.0 
171.06781 188656.0 
173.083557 5998.0 
174.091324 70887.0 
184.075195 7437.0 
185.082947 14359.0 
186.091232 3633574.0 
202.086075 620825.0 
204.047455 5858.0 
204.102051 32450.0 
206.063141 11968.0 
222.134735 3510.0 
232.042618 4109.0 
234.057098 26118.0 
250.05278 236060.0 
335.141907 2760741.0 
END IONS

BEGIN IONS
PRECURSOR_MZ=405.156
INCHI=InChI=1S/C22H20N4O4/c1-27-15-9-13(10-16(28-2)20(15)29-3)17-14(11-23)21(24)30-22-18(17)19(25-26-22)12-7-5-4-6-8-12/h4-10,17H,24H2,1-3H3,(H,25,26)
SMILES=COc1cc(C2C(C#N)=C(N)Oc3n[nH]c(-c4ccccc4)c32)cc(OC)c1OC
SCANS=6748
IONMODE=positive
COMPOUND_NAME=6-amino-3-phenyl-4-(3,4,5-trimethoxyphenyl)-4H-pyrano[2,3-c]pyrazole-5-carboni trile M+H
SPECTRUM_ID=CCMSLIB00006692089
76.570801 3162.0 
79.964737 3082.0 
140.049347 3375.0 
146.05983 3161.0 
154.062546 6259.0 
157.968079 2990.0 
161.07106 11604.0 
167.060394 18019.0 
169.086212 23203.0 
171.054947 33817.0 
192.055405 13670.0 
194.070389 24822.0 
201.065598 4692.0 
208.07251 3115.0 
209.081619 4063.0 
211.115952 6114.0 
212.059387 5912.0 
212.081894 23367.0 
215.044525 14867.0 
220.049728 51970.0 
230.067276 5173.0 
237.076828 2843742.0 
238.079987 11380.0 
245.091965 63646.0 
253.766876 2888.0 
270.08725 4704.0 
277.09549 5425.0 
282.128082 3823.0 
285.087036 15422.0 
293.091705 15808.0 
295.106842 11951.0 
306.097717 6134.0 
309.121155 25134.0 
323.102173 14751.0 
324.110992 4922.0 
330.12616 4354.0 
339.133392 380823.0 
340.141327 5882.0 
345.131378 13999.0 
347.112305 3617.0 
348.095459 5181.0 
350.115143 4345.0 
357.102234 5466.0 
358.118591 6874.0 
359.113922 27433.0 
363.123505 4426.0 
365.137268 6795.0 
373.128845 46354.0 
374.136597 83467.0 
375.105682 22714.0 
378.144714 70423.0 
388.127686 12169.0 
390.133484 4684.0 
405.154907 1159121.0 
END IONS

BEGIN IONS
PRECURSOR_MZ=190.056
INCHI=InChI=1S/C5H11N3O2/c6-5(7)8-3-1-2-4(9)10/h1-3H2,(H,9,10)(H4,6,7,8)
SMILES=N=C(N)NCCCC(=O)O
SCANS=612
IONMODE=positive
COMPOUND_NAME=4-Guanidinobutyric acid M-H+2Na
SPECTRUM_ID=CCMSLIB00006685953
61.679901 2152.23999 
62.338501 2091.77002 
62.982399 96461.898438 
68.475098 2000.579956 
69.146698 2271.459961 
69.3545 2280.080078 
76.306702 2009.890015 
86.987801 3284.659912 
86.993599 83017.101562 
92.396004 2396.629883 
130.024002 233292.0 
136.238007 2454.110107 
148.033997 75977.796875 
148.046997 4006.22998 
167.091003 2155.810059 
172.046005 32729.599609 
173.029999 12563.0 
190.056 103839.0 
END IONS

BEGIN IONS
PRECURSOR_MZ=341.06
INCHI=InChI=1S/C12H10N6O5/c19-10(5-8-11(20)14-12(21)17-15-8)16-13-6-7-3-1-2-4-9(7)18(22)23/h1-4,6H,5H2,(H,16,19)(H2,14,17,20,21)/b13-6+
SMILES=O=[N+]([O-])c1ccccc1C=NN=C(O)Cc1nnc(O)nc1O
SCANS=20350
IONMODE=positive
COMPOUND_NAME=N-[(1E)-2-(2-nitrophenyl)-1-azavinyl]-2-(3,5-dioxo(2H,4H-1,2,4-triazin-6-yl))a cetamide M+Na
SPECTRUM_ID=CCMSLIB00006705691
78.886299 2140.0 
84.057678 2326.0 
117.107368 2396.0 
176.006027 3590.0 
177.466141 2649.0 
188.043732 2300.0 
341.059937 995226.0 
END IONS

BEGIN IONS
PRECURSOR_MZ=450.042
INCHI=InChI=1S/C16H16BrN5O3/c1-9-4-6-10(7-5-9)18-11(23)8-22-12-13(19-15(22)17)20(2)16(25)21(3)14(12)24/h4-7H,8H2,1-3H3,(H,18,23)
SMILES=Cc1ccc(NC(=O)Cn2c(Br)nc3c2c(=O)n(C)c(=O)n3C)cc1
SCANS=8877
IONMODE=negative
COMPOUND_NAME=2-(8-bromo-1,3-dimethyl-2,6-dioxo(1,3,7-trihydropurin-7-yl))-N-(4-methylphenyl )acetamide M+formate
SPECTRUM_ID=CCMSLIB00006694218
54.310581 2722.0 
63.978291 2375.0 
64.852562 2312.0 
78.918694 106855.0 
150.334534 2305.0 
202.322922 3158.0 
214.547562 2491.0 
END IONS

BEGIN IONS
PRECURSOR_MZ=363.049
INCHI=InChI=1S/C14H16O9/c1-21-11-5(16)2-4-7(9(11)18)12-13(23-14(4)20)10(19)8(17)6(3-15)22-12/h2,6,8,10,12-13,15-19H,3H2,1H3/t6-,8-,10+,12+,13-/m1/s1
SMILES=COc1c(O)cc2c(c1O)C1OC(CO)C(O)C(O)C1OC2=O
SCANS=10218
IONMODE=negative
COMPOUND_NAME=bergenin M+Cl
SPECTRUM_ID=CCMSLIB00006695559
73.966797 2230.0 
77.606201 2929.0 
83.858238 2484.0 
104.30262 2562.0 
104.340607 2101.0 
118.675247 2899.0 
130.344574 2251.0 
133.088226 2194.0 
137.051849 2141.0 
141.072922 2193.0 
192.005951 30334.0 
193.014343 3374.0 
207.029709 49678.0 
234.017319 10592.0 
249.039856 13309.0 
312.048279 11780.0 
327.072052 175173.0 
363.049927 2888.0 
END IONS

BEGIN IONS
PRECURSOR_MZ=231.114
INCHI=InChI=1S/C13H16N2O2/c1-9(16)14-6-5-10-8-15-13-4-3-11(17-2)7-12(10)13/h3-4,7-8,15H,5-6H2,1-2H3,(H,14,16)
SMILES=COc1ccc2[nH]cc(CCN=C(C)O)c2c1
SCANS=3159
IONMODE=negative
COMPOUND_NAME=Melatonin M-H
SPECTRUM_ID=CCMSLIB00006688500
54.00742 2655.0 
58.029491 177788.0 
59.013561 4606.0 
64.087646 2459.0 
72.519218 2665.0 
84.045418 67075.0 
86.334023 2712.0 
103.749046 2606.0 
110.074829 3217.0 
133.821518 2816.0 
144.045547 54847.0 
145.052322 3143.0 
146.024841 110255.0 
147.032715 66263.0 
159.032501 37523.0 
159.043488 2396.0 
160.040558 136643.0 
162.056442 5732.0 
170.048599 5937.0 
171.056519 15841.0 
172.040512 189099.0 
173.048828 4279.0 
184.950241 52805.0 
189.067108 167303.0 
204.065994 4018.0 
213.067322 46647.0 
216.071869 4289.0 
216.090561 376258.0 
231.078323 1847767.0 
231.114548 307475.0 
END IONS

BEGIN IONS
PRECURSOR_MZ=385.132
INCHI=InChI=1S/C21H22N2O3/c1-15-18-13-17(26-14-16-5-3-2-4-6-16)7-8-19(18)22-20(15)21(24)23-9-11-25-12-10-23/h2-8,13,22H,9-12,14H2,1H3
SMILES=Cc1c(C(=O)N2CCOCC2)[nH]c2ccc(OCc3ccccc3)cc12
SCANS=4382
IONMODE=negative
COMPOUND_NAME=3-methyl-5-(phenylmethoxy)indol-2-yl morpholin-4-yl ketone M+Cl
SPECTRUM_ID=CCMSLIB00006689723
50.631039 2132.0 
52.06432 2407.0 
56.52317 2455.0 
60.547039 2340.0 
73.96357 3088.0 
79.661507 2225.0 
92.388023 2833.0 
110.713966 2129.0 
112.985741 152152.0 
112.994743 4910.0 
118.671547 2613.0 
180.898758 3664.0 
180.973358 34257.0 
190.912567 2737.0 
195.583481 2511.0 
208.586258 2748.0 
209.08963 2372.0 
248.959946 47532.0 
254.98671 5303.0 
258.100983 14664.0 
274.881348 2625.0 
277.082062 2533.0 
278.986328 9815.0 
279.820679 2364.0 
316.947784 5648.0 
320.977783 11261.0 
344.978455 15640.0 
349.155731 13739.0 
364.982483 14209.0 
366.985382 10237.0 
384.983429 33096.0 
END IONS

BEGIN IONS
PRECURSOR_MZ=421.162
INCHI=InChI=1S/C10H13NO4/c1-15-9-5-6(2-3-8(9)12)4-7(11)10(13)14/h2-3,5,7,12H,4,11H2,1H3,(H,13,14)/t7-/m0/s1
SMILES=COc1cc(C[C@H](N)C(=O)O)ccc1O
SCANS=23813
IONMODE=negative
COMPOUND_NAME=3-METHOXY-L-TYROSINE 2M-H
SPECTRUM_ID=CCMSLIB00006709154
51.379501 2120.719971 
52.4673 2241.790039 
68.460899 2226.389893 
69.485802 2866.340088 
82.4216 3175.840088 
92.405197 3680.929932 
104.32 2327.73999 
119.239998 2650.209961 
208.343002 15652.299805 
210.076996 12861.700195 
287.757996 2524.709961 
303.026001 5132.160156 
337.533997 3029.199951 
END IONS

BEGIN IONS
PRECURSOR_MZ=328.154
INCHI=InChI=1S/C19H21NO4/c1-2-11-22-16-6-4-15(5-7-16)20-10-9-17(21)14-3-8-18-19(12-14)24-13-23-18/h3-8,12,20H,2,9-11,13H2,1H3
SMILES=CCCOc1ccc(NCCC(=O)c2ccc3c(c2)OCO3)cc1
SCANS=21519
IONMODE=positive
COMPOUND_NAME=1-(2H-benzo[3,4-d]1,3-dioxolen-5-yl)-3-[(4-propoxyphenyl)amino]propan-1-one M+H
SPECTRUM_ID=CCMSLIB00006706860
50.595291 2543.0 
53.039108 2918.0 
62.98193 3129.0 
65.038773 3137.0 
79.170013 3009.0 
84.959213 2906.0 
92.36467 3194.0 
94.041344 55750.0 
94.064949 10888.0 
95.049248 29534.0 
97.715187 2592.0 
104.274193 2591.0 
113.428307 2621.0 
120.044563 9770.0 
121.052223 3057.0 
122.059898 1358916.0 
123.063026 14633.0 
149.022842 5365.0 
164.106827 2167298.0 
165.052399 4948.0 
165.110931 19584.0 
200.537079 2764.0 
269.854126 3039.0 
290.21936 2640.0 
328.148254 58394.0 
END IONS

BEGIN IONS
PRECURSOR_MZ=383.149
INCHI=InChI=1S/C22H22O6/c1-13(2)12-27-18-7-5-14(9-19(18)25-3)10-20-21(23)16-11-15(22(24)26-4)6-8-17(16)28-20/h5-11,13H,12H2,1-4H3/b20-10-
SMILES=COC(=O)c1ccc2c(c1)C(=O)C(=Cc1ccc(OCC(C)C)c(OC)c1)O2
SCANS=16747
IONMODE=positive
COMPOUND_NAME=methyl 2-{[3-methoxy-4-(2-methylpropoxy)phenyl]methylene}-3-oxobenzo[b]furan-5 -carboxylate M+H
SPECTRUM_ID=CCMSLIB00006702088
53.039059 7007.0 
55.018139 5985.0 
57.070358 140290.0 
65.038933 10290.0 
65.087242 5155.0 
67.054588 21022.0 
77.039307 5741.0 
78.0466 12871.0 
79.054489 30389.0 
79.913193 4997.0 
81.033691 7765.0 
88.967079 5018.0 
89.038742 87701.0 
91.054459 61038.0 
93.033707 6665.0 
95.049232 72312.0 
103.017593 6234.0 
103.054131 77412.0 
105.033623 63291.0 
105.069733 129603.0 
106.041344 29865.0 
107.049057 32903.0 
108.020714 6516.0 
110.036331 9713.0 
115.054123 12826.0 
116.062202 5747.0 
116.800163 5747.0 
117.03318 48733.0 
118.040947 38928.0 
119.012718 122374.0 
119.049362 40418.0 
121.028374 99000.0 
121.064613 102812.0 
123.043938 292522.0 
123.054077 11396.0 
131.049088 36521.0 
133.028397 24225.0 
134.036133 2732863.0 
135.043839 79915.0 
136.015503 126676.0 
137.023361 34719.0 
141.069763 13262.0 
145.028381 28900.0 
147.00824 8963.0 
147.043701 11516.0 
148.05188 50392.0 
149.022858 8961.0 
149.059479 188777.0 
150.031021 11984.0 
151.038803 231931.0 
151.052338 12326.0 
152.061951 219506.0 
153.069504 13675.0 
155.048737 43064.0 
155.086136 6793.0 
156.057556 9304.0 
158.010071 5666.0 
159.044098 9613.0 
161.023392 32515.0 
161.059265 22423.0 
163.038559 27490.0 
163.053131 11783.0 
165.018082 415279.0 
165.05426 21597.0 
165.069687 180707.0 
166.07756 73121.0 
167.049271 7191.0 
167.085587 188601.0 
168.056412 90802.0 
169.064178 54091.0 
169.078247 6236.0 
173.023148 46008.0 
175.038925 135786.0 
175.830521 5995.0 
176.061615 11734.0 
177.070038 33456.0 
178.077499 140688.0 
179.033691 3312113.0 
180.056671 147030.0 
181.064514 103768.0 
182.072647 6990.0 
183.044205 29073.0 
183.080429 28362.0 
184.051743 25055.0 
184.087555 7923.0 
189.054169 77698.0 
191.033798 22300.0 
192.056747 154849.0 
193.064484 73182.0 
194.072601 60150.0 
195.044998 11565.0 
195.080124 244705.0 
196.035965 99937.0 
196.052383 105588.0 
196.087814 8097.0 
197.06015 163906.0 
198.066818 6040.0 
199.076675 7292.0 
200.081879 7294.0 
202.062332 22412.0 
205.049057 581156.0 
207.04361 110557.0 
207.079361 6815.0 
208.051636 262009.0 
209.059937 79613.0 
210.067154 11578.0 
211.038986 33450.0 
211.075195 175690.0 
212.046051 92042.0 
212.083115 27708.0 
212.509094 6288.0 
213.055038 30348.0 
218.057098 155933.0 
219.044144 24663.0 
220.052277 5977.0 
221.061157 61049.0 
222.067184 35162.0 
223.038986 49634.0 
223.074997 191346.0 
224.046356 129389.0 
224.083466 8010.0 
225.054169 162376.0 
226.061035 12005.0 
227.03392 20962.0 
227.06955 26692.0 
227.10553 26976.0 
228.042007 20463.0 
228.078049 28421.0 
229.049622 29701.0 
235.038345 249689.0 
236.046448 273847.0 
237.054184 127642.0 
238.061966 7129.0 
239.069839 903345.0 
240.041443 87947.0 
240.077744 143859.0 
241.04866 53990.0 
242.057251 31831.0 
243.064941 24414.0 
244.037491 5895.0 
249.055069 38929.0 
250.061813 24267.0 
251.070038 110683.0 
252.04126 229681.0 
253.049332 193941.0 
253.081573 9646.0 
254.058029 7518.0 
255.064743 756553.0 
256.036987 44112.0 
256.072113 246476.0 
257.044525 9729.0 
257.080963 9149.0 
263.03421 105140.0 
263.066193 12328.0 
265.0495 56227.0 
266.056641 246887.0 
267.064758 4731008.0 
268.036377 225028.0 
268.073242 61375.0 
269.046082 38335.0 
269.077759 8028.0 
270.051117 51569.0 
271.062286 13891.0 
271.096527 45595.0 
279.033295 8660.0 
279.061493 41648.0 
280.036255 100573.0 
281.044678 352568.0 
281.079926 66453.0 
283.060059 128334.0 
284.031219 1073160.0 
284.067383 397595.0 
286.046326 85355.0 
294.051971 110901.0 
295.05954 4353135.0 
296.064606 22433.0 
297.075684 27461.0 
298.046417 178656.0 
299.089661 67114.0 
309.075409 58853.0 
310.078461 21027.0 
311.054321 2195472.0 
312.062225 1998680.0 
313.070129 20602.0 
316.058167 42938.0 
324.13739 8063.0 
326.073975 66338.0 
327.085632 11690183.0 
341.100555 36656.0 
380.277954 6048.0 
383.148193 5616381.0 
END IONS

BEGIN IONS
PRECURSOR_MZ=334.145
INCHI=InChI=1S/C21H21NO3/c23-19-10-9-16-20(24)18(15-7-3-1-4-8-15)14-25-21(16)17(19)13-22-11-5-2-6-12-22/h1,3-4,7-10,14,23H,2,5-6,11-13H2
SMILES=O=c1c(-c2ccccc2)coc2c(CN3CCCCC3)c(O)ccc12
SCANS=12367
IONMODE=negative
COMPOUND_NAME=7-hydroxy-3-phenyl-8-(piperidylmethyl)chromen-4-one M-H
SPECTRUM_ID=CCMSLIB00006697708
59.900291 2259.0 
61.987789 4990.0 
73.970886 2711.0 
80.59816 2603.0 
82.416801 3357.0 
89.693199 2806.0 
117.034363 3755.0 
124.386093 2579.0 
134.149902 2317.0 
136.016342 4250.0 
145.029251 3182.0 
149.960495 2662.0 
193.064957 5086.0 
201.219116 2556.0 
205.063629 3414.0 
206.073715 3201.0 
207.080032 4813.0 
209.060349 6688.0 
221.060272 46481.0 
223.076385 3079.0 
235.038376 2969.0 
237.056732 4361.0 
249.055069 116031.0 
250.063187 298676.0 
251.07132 84755.0 
269.726562 2952.0 
282.053192 1153085.0 
284.057159 3050.0 
334.144928 2059515.0 
347.125854 2843.0 
END IONS

BEGIN IONS
PRECURSOR_MZ=470.216
INCHI=InChI=1S/C22H29N7O5/c1-28(2)19-17-20(25-10-24-19)29(11-26-17)22-18(31)16(15(9-30)34-22)27-21(32)14(23)8-12-4-6-13(33-3)7-5-12/h4-7,10-11,14-16,18,22,30-31H,8-9,23H2,1-3H3,(H,27,32)/t14-,15+,16+,18+,22+/m0/s1
SMILES=COc1ccc(CC(N)C(O)=NC2C(CO)OC(n3cnc4c(N(C)C)ncnc43)C2O)cc1
SCANS=6633
IONMODE=negative
COMPOUND_NAME=puromycin M-H
SPECTRUM_ID=CCMSLIB00006691974
69.903847 2835.0 
71.024818 3205.0 
91.157501 3150.0 
103.560852 3195.0 
103.90416 3396.0 
104.301437 5227.0 
136.228149 4066.0 
147.054596 26454.0 
162.078369 4420012.0 
193.097595 3560.0 
207.984833 9183.0 
208.00766 5493.0 
250.616058 2833.0 
307.131561 24871.0 
470.215332 1247646.0 
END IONS

BEGIN IONS
PRECURSOR_MZ=415.103
INCHI=InChI=1S/C21H20O9/c22-8-16-18(25)19(26)20(27)21(30-16)29-12-5-6-13-15(7-12)28-9-14(17(13)24)10-1-3-11(23)4-2-10/h1-7,9,16,18-23,25-27H,8H2
SMILES=O=c1c(-c2ccc(O)cc2)coc2cc(OC3OC(CO)C(O)C(O)C3O)ccc12
SCANS=9101
IONMODE=negative
COMPOUND_NAME=Daidzin M-H
SPECTRUM_ID=CCMSLIB00006694442
52.679291 3394.0 
117.195396 3871.0 
132.021545 41101.0 
135.00853 7218.0 
157.962708 3722.0 
195.044922 8250.0 
208.052612 28532.0 
220.132462 3733.0 
223.039795 81967.0 
224.04747 50372.0 
251.034592 96044.0 
252.04277 4954625.0 
253.050446 1537650.0 
267.065552 14722.0 
278.914398 8526.0 
295.061249 64761.0 
296.612213 3378.0 
325.072357 7223.0 
346.876404 4070.0 
387.691742 3560.0 
415.103607 7374217.0 
416.106995 5325.0 
END IONS

BEGIN IONS
PRECURSOR_MZ=313.098
INCHI=InChI=1S/C17H13FN2O3/c1-23-12-5-3-11(4-6-12)20-17(22)16(21)14-9-19-15-8-10(18)2-7-13(14)15/h2-9,19H,1H3,(H,20,22)
SMILES=COc1ccc(N=C(O)C(=O)c2c[nH]c3cc(F)ccc23)cc1
SCANS=3837
IONMODE=positive
COMPOUND_NAME=2-(6-fluoroindol-3-yl)-N-(4-methoxyphenyl)-2-oxoacetamide M+H
SPECTRUM_ID=CCMSLIB00006689178
52.093601 2714.0 
55.6483 2761.0 
58.35186 2802.0 
73.951897 3471.0 
74.042343 2508.0 
78.823196 2935.0 
84.959808 6291.0 
91.054398 22344.0 
104.286003 2826.0 
107.029022 10660.0 
122.059822 6033.0 
134.040482 12960.0 
136.055939 32738.0 
149.0233 16502.0 
162.035019 6417386.0 
162.572952 3125.0 
163.038422 36726.0 
174.900925 3138.0 
192.909973 4147.0 
230.8927 3282.0 
233.14325 2927.0 
240.003448 3030.0 
248.900803 34979.0 
266.911072 21309.0 
268.264221 5255.0 
271.916656 3586.0 
295.82309 3437.0 
313.098083 70069.0 
313.321075 10295.0 
END IONS

BEGIN IONS
PRECURSOR_MZ=420.068
INCHI=InChI=1S/C19H18ClNO3S/c20-16-3-1-2-15(10-16)12-25-9-8-21-19(22)7-5-14-4-6-17-18(11-14)24-13-23-17/h1-7,10-11H,8-9,12-13H2,(H,21,22)/b7-5+
SMILES=OC(C=Cc1ccc2c(c1)OCO2)=NCCSCc1cccc(Cl)c1
SCANS=17687
IONMODE=negative
COMPOUND_NAME=(2E)-3-(2H-benzo[3,4-d]1,3-dioxolen-5-yl)-N-{2-[(3-chlorophenyl)methylthio]eth yl}prop-2-enamide M+formate
SPECTRUM_ID=CCMSLIB00006703028
66.760818 2480.0 
73.971588 2905.0 
74.416489 2288.0 
104.309341 2603.0 
113.521423 2316.0 
132.625076 2239.0 
156.988235 27658.0 
301.083923 2570.0 
328.706818 2828.0 
338.80545 2676.0 
348.12146 2613.0 
419.980652 9134.0 
END IONS

BEGIN IONS
PRECURSOR_MZ=426.186
INCHI=InChI=1S/C23H29N3O3S/c1-18-10-14-26(15-11-18)30(28,29)22-8-6-21(7-9-22)24-23(27)17-25-13-12-19-4-2-3-5-20(19)16-25/h2-9,18H,10-17H2,1H3,(H,24,27)
SMILES=CC1CCN(S(=O)(=O)c2ccc(NC(=O)CN3CCc4ccccc4C3)cc2)CC1
SCANS=15422
IONMODE=negative
COMPOUND_NAME=N-{4-[(4-methylpiperidyl)sulfonyl]phenyl}-2-(2-1,2,3,4-tetrahydroisoquinolyl)a cetamide M-H
SPECTRUM_ID=CCMSLIB00006700763
58.029209 4670.0 
63.962101 6447.0 
64.970139 3858.0 
65.133202 2891.0 
73.959282 2791.0 
79.957169 366994.0 
91.042542 5993.0 
92.050499 236733.0 
94.029861 13298.0 
96.794159 2937.0 
103.919983 3030.0 
106.030273 3618.0 
107.037712 447358.0 
108.021698 4072.0 
108.14061 3117.0 
116.050629 5367.0 
118.029877 72160.0 
122.024788 50256.0 
123.032593 45646.0 
130.066437 21737.0 
132.04567 5834.0 
134.024918 49772.0 
134.906189 2648.0 
144.081726 17331.0 
147.032486 20399.0 
150.019562 5348.0 
155.004745 585899.0 
156.01265 4792.0 
162.059296 5404.0 
181.991882 334426.0 
202.025009 3155.0 
209.860687 4533.0 
252.795883 3061.0 
253.101868 851776.0 
261.694489 3089.0 
263.119812 5994.0 
293.096802 72805.0 
322.123474 17823.0 
426.186127 1828769.0 
END IONS

BEGIN IONS
PRECURSOR_MZ=579.151
INCHI=InChI=1S/C30H28O12/c31-14-24-27(37)28(38)29(42-25(36)10-3-15-1-6-17(32)7-2-15)30(41-24)39-19-11-20(34)26-21(35)13-22(40-23(26)12-19)16-4-8-18(33)9-5-16/h1-12,22,24,27-34,37-38H,13-14H2/b10-3+/t22-,24?,27?,28?,29?,30?/m0/s1
SMILES=O=C(C=Cc1ccc(O)cc1)OC1C(Oc2cc(O)c3c(c2)OC(c2ccc(O)cc2)CC3=O)OC(CO)C(O)C1O
SCANS=10512
IONMODE=negative
COMPOUND_NAME=Prunin 3"-p-coumarate,  5,7,4'-Trihydroxyflavanone 7-O-glucoside-3"-p-coumarate M-H
SPECTRUM_ID=CCMSLIB00006695853
52.957878 3764.0 
62.429749 4117.0 
62.706001 4202.0 
63.02346 17595.0 
65.002838 63508.0 
71.01355 7480.0 
71.5149 4271.0 
77.93763 4254.0 
83.013763 52613.0 
91.718697 5068.0 
93.028168 7670.0 
93.034523 189145.0 
97.029716 10087.0 
100.019318 5417.0 
101.024498 16757.0 
104.296043 5392.0 
107.005959 9330.0 
107.01384 218836.0 
113.024559 6046.0 
117.034622 181722.0 
119.050217 1136622.0 
121.029572 28898.0 
125.024467 177116.0 
131.014084 8073.0 
135.009552 5153.0 
135.045197 7016.0 
137.023819 7757.0 
143.049698 10339.0 
145.029495 3035241.0 
149.024139 23426.0 
151.003662 2659654.0 
159.045181 6689.0 
161.024185 6161.0 
161.060806 32569.0 
163.040024 858752.0 
164.01181 7942.0 
165.019119 119588.0 
169.013748 38500.0 
175.003708 198465.0 
177.019318 209654.0 
179.034637 24525.0 
185.060898 20451.0 
185.412766 4903.0 
187.040054 244962.0 
189.019913 19736.0 
191.036163 10155.0 
193.014221 67065.0 
203.035492 5691.0 
203.070892 7225.0 
205.01416 29206.0 
207.029083 5859.0 
215.073044 6077.0 
217.013138 53360.0 
217.051025 5951.0 
219.030014 17255.0 
227.071548 108779.0 
229.050568 25053.0 
247.060974 8413.0 
265.071716 27185.0 
270.052429 6379.0 
271.061371 8122282.0 
272.064514 9221.0 
277.034973 9296.0 
283.063873 5644.0 
285.075867 20539.0 
289.072479 27121.0 
295.062317 245879.0 
307.082306 3305314.0 
308.084381 4689.0 
311.057556 6047.0 
313.071777 123601.0 
325.076141 13773.0 
327.240509 4483.0 
337.072021 61309.0 
339.410309 5420.0 
343.080444 6087.0 
355.081757 26429.0 
397.087799 38094.0 
415.103424 388124.0 
417.098846 101610.0 
433.113464 137314.0 
454.801422 5348.0 
459.091156 66901.0 
485.107758 20041.0 
487.142212 5441.0 
561.141418 6664.0 
579.151428 8366212.0 
580.158569 36088.0 
END IONS

BEGIN IONS
PRECURSOR_MZ=341.211
INCHI=InChI=1S/C22H30O4/c1-14(2)22(25)12-11-21(4)10-9-15(3)13-18(19(21)22)26-20(24)16-5-7-17(23)8-6-16/h5-9,14,18-19,23,25H,10-13H2,1-4H3/t18-,19-,21-,22+/m0/s1
SMILES=CC1=CCC2(C)CCC(O)(C(C)C)C2C(OC(=O)c2ccc(O)cc2)C1
SCANS=4634
IONMODE=positive
COMPOUND_NAME=AC1ODT5K M+H-H2O
SPECTRUM_ID=CCMSLIB00006689975
57.070309 2598.0 
67.054787 4718.0 
68.768272 2231.0 
68.796562 2604.0 
69.070282 21637.0 
70.075539 2313.0 
75.026367 6135.0 
79.054703 3870.0 
81.070213 67720.0 
83.085983 4557.0 
91.054321 15018.0 
93.036629 15263.0 
93.069832 19813.0 
95.08567 86774.0 
97.101013 11004.0 
105.069908 237437.0 
107.085533 29332.0 
109.101334 70029.0 
111.116524 3632.0 
117.187149 3181.0 
119.085541 245429.0 
121.028412 664623.0 
121.101082 36697.0 
123.116753 290095.0 
133.101166 71741.0 
135.116638 12728.0 
136.207535 2300.0 
136.376678 2545.0 
137.133026 2925.0 
147.116867 145228.0 
156.195496 2950.0 
161.132431 52158.0 
175.14798 44664.0 
203.179367 737550.0 
252.5439 2704.0 
323.275482 20608.0 
341.210693 321061.0 
341.287567 14251.0 
341.397125 20993.0 
END IONS

BEGIN IONS
PRECURSOR_MZ=205.097
INCHI=InChI=1S/C11H12N2O2/c12-9(11(14)15)5-7-6-13-10-4-2-1-3-8(7)10/h1-4,6,9,13H,5,12H2,(H,14,15)/t9-/m1/s1
SMILES=NC(Cc1c[nH]c2ccccc12)C(=O)O
SCANS=19453
IONMODE=positive
COMPOUND_NAME=D-Tryptophan M+H
SPECTRUM_ID=CCMSLIB00006704794
67.267693 3367.0 
67.647476 3074.0 
72.475014 3067.0 
74.02388 124641.0 
77.044083 2890.0 
84.959808 75200.0 
85.963058 13025.0 
91.054176 52299.0 
92.404121 3472.0 
102.970238 15681.0 
103.054161 37577.0 
115.054024 129947.0 
116.049042 3874.0 
117.057259 57012.0 
117.069672 149989.0 
118.064957 2335174.0 
128.04921 5078.0 
130.064941 177720.0 
131.072968 3865.0 
132.080627 609169.0 
139.765869 3556.0 
142.064987 233169.0 
143.072784 324220.0 
144.04509 36263.0 
144.080643 1044344.0 
145.064713 18720.0 
146.05986 4157440.0 
149.023529 12495.0 
155.060104 14553.0 
159.091461 474045.0 
160.075485 99574.0 
163.976761 3921.0 
170.059723 432961.0 
180.98381 4208.0 
181.98613 7333.0 
188.070297 4109000.0 
205.096542 85983.0 
209.775925 12628.0 
END IONS

BEGIN IONS
PRECURSOR_MZ=149.046
INCHI=InChI=1S/C5H10O5/c6-2-1-10-5(9)4(8)3(2)7/h2-9H,1H2/t2-,3+,4+,5?/m1/s1
SMILES=OC1OC[C@@H](O)[C@H](O)[C@@H]1O
SCANS=23765
IONMODE=negative
COMPOUND_NAME=D-Lyxopyranose M-H
SPECTRUM_ID=CCMSLIB00006709106
52.429401 2126.080078 
59.013401 2516.840088 
71.050903 2019.420044 
71.123497 2194.370117 
76.970001 4040.97998 
79.655998 2394.360107 
94.980499 4323.160156 
96.595802 2617.580078 
148.973007 2589.610107 
END IONS

BEGIN IONS
PRECURSOR_MZ=334.166
INCHI=InChI=1S/C18H25NO5/c1-23-15-8-7-12(11-16(15)24-2)9-10-19-17(20)13-5-3-4-6-14(13)18(21)22/h7-8,11,13-14H,3-6,9-10H2,1-2H3,(H,19,20)(H,21,22)
SMILES=COc1ccc(CCN=C(O)C2CCCCC2C(=O)O)cc1OC
SCANS=16786
IONMODE=negative
COMPOUND_NAME=2-{N-[2-(3,4-dimethoxyphenyl)ethyl]carbamoyl}cyclohexanecarboxylic acid M-H
SPECTRUM_ID=CCMSLIB00006702127
51.428261 3042.0 
52.782749 2714.0 
61.98793 7154.0 
73.961357 3553.0 
76.598106 3244.0 
93.034416 4642.0 
98.024689 16119.0 
106.066261 27324.0 
109.065979 24397.0 
118.667992 3874.0 
121.029617 271333.0 
122.024918 12681.0 
123.008987 188325.0 
123.032494 38124.0 
124.076912 1211835.0 
125.060516 3929.0 
126.09243 35868.0 
127.156357 2876.0 
130.093246 4096.0 
134.06134 398785.0 
135.045013 4606.0 
136.053116 660289.0 
138.032471 98347.0 
149.06076 13473.0 
150.056229 11854.0 
152.071884 1349973.0 
166.087784 13370.0 
168.042938 451529.0 
197.070099 4751.0 
217.573456 3369.0 
268.099487 3855.0 
272.09256 4318.0 
287.116119 27593.0 
288.160889 152317.0 
290.177399 12067.0 
302.141815 6235.0 
315.732971 3551.0 
316.155579 1819325.0 
334.16629 1177498.0 
END IONS

BEGIN IONS
PRECURSOR_MZ=452.115
INCHI=InChI=1S/C22H21ClFN3O3/c1-3-26(4-2)22(30)16-12-21(29)27(19-8-6-5-7-15(16)19)13-20(28)25-14-9-10-18(24)17(23)11-14/h5-12H,3-4,13H2,1-2H3,(H,25,28)
SMILES=CCN(CC)C(=O)c1cc(=O)n(CC(O)=Nc2ccc(F)c(Cl)c2)c2ccccc12
SCANS=9775
IONMODE=positive
COMPOUND_NAME=2-[4-(N,N-diethylcarbamoyl)-2-oxohydroquinolyl]-N-(3-chloro-4-fluorophenyl)ace tamide M+Na
SPECTRUM_ID=CCMSLIB00006695116
92.375687 4236.0 
141.884445 3021.0 
145.977493 2960.0 
210.175293 6429.0 
381.039734 36480.0 
408.108704 15482.0 
431.113007 4047.0 
434.108154 3574.0 
452.114441 6190014.0 
END IONS

BEGIN IONS
PRECURSOR_MZ=299.056
INCHI=InChI=1S/C16H12O6/c17-10-2-1-8-13-9-4-12(19)11(18)3-7(9)5-16(13,21)6-22-15(8)14(10)20/h1-4,17,19-21H,5-6H2
SMILES=O=C1C=C2CC3(O)COc4c(ccc(O)c4O)C3=C2C=C1O
SCANS=12231
IONMODE=negative
COMPOUND_NAME=HEMATEIN M-H
SPECTRUM_ID=CCMSLIB00006697572
51.86293 2414.0 
58.995312 2118.0 
60.542839 2538.0 
91.723953 2307.0 
123.008919 5073.0 
125.024712 20894.0 
127.18515 2305.0 
135.512909 2704.0 
145.029938 4735.0 
150.257996 2544.0 
154.600143 2183.0 
161.024811 3448.0 
173.024231 16934.0 
174.032242 28182.0 
175.039917 17587.0 
199.039627 3200.0 
215.072235 10881.0 
225.055923 3705.0 
227.034561 3878.0 
227.071365 3892.0 
228.043884 8728.0 
237.056091 12324.0 
243.067322 5592.0 
253.051697 19545.0 
255.06842 3868.0 
256.03656 9380.0 
264.041443 2878.0 
271.061554 12632.0 
281.045105 32529.0 
283.024689 3168.0 
299.056244 1678894.0 
END IONS

BEGIN IONS
PRECURSOR_MZ=223.097
INCHI=InChI=1S/C12H14O4/c1-4-5-8-6-9(13-2)11-12(10(8)14-3)16-7-15-11/h4,6H,1,5,7H2,2-3H3
SMILES=C=CCc1cc(OC)c2c(c1OC)OCO2
SCANS=11885
IONMODE=positive
COMPOUND_NAME=Apiole M+H
SPECTRUM_ID=CCMSLIB00006697226
53.14584 2609.0 
57.051521 2230.0 
65.027763 2543.0 
73.946167 2969.0 
86.435501 2939.0 
87.856461 2521.0 
91.054176 3964.0 
103.054253 11598.0 
105.069923 49603.0 
107.041367 2768.0 
107.048607 7256.0 
107.085007 2552.0 
109.064407 4059.0 
115.054123 3565.0 
120.057312 6154.0 
126.968361 2729.0 
130.459717 2654.0 
131.049103 3756.0 
133.064835 56950.0 
135.043671 3255.0 
135.080582 44954.0 
136.199539 2506.0 
137.05983 45230.0 
140.96138 3941.0 
150.067429 29788.0 
151.075165 3125.0 
157.958694 3509.0 
158.969543 26243.0 
161.059433 23903.0 
162.067734 21336.0 
163.038696 3776.0 
163.075348 19527.0 
165.054993 11188.0 
165.090988 266651.0 
167.009567 2899.0 
167.033875 110930.0 
167.068726 3032.0 
173.346054 2510.0 
174.984619 2982.0 
176.98056 287433.0 
177.054276 4559.0 
178.061508 15069.0 
180.041992 25675.0 
181.048843 5595.0 
181.986298 35578.0 
182.057358 1006268.0 
185.43103 2778.0 
191.069717 5809.0 
192.075165 12067.0 
193.050507 19646.0 
193.085922 243042.0 
194.990891 48423.0 
195.048706 3934.0 
195.065186 236599.0 
195.100464 63225.0 
199.996475 586499.0 
202.00264 2662.0 
208.072678 142378.0 
208.095139 5713.0 
211.058609 3016.0 
218.006897 3152.0 
223.014786 20680.0 
223.096237 792970.0 
225.042236 32742.0 
227.020233 3304.0 
228.138336 2651.0 
244.489044 2574.0 
END IONS

BEGIN IONS
PRECURSOR_MZ=404.119
INCHI=InChI=1S/C21H19N5O2S/c1-13-7-9-15(10-8-13)26-19-18(20(28)23-12-22-19)25-21(26)29-11-17(27)24-16-6-4-3-5-14(16)2/h3-10,12H,11H2,1-2H3,(H,24,27)(H,22,23,28)
SMILES=Cc1ccc(-n2c(SCC(O)=Nc3ccccc3C)nc3c(O)ncnc32)cc1
SCANS=8794
IONMODE=negative
COMPOUND_NAME=N-(2-methylphenyl)-2-[9-(4-methylphenyl)-6-oxohydropurin-8-ylthio]acetamide M-H
SPECTRUM_ID=CCMSLIB00006694135
57.975239 27386.0 
60.77969 3319.0 
65.014069 36709.0 
65.998016 33972.0 
68.013618 13633.0 
92.025177 85236.0 
92.373459 3972.0 
93.009354 6675.0 
104.280243 3964.0 
131.061157 12452.0 
145.052521 6836.0 
150.0383 5687.0 
155.061432 601159.0 
178.033188 289742.0 
182.071228 3841.0 
197.059479 12583.0 
198.067184 15556.0 
209.44278 5238.0 
225.078232 2208130.0 
228.06102 12416.0 
236.069702 7123.0 
237.07637 4158.0 
241.072861 66112.0 
255.033951 42317.0 
256.042419 660105.0 
257.050232 386671.0 
269.050934 58710.0 
271.065979 129816.0 
297.045074 155110.0 
330.135834 140879.0 
361.111816 6487.0 
404.118866 2733755.0 
END IONS

BEGIN IONS
PRECURSOR_MZ=247.133
INCHI=InChI=1S/C15H20O4/c1-7-9-4-10-8(2)11(16)5-13(17)15(10,3)6-12(9)19-14(7)18/h9-13,16-17H,1-2,4-6H2,3H3
SMILES=C=C1C(=O)OC2CC3(C)C(O)CC(O)C(=C)C3CC12
SCANS=11004
IONMODE=positive
COMPOUND_NAME=10,12-dihydroxy-9-methyl-4,13-dimethylene-6-oxatricyclo[7.4.0.0<3,7>]tridecan- 5-one M+H-H2O
SPECTRUM_ID=CCMSLIB00006696345
53.038841 12932.0 
55.018211 5980.0 
55.0546 11032.0 
57.033691 5609.0 
57.683929 2990.0 
66.73867 3142.0 
67.054604 24620.0 
69.033699 3222.0 
69.070137 14148.0 
71.045952 2620.0 
71.04953 53495.0 
79.054489 38439.0 
81.03392 38531.0 
81.064987 5736.0 
81.070198 171435.0 
83.049019 4808.0 
85.064919 6601.0 
91.054359 45266.0 
93.070038 69377.0 
95.049278 27096.0 
95.085457 12574.0 
97.02845 3809.0 
97.064903 60615.0 
99.043747 4210.0 
99.080353 6221.0 
103.054352 23093.0 
105.033188 3422.0 
105.069931 93069.0 
107.049118 181317.0 
107.085693 27677.0 
109.064667 33809.0 
111.08049 6598.0 
115.054619 6132.0 
117.069893 133746.0 
119.049088 13252.0 
119.085518 43738.0 
121.06485 26368.0 
121.101311 3486.0 
123.043518 20958.0 
123.080307 14992.0 
125.059563 4626.0 
125.096024 3944.0 
128.062271 11405.0 
129.069839 80231.0 
131.049286 98896.0 
131.085541 370626.0 
133.065308 34568.0 
133.101257 95938.0 
135.080154 15257.0 
137.059372 11802.0 
141.069885 55266.0 
142.077713 36112.0 
143.08551 202780.0 
144.093033 26045.0 
145.05275 5123.0 
145.064941 110848.0 
145.100998 76952.0 
147.08049 26256.0 
147.116653 14310.0 
149.059555 16909.0 
149.096024 20295.0 
151.075653 20515.0 
153.055069 5355.0 
153.069046 3728.0 
154.077515 34118.0 
155.085449 61406.0 
157.101212 442809.0 
158.109406 4106.0 
159.080582 128381.0 
159.116791 442239.0 
161.059509 57838.0 
161.095581 11513.0 
163.074951 23490.0 
165.090469 10104.0 
167.085815 30632.0 
168.093353 53800.0 
169.101074 97281.0 
170.109497 5694.0 
171.080475 46767.0 
171.116516 6175.0 
172.08844 12100.0 
173.05986 23640.0 
173.096313 37954.0 
173.132492 76395.0 
175.075409 101919.0 
175.092117 5170.0 
175.095612 4497.0 
175.111542 68631.0 
177.090866 51752.0 
181.100891 33771.0 
183.116837 790975.0 
185.096329 78056.0 
185.133179 26136.0 
186.103424 5923.0 
187.07605 50478.0 
187.11174 475154.0 
189.091064 68869.0 
191.07045 11177.0 
193.101349 55981.0 
196.086746 10782.0 
200.965179 3502.0 
201.091766 16659.0 
201.127304 479902.0 
203.106506 121635.0 
203.141296 5030.0 
205.122345 94811.0 
211.111664 159135.0 
216.631256 2766.0 
217.123169 4932.0 
219.037964 22607.0 
219.137543 30953.0 
229.122253 496409.0 
247.070724 357262.0 
247.132599 788999.0 
353.491516 2909.0 
END IONS

BEGIN IONS
PRECURSOR_MZ=836.662
INCHI=InChI=1S/C20H8I4O5/c21-11-5-9-13(7-3-1-2-4-8(7)20(27)28)10-6-12(22)17(26)15(24)19(10)29-18(9)14(23)16(11)25/h1-6,25H,(H,27,28)
SMILES=O=C(O)c1ccccc1-c1c2cc(I)c(=O)c(I)c-2oc2c(I)c(O)c(I)cc12
SCANS=20495
IONMODE=positive
COMPOUND_NAME=Erythrosin(E) M+H
SPECTRUM_ID=CCMSLIB00006705836
63.41209 3235.0 
73.952621 4324.0 
87.934448 3228.0 
89.275948 3854.0 
104.280571 5686.0 
176.062622 8960.0 
177.070404 7325.0 
189.069748 188241.0 
193.065216 7696.0 
200.061935 91481.0 
201.069168 27504.0 
203.049576 5185.0 
204.057709 7100.0 
205.064957 80036.0 
212.575027 5346.0 
216.057465 6983.0 
217.064743 65684.0 
219.080811 14568.0 
221.060471 15152.0 
227.050247 5149.0 
228.05722 14458.0 
229.064178 129241.0 
231.044113 5195.0 
232.05397 4007.0 
233.061401 6411.0 
244.051666 7989.0 
245.05928 81091.0 
255.044403 7873.0 
256.051422 85660.0 
257.059296 63402.0 
260.044128 5274.0 
261.054688 4155.0 
272.047302 6332.0 
273.054382 132800.0 
284.046631 51747.0 
285.05484 55290.0 
287.034821 14529.0 
301.048553 28880.0 
311.034454 8517.0 
329.044159 266615.0 
354.961426 16549.0 
382.960724 8341.0 
383.96521 23226.0 
397.945099 4325.0 
398.953247 6384.0 
427.954346 21012.0 
509.860626 38293.0 
526.864929 4992.0 
582.853699 50823.0 
746.537354 4185.0 
836.663574 194484.0 
END IONS

BEGIN IONS
PRECURSOR_MZ=353.085
INCHI=InChI=1S/C6H11NO3S/c1-11-3-2-5(6(9)10)7-4-8/h4-5H,2-3H2,1H3,(H,7,8)(H,9,10)/t5-/m1/s1
SMILES=CSCCC(N=CO)C(=O)O
SCANS=9540
IONMODE=negative
COMPOUND_NAME=fMet 2M-H
SPECTRUM_ID=CCMSLIB00006694881
51.2551 1980.0 
54.196869 2483.0 
59.954521 2135.0 
65.982147 2222.0 
77.98909 2105.0 
78.456322 2219.0 
78.769798 2228.0 
82.397659 2482.0 
84.175888 2666.0 
92.378433 2625.0 
98.024727 5477.0 
101.232773 2287.0 
128.035675 21613.0 
160.554138 2280.0 
176.039062 165911.0 
236.503647 2342.0 
247.060806 2446.0 
335.416016 2562.0 
336.258911 2500.0 
378.475494 2330.0 
END IONS

BEGIN IONS
PRECURSOR_MZ=337.082
INCHI=InChI=1S/C18H12N2O5/c1-10-7-16(21)25-18-13(10)5-6-15-17(18)14(9-24-15)19-11-3-2-4-12(8-11)20(22)23/h2-9,19H,1H3
SMILES=Cc1cc(=O)oc2c1ccc1occ(Nc3cccc([N+](=O)[O-])c3)c12
SCANS=8294
IONMODE=positive
COMPOUND_NAME=6-methyl-1-[(3-nitrophenyl)amino]furano[2,3-h]chromen-8-one M+H
SPECTRUM_ID=CCMSLIB00006693635
54.141449 2730.0 
92.382637 3973.0 
104.289917 4251.0 
131.048874 3108.0 
132.056458 2770.0 
142.518387 2802.0 
149.03421 3390.0 
160.051575 7319.0 
161.059692 17884.0 
171.04361 3255.0 
172.051926 6805.0 
187.039658 6780.0 
189.054749 210275.0 
199.038925 26397.0 
200.047333 6913.0 
206.095581 5451.0 
207.101715 3444.0 
220.07547 7199.0 
232.456238 2855.0 
233.083405 16807.0 
234.091492 71082.0 
235.099747 17600.0 
244.073959 3310.0 
246.090027 15948.0 
248.071198 14728.0 
250.085861 5554.0 
251.094513 6720.0 
259.513702 3117.0 
262.086182 175241.0 
263.066681 5675.0 
263.094421 109149.0 
266.081177 4035.0 
267.089233 5071.0 
273.079498 3792.0 
274.074524 6381.0 
275.057007 6002.0 
277.074524 39951.0 
278.080811 14418.0 
279.08963 5798.0 
281.092346 4326.0 
289.073242 18602.0 
290.081268 499104.0 
291.088989 209595.0 
292.08432 5937.0 
294.074707 44484.0 
295.08551 23283.0 
303.076538 13427.0 
307.084045 14569.0 
308.090759 3714.0 
309.087341 43435.0 
320.079071 236319.0 
322.071167 75365.0 
323.035034 4573.0 
323.078644 229955.0 
337.081879 4566086.0 
339.070312 4475.0 
END IONS

BEGIN IONS
PRECURSOR_MZ=447.087
INCHI=InChI=1S/C23H20O6S/c1-26-19-13-9-16(21(27-2)22(19)28-3)8-12-18(24)15-6-10-17(11-7-15)29-23(25)20-5-4-14-30-20/h4-14H,1-3H3/b12-8+
SMILES=COc1ccc(C=CC(=O)c2ccc(OC(=O)c3cccs3)cc2)c(OC)c1OC
SCANS=13100
IONMODE=positive
COMPOUND_NAME=4-[(2E)-3-(2,3,4-trimethoxyphenyl)prop-2-enoyl]phenyl thiophene-2-carboxylate M+Na
SPECTRUM_ID=CCMSLIB00006698441
66.737633 3453.0 
67.839767 3167.0 
73.948303 3907.0 
78.155563 2869.0 
87.321449 3001.0 
98.840736 3296.0 
110.989922 1087272.0 
201.052399 6407.0 
251.071136 14033.0 
253.086456 17494.0 
266.946686 3573.0 
267.06427 5821.0 
281.079987 7594.0 
282.08786 7513.0 
283.096771 25549.0 
297.111786 148481.0 
297.150208 4763.0 
305.077728 215241.0 
349.053436 4512.0 
378.056152 12546.0 
385.01416 7575.0 
386.02243 20603.0 
393.078369 515214.0 
400.033783 5542.0 
401.043915 4521.0 
402.05069 6185.0 
415.060425 422313.0 
417.075836 1471956.0 
432.063934 13800.0 
433.069977 19954.0 
447.086548 4821888.0 
END IONS

BEGIN IONS
PRECURSOR_MZ=566.163
INCHI=InChI=1S/C27H29NO11/c1-10-22(31)13(28)6-17(38-10)39-15-8-27(36,16(30)9-29)7-12-19(15)26(35)21-20(24(12)33)23(32)11-4-3-5-14(37-2)18(11)25(21)34/h3-5,10,13,15,17,22,29,31,33,35-36H,6-9,28H2,1-2H3/t10?,13?,15-,17?,22?,27-/m0/s1
SMILES=COc1cccc2c1C(=O)c1c(O)c3c(c(O)c1C2=O)CC(O)(C(=O)CO)CC3OC1CC(N)C(O)C(C)O1
SCANS=22741
IONMODE=positive
COMPOUND_NAME=MLS002702107 M+Na
SPECTRUM_ID=CCMSLIB00006708082
58.06562 23712.0 
60.044781 5256.0 
67.05442 3121.0 
69.033821 3411.0 
71.049347 5433.0 
72.044739 14911.0 
84.081139 2709.0 
86.060204 87501.0 
92.372322 3379.0 
115.989189 2845.0 
133.285492 2598.0 
152.067947 11961.0 
163.937073 3048.0 
166.119934 2490.0 
170.078781 3330.0 
225.055893 3222.0 
333.525696 2938.0 
389.39386 3213.0 
419.072845 274775.0 
423.740967 2964.0 
437.019501 4489.0 
437.084076 85259.0 
460.098755 3732.0 
566.16272 51006.0 
END IONS

BEGIN IONS
PRECURSOR_MZ=369.228
INCHI=InChI=1S/C20H34O6/c1-16(2)13(21)7-12-18(4,25)11-6-5-10-15(23)19(11,9-17(10,3)24)8-14(22)20(12,16)26/h10-15,21-26H,5-9H2,1-4H3/t10?,11-,12-,13-,14+,15+,17?,18+,19-,20-/m0/s1
SMILES=CC1(O)CC23CC(O)C4(O)C(CC(O)C4(C)C)C(C)(O)C2CCC1C3O
SCANS=22164
IONMODE=negative
COMPOUND_NAME=HMS1361D15 M-H
SPECTRUM_ID=CCMSLIB00006707505
57.034061 210445.0 
59.013279 24904.0 
64.58493 2652.0 
69.03405 22375.0 
71.013718 3997.0 
71.049767 11811.0 
72.993202 2836.0 
83.050087 38298.0 
85.029121 5785.0 
85.06559 10971.0 
87.044998 6296.0 
97.065697 6241.0 
99.044937 14515.0 
101.060837 38208.0 
107.086411 4539.0 
109.065773 26929.0 
111.08139 6189.0 
113.060852 14735.0 
115.076332 6042.0 
121.065948 6043.0 
127.07579 10399.0 
131.086807 3344.0 
133.065216 2990.0 
135.081497 13249.0 
136.215652 2736.0 
136.931595 2657.0 
136.971146 2761.0 
137.077164 3167.0 
137.097427 6213.0 
141.092056 5432.0 
142.104462 2689.0 
147.081207 15240.0 
149.097275 366075.0 
153.0923 5933.0 
155.107651 4491.0 
156.079208 12960.0 
157.087051 17149.0 
157.100861 3185.0 
161.097275 3164.0 
163.113571 3666.0 
163.277618 3162.0 
164.926682 3303.0 
165.092804 4823.0 
167.107819 4289.0 
171.117844 11540.0 
174.955063 3878.0 
175.112946 4972.0 
177.092529 15828.0 
177.128693 4726.0 
179.107239 3866.0 
183.118057 13376.0 
185.09639 3587.0 
187.113037 3624.0 
189.128448 6469.0 
191.10704 4273.0 
199.14946 38476.0 
201.127655 21617.0 
203.107712 3987.0 
205.12323 4271.0 
213.128799 17906.0 
215.144089 14854.0 
217.123978 3967.0 
217.159561 34922.0 
219.139145 3522.0 
221.13472 6849.0 
225.129272 6306.0 
227.144531 6708.0 
231.138992 24377.0 
233.154694 3750.0 
239.144684 41555.0 
241.159958 52495.0 
245.155014 4234.0 
247.134949 3033.0 
253.159805 34578.0 
255.143585 3092.0 
255.176224 17911.0 
257.154846 124601.0 
259.170654 63468.0 
261.164398 16440.0 
269.19043 5078.0 
271.171326 30780.0 
273.186218 15690.0 
275.165985 12327.0 
279.002075 2747.0 
279.175385 268739.0 
289.180176 13087.0 
297.185852 320493.0 
299.164673 6345.0 
315.196655 217021.0 
333.207733 80326.0 
351.217773 258575.0 
369.228363 2206465.0 
END IONS

BEGIN IONS
PRECURSOR_MZ=649.323
INCHI=InChI=1S/C34H50O12/c1-9-12-13-14-15-17-24(37)43-28-26-25(20(5)27(28)44-30(38)19(4)11-3)29-34(41,33(8,40)31(39)45-29)22(42-23(36)16-10-2)18-32(26,7)46-21(6)35/h11,22,26-29,40-41H,9-10,12-18H2,1-8H3/b19-11-/t22-,26+,27-,28-,29-,32-,33+,34+/m0/s1
SMILES=CC=C(C)C(=O)OC1C(C)=C2C(C1OC(=O)CCCCCCC)C(C)(OC(C)=O)CC(OC(=O)CCC)C1(O)C2OC(=O)C1(C)O
SCANS=10195
IONMODE=negative
COMPOUND_NAME=thapsigargin M-H
SPECTRUM_ID=CCMSLIB00006695536
56.169659 2848.0 
59.013458 124656.0 
64.08065 4020.0 
82.405617 3222.0 
85.233612 2941.0 
87.008774 148725.0 
87.045128 2275829.0 
92.385361 3773.0 
99.045227 165429.0 
115.076538 4511.0 
118.66449 2961.0 
121.845711 2944.0 
140.690842 3351.0 
143.107712 112872.0 
185.098557 5071.0 
186.068283 5488.0 
187.07608 55169.0 
201.093369 7253.0 
211.113571 4522.0 
213.092346 44078.0 
225.128754 5037.0 
227.108337 6033.0 
228.079956 5872.0 
229.087128 28250.0 
257.082367 20234.0 
269.118317 44361.0 
295.135193 12192.0 
311.129517 41660.0 
313.141144 4039.0 
313.181061 13221.0 
329.141571 3699.0 
339.124023 62467.0 
346.784454 3510.0 
355.19162 15372.0 
357.134125 57655.0 
360.814301 3438.0 
373.202515 5384.0 
387.936859 3768.0 
401.20108 5484.0 
473.253021 23474.0 
501.249512 7139.0 
533.275208 90629.0 
561.277283 17667.0 
589.305603 12532.0 
620.524719 3755.0 
649.324585 91939.0 
END IONS

BEGIN IONS
PRECURSOR_MZ=350.151
INCHI=InChI=1S/C20H21N3O3/c1-12-7-8-15(11-18(12)23(25)26)20(24)21-10-9-16-14(3)22-19-13(2)5-4-6-17(16)19/h4-8,11,22H,9-10H2,1-3H3,(H,21,24)
SMILES=Cc1ccc(C(O)=NCCc2c(C)[nH]c3c(C)cccc23)cc1[N+](=O)[O-]
SCANS=20215
IONMODE=negative
COMPOUND_NAME=N-[2-(2,7-dimethylindol-3-yl)ethyl](4-methyl-3-nitrophenyl)carboxamide M-H
SPECTRUM_ID=CCMSLIB00006705556
83.396698 2455.0 
84.908943 2397.0 
87.007751 2694.0 
90.034592 2777.0 
92.379532 3228.0 
101.908569 2278.0 
104.284218 2619.0 
109.02916 12388.0 
118.03006 4307.0 
118.65596 2475.0 
121.029808 21000.0 
122.037369 11544.0 
136.040619 30995.0 
144.082092 20497.0 
146.525879 2717.0 
146.961533 3193.0 
158.098618 3312.0 
162.056549 3747.0 
175.05101 3107.0 
179.046371 517302.0 
213.102951 3356.0 
222.502792 2486.0 
237.107147 2660.0 
317.246307 2562.0 
350.151489 1431974.0 
END IONS

BEGIN IONS
PRECURSOR_MZ=439.1
INCHI=InChI=1S/C21H20O9/c22-7-14-17(26)18(27)19(28)21(30-14)15-13(24)6-5-11-16(25)12(8-29-20(11)15)9-1-3-10(23)4-2-9/h1-6,8,14,17-19,21-24,26-28H,7H2
SMILES=O=c1c(-c2ccc(O)cc2)coc2c(C3OC(CO)C(O)C(O)C3O)c(O)ccc12
SCANS=19375
IONMODE=positive
COMPOUND_NAME=7-hydroxy-3-(4-hydroxyphenyl)-8-[3,4,5-trihydroxy-6-(hydroxymethyl)(2H-3,4,5,6 -tetrahydropyran-2-yl)]chromen-4-one M+Na
SPECTRUM_ID=CCMSLIB00006704716
55.900879 2523.0 
60.537369 2327.0 
63.329079 2527.0 
82.401642 3691.0 
91.636726 2300.0 
118.655853 2998.0 
136.212173 3269.0 
177.591339 2587.0 
182.869568 2522.0 
185.396667 2508.0 
200.223694 2565.0 
260.130829 2356.0 
319.057312 15058.0 
334.371582 2416.0 
349.067871 3496.0 
421.08728 3616.0 
439.099213 532753.0 
END IONS

BEGIN IONS
PRECURSOR_MZ=404.119
INCHI=InChI=1S/C21H19N5O2S/c1-14-8-10-16(11-9-14)26-19-18(20(28)23-13-22-19)24-21(26)29-12-17(27)25(2)15-6-4-3-5-7-15/h3-11,13H,12H2,1-2H3,(H,22,23,28)
SMILES=Cc1ccc(-n2c(SCC(=O)N(C)c3ccccc3)nc3c(O)ncnc32)cc1
SCANS=5398
IONMODE=negative
COMPOUND_NAME=N-methyl-2-[9-(4-methylphenyl)-6-oxohydropurin-8-ylthio]-N-phenylacetamide M-H
SPECTRUM_ID=CCMSLIB00006690739
50.48341 2968.0 
57.9753 39545.0 
63.360641 3364.0 
65.013863 10730.0 
65.997772 10618.0 
66.75312 2980.0 
74.786293 3231.0 
92.025513 21911.0 
106.068237 3290.0 
121.753754 2709.0 
128.615082 2914.0 
147.652878 3167.0 
155.061569 178536.0 
197.05899 18238.0 
198.06665 10823.0 
209.939682 5259.0 
225.078186 479113.0 
225.998672 81000.0 
236.069839 30828.0 
237.0784 6244.0 
255.034378 47258.0 
256.04245 706437.0 
264.064331 29768.0 
269.050293 153735.0 
270.058899 3481.0 
297.045044 631358.0 
343.046356 2795.0 
347.097321 4727.0 
361.114075 13904.0 
404.119385 706546.0 
END IONS

BEGIN IONS
PRECURSOR_MZ=298.191
INCHI=InChI=1S/C18H23N3O/c19-10-7-15-22-14-5-1-3-12-21-13-4-2-9-18(21)17-8-6-11-20-16-17/h6,8,11,16,18H,2,4-5,7,9,12-15H2
SMILES=N#CCCOCCC#CCN1CCCCC1c1cccnc1
SCANS=3296
IONMODE=positive
COMPOUND_NAME=3-[5-(2-(3-pyridyl)piperidyl)pent-3-ynyloxy]propanenitrile M+H
SPECTRUM_ID=CCMSLIB00006688637
51.418758 3206.0 
54.034569 9283.0 
55.054661 5312.0 
56.049809 5885.0 
65.039101 45888.0 
67.050652 7863.0 
67.054642 171957.0 
68.049728 38243.0 
70.065422 14579.0 
79.054443 21960.0 
80.049789 203904.0 
81.057991 4810.0 
81.070053 19384.0 
82.041199 6018.0 
82.065491 58611.0 
83.049248 38933.0 
83.073143 9297.0 
84.044853 19315.0 
84.081017 7886.0 
91.054367 44661.0 
92.043198 6654.0 
92.049652 145555.0 
93.057312 49691.0 
94.065277 312427.0 
95.049347 36144.0 
96.08091 39333.0 
103.054558 3567.0 
105.069542 21329.0 
106.065102 327994.0 
107.072723 24771.0 
108.044121 3754.0 
108.080841 43205.0 
109.088539 5149.0 
110.06002 5354.0 
117.057068 43221.0 
117.069107 3901.0 
118.065117 354607.0 
119.072762 7060.0 
120.080803 672132.0 
122.096313 25222.0 
129.068924 8846.0 
130.064896 28182.0 
131.072968 48426.0 
131.085556 17784.0 
132.08075 193119.0 
133.088501 16081.0 
134.096497 161793.0 
135.104507 36193.0 
136.075684 33634.0 
144.080734 85378.0 
145.088318 6069.0 
146.096451 485712.0 
147.091141 7277.0 
148.112091 298097.0 
153.102173 7132.0 
156.080154 8981.0 
158.096664 32435.0 
161.1073 514107.0 
163.122833 95787.0 
165.102249 184067.0 
168.080414 7385.0 
170.095932 7031.0 
172.111603 7175.0 
175.122955 247823.0 
179.117233 20597.0 
182.096786 7874.0 
184.11235 18476.0 
198.127411 17874.0 
199.121414 7691.0 
200.144333 16705.0 
201.100555 5742.0 
205.133362 148658.0 
210.127426 37900.0 
215.118713 26961.0 
217.131989 35318.0 
219.149155 139796.0 
225.13826 9484.0 
227.15419 313278.0 
229.133987 21003.0 
241.134583 4615.0 
243.147522 4749.0 
245.162674 15024.0 
255.150543 30813.0 
269.164856 27401.0 
271.180054 342693.0 
281.166199 6105.0 
296.869537 18869.0 
298.191101 16824786.0 
299.520721 17583.0 
300.059326 6399.0 
END IONS

BEGIN IONS
PRECURSOR_MZ=287.125
INCHI=InChI=1S/C15H20O4/c1-10(7-13(17)18)5-6-15(19)11(2)8-12(16)9-14(15,3)4/h5-8,19H,9H2,1-4H3,(H,17,18)/b6-5+,10-7-
SMILES=CC(C=CC1(O)C(C)=CC(=O)CC1(C)C)=CC(=O)O
SCANS=5825
IONMODE=positive
COMPOUND_NAME=ABSCISIC ACID M+Na
SPECTRUM_ID=CCMSLIB00006691166
88.261948 2830.0 
101.953484 2698.0 
106.936081 2255.0 
117.116386 2653.0 
118.648857 3686.0 
123.190521 3184.0 
245.929672 5931.0 
263.907104 6073.0 
263.942078 18636.0 
269.114014 17386.0 
285.868652 3722.0 
287.124939 5455790.0 
288.388885 4981.0 
305.133453 4037.0 
END IONS

BEGIN IONS
PRECURSOR_MZ=430.071
INCHI=InChI=1S/C17H18ClN5O3S/c1-4-12(15(24)21-9-5-6-11(26-3)10(18)7-9)27-17-22-13-14(23(17)2)19-8-20-16(13)25/h5-8,12H,4H2,1-3H3,(H,21,24)(H,19,20,25)
SMILES=CCC(Sc1nc2c(O)ncnc2n1C)C(O)=Nc1ccc(OC)c(Cl)c1
SCANS=9463
IONMODE=positive
COMPOUND_NAME=N-(3-chloro-4-methoxyphenyl)-2-(9-methyl-6-oxohydropurin-8-ylthio)butanamide M+Na
SPECTRUM_ID=CCMSLIB00006694804
50.865898 3247.0 
75.758713 2914.0 
77.997887 3045.0 
80.30455 3006.0 
92.355888 2979.0 
157.36438 3033.0 
173.043747 12818.0 
183.033447 3848.0 
194.912582 3240.0 
200.020538 3699.0 
204.007492 440904.0 
205.015244 593212.0 
234.028549 28079.0 
248.045761 23488.0 
273.040192 32363.0 
289.403351 4393.0 
415.049164 12837.0 
429.563049 48074.0 
430.070526 7751807.0 
END IONS

BEGIN IONS
PRECURSOR_MZ=313.13
INCHI=InChI=1S/C16H16N4O3/c1-3-10-14-13(8-4-5-11(21)12(6-8)22-2)9(7-17)15(18)23-16(14)20-19-10/h4-6,13,21H,3,18H2,1-2H3,(H,19,20)
SMILES=CCc1[nH]nc2c1C(c1ccc(O)c(OC)c1)C(C#N)=C(N)O2
SCANS=5520
IONMODE=positive
COMPOUND_NAME=6-amino-3-ethyl-4-(4-hydroxy-3-methoxyphenyl)-4H-pyrano[3,2-d]pyrazole-5-carbo nitrile M+H
SPECTRUM_ID=CCMSLIB00006690861
56.61319 2066.0 
64.920433 1944.0 
73.398193 2195.0 
91.054382 27054.0 
92.37043 3183.0 
112.625504 2082.0 
149.022919 11910.0 
161.044449 2668.0 
164.081329 2386.0 
189.058777 4394.0 
189.076828 86658.0 
191.367859 2443.0 
215.079559 3531.0 
219.075104 4350.0 
230.081451 5234.0 
231.111877 2663.0 
232.084152 3697.0 
247.107193 491896.0 
248.11467 14366.0 
248.899933 14992.0 
248.969757 3324.0 
266.909882 5259.0 
286.117157 11220.0 
313.128662 248052.0 
END IONS

BEGIN IONS
PRECURSOR_MZ=364.063
INCHI=InChI=1S/C15H14ClN5O2S/c1-8-3-4-10(9(16)5-8)19-11(22)6-24-15-20-12-13(21(15)2)17-7-18-14(12)23/h3-5,7H,6H2,1-2H3,(H,19,22)(H,17,18,23)
SMILES=Cc1ccc(N=C(O)CSc2nc3c(O)ncnc3n2C)c(Cl)c1
SCANS=18485
IONMODE=positive
COMPOUND_NAME=N-(2-chloro-4-methylphenyl)-2-(9-methyl-6-oxohydropurin-8-ylthio)acetamide M+H
SPECTRUM_ID=CCMSLIB00006703826
53.58419 3122.0 
57.045151 12767.0 
58.99535 12693.0 
61.269749 2641.0 
63.40963 3670.0 
80.227921 2885.0 
84.985626 32131.0 
86.006111 4580.0 
91.054329 16166.0 
92.381599 3104.0 
104.28997 3623.0 
106.040047 7226.0 
107.023956 7124.0 
108.055763 24619.0 
110.035431 5875.0 
111.042801 4826.0 
118.065224 16965.0 
118.658386 3434.0 
119.073029 38488.0 
124.050056 25635.0 
125.01651 7221.0 
126.011559 3561.0 
133.05101 17881.0 
134.035233 5422.0 
136.214111 4404.0 
137.045685 119223.0 
139.031967 3134.0 
139.991364 54006.0 
140.027893 6139.0 
141.033707 18828.0 
147.067871 72717.0 
149.0327 5843.0 
149.045807 122689.0 
150.053543 190465.0 
150.995956 46153.0 
151.06131 385375.0 
152.026779 30648.0 
153.022751 7674.0 
154.006363 13281.0 
154.04158 163687.0 
157.972717 3484.0 
161.045624 25130.0 
162.053482 104151.0 
163.061096 148444.0 
165.033768 36330.0 
168.022339 91759.0 
170.038162 13356.0 
177.022476 17398.0 
179.056168 6077.0 
180.021072 39120.0 
181.017654 1199340.0 
182.025055 12453.0 
183.032791 12971.0 
186.032974 17738.0 
194.025665 3839.0 
195.033371 2910310.0 
213.043518 29553.0 
222.044037 14516.0 
223.028152 3405545.0 
236.059448 29096.0 
346.0513 5435.0 
353.88443 3024.0 
364.062286 65708.0 
388.473328 4057.0 
END IONS

BEGIN IONS
PRECURSOR_MZ=407.159
INCHI=InChI=1S/C21H23F3N2O3/c1-3-18(27)20-17(5-4-6-19(20)28)25-10-9-14-12(2)26-16-8-7-13(11-15(14)16)29-21(22,23)24/h7-8,11,25-26H,3-6,9-10H2,1-2H3
SMILES=CCC(=O)C1=C(NCCc2c(C)[nH]c3ccc(OC(F)(F)F)cc23)CCCC1=O
SCANS=1442
IONMODE=negative
COMPOUND_NAME=3-({2-[2-methyl-5-(trifluoromethoxy)indol-3-yl]ethyl}amino)-2-propanoylcyclohe x-2-en-1-one M-H
SPECTRUM_ID=CCMSLIB00006686783
66.760834 3097.0 
71.049843 13799.0 
73.969803 3203.0 
73.974861 3699.0 
82.419579 3888.0 
92.403343 3379.0 
92.995598 17508.0 
110.061234 114792.0 
113.061089 44976.0 
128.997162 2938.0 
151.076553 4645.0 
166.087479 3345273.0 
180.103302 21939.0 
204.989883 13475.0 
208.98465 15983.0 
213.172745 4347.0 
229.280609 3267.0 
242.985687 5657.0 
254.988846 3111.0 
255.075684 6314.0 
270.982086 6785.0 
316.984192 5426.0 
320.978912 6762.0 
342.979492 65462.0 
351.133209 83240.0 
366.979767 44070.0 
386.985382 34811.0 
406.985199 92899.0 
407.159088 3279831.0 
END IONS

BEGIN IONS
PRECURSOR_MZ=269.046
INCHI=InChI=1S/C15H10O5/c16-8-5-11(18)15-12(19)7-13(20-14(15)6-8)9-3-1-2-4-10(9)17/h1-7,16-18H
SMILES=O=c1cc(-c2ccccc2O)oc2cc(O)cc(O)c12
SCANS=2340
IONMODE=negative
COMPOUND_NAME=5,7,2'-Trihydroxyflavone M-H
SPECTRUM_ID=CCMSLIB00006687681
61.78067 2717.0 
63.023571 3895.0 
65.002853 34892.0 
65.906754 2493.0 
66.74968 3396.0 
70.022537 3291.0 
80.096497 2671.0 
83.013657 16782.0 
91.816689 2899.0 
97.653381 2880.0 
99.987007 2619.0 
107.013893 102680.0 
117.03511 11279.0 
119.050201 5525.0 
123.008904 15586.0 
125.02449 3111.0 
129.416626 3117.0 
131.96637 2824.0 
136.227249 2792.0 
149.024323 13792.0 
151.00383 623465.0 
157.06572 16221.0 
159.045563 32518.0 
161.024429 14031.0 
169.065933 5296.0 
172.885681 3829.0 
181.066284 9651.0 
183.044998 30575.0 
185.024704 21208.0 
197.060883 19176.0 
200.881927 22821.0 
201.055923 62532.0 
207.045288 5583.0 
215.161911 2550.0 
225.055832 128503.0 
226.440704 2677.0 
227.034821 15259.0 
251.035309 11550.0 
267.891632 3086.0 
269.045807 3241492.0 
END IONS

BEGIN IONS
PRECURSOR_MZ=225.063
INCHI=InChI=1S/C11H10N2O2/c1-13-10-5-3-2-4-9(10)8(7-12-15)6-11(13)14/h2-7,15H,1H3/b12-7+
SMILES=Cn1c(=O)cc(C=NO)c2ccccc21
SCANS=2957
IONMODE=positive
COMPOUND_NAME=4-((hydroxyimino)methyl)-1-methylhydroquinolin-2-one M+Na
SPECTRUM_ID=CCMSLIB00006688298
50.146999 1979.0 
55.882881 2314.0 
64.142662 2556.0 
64.846764 1922.0 
69.054024 2274.0 
92.386047 2681.0 
101.949806 12188.0 
104.810081 2258.0 
109.869034 2020.0 
142.975998 2289.0 
156.97583 3270.0 
160.98645 14944.0 
166.064682 8019.0 
178.956329 2140.0 
178.996643 2521.0 
182.083389 3151.0 
183.091476 18014.0 
201.972305 15716.0 
225.044434 4146.0 
225.063507 78709.0 
225.113525 4975.0 
225.138306 93698.0 
225.194153 4983.0 
227.040085 3645.0 
END IONS

BEGIN IONS
PRECURSOR_MZ=582.247
INCHI=InChI=1S/C33H34N4O6/c1-7-20-19(6)32(42)37-27(20)14-25-18(5)23(10-12-31(40)41)29(35-25)15-28-22(9-11-30(38)39)17(4)24(34-28)13-26-16(3)21(8-2)33(43)36-26/h7-8,13-15,34-35H,1-2,9-12H2,3-6H3,(H,37,42)(H,38,39)(H,40,41)/b24-13+,27-14-,28-15-
SMILES=C=CC1=C(C)C(/C=c2/[nH]/c(=C\c3[nH]c(/C=C4\N=C(O)C(C)=C4C=C)c(C)c3CCC(=O)O)c(CCC(=O)O)c2C)=NC1=O
SCANS=24251
IONMODE=positive
COMPOUND_NAME=biliverdin M-e
SPECTRUM_ID=CCMSLIB00006709592
92.395699 22131.5 
101.863998 16308.0 
104.307999 16331.299805 
140.289001 14468.799805 
181.587997 14123.5 
211.087006 23596.699219 
213.102005 18777.300781 
225.102005 147026.0 
226.108002 29938.800781 
227.117004 110469.0 
237.100998 82900.0 
238.108994 65642.0 
239.117996 103026.0 
240.123993 65424.5 
251.117996 117179.0 
252.123001 59888.601562 
253.095993 212031.0 
253.132004 154278.0 
254.100006 178835.0 
265.131989 15974.799805 
267.113007 18838.400391 
269.127991 16246.599609 
271.105988 82172.398438 
273.122009 26618.300781 
279.112 18859.0 
283.106995 35182.398438 
284.11499 353277.0 
285.121002 56591.699219 
286.131012 175646.0 
287.140015 18803.199219 
295.106995 551878.0 
296.109985 565910.0 
297.122986 372384.0 
298.126007 195254.0 
299.138 346019.0 
309.122986 53013.398438 
315.134003 19421.800781 
318.161011 19906.900391 
328.144012 30793.0 
329.149994 19747.300781 
330.158997 82564.898438 
331.166992 17698.199219 
335.13501 19935.300781 
342.15799 60752.601562 
343.164001 26428.800781 
344.175995 54257.398438 
348.141998 17537.599609 
355.161987 14633.900391 
356.174011 17766.900391 
357.183014 68234.203125 
386.149994 22676.900391 
388.162994 55405.699219 
401.17099 64619.199219 
402.181 89744.296875 
403.184998 35001.199219 
416.197998 101745.0 
435.178009 309507.0 
437.196991 16620.300781 
446.171997 34349.0 
448.187988 92140.898438 
449.196014 252225.0 
450.203003 659157.0 
451.210999 28215.599609 
452.221985 53389.199219 
460.196014 22121.400391 
462.204987 61318.0 
463.212006 209410.0 
464.216003 376609.0 
465.227997 442747.0 
477.230011 34002.199219 
478.230011 58894.5 
479.242004 521040.0 
491.203003 23444.099609 
493.178009 17954.400391 
494.187988 23995.300781 
495.229004 23094.800781 
504.213989 20062.400391 
505.222992 151214.0 
506.204987 34233.699219 
507.20401 28554.599609 
508.207001 110626.0 
509.21701 664161.0 
520.241028 21935.400391 
521.223999 54331.199219 
522.223999 35400.300781 
523.231995 1133040.0 
537.247009 158816.0 
538.255005 983389.0 
564.232971 91084.898438 
565.218018 17205.900391 
567.223022 280547.0 
580.577026 16896.900391 
581.237976 24364.900391 
582.244995 17907500.0 
END IONS

BEGIN IONS
PRECURSOR_MZ=427.151
INCHI=InChI=1S/C21H22N2O5/c1-26-16-10-18(28-3)17(27-2)9-13(16)20-19-12(8-15(23-20)21(24)25)11-6-4-5-7-14(11)22-19/h4-7,9-10,15,20,22-23H,8H2,1-3H3,(H,24,25)
SMILES=COc1cc(OC)c(C2NC(C(=O)O)Cc3c2[nH]c2ccccc32)cc1OC
SCANS=5129
IONMODE=negative
COMPOUND_NAME=1-(2,4,5-trimethoxyphenyl)-1,2,3,4-tetrahydrobeta-carboline-3-carboxylic acid M+formate
SPECTRUM_ID=CCMSLIB00006690470
50.264778 2504.0 
55.161659 2578.0 
65.167679 2682.0 
71.136711 2336.0 
73.959251 3257.0 
74.287521 2671.0 
92.050423 3675.0 
92.38427 2439.0 
172.3004 2591.0 
208.542877 9116.0 
215.020935 2170.0 
303.250305 3977.0 
324.127289 2981.0 
337.155884 12701.0 
381.147552 45000.0 
END IONS

BEGIN IONS
PRECURSOR_MZ=398.127
INCHI=InChI=1S/C21H20ClN3O3/c1-2-10-23-21(28)17-12-20(27)25(18-9-4-3-8-16(17)18)13-19(26)24-15-7-5-6-14(22)11-15/h3-9,11-12H,2,10,13H2,1H3,(H,23,28)(H,24,26)
SMILES=CCCN=C(O)c1cc(=O)n(CC(O)=Nc2cccc(Cl)c2)c2ccccc12
SCANS=10114
IONMODE=positive
COMPOUND_NAME=N-(3-chlorophenyl)-2-[2-oxo-4-(N-propylcarbamoyl)hydroquinolyl]acetamide M+H
SPECTRUM_ID=CCMSLIB00006695455
70.065582 5348.0 
81.215179 2897.0 
101.818863 3012.0 
115.473061 3240.0 
118.660873 3379.0 
122.582169 3799.0 
130.065063 71407.0 
130.074966 4723.0 
132.544022 2819.0 
134.598221 3083.0 
136.214828 2864.0 
144.044632 13466.0 
146.060059 70658.0 
146.072266 5178.0 
158.060043 115901.0 
173.070984 3802.0 
181.112152 3190.0 
186.055161 14756.0 
201.066147 13473.0 
215.117874 18576.0 
219.021667 6950.0 
220.02359 3790.0 
231.112488 128863.0 
241.218796 3129.0 
243.112579 1049062.0 
263.010742 59110.0 
271.107361 3465759.0 
284.139191 41422.0 
299.99234 3903.0 
365.993713 45262.0 
398.019012 126742.0 
398.080658 6605.0 
398.137482 3553.0 
398.248566 3601.0 
469.114227 3348.0 
END IONS

BEGIN IONS
PRECURSOR_MZ=510.956
INCHI=InChI=1S/C20H17BrN2O3S2/c21-16-7-9-17(10-8-16)22-20(24)18-12-14-4-1-2-5-15(14)13-23(18)28(25,26)19-6-3-11-27-19/h1-11,18H,12-13H2,(H,22,24)
SMILES=O=C(Nc1ccc(Br)cc1)C1Cc2ccccc2CN1S(=O)(=O)c1cccs1
SCANS=8388
IONMODE=negative
COMPOUND_NAME=N-(4-bromophenyl)[2-(2-thienylsulfonyl)(3-1,2,3,4-tetrahydroisoquinolyl)]carbo xamide M+Cl
SPECTRUM_ID=CCMSLIB00006693729
73.969818 2838.0 
82.995918 321057.0 
102.956917 6209.0 
109.301338 2635.0 
112.985779 5389.0 
118.684158 2895.0 
130.222031 3648.0 
146.958145 1047023.0 
176.767685 2746.0 
178.416946 3027.0 
199.133514 3103.0 
204.988388 2897.0 
220.681564 2924.0 
238.932724 3953.0 
253.072418 3478.0 
254.669785 2793.0 
263.951294 3063.0 
318.980133 3210.0 
374.904755 3399.0 
378.307129 3411.0 
406.974854 5298.0 
426.976288 4735.0 
470.977844 3495.0 
474.979523 519444.0 
490.97995 13060.0 
510.959167 123125.0 
END IONS

BEGIN IONS
PRECURSOR_MZ=653.272
INCHI=InChI=1S/C33H40N2O9/c1-38-19-7-8-20-21-9-10-35-16-18-13-27(44-32(36)17-11-25(39-2)30(41-4)26(12-17)40-3)31(42-5)28(33(37)43-6)22(18)15-24(35)29(21)34-23(20)14-19/h7-8,11-12,14,18,22,24,27-28,31,34H,9-10,13,15-16H2,1-6H3/t18-,22+,24-,27-,28+,31+/m1/s1
SMILES=COC(=O)C1C2CC3c4[nH]c5cc(OC)ccc5c4CCN3CC2CC(OC(=O)c2cc(OC)c(OC)c(OC)c2)C1OC
SCANS=8538
IONMODE=negative
COMPOUND_NAME=reserpine M+formate
SPECTRUM_ID=CCMSLIB00006693879
61.29599 2700.0 
66.399811 3169.0 
77.206947 3079.0 
81.510109 2780.0 
82.407402 3667.0 
89.726257 2811.0 
94.979584 3346.0 
137.024094 22472.0 
149.078705 2772.0 
153.019287 3860.0 
153.055176 14448.0 
181.012939 31955.0 
197.04512 12624.0 
211.060226 41397.0 
215.283279 3383.0 
220.659698 3365.0 
235.996887 3213.0 
268.47168 2875.0 
380.17392 3954.0 
436.940643 3525.0 
543.311218 3491.0 
577.216309 22354.0 
592.237244 27072.0 
607.266174 667933.0 
END IONS

BEGIN IONS
PRECURSOR_MZ=246.17
INCHI=InChI=1S/C12H23NO4/c13-10(7-4-5-9-12(16)17)6-2-1-3-8-11(14)15/h10H,1-9,13H2,(H,14,15)(H,16,17)
SMILES=NC(CCCCCC(=O)O)CCCCC(=O)O
SCANS=15531
IONMODE=positive
COMPOUND_NAME=6-aminododecanedioic acid, chloride M+H
SPECTRUM_ID=CCMSLIB00006700872
55.01841 7272.0 
55.054951 12802.0 
57.034019 13781.0 
59.04969 3122.0 
64.43396 2710.0 
66.926407 2812.0 
67.054626 148907.0 
69.070259 135719.0 
71.04937 25349.0 
72.932892 2965.0 
72.937462 3844.0 
79.021469 4859.0 
79.054466 81927.0 
81.070152 268638.0 
83.049347 33234.0 
83.085449 24510.0 
85.064972 42769.0 
90.288719 2781.0 
90.948021 5690.0 
91.054367 223469.0 
93.069977 65305.0 
93.497124 3276.0 
95.042793 5222.0 
95.049217 122905.0 
95.085449 34827.0 
97.06485 173195.0 
99.044113 11660.0 
99.080437 57090.0 
101.059341 3434.0 
104.282463 3628.0 
105.061897 6099.0 
105.069893 176547.0 
107.049026 20447.0 
107.085426 55050.0 
109.064789 111995.0 
109.101189 25599.0 
111.044144 21816.0 
111.080391 13432.0 
112.935272 2761.0 
113.059677 87546.0 
115.05407 13781.0 
116.909607 4396.0 
118.651176 3575.0 
119.085548 239001.0 
121.101196 69429.0 
123.080421 15682.0 
123.11676 91703.0 
125.059822 15214.0 
126.941032 3048.0 
127.075119 22962.0 
129.069824 93385.0 
131.085571 74931.0 
133.064804 6307.0 
133.101166 164807.0 
134.919586 34661.0 
137.096069 6908.0 
137.132217 3577.0 
142.077423 22546.0 
147.081543 22827.0 
147.116776 1028319.0 
149.095993 119313.0 
149.132538 4022.0 
151.112152 21062.0 
152.930542 11549.0 
157.101135 505982.0 
157.969696 3551.0 
165.127365 195899.0 
167.953796 47880.0 
175.11171 792197.0 
183.137344 3268.0 
185.964249 82252.0 
192.137939 13838.0 
193.122253 1164736.0 
208.981171 3359.0 
210.148834 7274.0 
211.132721 208053.0 
223.552917 3151.0 
228.159363 12761.0 
228.902451 3454.0 
229.143219 329795.0 
245.967575 13192.0 
246.169785 3464209.0 
END IONS

BEGIN IONS
PRECURSOR_MZ=412.03
INCHI=InChI=1S/C19H16BrN3O3/c1-21-19(26)15-10-18(25)23(16-5-3-2-4-14(15)16)11-17(24)22-13-8-6-12(20)7-9-13/h2-10H,11H2,1H3,(H,21,26)(H,22,24)
SMILES=CN=C(O)c1cc(=O)n(CC(=O)Nc2ccc(Br)cc2)c2ccccc12
SCANS=10999
IONMODE=negative
COMPOUND_NAME=N-(4-bromophenyl)-2-[4-(N-methylcarbamoyl)-2-oxohydroquinolyl]acetamide M-H
SPECTRUM_ID=CCMSLIB00006696340
58.029362 3774.0 
59.01342 16912.0 
72.045197 5661.0 
78.91391 6519.0 
78.918762 145985.0 
84.699318 3160.0 
92.050591 13564.0 
104.313454 3893.0 
115.05545 16309.0 
116.050751 49325.0 
128.050797 148037.0 
130.066345 239614.0 
131.038025 5288.0 
132.04567 48203.0 
136.238327 3384.0 
142.03067 4970.0 
142.066635 27357.0 
143.061905 16343.0 
144.04567 234807.0 
149.380508 3465.0 
155.061783 4767.0 
156.045761 15080.0 
156.06926 86945.0 
157.281891 3773.0 
158.048447 230798.0 
158.061569 260235.0 
160.04068 339045.0 
167.0625 9970.0 
169.077484 84749.0 
169.961426 187219.0 
171.093079 677987.0 
172.040329 22137.0 
172.077667 6923.0 
173.072281 417068.0 
174.055832 6632.0 
176.071854 107039.0 
176.088409 5678.0 
183.056595 13383.0 
184.022202 6744.0 
184.040726 182742.0 
185.072357 436423.0 
185.444427 3761.0 
187.087708 101384.0 
197.072723 16270.0 
199.051315 4665.0 
201.067352 545203.0 
202.0513 171430.0 
211.972992 12872.0 
214.693085 3762.0 
215.083145 148644.0 
217.06221 250032.0 
228.031158 13285.0 
231.355896 3490.0 
241.062286 324335.0 
247.072418 5412.0 
259.072693 13876.0 
354.024994 6402.0 
355.009552 851039.0 
398.998932 5186.0 
412.03125 4220267.0 
414.233887 4165.0 
END IONS

BEGIN IONS
PRECURSOR_MZ=239.07
INCHI=InChI=1S/C15H10O3/c16-11-5-3-4-10(8-11)15-9-13(17)12-6-1-2-7-14(12)18-15/h1-9,16H
SMILES=O=c1cc(-c2cccc(O)c2)oc2ccccc12
SCANS=13447
IONMODE=positive
COMPOUND_NAME=3'-Hydroxyflavone M+H
SPECTRUM_ID=CCMSLIB00006698788
50.01564 29667.0 
51.02335 6338.0 
52.838612 4597.0 
53.002708 5021.0 
53.039108 27774.0 
55.018261 57704.0 
56.96524 4716.0 
65.038948 284974.0 
68.993263 6290.0 
68.997498 156491.0 
77.038773 48452.0 
81.033607 64520.0 
84.959587 7317.0 
89.03894 19637.0 
91.054314 474236.0 
93.028061 4505.0 
93.033531 361729.0 
95.049171 1043829.0 
103.054176 5192.0 
105.03315 8333.0 
105.044853 57861.0 
111.043999 256582.0 
115.054466 25110.0 
117.032997 8961.0 
118.041389 23147.0 
119.049088 984535.0 
121.028343 2724865.0 
128.062683 8113.0 
129.06958 8746.0 
131.048157 10467.0 
133.02861 11302.0 
134.036407 7599.0 
139.038849 215046.0 
141.069611 107689.0 
145.02832 1082520.0 
152.061905 349235.0 
153.069839 177549.0 
154.077087 24857.0 
155.049744 5340.0 
155.085144 213518.0 
163.038589 18958.0 
165.069717 1086048.0 
166.027679 69749.0 
166.077469 105945.0 
167.086243 49638.0 
168.057419 38944.0 
169.064499 106670.0 
175.033859 71505.0 
176.035416 9980.0 
176.061981 331641.0 
177.052246 7395.0 
177.069839 245035.0 
178.077744 19386.0 
181.065018 49673.0 
182.072556 31409.0 
183.080353 380065.0 
193.062698 157840.0 
194.071747 104128.0 
195.082031 35956.0 
196.030197 65580.0 
197.059555 88616.0 
210.067505 22242.0 
211.075058 555747.0 
221.058624 68060.0 
222.067596 6471.0 
238.060776 27211.0 
238.119034 24986.0 
239.069855 32131784.0 
240.026123 29045.0 
END IONS

BEGIN IONS
PRECURSOR_MZ=398.106
INCHI=InChI=1S/C21H19NO5S/c1-25-16-11-14(12-17(26-2)20(16)27-3)21(24)22-15-8-6-13(7-9-15)19(23)18-5-4-10-28-18/h4-12H,1-3H3,(H,22,24)
SMILES=COc1cc(C(=O)Nc2ccc(C(=O)c3cccs3)cc2)cc(OC)c1OC
SCANS=17920
IONMODE=positive
COMPOUND_NAME=N-[4-(2-thienylcarbonyl)phenyl](3,4,5-trimethoxyphenyl)carboxamide M+H
SPECTRUM_ID=CCMSLIB00006703261
53.039051 47921.0 
65.038849 46708.0 
66.046471 6155.0 
66.496811 2621.0 
67.054413 3566.0 
67.113602 2722.0 
69.033562 5003.0 
71.049492 3598.0 
73.987068 3302.0 
75.044273 4959.0 
78.046349 3904.0 
79.05439 147126.0 
81.033661 79724.0 
81.070053 74738.0 
83.049294 6797.0 
91.05407 15505.0 
92.103378 3210.0 
92.110558 2968.0 
93.033234 25518.0 
94.041107 19489.0 
95.049103 29919.0 
96.056969 60946.0 
98.989769 3340.0 
107.048607 17189.0 
108.056961 21352.0 
109.02816 26027.0 
109.064613 127385.0 
110.626068 2883.0 
110.989777 422645.0 
111.043373 21739.0 
111.080353 28703.0 
113.023216 20825.0 
113.059158 15308.0 
115.053917 15634.0 
121.028084 39052.0 
122.036133 82375.0 
123.044006 21785.0 
124.041344 5492.0 
124.051666 164686.0 
124.061577 6694.0 
125.059853 14115.0 
128.046722 27610.0 
135.044296 3306.0 
137.023209 29593.0 
137.059525 7523.0 
138.067307 84205.0 
139.038757 153104.0 
139.050583 5593.0 
139.075089 228809.0 
141.018219 29218.0 
146.023438 98689.0 
146.856384 2841.0 
147.026047 6361.0 
151.038971 28315.0 
152.046524 329663.0 
154.06218 717062.0 
156.041458 65106.0 
159.026245 3920.0 
169.085587 254398.0 
174.036942 127772.0 
181.04953 22208.0 
184.036865 24100.0 
185.0802 20352.0 
187.020844 15405.0 
195.06488 1378733.0 
205.031647 25715.0 
218.063309 26649.0 
230.02652 190700.0 
263.514404 3415.0 
270.111359 3573.0 
314.101532 23491.0 
398.104706 1197686.0 
419.393982 3452.0 
421.400391 3307.0 
END IONS

BEGIN IONS
PRECURSOR_MZ=340.104
INCHI=InChI=1S/C16H13N5O4/c22-13-6-5-9-3-1-2-4-10(9)11(13)8-17-20-14(23)7-12-15(24)18-16(25)21-19-12/h1-6,8,22H,7H2,(H,20,23)(H2,18,21,24,25)/b17-8+
SMILES=OC(Cc1nnc(O)nc1O)=NN=Cc1c(O)ccc2ccccc12
SCANS=6344
IONMODE=positive
COMPOUND_NAME=N-[(1E)-2-(2-hydroxynaphthyl)-1-azavinyl]-2-(3,5-dioxo(2H,4H-1,2,4-triazin-6-y l))acetamide M+H
SPECTRUM_ID=CCMSLIB00006691685
52.213711 3067.0 
53.505009 2654.0 
55.02953 42126.0 
72.488968 2791.0 
81.224213 2552.0 
83.024261 28803.0 
86.882874 3244.0 
91.51342 2547.0 
115.054321 26324.0 
118.644402 3571.0 
124.420471 2781.0 
125.04586 6615.0 
126.029716 293095.0 
142.065308 51821.0 
143.049194 16046.0 
144.040298 145569.0 
145.064987 19354.0 
153.01767 4150.0 
153.039795 3089.0 
154.024643 219355.0 
154.065277 3850.0 
167.056305 11543.0 
168.051529 5309.0 
169.075745 78669.0 
170.059906 1686255.0 
171.051529 17016.0 
171.067795 24933.0 
172.60199 3553.0 
187.086456 1213129.0 
196.0466 57290.0 
213.06665 7122.0 
308.065674 20388.0 
340.103577 2538840.0 
363.249756 2867.0 
END IONS

BEGIN IONS
PRECURSOR_MZ=591.228
INCHI=InChI=1S/C39H30N2O4/c1-2-24-20-22-26(23-21-24)32(33-37(43)30-18-11-17-28(35(30)40-38(33)44)25-12-5-3-6-13-25)34-36(42)29-16-9-10-19-31(29)41(39(34)45)27-14-7-4-8-15-27/h3-23,32,42H,2H2,1H3,(H2,40,43,44)
SMILES=CCc1ccc(C(c2c(O)nc3c(-c4ccccc4)cccc3c2O)c2c(O)c3ccccc3n(-c3ccccc3)c2=O)cc1
SCANS=9852
IONMODE=positive
COMPOUND_NAME=3-[(4-ethylphenyl)(4-hydroxy-2-oxo-8-phenyl(3-hydroquinolyl))methyl]-4-hydroxy -1-phenylhydroquinolin-2-one M+H
SPECTRUM_ID=CCMSLIB00006695193
52.086349 4731.0 
60.25209 4209.0 
71.879601 4807.0 
77.039337 9158.0 
107.314781 4690.0 
117.069794 8130.0 
159.080887 10919.0 
162.054321 41108.0 
167.074493 6085.0 
168.082108 6535.0 
180.081696 7369.0 
194.097809 5135.0 
196.075562 272440.0 
212.748001 6119.0 
224.070679 23498.0 
236.068787 5680.0 
237.078171 19434.0 
237.132675 8879.0 
238.08577 24961830.0 
239.046097 7296.0 
248.067505 7191.0 
250.086166 144685.0 
267.572479 5840.0 
283.142365 8056.0 
286.160004 10491.0 
298.157776 7466.0 
325.111786 10798.0 
326.117249 6221.0 
326.151001 12358.0 
336.137573 11490.0 
354.14801 1739067.0 
591.226868 4874034.0 
END IONS

BEGIN IONS
PRECURSOR_MZ=255.102
INCHI=InChI=1S/C16H14O3/c1-18-13-8-5-9-14-16(13)12(17)10-15(19-14)11-6-3-2-4-7-11/h2-9,15H,10H2,1H3
SMILES=COc1cccc2c1C(=O)CC(c1ccccc1)O2
SCANS=15121
IONMODE=positive
COMPOUND_NAME=Untitled M+H
SPECTRUM_ID=CCMSLIB00006700462
50.015888 4105.0 
55.01836 23812.0 
56.965519 4337.0 
58.455379 3744.0 
65.039009 449386.0 
67.054649 228713.0 
68.997414 33477.0 
77.039093 7457.0 
79.05455 34940.0 
81.033791 165420.0 
82.399162 3976.0 
83.049438 103174.0 
89.592003 3613.0 
91.054283 103570.0 
93.033539 140407.0 
95.049217 246973.0 
95.085678 5352.0 
97.069252 4284.0 
103.054199 209378.0 
105.033669 88044.0 
105.069656 35956.0 
107.049026 29495.0 
108.020477 371220.0 
109.02877 6735.0 
111.043877 39011.0 
115.054626 10127.0 
121.028442 217828.0 
121.038757 17585.0 
121.065033 8682.0 
123.044037 215052.0 
130.1026 5099.0 
131.049194 224913.0 
131.060059 7921.0 
136.015564 632861.0 
137.023422 61990.0 
146.557449 5463.0 
150.549164 4742.0 
150.561157 8274.0 
151.039001 21591172.0 
151.518814 9543.0 
154.025925 1007973.0 
163.039658 8395.0 
165.070877 6056.0 
167.086044 6019.0 
169.0504 4288.0 
177.054581 24598.0 
178.07666 5691.0 
179.083267 6334.0 
191.083771 4681.0 
194.07254 8829.0 
195.08017 30943.0 
196.09552 4574.0 
213.090439 16109.0 
222.06813 25267.0 
227.071625 4701.0 
237.090927 69898.0 
239.070862 20995.0 
254.057114 4913.0 
255.101379 7589623.0 
END IONS

BEGIN IONS
PRECURSOR_MZ=153.018
INCHI=InChI=1S/C7H6O5/c8-4-1-3(7(11)12)2-5(9)6(4)10/h1-2,8-10H,(H,11,12)
SMILES=O=C(O)c1cc(O)c(O)c(O)c1
SCANS=22660
IONMODE=positive
COMPOUND_NAME=Gallic acid M+H-H2O
SPECTRUM_ID=CCMSLIB00006708001
55.069439 2181.0 
69.03373 5076.0 
69.070213 3662.0 
70.942238 20681.0 
78.997231 2397.0 
79.018112 66673.0 
79.054176 2166.0 
82.39624 2071.0 
87.007309 3056.0 
88.95224 10347.0 
95.085373 7415.0 
97.007446 15496.0 
97.028351 16826.0 
97.064812 12386.0 
104.283783 2562.0 
107.012733 26982.0 
109.101067 3658.0 
111.968369 20342.0 
125.001968 4113.0 
125.023216 38092.0 
129.978638 8870.0 
141.969452 2270.0 
143.022202 3419.0 
143.033813 61833.0 
151.825607 1935.0 
153.017929 232375.0 
153.029617 22698.0 
153.127182 13421.0 
175.805832 1950.0 
END IONS

BEGIN IONS
PRECURSOR_MZ=573.1
INCHI=InChI=1S/C28H27BrN2O5/c1-34-23-9-8-15(13-24(23)35-2)16-11-21-26(22(32)12-16)27(31-20-7-5-4-6-19(20)30-21)17-10-18(29)28(33)25(14-17)36-3/h4-10,13-14,16,27,30-31,33H,11-12H2,1-3H3
SMILES=COc1ccc(C2CC(=O)C3=C(C2)Nc2ccccc2NC3c2cc(Br)c(O)c(OC)c2)cc1OC
SCANS=21354
IONMODE=positive
COMPOUND_NAME=3-(3,4-dimethoxyphenyl)-11-(3-bromo-4-hydroxy-5-methoxyphenyl)-2,3,4-trihydro- 5H,10H,11H-benzo[b]benzo[2,1-f]1,4-diazepin-1-one M+Na
SPECTRUM_ID=CCMSLIB00006706695
56.173828 2700.0 
66.059158 2557.0 
80.254784 3279.0 
92.36264 3332.0 
104.270477 3541.0 
112.489502 2899.0 
118.823174 2818.0 
141.951797 2652.0 
157.942963 2770.0 
165.857483 2625.0 
184.603104 2990.0 
310.627533 3050.0 
322.517456 2841.0 
452.673218 3782.0 
498.454987 3002.0 
573.099182 346136.0 
END IONS

BEGIN IONS
PRECURSOR_MZ=269.09
INCHI=InChI=1S/C13H14N2O3/c1-8(16)15-12(13(17)18)6-9-7-14-11-5-3-2-4-10(9)11/h2-5,7,12,14H,6H2,1H3,(H,15,16)(H,17,18)
SMILES=CC(O)=NC(Cc1c[nH]c2ccccc12)C(=O)O
SCANS=5841
IONMODE=positive
COMPOUND_NAME=N-Acetyl-DL-tryptophan M+Na
SPECTRUM_ID=CCMSLIB00006691182
65.257011 2218.0 
68.85791 2476.0 
112.394867 2208.0 
117.404427 2689.0 
153.347839 2228.0 
157.412796 2658.0 
181.073166 46139.0 
182.059784 2173.0 
210.053329 4122.0 
227.078445 27505.0 
251.078659 5844.0 
269.089203 2636050.0 
END IONS

BEGIN IONS
PRECURSOR_MZ=361.201
INCHI=InChI=1S/C21H28O5/c1-19-7-5-13(23)9-12(19)3-4-14-15-6-8-21(26,17(25)11-22)20(15,2)10-16(24)18(14)19/h9,14-15,18,22,26H,3-8,10-11H2,1-2H3/t14-,15-,18+,19-,20-,21-/m0/s1
SMILES=CC12CCC(=O)C=C1CCC1C2C(=O)CC2(C)C1CCC2(O)C(=O)CO
SCANS=5393
IONMODE=positive
COMPOUND_NAME=Andreson M+H
SPECTRUM_ID=CCMSLIB00006690734
51.127441 221501.0 
55.431679 229357.0 
69.070557 324921.0 
70.123169 252390.0 
81.07016 1133484.0 
82.403526 346212.0 
83.049561 538002.0 
93.070183 1762132.0 
95.086143 519970.0 
97.065063 870467.0 
105.069977 2525728.0 
107.085297 1717807.0 
119.085426 1364472.0 
121.064957 5788655.0 
121.10112 986921.0 
123.080544 526590.0 
130.964401 237880.0 
131.08548 361754.0 
131.760269 225449.0 
133.064728 411269.0 
133.101196 441271.0 
135.080627 2114936.0 
135.116791 1310026.0 
137.095947 411667.0 
139.063568 250111.0 
139.075195 1443111.0 
143.085648 1078920.0 
145.101334 3176203.0 
147.080185 1887107.0 
149.095779 1071288.0 
155.086441 255465.0 
157.100601 474993.0 
159.080261 904684.0 
159.116089 307061.0 
161.095825 1275524.0 
163.111557 27476364.0 
171.080826 344223.0 
171.116531 456213.0 
173.095718 890576.0 
175.112 328786.0 
179.106689 384405.0 
181.101364 321949.0 
183.116653 594697.0 
185.095047 400522.0 
185.398361 256859.0 
187.111908 973422.0 
189.091019 470186.0 
189.127731 263316.0 
195.116669 363787.0 
197.133209 264044.0 
197.517319 243680.0 
199.111725 316321.0 
201.126709 390891.0 
209.132507 314551.0 
210.099411 457750.0 
211.111572 273766.0 
213.126572 485169.0 
221.132004 453709.0 
223.111038 379831.0 
223.148315 351779.0 
225.126205 417753.0 
237.127579 382873.0 
237.162766 440813.0 
239.142548 1580934.0 
241.122665 419512.0 
241.158127 605907.0 
243.173798 395604.0 
249.127106 270487.0 
255.137405 367157.0 
255.17131 556350.0 
257.152527 522380.0 
258.161591 511178.0 
261.161255 242086.0 
265.158508 1498941.0 
267.141907 301338.0 
267.174591 1834533.0 
279.17334 597864.0 
283.168427 2306483.0 
284.177765 568012.0 
285.150421 268057.0 
285.185242 1206783.0 
295.166534 448967.0 
297.185608 608717.0 
299.163666 2456537.0 
300.170837 303108.0 
301.179596 2918020.0 
303.407654 263050.0 
307.170074 836014.0 
313.178864 1290637.0 
325.178741 1760363.0 
343.190369 5334012.0 
361.200348 175668032.0 
END IONS

BEGIN IONS
PRECURSOR_MZ=188.068
INCHI=InChI=1S/C9H11NO2/c10-8(9(11)12)6-7-4-2-1-3-5-7/h1-5,8H,6,10H2,(H,11,12)
SMILES=NC(Cc1ccccc1)C(=O)O
SCANS=17498
IONMODE=positive
COMPOUND_NAME=DL-PHENYLALANINE M+Na
SPECTRUM_ID=CCMSLIB00006702839
55.93478 2365.0 
72.937462 3352.0 
78.148087 2353.0 
82.40464 2537.0 
86.851212 2038.0 
88.021523 3598.0 
92.382637 1972.0 
167.055099 8059.0 
188.034637 3952.0 
188.068451 25012.0 
190.684509 1921.0 
END IONS

BEGIN IONS
PRECURSOR_MZ=571.161
INCHI=InChI=1S/C16H14O5/c1-20-11-4-2-9(3-5-11)14-8-13(19)16-12(18)6-10(17)7-15(16)21-14/h2-7,14,17-18H,8H2,1H3/t14-/m0/s1
SMILES=COc1ccc(C2CC(=O)c3c(O)cc(O)cc3O2)cc1
SCANS=3875
IONMODE=negative
COMPOUND_NAME=Isosakuranetin 2M-H
SPECTRUM_ID=CCMSLIB00006689216
55.49371 2699.0 
58.010841 2485.0 
63.883831 2742.0 
82.40757 3137.0 
104.297562 3201.0 
128.897751 2938.0 
157.983627 2709.0 
286.36911 3008.0 
297.964874 2817.0 
434.87326 3900.0 
502.852783 2953.0 
END IONS

BEGIN IONS
PRECURSOR_MZ=255.065
INCHI=InChI=1S/C15H10O4/c16-10-7-4-8-11-12(10)13(17)14(18)15(19-11)9-5-2-1-3-6-9/h1-8,16,18H
SMILES=O=c1c(O)c(-c2ccccc2)oc2cccc(O)c12
SCANS=17928
IONMODE=positive
COMPOUND_NAME=3,5-Dihydroxyflavone M+H
SPECTRUM_ID=CCMSLIB00006703269
53.03912 21634.0 
53.928131 2775.0 
55.01828 3356.0 
56.092621 2415.0 
56.544979 2700.0 
59.36665 2648.0 
65.038902 27391.0 
68.99733 4150.0 
75.026337 3509.0 
81.03376 12290.0 
86.002083 2888.0 
89.038658 6656.0 
91.054176 59359.0 
92.359894 2925.0 
93.033089 23066.0 
95.049271 7003.0 
103.054123 5590.0 
105.033363 295505.0 
107.01326 3912.0 
115.053841 3954.0 
119.049042 13744.0 
119.0588 2710.0 
121.028374 67163.0 
128.061951 25027.0 
129.069809 6054.0 
131.048828 15389.0 
136.188217 3923.0 
137.023209 820987.0 
143.085373 16870.0 
149.023163 317233.0 
152.061768 56962.0 
153.069733 223435.0 
155.03334 5018.0 
157.064438 5784.0 
165.070084 42867.0 
167.033752 64556.0 
169.065079 5091.0 
171.080246 27254.0 
173.328781 2988.0 
181.064545 237241.0 
184.051971 18770.0 
197.059265 27548.0 
199.075241 120514.0 
199.095322 5175.0 
209.058929 49606.0 
226.062012 45785.0 
227.069061 5074.0 
237.053787 30193.0 
254.014343 4289.0 
254.056152 6513.0 
255.064697 5527689.0 
256.122498 5201.0 
END IONS

BEGIN IONS
PRECURSOR_MZ=495.131
INCHI=InChI=1S/C22H24N4O6S/c1-25(2)19(27)11-33-22-24-23-21(13-8-17(28-3)20(30-5)18(9-13)29-4)26(22)14-6-7-15-16(10-14)32-12-31-15/h6-10H,11-12H2,1-5H3
SMILES=COc1cc(-c2nnc(SCC(=O)N(C)C)n2-c2ccc3c(c2)OCO3)cc(OC)c1OC
SCANS=2683
IONMODE=positive
COMPOUND_NAME=2-[4-(2H-benzo[3,4-d]1,3-dioxolen-5-yl)-5-(3,4,5-trimethoxyphenyl)(1,2,4-triaz ol-3-ylthio)]-N,N-dimethylacetamide M+Na
SPECTRUM_ID=CCMSLIB00006688024
59.27142 3155.0 
66.806122 3154.0 
104.273888 3949.0 
109.049606 5255.0 
118.637306 4505.0 
140.01387 188055.0 
146.198257 3744.0 
216.063324 24056.0 
378.10437 128115.0 
394.045715 46147.0 
409.067017 37946.0 
422.079987 14557.0 
434.102936 6862.0 
437.086121 7046.0 
449.089386 37816.0 
450.07431 27491.0 
451.103821 4210.0 
461.086487 18908.0 
465.082581 16115.0 
479.099152 37900.0 
480.107452 21376.0 
495.129974 8402227.0 
513.140625 32054.0 
END IONS

BEGIN IONS
PRECURSOR_MZ=271.082
INCHI=InChI=1S/C12H16O7/c13-5-8-9(15)10(16)11(17)12(19-8)18-7-3-1-6(14)2-4-7/h1-4,8-17H,5H2/t8?,9-,10-,11?,12-/m1/s1
SMILES=OCC1OC(Oc2ccc(O)cc2)C(O)C(O)C1O
SCANS=23409
IONMODE=negative
COMPOUND_NAME=Arbutin, 98+% M-H
SPECTRUM_ID=CCMSLIB00006708750
50.476501 2361.0 
57.591911 2134.0 
65.829376 2011.0 
71.013474 32589.0 
73.028877 3817.0 
83.013489 2795.0 
83.091087 1974.0 
85.029427 18329.0 
89.023941 2561.0 
95.013588 12355.0 
99.008781 3674.0 
101.024223 17799.0 
108.021507 469669.0 
109.029228 14315.0 
113.024437 16717.0 
121.029533 3474.0 
123.008461 9580.0 
123.045067 3902.0 
133.029327 3492.0 
136.205856 2660.0 
151.039597 20008.0 
156.955032 2679.0 
159.029572 2777.0 
161.045074 27160.0 
163.039536 2994.0 
210.200455 3412.0 
231.153397 2328.0 
END IONS

BEGIN IONS
PRECURSOR_MZ=322.107
INCHI=InChI=1S/C19H15NO4/c1-11-3-5-14(7-12(11)2)18-15(19(21)24-20-18)8-13-4-6-16-17(9-13)23-10-22-16/h3-9H,10H2,1-2H3/b15-8-
SMILES=Cc1ccc(C2=NOC(=O)C2=Cc2ccc3c(c2)OCO3)cc1C
SCANS=15922
IONMODE=positive
COMPOUND_NAME=4-(2H-benzo[3,4-d]1,3-dioxolan-5-ylmethylene)-3-(3,4-dimethylphenyl)isoxazol-5 -one M+H
SPECTRUM_ID=CCMSLIB00006701263
50.01572 13056.0 
51.023521 27343.0 
53.0392 30071.0 
55.01836 59157.0 
57.59153 13227.0 
65.038857 156986.0 
66.046791 26719.0 
67.018173 12276.0 
67.054588 20912.0 
69.033821 129449.0 
71.743317 11588.0 
74.910629 12535.0 
76.118141 11599.0 
77.03907 61103.0 
79.054497 2700404.0 
81.033821 30251.0 
81.070236 230174.0 
89.038696 24437.0 
91.054482 142500.0 
92.373627 16183.0 
94.041344 56208.0 
95.04924 61243.0 
103.054199 658711.0 
105.069862 5390962.0 
107.048462 13301.0 
108.056587 14222.0 
109.064621 163056.0 
123.08033 1246965.0 
132.668015 31442.0 
133.064789 46726264.0 
133.074738 2029536.0 
133.463547 30469.0 
134.067993 26346.0 
135.044159 29662.0 
146.095963 51367.0 
147.043152 20207.0 
158.059052 25924.0 
160.03949 20290.0 
161.023117 799902.0 
186.017883 23098.0 
188.034973 117529.0 
190.049652 31100.0 
206.044434 1123058.0 
218.095581 57052.0 
220.113007 14840.0 
234.039307 519612.0 
236.105728 22231.0 
248.1073 66198.0 
261.076355 15398.0 
264.103119 107111.0 
276.100372 169810.0 
278.117371 17362.0 
292.096558 87155.0 
294.112122 111753.0 
304.095459 49180.0 
322.10675 20885260.0 
323.614594 18547.0 
END IONS

BEGIN IONS
PRECURSOR_MZ=288.123
INCHI=InChI=1S/C16H17NO4/c1-10-8-13(11(2)21-10)15(18)17-14(16(19)20)9-12-6-4-3-5-7-12/h3-8,14H,9H2,1-2H3,(H,17,18)(H,19,20)
SMILES=Cc1cc(C(O)=NC(Cc2ccccc2)C(=O)O)c(C)o1
SCANS=20649
IONMODE=positive
COMPOUND_NAME=2-[(2,5-dimethyl(3-furyl))carbonylamino]-3-phenylpropanoic acid M+H
SPECTRUM_ID=CCMSLIB00006705990
53.03915 51718.0 
60.33419 2414.0 
66.752136 2790.0 
67.05452 10145.0 
70.744713 2269.0 
81.033852 233130.0 
87.570297 2552.0 
95.049339 26090.0 
100.608566 2654.0 
103.054398 11985.0 
106.859337 2643.0 
120.080887 209779.0 
123.044144 2904775.0 
148.859253 3081.0 
154.30072 2664.0 
184.425705 2835.0 
242.11795 28512.0 
270.115265 2786.0 
288.12262 21790.0 
END IONS

BEGIN IONS
PRECURSOR_MZ=321.053
INCHI=InChI=1S/C17H11FO4/c18-11-7-5-10(6-8-11)14(19)9-13-16(20)12-3-1-2-4-15(12)22-17(13)21/h1-8,20H,9H2
SMILES=O=C(Cc1c(O)c2ccccc2oc1=O)c1ccc(F)cc1
SCANS=20505
IONMODE=positive
COMPOUND_NAME=3-[2-(4-fluorophenyl)-2-oxoethyl]-4-hydroxychromen-2-one M+Na
SPECTRUM_ID=CCMSLIB00006705846
69.726753 2262.0 
84.777443 2226.0 
92.36335 2287.0 
103.383041 2272.0 
109.044762 3974.0 
118.638 2449.0 
147.368317 2145.0 
266.93396 2169.0 
321.054016 21597.0 
321.167542 4827.0 
321.203644 2819.0 
321.240112 4199.0 
END IONS

BEGIN IONS
PRECURSOR_MZ=384.101
INCHI=InChI=1S/C19H17N3O4S/c1-24-13-5-3-12(4-6-13)21-19-22-18(20)17(27-19)16(23)11-2-7-14-15(10-11)26-9-8-25-14/h2-7,10H,8-9,20H2,1H3,(H,21,22)
SMILES=COc1ccc(N=c2[nH]c(N)c(C(=O)c3ccc4c(c3)OCCO4)s2)cc1
SCANS=16795
IONMODE=positive
COMPOUND_NAME=2H,3H-benzo[3,4-e]1,4-dioxan-6-yl 4-amino-2-[(4-methoxyphenyl)amino](1,3-thiaz ol-5-yl) ketone M+H
SPECTRUM_ID=CCMSLIB00006702136
53.002621 6750.0 
55.05463 8775.0 
59.990669 317281.0 
65.038841 8577.0 
66.730026 4086.0 
67.018013 23997.0 
68.997467 93526.0 
69.033798 79828.0 
69.974907 4469.0 
71.013123 7153.0 
71.99054 572386.0 
72.998413 6472.0 
73.054131 3989.0 
78.046356 4849.0 
79.018097 15148.0 
79.054459 205645.0 
82.381409 4361.0 
82.410591 4150.0 
83.04966 5162.0 
87.001251 296009.0 
91.054466 4303.0 
92.025673 8589.0 
92.360939 7003.0 
95.012863 61093.0 
95.048767 13149.0 
99.984413 5761.0 
105.011642 9592.0 
105.044243 5122.0 
107.012642 479161.0 
108.044678 4846.0 
108.056839 59671.0 
109.064583 25534.0 
113.023102 61091.0 
114.995934 640302.0 
119.036369 66770.0 
122.059883 267269.0 
123.067612 8181.0 
124.075722 20238.0 
125.022842 9738.0 
125.059357 18876.0 
134.059875 1319328.0 
135.044037 19216.0 
135.05513 35197.0 
136.051758 17760.0 
136.186325 5841.0 
137.005814 4305.0 
137.02301 4218.0 
137.059586 6095.0 
139.038788 16200.0 
140.028687 44321.0 
146.060028 17257.0 
147.055237 6152.0 
148.062805 87641.0 
149.07077 1457260.0 
150.000885 23306.0 
151.038422 7670.0 
152.017059 8178.0 
153.054276 186883.0 
160.052292 7372.0 
161.070755 5318.0 
162.000763 4192.0 
162.041595 5962.0 
162.054642 46620.0 
162.078506 22698.0 
163.038422 5269410.0 
164.070831 14931.0 
165.024078 57460.0 
166.018539 9360.0 
166.032516 24597.0 
167.015488 94811.0 
167.029297 6303.0 
175.062698 199211.0 
176.082184 29973.0 
177.995453 39408.0 
178.031906 777920.0 
179.015793 154869.0 
180.011154 6368.0 
181.031326 25260.0 
187.074112 23297.0 
189.064743 6475.0 
191.016022 28407.0 
192.025528 7306.0 
193.044632 38454.0 
195.02121 48550.0 
196.68045 3986.0 
203.0271 8117.0 
205.030212 52817.0 
205.990646 26115.0 
206.026596 168055.0 
207.010864 206474.0 
209.02623 46606.0 
216.011063 7033.0 
220.01535 22628.0 
220.053528 850019.0 
221.037964 4794.0 
223.016602 30992.0 
233.02533 46690.0 
234.021439 800695.0 
236.036621 18114.0 
248.048309 1985093.0 
251.047791 116754.0 
295.041443 14689.0 
310.063232 19606.0 
328.074677 4740.0 
369.075958 7823.0 
384.100403 7452533.0 
386.059662 6543.0 
END IONS

BEGIN IONS
PRECURSOR_MZ=382.087
INCHI=InChI=1S/C19H17N3O4S/c1-2-26-18(25)12-7-9-13(10-8-12)20-16(23)11-27-19-21-15-6-4-3-5-14(15)17(24)22-19/h3-10H,2,11H2,1H3,(H,20,23)(H,21,22,24)
SMILES=CCOC(=O)c1ccc(NC(=O)CSc2nc(O)c3ccccc3n2)cc1
SCANS=18541
IONMODE=negative
COMPOUND_NAME=ethyl 4-[2-(4-hydroxyquinazolin-2-ylthio)acetylamino]benzoate M-H
SPECTRUM_ID=CCMSLIB00006703882
57.975121 203906.0 
85.888763 3299.0 
92.050423 35537.0 
92.377533 3419.0 
94.029243 4465.0 
102.034927 13133.0 
105.045403 2987.0 
107.037369 5485.0 
116.037552 6726.0 
117.045708 67680.0 
118.43116 2723.0 
135.032486 191928.0 
136.040237 50419.0 
145.04068 281888.0 
160.051422 22009.0 
161.035645 120925.0 
162.001923 3595.0 
164.071716 179131.0 
164.087372 6014.0 
176.005463 12993.0 
177.012802 288082.0 
189.012863 400453.0 
189.06694 305706.0 
190.022079 3252.0 
190.03801 25055.0 
191.028458 123034.0 
209.024918 5191.0 
210.06752 2870.0 
217.007614 650476.0 
236.082733 223760.0 
238.062302 19688.0 
280.072571 295005.0 
308.103973 1464911.0 
382.086731 151984.0 
END IONS

BEGIN IONS
PRECURSOR_MZ=377.086
INCHI=InChI=1S/C12H22O11/c13-1-3-5(15)6(16)9(19)12(22-3)23-10-4(2-14)21-11(20)8(18)7(10)17/h3-20H,1-2H2/t3-,4-,5+,6+,7-,8-,9-,10-,11?,12+/m1/s1
SMILES=OC[C@H]1OC(O)[C@H](O)[C@@H](O)[C@@H]1O[C@@H]1O[C@H](CO)[C@H](O)[C@H](O)[C@H]1O
SCANS=23959
IONMODE=negative
COMPOUND_NAME=lactose M+Cl
SPECTRUM_ID=CCMSLIB00006709300
59.0131 4976.779785 
71.013298 18666.599609 
73.029198 3801.199951 
75.4683 3037.02002 
84.221001 3526.48999 
89.0242 18340.400391 
97.029404 7268.870117 
101.024002 25575.800781 
104.329002 4156.089844 
114.667 3517.389893 
119.033997 4373.029785 
122.014999 3715.219971 
143.035004 6388.859863 
145.018997 3486.23999 
161.044998 91025.703125 
179.056 57635.199219 
185.473007 5139.839844 
208.768997 20011.300781 
243.164993 3622.449951 
303.020996 12087.799805 
377.085999 117863.0 
END IONS

BEGIN IONS
PRECURSOR_MZ=358.201
INCHI=InChI=1S/C21H27NO4/c1-5-25-19-11-14-9-10-22-21(17(14)13-20(19)26-6-2)16-8-7-15(23-3)12-18(16)24-4/h7-8,11-13,21-22H,5-6,9-10H2,1-4H3
SMILES=CCOc1cc2c(cc1OCC)C(c1ccc(OC)cc1OC)NCC2
SCANS=12566
IONMODE=positive
COMPOUND_NAME=1-(6,7-diethoxy(1,2,3,4-tetrahydroisoquinolyl))-2,4-dimethoxybenzene M+H
SPECTRUM_ID=CCMSLIB00006697907
51.02346 4509.0 
53.039089 38221.0 
55.018311 4659.0 
65.039017 62501.0 
67.054604 32714.0 
73.972023 3304.0 
77.038757 5045.0 
78.046654 34757.0 
79.054527 17240.0 
81.033707 8041.0 
81.07045 4536.0 
82.041481 5203.0 
89.038773 4194.0 
91.054314 887352.0 
93.033386 7082.0 
93.069893 72816.0 
95.049133 37815.0 
95.085739 16153.0 
103.054024 8369.0 
105.033737 3508.0 
105.044762 5144.0 
105.070129 7998.0 
106.041077 58091.0 
106.06456 3837.0 
107.049278 13756.0 
108.05687 127337.0 
109.064453 24095.0 
111.044022 6298.0 
118.064857 79432.0 
118.681107 4431.0 
119.049072 140742.0 
119.085732 3773.0 
120.081848 3008.0 
121.06469 2655200.0 
121.327782 3580.0 
122.059921 28782.0 
123.043907 109076.0 
123.080261 748395.0 
124.051987 5780.0 
125.059647 6662.0 
130.041336 15000.0 
130.064636 4457.0 
131.049026 20167.0 
132.080856 4305.0 
133.065018 3876.0 
134.060013 22311.0 
135.067413 5159.0 
136.040054 5029.0 
136.051804 122673.0 
136.075485 38078.0 
137.047089 5535.0 
137.059555 303211.0 
139.075195 682010.0 
145.06485 23711.0 
146.059845 359844.0 
147.043808 90588.0 
147.067139 66531.0 
147.079865 11037.0 
148.075851 4201.0 
149.059296 14345.0 
149.070908 97239.0 
150.05481 124711.0 
150.066925 9015.0 
150.09082 5662.0 
151.075195 3326044.0 
160.075714 5753.0 
161.059387 6298.0 
161.083069 43888.0 
162.054718 59279.0 
162.068649 4790.0 
162.090652 6145.0 
163.06279 16992.0 
164.069916 38684.0 
165.090805 124843.0 
165.106033 6095.0 
165.336578 3229.0 
166.086166 76348.0 
174.067535 24682.0 
174.091431 51385.0 
175.074905 62685.0 
175.098907 440330.0 
176.069778 7018.0 
177.07811 4930.0 
178.086029 202077.0 
179.0923 16769.0 
179.108337 24252.0 
190.086197 21638.0 
191.093277 55886.0 
192.101898 34333.0 
193.121796 28571.0 
203.106323 65783.0 
207.080917 5193.0 
207.124863 100623.0 
208.089157 3745.0 
210.066315 4301.0 
211.076492 4017.0 
217.906433 3411.0 
220.132751 320132.0 
223.074707 5676.0 
224.083344 15928.0 
225.090454 7808.0 
226.063416 4204.0 
227.105896 7087.0 
236.08374 3775.0 
239.106308 13014.0 
240.077698 4142.0 
241.085785 18826.0 
251.071594 3345.0 
252.077637 7149.0 
253.085846 54413.0 
255.065155 4351.0 
255.100494 8047.0 
267.100464 25626.0 
268.10965 5109.0 
269.080566 22823.0 
269.112549 4829.0 
281.117371 23608.0 
283.096924 6180.0 
296.140106 13375.0 
297.112061 5961.0 
297.148529 6609.0 
312.134003 5899.0 
313.143707 7089.0 
329.171448 5920.0 
341.138855 4744.0 
341.17392 245635.0 
358.200439 2842245.0 
371.209717 4056.0 
END IONS

BEGIN IONS
PRECURSOR_MZ=382.049
INCHI=InChI=1S/C17H13ClFNO6/c1-24-17(23)13-12(11-8(18)3-2-4-9(11)19)15-14(26-16(13)20)10(22)5-7(6-21)25-15/h2-5,12,21H,6,20H2,1H3
SMILES=COC(=O)C1=C(N)Oc2c(oc(CO)cc2=O)C1c1c(F)cccc1Cl
SCANS=8344
IONMODE=positive
COMPOUND_NAME=methyl 2-amino-4-(6-chloro-2-fluorophenyl)-6-(hydroxymethyl)-8-oxo-4H-pyrano[3 ,2-b]pyran-3-carboxylate M+H
SPECTRUM_ID=CCMSLIB00006693685
67.014374 5315.0 
67.018227 145025.0 
67.688477 3899.0 
82.882423 3825.0 
85.028023 4939.0 
92.05291 3744.0 
95.013 6233.0 
133.751541 3800.0 
156.985001 27534.0 
191.999969 27635.0 
193.021133 8675.0 
207.996246 6385.0 
216.561401 3787.0 
219.045151 26027.0 
220.023972 4540.0 
229.050003 8238.0 
234.010788 7108.0 
237.009811 7419.0 
238.006577 20777.0 
241.053833 7744.0 
247.039688 5511742.0 
248.047913 581582.0 
249.055389 280731.0 
250.005493 7229.0 
252.023529 4789.0 
252.04892 37562.0 
253.05394 5955.0 
256.003723 17441.0 
263.009796 9691.0 
266.012146 7400.0 
268.014282 6591.0 
268.04248 5757.0 
269.047119 23125.0 
270.055176 16600.0 
274.013123 17392.0 
276.020752 68930.0 
279.021484 95445.0 
282.032806 5907.0 
283.016235 558773.0 
284.024231 284493.0 
284.070343 38679.0 
286.049957 8184.0 
292.017975 9915.0 
294.033203 6564.0 
297.041077 4518.0 
304.016052 141157.0 
307.014709 4531.0 
309.032745 8390.0 
314.004272 6086.0 
314.044586 142841.0 
314.083435 6234.0 
315.052948 25800.0 
322.027405 62180.0 
323.034149 18266.0 
328.06369 7206.0 
332.010986 127712.0 
337.026764 419045.0 
348.337799 4624.0 
350.021912 7023050.0 
351.719513 4840.0 
359.044922 15493.0 
364.039368 39150.0 
365.023621 39098.0 
368.033905 8042.0 
380.125824 6730.0 
382.048035 10197201.0 
383.984314 8445.0 
END IONS

BEGIN IONS
PRECURSOR_MZ=292.097
INCHI=InChI=1S/C18H13NO3/c1-12-6-8-13(9-7-12)17-18(21-11-10-19)16(20)14-4-2-3-5-15(14)22-17/h2-9H,11H2,1H3
SMILES=Cc1ccc(-c2oc3ccccc3c(=O)c2OCC#N)cc1
SCANS=1662
IONMODE=positive
COMPOUND_NAME=2-[2-(4-methylphenyl)-4-oxochromen-3-yloxy]ethanenitrile M+H
SPECTRUM_ID=CCMSLIB00006687003
61.681789 4140.0 
67.743523 4675.0 
69.153831 4239.0 
73.945518 4509.0 
79.744926 3813.0 
91.055519 4485.0 
105.033417 7424.0 
117.070183 5225.0 
118.643509 4182.0 
119.049187 106985.0 
132.057251 30936.0 
133.028595 27142.0 
178.078766 6723.0 
181.065491 20163.0 
181.100708 19320.0 
194.072479 6923.0 
195.080536 8839.0 
209.05954 16325.0 
209.095123 14974.0 
219.080231 6219.0 
223.074005 8847.0 
224.082916 212723.0 
225.090561 54089.0 
236.082504 5345.0 
237.054398 2053488.0 
247.075638 17270.0 
250.061783 17479.0 
251.070068 2956136.0 
252.077789 19548078.0 
253.125244 9645.0 
265.085419 502728.0 
266.943573 4770.0 
292.096405 6715146.0 
END IONS

BEGIN IONS
PRECURSOR_MZ=478.26
INCHI=InChI=1S/C29H37NO5/c1-18-9-7-13-22(31)15-16-25(32)35-29-23(14-8-10-18)27(33)20(3)19(2)26(29)24(30-28(29)34)17-21-11-5-4-6-12-21/h4-6,8,11-12,14-16,18-19,22-24,26-27,31,33H,3,7,9-10,13,17H2,1-2H3,(H,30,34)/b14-8+,16-15+/t18-,19-,22-,23+,24+,26+,27-,29-/m1/s1
SMILES=C=C1C(C)C2C(Cc3ccccc3)N=C(O)C23OC(=O)C=CC(O)CCCC(C)CC=CC3C1O
SCANS=20061
IONMODE=negative
COMPOUND_NAME=Phomin M-H
SPECTRUM_ID=CCMSLIB00006705402
65.798813 2545.0 
66.866058 2395.0 
77.852013 2752.0 
82.402443 3048.0 
88.250671 2103.0 
92.59005 2736.0 
118.659897 2344.0 
169.031738 2205.0 
188.071075 3374.0 
209.746872 5733.0 
325.204102 4853.0 
342.206329 3552.0 
442.238373 4283.0 
460.249603 44633.0 
478.260742 30327.0 
END IONS

BEGIN IONS
PRECURSOR_MZ=432.156
INCHI=InChI=1S/C24H23N3O5/c28-22(25-16-8-9-20-21(12-16)32-15-31-20)14-27-19-7-3-2-6-17(19)18(13-23(27)29)24(30)26-10-4-1-5-11-26/h2-3,6-9,12-13H,1,4-5,10-11,14-15H2,(H,25,28)
SMILES=O=C(c1cc(=O)n(CC(O)=Nc2ccc3c(c2)OCO3)c2ccccc12)N1CCCCC1
SCANS=22973
IONMODE=negative
COMPOUND_NAME=N-(2H-benzo[3,4-d]1,3-dioxolen-5-yl)-2-[2-oxo-4-(piperidylcarbonyl)hydroquinol yl]acetamide M-H
SPECTRUM_ID=CCMSLIB00006708314
63.300659 3427.0 
66.034851 3584.0 
66.748894 3884.0 
68.050194 3929.0 
70.02951 7030.0 
78.013367 3141.0 
86.024612 6368.0 
86.061081 326699.0 
91.39772 3598.0 
92.384872 4948.0 
95.013924 6454.0 
100.521072 3121.0 
102.035004 4180.0 
104.291237 3074.0 
107.03772 3862.0 
115.055382 6303.0 
116.050873 35260.0 
118.663597 3879.0 
128.050797 1143062.0 
130.0513 6327.0 
130.054428 7367.0 
130.066376 215446.0 
131.037796 7365.0 
132.045319 7479.0 
134.024582 16099.0 
134.097351 21801.0 
136.040527 20345.0 
142.066116 44071.0 
144.045624 216055.0 
146.061386 121251.0 
150.146469 3112.0 
156.045761 315859.0 
156.082092 37950.0 
157.053482 561615.0 
158.025101 93638.0 
158.06131 403915.0 
167.061951 14644.0 
169.077469 4717.0 
172.040649 414632.0 
174.056274 217379.0 
176.035599 92755.0 
179.061127 3759.0 
181.077042 4531.0 
183.033096 17441.0 
183.092667 21332.0 
184.040588 2074476.0 
185.048477 124249.0 
188.036041 6907.0 
197.071686 4695.0 
197.108063 4504.0 
199.088013 6443.0 
200.035797 17451.0 
202.0513 173225.0 
212.035202 4152.0 
213.103912 6064.0 
225.139877 14290.0 
226.124435 7382.0 
227.119675 44464.0 
228.103195 16035.0 
229.098373 276098.0 
237.103104 26486.0 
239.120712 4742.0 
241.103455 6727.0 
241.134933 73325.0 
243.114273 92800.0 
245.093399 58974.0 
255.083237 7184.0 
255.114182 355982.0 
257.093445 543206.0 
269.129547 89008.0 
271.109131 874405.0 
273.088348 361278.0 
295.108978 138188.0 
297.088348 74558.0 
313.120911 4317.0 
315.100067 6381.0 
404.197479 5573.0 
432.201416 1620853.0 
END IONS

BEGIN IONS
PRECURSOR_MZ=382.156
INCHI=InChI=1S/C21H20FN3O3/c1-2-10-23-21(28)17-12-20(27)25(18-9-4-3-8-16(17)18)13-19(26)24-15-7-5-6-14(22)11-15/h3-9,11-12H,2,10,13H2,1H3,(H,23,28)(H,24,26)
SMILES=CCCN=C(O)c1cc(=O)n(CC(O)=Nc2cccc(F)c2)c2ccccc12
SCANS=8180
IONMODE=positive
COMPOUND_NAME=N-(3-fluorophenyl)-2-[2-oxo-4-(N-propylcarbamoyl)hydroquinolyl]acetamide M+H
SPECTRUM_ID=CCMSLIB00006693521
58.98143 2904.0 
66.571663 3213.0 
70.065643 11674.0 
75.571472 2638.0 
79.741081 2626.0 
104.273857 3038.0 
114.427994 2880.0 
118.640244 3541.0 
128.049606 17334.0 
130.065018 175000.0 
136.194641 2995.0 
144.043869 29228.0 
146.059906 146567.0 
148.687759 3216.0 
157.076202 16944.0 
157.956558 3667.0 
158.059921 260807.0 
173.071304 12646.0 
185.047638 4397.0 
186.054688 27822.0 
187.122391 5159.0 
199.122452 6471.0 
201.066391 34876.0 
214.044449 3079.0 
215.117615 33269.0 
216.148621 2828.0 
231.112427 339425.0 
233.813782 3468.0 
243.112411 1409512.0 
269.954803 6688.0 
271.107147 4772980.0 
272.266968 5976.0 
284.138184 45469.0 
324.197937 3492.0 
350.192169 14174.0 
382.165009 4380.0 
382.221527 57397.0 
END IONS

BEGIN IONS
PRECURSOR_MZ=318.081
INCHI=InChI=1S/C16H17NO4S/c1-12-7-9-14(10-8-12)22(20,21)17-15(16(18)19)11-13-5-3-2-4-6-13/h2-10,15,17H,11H2,1H3,(H,18,19)
SMILES=Cc1ccc(S(=O)(=O)NC(Cc2ccccc2)C(=O)O)cc1
SCANS=18196
IONMODE=negative
COMPOUND_NAME=2-{[(4-methylphenyl)sulfonyl]amino}-3-phenylpropanoic acid M-H
SPECTRUM_ID=CCMSLIB00006703537
63.962059 916092.0 
69.495827 2747.0 
72.008797 69346.0 
79.981033 18414.0 
80.02652 4956.0 
82.531723 3222.0 
85.130287 2611.0 
86.334618 3108.0 
91.055351 18134.0 
93.960472 4305.0 
94.630592 2885.0 
94.637047 3259.0 
101.333893 2821.0 
106.066254 168243.0 
107.050293 111002.0 
108.021957 22296.0 
112.985481 5305.0 
113.989517 3091.0 
135.044952 13106.0 
138.598663 3156.0 
147.045288 92491.0 
147.05777 4696.0 
155.017365 2513903.0 
170.028275 696156.0 
273.946869 4361.0 
318.080811 1132038.0 
END IONS

BEGIN IONS
PRECURSOR_MZ=413.111
INCHI=InChI=1S/C22H18N2O5/c25-21(11-9-16-8-10-19-20(13-16)29-15-28-19)24(17-5-2-1-3-6-17)22(26)23-14-18-7-4-12-27-18/h1-13H,14-15H2,(H,23,26)/b11-9+
SMILES=O=C(C=Cc1ccc2c(c1)OCO2)N(C(O)=NCc1ccco1)c1ccccc1
SCANS=8700
IONMODE=positive
COMPOUND_NAME=(2E)-3-(2H-benzo[d]1,3-dioxolen-5-yl)-N-[N-(2-furylmethyl)carbamoyl]-N-phenylp rop-2-enamide M+Na
SPECTRUM_ID=CCMSLIB00006694041
64.99984 6731.0 
73.504013 6995.0 
81.033684 76105.0 
100.68821 7618.0 
109.73053 8716.0 
175.03833 30268.0 
208.85701 17800.0 
270.181274 8982.0 
395.101685 38884.0 
395.233307 55982.0 
410.913605 15226.0 
413.11026 35289200.0 
415.323822 11051.0 
END IONS

BEGIN IONS
PRECURSOR_MZ=336.101
INCHI=InChI=1S/C17H19NO4/c1-20-15-10-13(11-16(12-15)21-2)17(19)18-8-9-22-14-6-4-3-5-7-14/h3-7,10-12H,8-9H2,1-2H3,(H,18,19)
SMILES=COc1cc(OC)cc(C(O)=NCCOc2ccccc2)c1
SCANS=15105
IONMODE=negative
COMPOUND_NAME=(3,5-dimethoxyphenyl)-N-(2-phenoxyethyl)carboxamide M+Cl
SPECTRUM_ID=CCMSLIB00006700446
50.105942 2305.0 
60.55801 2909.0 
66.763351 2385.0 
68.86483 2147.0 
92.409843 2543.0 
111.23954 2197.0 
250.228119 2362.0 
END IONS

BEGIN IONS
PRECURSOR_MZ=283.096
INCHI=InChI=1S/C17H14O4/c1-19-12-8-9-13-14(10-12)21-16(17(20-2)15(13)18)11-6-4-3-5-7-11/h3-10H,1-2H3
SMILES=COc1ccc2c(=O)c(OC)c(-c3ccccc3)oc2c1
SCANS=12684
IONMODE=positive
COMPOUND_NAME=3,7-Dimethoxyflavone M+H
SPECTRUM_ID=CCMSLIB00006698025
50.107849 2407.0 
50.15414 3058.0 
52.841209 2830.0 
56.408791 2484.0 
61.291439 2814.0 
78.436241 3141.0 
78.723221 2588.0 
83.444267 2626.0 
84.959892 4845.0 
91.540733 2910.0 
92.372803 3104.0 
105.033447 13931.0 
107.013023 3993.0 
108.056953 5435.0 
121.028557 22175.0 
121.065086 3211.0 
135.043961 32976.0 
140.12291 3212.0 
141.068665 3950.0 
148.051819 22369.0 
151.039673 3300.0 
169.064499 11295.0 
181.064819 54447.0 
197.059845 92641.0 
209.059204 6016.0 
211.075867 47333.0 
225.054474 258541.0 
236.947006 11495.0 
237.054443 88134.0 
237.080093 6113.0 
239.070877 28774.0 
240.07785 304563.0 
251.068375 5948.0 
252.041534 29021.0 
253.049316 498303.0 
259.965698 3231.0 
267.064972 1863547.0 
268.072754 1856868.0 
273.588043 2849.0 
283.096252 2766408.0 
END IONS

BEGIN IONS
PRECURSOR_MZ=400.084
INCHI=InChI=1S/C18H16N4O5S/c1-26-15-6-11(7-16(27-2)17(15)23)9-19-21-18-20-14(10-28-18)12-4-3-5-13(8-12)22(24)25/h3-10,23H,1-2H3,(H,20,21)/b19-9-
SMILES=COc1cc(C=NNc2nc(-c3cccc([N+](=O)[O-])c3)cs2)cc(OC)c1O
SCANS=5318
IONMODE=positive
COMPOUND_NAME=4-((1Z)-2-{[4-(3-nitrophenyl)(1,3-thiazol-2-yl)]amino}-2-azavinyl)-2,6-dimetho xyphenol M-e
SPECTRUM_ID=CCMSLIB00006690659
57.717609 2770.0 
65.039192 3485.0 
75.845879 2491.0 
78.046494 3908.0 
79.05452 4445.0 
81.033577 3905.0 
82.041367 12701.0 
83.012718 2723.0 
85.028419 6577.0 
92.049606 2663.0 
93.033508 16722.0 
94.028732 6047.0 
95.048988 3846.0 
102.503967 2505.0 
105.033119 4245.0 
106.064873 21983.0 
107.048843 5417.0 
109.028587 5247.0 
109.999977 3018.0 
110.03614 20792.0 
111.043747 5471.0 
120.044113 10665.0 
122.059837 11060.0 
123.043716 6180.0 
125.059837 44623.0 
133.028336 4713.0 
134.060242 33204.0 
136.235016 3906.0 
137.047287 45306.0 
137.058899 5292.0 
150.054962 16656.0 
151.038193 15284.0 
152.07019 33286.0 
153.054657 13455.0 
161.046921 62676.0 
162.054764 399013.0 
163.06192 18899.0 
166.025742 5462.0 
166.049576 14012.0 
168.724289 2984.0 
174.024124 54526.0 
175.031998 61743.0 
178.049454 15231.0 
179.056976 12953.0 
180.065292 406910.0 
181.072739 11378.0 
182.080276 5920.0 
184.036636 26609.0 
194.067261 4429.0 
198.051727 35552.0 
204.02243 14291.0 
205.03035 25887.0 
206.036057 3676.0 
207.022247 5255.0 
208.029739 4233.0 
220.017319 14462.0 
221.025024 495761.0 
222.032608 48774.0 
267.008606 2905.0 
340.042572 3000.0 
370.072266 62073.0 
382.071686 6214.0 
383.080688 87796.0 
385.060577 13733.0 
399.074463 45032.0 
400.082001 593908.0 
401.091248 12165.0 
425.910919 2962.0 
END IONS

BEGIN IONS
PRECURSOR_MZ=611.161
INCHI=InChI=1S/C27H30O16/c1-8-17(32)20(35)22(37)26(40-8)39-7-15-18(33)21(36)23(38)27(42-15)43-25-19(34)16-13(31)5-10(28)6-14(16)41-24(25)9-2-3-11(29)12(30)4-9/h2-6,8,15,17-18,20-23,26-33,35-38H,7H2,1H3
SMILES=CC1OC(OCC2OC(Oc3c(-c4ccc(O)c(O)c4)oc4cc(O)cc(O)c4c3=O)C(O)C(O)C2O)C(O)C(O)C1O
SCANS=19982
IONMODE=positive
COMPOUND_NAME=Vitamin P M+H
SPECTRUM_ID=CCMSLIB00006705323
51.524158 3215.0 
53.039139 8988.0 
55.01852 15135.0 
55.054649 4514.0 
57.033989 121226.0 
59.049809 6631.0 
61.028801 33707.0 
65.039124 6676.0 
68.99749 29301.0 
69.033958 74435.0 
71.012848 4371.0 
71.049561 655173.0 
73.02877 22108.0 
75.044617 26094.0 
81.033791 50482.0 
82.406403 3445.0 
83.049377 32870.0 
85.028664 828969.0 
87.044167 20502.0 
92.388298 4435.0 
93.033592 15321.0 
95.049454 14083.0 
97.028481 84760.0 
99.044144 13421.0 
102.240753 3997.0 
102.377792 3836.0 
109.028343 41483.0 
111.007622 50710.0 
111.043892 19929.0 
121.028343 44064.0 
123.044083 15286.0 
127.038818 40139.0 
129.054703 185015.0 
130.063889 4665.0 
135.043472 4993.0 
137.023392 162828.0 
137.034058 7960.0 
145.049408 33934.0 
145.062256 6369.0 
147.065399 43686.0 
149.023865 25740.0 
151.298141 3740.0 
153.004028 6337.0 
153.018219 184348.0 
161.060059 15135.0 
163.039185 27996.0 
165.018204 120470.0 
166.026138 17868.0 
171.030029 4214.0 
173.059937 16920.0 
183.028214 51970.0 
183.044098 7248.0 
187.039108 7882.0 
191.034409 7665.0 
195.028809 19030.0 
201.054504 80821.0 
205.049728 16560.0 
210.09787 6968.0 
213.056656 5095.0 
219.027603 8402.0 
219.065903 18220.0 
228.042297 6127.0 
229.049438 243888.0 
232.036774 5197.0 
247.059738 56305.0 
257.044403 180192.0 
257.074982 6030.0 
274.046631 36318.0 
275.05368 17538.0 
285.039215 86317.0 
303.049561 4693484.0 
345.060974 7585.0 
465.10376 43656.0 
585.160706 3387.0 
END IONS

BEGIN IONS
PRECURSOR_MZ=280.104
INCHI=InChI=1S/C8H15NO6/c1-3(11)9-5-7(13)6(12)4(2-10)15-8(5)14/h4-8,10,12-14H,2H2,1H3,(H,9,11)/t4-,5-,6-,7-,8?/m1/s1
SMILES=CC(O)=N[C@H]1C(O)O[C@H](CO)[C@@H](O)[C@@H]1O
SCANS=22
IONMODE=negative
COMPOUND_NAME=N-Acetyl-D-Glucosamine M+acetate
SPECTRUM_ID=CCMSLIB00006685363
58.6049 2099.439941 
74.215103 2182.149902 
92.400398 2782.98999 
119.035004 3625.5 
131.376999 2446.280029 
154.947006 7947.279785 
159.529007 1934.72998 
172.957001 2482.540039 
207.584 2027.0 
210.147995 4627.459961 
237.985001 8950.080078 
256.122009 2577.350098 
280.049011 4467.549805 
280.230988 2322.77002 
END IONS

BEGIN IONS
PRECURSOR_MZ=351.12
INCHI=InChI=1S/C19H20O5/c1-21-16-8-6-5-7-14(16)15(20)10-9-13-11-18(23-3)19(24-4)12-17(13)22-2/h5-12H,1-4H3/b10-9+
SMILES=COc1cc(OC)c(OC)cc1C=CC(=O)c1ccccc1OC
SCANS=1839
IONMODE=positive
COMPOUND_NAME=(2E)-1-(2-methoxyphenyl)-3-(2,4,5-trimethoxyphenyl)prop-2-en-1-one M+Na
SPECTRUM_ID=CCMSLIB00006687180
56.02552 2355.0 
56.507229 2285.0 
82.393227 3134.0 
90.976753 3803.0 
104.280838 3745.0 
157.964401 3688.0 
296.030945 4102.0 
297.111725 57498.0 
300.912354 3790.0 
305.078003 4628.0 
310.047424 6159.0 
313.036774 9896.0 
314.041687 12636.0 
319.09433 4789.0 
327.052124 9939.0 
328.056915 73443.0 
333.205048 2992.0 
336.096863 10577.0 
337.10614 20868.0 
345.063568 13671.0 
346.067841 78970.0 
350.990601 42666.0 
351.120148 2143620.0 
364.080078 20301.0 
369.082916 9588.0 
369.13208 17080.0 
END IONS

BEGIN IONS
PRECURSOR_MZ=368.108
INCHI=InChI=1S/C16H21NO6/c1-16(2,3)23-15(21)17-12(14(19)20)9-13(18)22-10-11-7-5-4-6-8-11/h4-8,12H,9-10H2,1-3H3,(H,17,21)(H,19,20)/t12-/m0/s1
SMILES=CC(C)(C)OC(O)=NC(CC(=O)OCc1ccccc1)C(=O)O
SCANS=8235
IONMODE=positive
COMPOUND_NAME=(2S)-2-[(tert-butoxy)carbonylamino]-3-[benzyloxycarbonyl]propanoic acid M-H+2Na
SPECTRUM_ID=CCMSLIB00006693576
62.982231 17511.0 
87.065353 2371.0 
87.97702 4003.0 
91.05426 33103.0 
92.057327 11398.0 
107.356934 2492.0 
117.987534 32802.0 
132.003571 3035.0 
136.201736 3228.0 
147.965424 2385.0 
153.028534 230335.0 
159.997025 3248.0 
165.054214 3742.0 
166.057693 2762.0 
187.098785 4525.0 
243.826187 2489.0 
251.028687 97815.0 
268.055084 823538.0 
294.03421 46688.0 
301.5466 2547.0 
368.107269 609264.0 
END IONS

BEGIN IONS
PRECURSOR_MZ=414.239
INCHI=InChI=1S/C23H31N3O4/c1-2-29-19-7-8-21-20(14-19)17(13-23(28)30-21)15-25-9-11-26(12-10-25)16-22(27)24-18-5-3-4-6-18/h7-8,13-14,18H,2-6,9-12,15-16H2,1H3,(H,24,27)
SMILES=CCOc1ccc2oc(=O)cc(CN3CCN(CC(O)=NC4CCCC4)CC3)c2c1
SCANS=3541
IONMODE=positive
COMPOUND_NAME=N-cyclopentyl-2-{4-[(6-ethoxy-2-oxochromen-4-yl)methyl]piperazinyl}acetamide M+H
SPECTRUM_ID=CCMSLIB00006688882
55.04216 6928.0 
55.173679 5018.0 
56.049881 248160.0 
58.065552 255396.0 
58.068859 9584.0 
68.049873 7827.0 
70.06543 1515939.0 
72.081047 560640.0 
72.084824 9384.0 
73.685867 4554.0 
80.04953 6143.0 
82.028923 7866.0 
82.052696 116842.0 
82.065193 35246.0 
83.060692 12230.0 
84.068428 8991.0 
84.08094 29497.0 
85.076233 63930.0 
86.09594 5611.0 
96.068336 37102.0 
96.827827 8580.0 
97.075989 9845810.0 
97.324669 7494.0 
98.083763 818907.0 
98.096062 34518.0 
99.091583 141552.0 
101.070572 10297.0 
104.312881 4953.0 
105.401077 4368.0 
111.091522 93580.0 
112.11174 6277.0 
147.043427 5642.0 
150.091354 8501.0 
169.133438 75470.0 
175.075348 95007.0 
203.070648 79470.0 
209.151794 33169.0 
216.100952 92335.0 
217.085999 23991.0 
227.068558 6676.0 
230.080048 8594.0 
230.118027 26375.0 
242.075302 5711.0 
244.095947 204880.0 
246.112106 78885.0 
256.09668 39805.0 
258.112152 236025.0 
270.111603 24127.0 
272.117584 9835.0 
273.123901 10907.0 
273.158813 29685.0 
283.141968 8297.0 
286.132111 59643.0 
287.136658 6518.0 
288.143951 11352.0 
289.152985 12173.0 
299.138336 23425.0 
301.15387 8178128.0 
329.147034 7438.0 
346.173187 10575.0 
412.057312 26852.0 
414.23761 26103122.0 
416.432373 29749.0 
END IONS

BEGIN IONS
PRECURSOR_MZ=453.373
INCHI=InChI=1S/C31H50O3/c1-26(2)22-11-14-31(7)23(29(22,5)13-12-24(26)32)10-9-20-21-19-28(4,25(33)34-8)16-15-27(21,3)17-18-30(20,31)6/h9,21-24,32H,10-19H2,1-8H3
SMILES=COC(=O)C1(C)CCC2(C)CCC3(C)C(=CCC4C5(C)CCC(O)C(C)(C)C5CCC43C)C2C1
SCANS=23525
IONMODE=positive
COMPOUND_NAME=methyl 18-hydroxy-1,2,5,8,15,19,19-heptamethylpentacyclo[12.8.0.0<2,11>.0<5,10 >.0<15,20>]docos-11-ene-8-carboxylate M+H-H2O
SPECTRUM_ID=CCMSLIB00006708866
53.03915 3786.0 
55.05484 17140.0 
57.07029 6508.0 
62.982231 3313.0 
65.810669 2402.0 
67.054626 41069.0 
69.070251 37979.0 
71.085953 3163.0 
79.05455 22599.0 
81.070183 111115.0 
83.08593 18047.0 
88.475067 2884.0 
90.917557 2680.0 
91.054413 18254.0 
93.070068 55323.0 
95.085663 194637.0 
97.101242 10490.0 
104.284187 2700.0 
105.069946 51034.0 
107.085518 88658.0 
107.093269 5036.0 
109.101143 72237.0 
119.085602 76606.0 
121.101181 123213.0 
121.110817 5749.0 
123.116631 36796.0 
129.987411 3228.0 
131.085846 10717.0 
133.101212 57333.0 
135.11702 43479.0 
137.132446 32043.0 
145.10141 17585.0 
147.11673 50601.0 
149.132538 31816.0 
151.148193 3063.0 
155.107101 3453.0 
159.117188 16687.0 
160.220123 2634.0 
161.132492 33435.0 
163.147812 32785.0 
163.222763 2635.0 
173.132721 14026.0 
175.148438 24388.0 
177.163834 18303.0 
187.147919 23464.0 
189.163666 133372.0 
191.179291 69972.0 
199.147949 4364.0 
201.163757 4529.0 
203.179993 42106.0 
205.195221 24674.0 
213.164154 3722.0 
215.180054 14350.0 
217.195221 16572.0 
221.153564 2752.0 
231.21106 5293.0 
235.169983 4166.0 
243.211121 5328.0 
245.226379 6265.0 
247.17012 2856.0 
249.184814 32404.0 
255.210693 4076.0 
255.737762 3084.0 
257.226562 3093.0 
261.185364 3885.0 
263.201355 3795.0 
271.241089 4710.0 
275.199799 6537.0 
289.216766 4110.0 
301.215637 3429.0 
315.231842 14512.0 
329.247894 6554.0 
343.264648 3090.0 
393.350494 14681.0 
453.372406 189078.0 
END IONS

BEGIN IONS
PRECURSOR_MZ=457.198
INCHI=InChI=1S/C24H30N2O7/c1-15-10-18(11-16(2)22(15)33-14-21(27)26-6-8-32-9-7-26)25-24(28)17-12-19(29-3)23(31-5)20(13-17)30-4/h10-13H,6-9,14H2,1-5H3,(H,25,28)
SMILES=COc1cc(C(=O)Nc2cc(C)c(OCC(=O)N3CCOCC3)c(C)c2)cc(OC)c1OC
SCANS=6881
IONMODE=negative
COMPOUND_NAME=N-[3,5-dimethyl-4-(2-morpholin-4-yl-2-oxoethoxy)phenyl](3,4,5-trimethoxyphenyl )carboxamide M-H
SPECTRUM_ID=CCMSLIB00006692222
59.013248 4637.0 
66.752258 4798.0 
82.411407 6565.0 
128.071045 5955.0 
136.05249 5414.0 
146.061356 3738.0 
146.272186 3441.0 
153.018707 7313.0 
157.991592 4078.0 
162.055923 203523.0 
175.064468 27858.0 
176.071411 15029.0 
178.051331 27633.0 
178.409348 3547.0 
179.517502 3663.0 
188.035248 4630.0 
210.07637 43831.0 
256.076019 30037.0 
262.131836 5168.0 
271.098145 48517.0 
283.085571 48819.0 
284.05603 47090.0 
284.092957 14849.0 
286.107178 30034.0 
296.091583 35655.0 
299.079834 875780.0 
311.116241 21988.0 
314.103394 2057095.0 
326.143311 10972.0 
328.119904 38728.0 
329.126892 8502420.0 
370.128204 54349.0 
442.172516 27741.0 
457.198181 3204494.0 
END IONS

BEGIN IONS
PRECURSOR_MZ=704.386
INCHI=InChI=1S/C34H59NO14/c1-5-6-12-21(3)32(49-31(43)18-24(34(46)47)16-29(40)41)27(48-30(42)17-23(33(44)45)15-28(38)39)14-20(2)11-9-7-8-10-13-25(36)19-26(37)22(4)35/h20-27,32,36-37H,5-19,35H2,1-4H3,(H,38,39)(H,40,41)(H,44,45)(H,46,47)/t20-,21+,22-,23+,24+,25+,26-,27-,32+/m0/s1
SMILES=CCCCC(C)C(OC(=O)CC(CC(=O)O)C(=O)O)C(CC(C)CCCCCCC(O)CC(O)C(C)N)OC(=O)CC(CC(=O)O)C(=O)O
SCANS=11872
IONMODE=negative
COMPOUND_NAME=fumonisin b2 M-H
SPECTRUM_ID=CCMSLIB00006697213
55.784752 3050.0 
69.034309 170465.0 
69.038521 6988.0 
70.630791 3133.0 
71.013573 20465.0 
77.308983 3246.0 
85.029259 7258.0 
87.045326 4546.0 
92.380569 3985.0 
106.14875 3279.0 
109.588638 3150.0 
113.024437 157018.0 
115.003838 5229.0 
118.651657 3972.0 
119.040398 3744.0 
131.034927 6707.0 
157.014206 1037272.0 
159.664871 3635.0 
175.024872 17243.0 
202.840439 3232.0 
528.685852 3447.0 
546.364563 440041.0 
686.379028 41100.0 
704.38739 1454485.0 
END IONS

BEGIN IONS
PRECURSOR_MZ=149.009
INCHI=InChI=1S/C4H6O6/c5-1(3(7)8)2(6)4(9)10/h1-2,5-6H,(H,7,8)(H,9,10)/t1-,2-/m0/s1
SMILES=O=C(O)[C@@H](O)[C@H](O)C(=O)O
SCANS=367
IONMODE=negative
COMPOUND_NAME=147-71-7 M-H
SPECTRUM_ID=CCMSLIB00006685708
58.005501 93113.703125 
59.0135 1000930.0 
66.762703 53401.398438 
72.992897 4307860.0 
73.976196 50647.898438 
74.379402 68929.296875 
75.008499 74011.796875 
85.643501 44687.5 
87.008698 6256040.0 
95.722298 49081.101562 
103.003998 924724.0 
105.018997 458428.0 
105.753998 49844.0 
117.817001 44712.800781 
130.998993 232251.0 
141.867004 44551.800781 
149.009003 3777160.0 
END IONS

BEGIN IONS
PRECURSOR_MZ=271.06
INCHI=InChI=1S/C15H10O5/c16-9-6-10(17)12-11(7-9)20-15(14(19)13(12)18)8-4-2-1-3-5-8/h1-7,16-17,19H
SMILES=O=c1c(O)c(-c2ccccc2)oc2cc(O)cc(O)c12
SCANS=5102
IONMODE=positive
COMPOUND_NAME=Galangin M+H
SPECTRUM_ID=CCMSLIB00006690443
51.675739 3175.0 
57.950748 2964.0 
66.740913 2914.0 
82.394142 3058.0 
82.918602 3396.0 
91.054176 3728.0 
92.377617 4501.0 
104.284241 4064.0 
105.033417 52902.0 
105.371674 2962.0 
131.049652 3674.0 
153.017914 87585.0 
165.017944 59982.0 
174.519287 3787.0 
183.027939 7183.0 
197.058731 13069.0 
215.06955 46785.0 
225.053558 16176.0 
229.363174 3566.0 
242.056732 13754.0 
247.057938 4924.0 
253.049454 5121.0 
269.906219 13272.0 
270.04953 6293.0 
271.05954 12406165.0 
272.219025 14357.0 
END IONS

BEGIN IONS
PRECURSOR_MZ=276.095
INCHI=InChI=1S/C11H15N3O4/c1-17-8-4-3-7(5-9(8)18-2)11(16)13-6-10(15)14-12/h3-5H,6,12H2,1-2H3,(H,13,16)(H,14,15)
SMILES=COc1ccc(C(O)=NCC(O)=NN)cc1OC
SCANS=21086
IONMODE=positive
COMPOUND_NAME=(3,4-dimethoxyphenyl)-N-(???methyl)carboxamide M+Na
SPECTRUM_ID=CCMSLIB00006706427
55.71669 2354.0 
56.215439 2733.0 
56.53973 2432.0 
58.932419 2466.0 
58.9608 2249.0 
63.89753 2192.0 
72.937424 20353.0 
90.947479 4865.0 
92.370506 2501.0 
93.649277 2098.0 
97.262962 2372.0 
104.278954 2591.0 
113.949417 2790.0 
133.592041 2460.0 
134.483459 2083.0 
136.192703 2384.0 
164.064774 2570.0 
165.054291 2449.0 
169.783112 2181.0 
179.993591 2153.0 
180.887848 33941.0 
197.890549 41971.0 
198.898712 2708.0 
208.88298 38608.0 
215.901184 22190.0 
216.063431 20360.0 
226.893265 68258.0 
229.99501 3427.0 
231.898819 2766.0 
252.872269 75933.0 
258.083923 3216.0 
275.88797 13681.0 
276.095062 1083089.0 
END IONS

BEGIN IONS
PRECURSOR_MZ=398.089
INCHI=InChI=1S/C16H17N5O4S/c1-21-14-13(15(23)18-8-17-14)20-16(21)26-7-12(22)19-9-4-10(24-2)6-11(5-9)25-3/h4-6,8H,7H2,1-3H3,(H,19,22)(H,17,18,23)
SMILES=COc1cc(N=C(O)CSc2nc3c(O)ncnc3n2C)cc(OC)c1
SCANS=7835
IONMODE=positive
COMPOUND_NAME=N-(3,5-dimethoxyphenyl)-2-(9-methyl-6-oxohydropurin-8-ylthio)acetamide M+Na
SPECTRUM_ID=CCMSLIB00006693176
82.409279 3201.0 
104.298523 3977.0 
116.989807 3035.0 
118.669098 4042.0 
135.561493 2775.0 
136.227036 3566.0 
173.043335 25248.0 
185.421539 3537.0 
204.007339 128326.0 
204.029129 4444.0 
205.015488 4357.0 
213.037964 6586.0 
214.047729 5892.0 
216.064789 29122.0 
217.015167 14576.0 
245.01001 192331.0 
245.038651 6276.0 
251.114578 3551.0 
366.194977 3307.0 
383.065765 12007.0 
396.038574 3908.0 
397.578491 14634.0 
398.088928 6151574.0 
400.154541 4971.0 
END IONS

BEGIN IONS
PRECURSOR_MZ=257.081
INCHI=InChI=1S/C15H12O4/c16-10-6-11(17)15-12(18)8-13(19-14(15)7-10)9-4-2-1-3-5-9/h1-7,13,16-17H,8H2/t13-/m1/s1
SMILES=O=C1CC(c2ccccc2)Oc2cc(O)cc(O)c21
SCANS=14555
IONMODE=positive
COMPOUND_NAME=Pinocembrine M+H
SPECTRUM_ID=CCMSLIB00006699896
55.018311 3114.0 
57.691589 2833.0 
59.376831 2777.0 
67.018219 116106.0 
67.022072 6002.0 
68.997437 68345.0 
69.001427 3905.0 
69.033821 56152.0 
69.909416 3270.0 
77.038948 7468.0 
79.017998 3776.0 
79.054497 162167.0 
81.033318 10639.0 
83.013008 14947.0 
85.027893 2905.0 
91.054337 137352.0 
91.060791 5549.0 
94.132446 3058.0 
95.049049 16676.0 
97.028198 31562.0 
102.046257 3258.0 
103.054161 1223580.0 
105.033577 24473.0 
105.069946 19861.0 
107.049019 152217.0 
110.467216 3691.0 
111.007713 29814.0 
117.069847 17754.0 
123.04406 78700.0 
125.022797 5380.0 
127.039047 7697.0 
129.017761 5589.0 
131.049149 2043568.0 
132.33345 3437.0 
141.069351 11317.0 
145.064407 39041.0 
147.080139 16329.0 
151.038834 116195.0 
153.018173 4933751.0 
165.069809 6040.0 
166.025452 4202.0 
169.064636 6928.0 
171.028915 65976.0 
173.059677 115333.0 
179.033676 55288.0 
191.070374 23030.0 
208.589432 3079.0 
215.070389 47892.0 
239.069794 32625.0 
257.080475 4115564.0 
260.224823 3359.0 
END IONS

BEGIN IONS
PRECURSOR_MZ=338.147
INCHI=InChI=1S/C17H21N3O3/c1-3-19-14-7-5-4-6-13(14)15(16(17(19)21)20(22)23)18-10-8-12(2)9-11-18/h4-7,12H,3,8-11H2,1-2H3
SMILES=CCn1c(=O)c([N+](=O)[O-])c(N2CCC(C)CC2)c2ccccc21
SCANS=15797
IONMODE=positive
COMPOUND_NAME=1-ethyl-4-(4-methylpiperidyl)-3-nitrohydroquinolin-2-one M+Na
SPECTRUM_ID=CCMSLIB00006701138
55.170471 2534.0 
60.992981 2250.0 
69.688469 2565.0 
80.549538 2262.0 
82.415947 2469.0 
104.305023 2962.0 
116.134811 2489.0 
118.679047 2688.0 
165.054886 10728.0 
185.677078 2624.0 
212.489899 2888.0 
225.06395 8954.0 
226.07045 2794.0 
241.058121 165131.0 
249.085495 5449.0 
252.113388 4299.0 
272.793427 2589.0 
276.106323 3074.0 
282.083832 4911.0 
288.1091 3927.0 
298.156036 5327.0 
320.137482 24814.0 
338.146881 501499.0 
END IONS

BEGIN IONS
PRECURSOR_MZ=370.019
INCHI=InChI=1S/C15H15Cl2N3O2S/c1-2-4-9-7-12(21)20-15(18-9)23-8-13(22)19-14-10(16)5-3-6-11(14)17/h3,5-7H,2,4,8H2,1H3,(H,19,22)(H,18,20,21)
SMILES=CCCc1cc(O)nc(SCC(O)=Nc2c(Cl)cccc2Cl)n1
SCANS=3958
IONMODE=negative
COMPOUND_NAME=N-(2,6-dichlorophenyl)-2-(4-hydroxy-6-propylpyrimidin-2-ylthio)acetamide M-H
SPECTRUM_ID=CCMSLIB00006689299
54.169701 2223.0 
57.97496 9825.0 
61.765251 2514.0 
66.748207 2678.0 
72.975021 9479.0 
82.403572 3232.0 
92.385399 4025.0 
105.762444 2591.0 
114.985657 44108.0 
135.056183 83150.0 
137.071579 16522.0 
141.036972 2926.0 
148.589554 2853.0 
152.082672 24110.0 
153.066574 5821.0 
159.972336 167111.0 
169.043945 21452.0 
176.933472 16336.0 
181.043533 33750.0 
183.05928 27100.0 
209.038712 434310.0 
260.059204 90149.0 
260.819183 2535.0 
266.092346 2639.0 
296.035706 834104.0 
298.065552 3821.0 
334.040649 11678.0 
370.018799 85007.0 
END IONS

BEGIN IONS
PRECURSOR_MZ=579.172
INCHI=InChI=1S/C27H32O14/c1-10-20(32)22(34)24(36)26(37-10)41-25-23(35)21(33)18(9-28)40-27(25)38-13-6-14(30)19-15(31)8-16(39-17(19)7-13)11-2-4-12(29)5-3-11/h2-7,10,16,18,20-30,32-36H,8-9H2,1H3/t10-,16-,18+,20-,21+,22+,23-,24+,25+,26-,27+/m0/s1
SMILES=CC1OC(OC2C(Oc3cc(O)c4c(c3)OC(c3ccc(O)cc3)CC4=O)OC(CO)C(O)C2O)C(O)C(O)C1O
SCANS=9271
IONMODE=negative
COMPOUND_NAME=naringin M-H
SPECTRUM_ID=CCMSLIB00006694612
63.023621 3870.0 
65.002983 22889.0 
71.013718 3659.0 
80.009277 3043.0 
82.427757 3283.0 
83.013557 13048.0 
93.034523 49007.0 
107.013817 82655.0 
118.698914 4176.0 
119.050133 208800.0 
125.024529 54985.0 
145.029282 59793.0 
146.476273 3872.0 
151.003616 1273297.0 
164.011169 5661.0 
165.019028 32882.0 
167.034851 4698.0 
169.014221 7852.0 
175.003433 32107.0 
177.019241 82923.0 
183.595016 3333.0 
185.06015 4896.0 
187.039444 6094.0 
193.014465 36229.0 
196.000854 8031.0 
205.013824 15813.0 
210.131714 3682.0 
217.014648 6420.0 
227.071442 23937.0 
229.050552 5469.0 
235.024307 34686.0 
258.169189 3736.0 
270.054749 12300.0 
271.061127 1228400.0 
295.055176 8067.0 
296.894653 3811.0 
313.070496 61104.0 
339.070129 32905.0 
373.091431 24698.0 
415.104828 6064.0 
417.119019 5936.0 
433.130737 4095.0 
459.114868 425852.0 
494.565186 3634.0 
512.093933 4439.0 
578.182739 4231.0 
579.17218 4750113.0 
END IONS

BEGIN IONS
PRECURSOR_MZ=417.225
INCHI=InChI=1S/C22H34O6/c1-8-13(4)19(24)27-15-11-21(7)18(28-21)17(26-14(5)23)20(6)9-10-22(25,12(2)3)16(15)20/h8,12,15-18,25H,9-11H2,1-7H3/b13-8-/t15-,16+,17+,18-,20?,21+,22+/m0/s1
SMILES=CC=C(C)C(=O)OC1CC2(C)OC2C(OC(C)=O)C2(C)CCC(O)(C(C)C)C12
SCANS=9731
IONMODE=positive
COMPOUND_NAME=CCG-208363 M+Na
SPECTRUM_ID=CCMSLIB00006695072
55.054619 3138.0 
61.57613 2684.0 
63.305729 2794.0 
66.509987 3018.0 
76.688828 2844.0 
83.010437 5553.0 
83.049507 4172.0 
93.648987 2515.0 
105.069237 3709.0 
119.085022 6206.0 
122.522148 3209.0 
123.041542 5738.0 
133.101517 4337.0 
142.623901 3054.0 
189.90062 2890.0 
208.994553 5520.0 
209.014084 4315.0 
257.150269 13988.0 
317.171448 270233.0 
417.223877 4619762.0 
END IONS

BEGIN IONS
PRECURSOR_MZ=480.076
INCHI=InChI=1S/C27H16ClN3O4/c28-16-11-9-15(10-12-16)14-31-20-7-3-2-6-18(20)27(26(31)33)19(13-29)24(30)35-23-17-5-1-4-8-21(17)34-25(32)22(23)27/h1-12H,14,30H2
SMILES=N#CC1=C(N)Oc2c(c(=O)oc3ccccc23)C12C(=O)N(Cc1ccc(Cl)cc1)c1ccccc12
SCANS=9022
IONMODE=negative
COMPOUND_NAME=2-amino-15-[(4-chlorophenyl)methyl]-5,16-dioxospiro[4H-pyrano[3,2-c]chromene-4 ,3'-indoline]-3-carbonitrile M-H
SPECTRUM_ID=CCMSLIB00006694363
54.726879 2635.0 
62.896 2550.0 
63.447559 2382.0 
65.014107 763175.0 
72.413239 2375.0 
82.391502 3679.0 
97.718971 2371.0 
104.277 3774.0 
161.024673 13034.0 
232.066406 2734.0 
480.075775 381955.0 
END IONS

BEGIN IONS
PRECURSOR_MZ=255.065
INCHI=InChI=1S/C15H10O4/c16-11-7-6-10-12(17)8-13(19-15(10)14(11)18)9-4-2-1-3-5-9/h1-8,16,18H
SMILES=O=c1cc(-c2ccccc2)oc2c(O)c(O)ccc12
SCANS=1796
IONMODE=positive
COMPOUND_NAME=7,8-Dihydroxyflavone M+H
SPECTRUM_ID=CCMSLIB00006687137
61.026501 3073.0 
69.033562 4437.0 
92.361633 4101.0 
98.983658 2889.0 
103.054024 6251.0 
105.033493 68868.0 
106.244041 2825.0 
107.012573 13610.0 
125.022919 5697.0 
129.033615 44041.0 
135.007156 3480.0 
147.044617 3270.0 
153.018127 51477.0 
153.069672 5306.0 
163.055496 3695.0 
165.069305 6611.0 
181.065292 22060.0 
187.03978 4149.0 
199.074997 26840.0 
208.943039 3608.0 
209.059555 37751.0 
213.054123 16599.0 
213.92189 6029.0 
227.069733 58121.0 
237.053833 6085.0 
254.014633 14959.0 
254.05748 4285.0 
255.064865 11473335.0 
256.120789 13352.0 
END IONS

BEGIN IONS
PRECURSOR_MZ=411.973
INCHI=InChI=1S/C16H12BrN3O2S/c17-10-4-3-5-11(8-10)18-14(21)9-23-16-19-13-7-2-1-6-12(13)15(22)20-16/h1-8H,9H2,(H,18,21)(H,19,20,22)
SMILES=OC(CSc1nc(O)c2ccccc2n1)=Nc1cccc(Br)c1
SCANS=8574
IONMODE=positive
COMPOUND_NAME=N-(3-bromophenyl)-2-(4-hydroxyquinazolin-2-ylthio)acetamide M+Na
SPECTRUM_ID=CCMSLIB00006693915
63.807629 2475.0 
82.38755 4415.0 
96.065742 2686.0 
104.271027 3513.0 
118.642143 2609.0 
132.04425 4597.0 
134.609558 2652.0 
154.030441 3411.0 
167.02002 3343.0 
215.025375 4844.0 
219.022415 12668.0 
241.003891 41751.0 
250.991348 2850.0 
402.880432 2916.0 
411.463562 73801.0 
411.971924 3624583.0 
755.487793 3492.0 
END IONS

BEGIN IONS
PRECURSOR_MZ=427.209
INCHI=InChI=1S/C23H32O6/c1-20-6-3-17-18(4-8-22(27)11-15(25)2-7-21(17,22)13-24)23(20,28)9-5-16(20)14-10-19(26)29-12-14/h10,13,15-18,25,27-28H,2-9,11-12H2,1H3/t15-,16?,17?,18?,20+,21-,22-,23-/m0/s1
SMILES=CC12CCC3C(CCC4(O)CC(O)CCC34C=O)C1(O)CCC2C1=CC(=O)OC1
SCANS=21617
IONMODE=positive
COMPOUND_NAME=k-Strophanthidin M+Na
SPECTRUM_ID=CCMSLIB00006706958
104.288193 4239.0 
136.212982 2879.0 
137.136887 2944.0 
137.48848 2683.0 
198.845459 2728.0 
244.172775 2856.0 
337.009521 3375.0 
427.208527 2414878.0 
445.219208 171497.0 
END IONS

BEGIN IONS
PRECURSOR_MZ=286.253
INCHI=InChI=1S/C20H31N/c1-14(2)15-6-8-17-16(12-15)7-9-18-19(3,13-21)10-5-11-20(17,18)4/h6,8,12,14,18H,5,7,9-11,13,21H2,1-4H3/t18?,19?,20-/m1/s1
SMILES=CC(C)c1ccc2c(c1)CCC1C(C)(CN)CCCC21C
SCANS=15865
IONMODE=positive
COMPOUND_NAME=(+)-Dehydroabietylamine ; Leelamine M+H
SPECTRUM_ID=CCMSLIB00006701206
53.00267 6897.0 
55.054649 90451.0 
55.153419 3130.0 
57.07029 75702.0 
67.054527 7878.0 
69.070183 161885.0 
70.679657 3192.0 
73.946358 3518.0 
74.096718 6775.0 
77.410698 3392.0 
79.054451 5051.0 
81.069908 22995.0 
82.390732 4204.0 
83.085678 279221.0 
84.959587 3785.0 
86.792679 3071.0 
91.054283 74967.0 
95.085426 24202.0 
97.101097 76994.0 
103.054092 3318.0 
104.277077 4588.0 
105.069733 13258.0 
109.101227 16771.0 
111.116386 24602.0 
115.054153 22254.0 
116.061378 5167.0 
117.069733 400253.0 
119.085342 12578.0 
123.116783 26464.0 
128.06192 37428.0 
129.058472 5058.0 
129.069702 200977.0 
131.085419 2594959.0 
133.100922 52487.0 
141.069733 15485.0 
142.077682 6974.0 
143.085388 419945.0 
145.100937 200740.0 
147.116455 18701.0 
157.100922 87281.0 
158.108276 4959.0 
159.116653 461264.0 
161.131851 25842.0 
169.100769 6770.0 
170.108856 8157.0 
171.116531 162911.0 
173.132278 4569405.0 
185.132217 660809.0 
187.147858 188356.0 
187.166901 3583.0 
199.148102 121411.0 
211.147919 3843.0 
213.163544 66633.0 
227.179367 32473.0 
234.931564 4193.0 
252.942535 14344.0 
262.927826 17911.0 
269.22583 144076.0 
280.938904 13936.0 
286.252319 2453442.0 
END IONS

BEGIN IONS
PRECURSOR_MZ=394.213
INCHI=InChI=1S/C23H27N3O3/c1-3-25(4-2)15-14-24-22(28)20-21(27)18-12-8-9-13-19(18)26(23(20)29)16-17-10-6-5-7-11-17/h5-13,27H,3-4,14-16H2,1-2H3,(H,24,28)
SMILES=CCN(CC)CCN=C(O)c1c(O)c2ccccc2n(Cc2ccccc2)c1=O
SCANS=13110
IONMODE=positive
COMPOUND_NAME=N-[2-(diethylamino)ethyl][4-hydroxy-2-oxo-1-benzyl(3-hydroquinolyl)]carboxamid e M+H
SPECTRUM_ID=CCMSLIB00006698451
52.324051 2255.0 
65.039017 11443.0 
72.081192 14377.0 
73.952751 2745.0 
74.096931 3632.0 
91.054367 593221.0 
100.112099 114215.0 
105.070351 2869.0 
109.708138 2545.0 
117.138519 34037.0 
127.800621 2306.0 
138.335938 2321.0 
166.048462 2628.0 
170.373306 2316.0 
208.075394 2934.0 
230.068329 5885.0 
250.891815 2736.0 
277.096497 6079.0 
296.094299 5040.0 
301.25827 2594.0 
321.122986 146230.0 
339.640289 2588.0 
372.20401 3118.0 
394.212128 302280.0 
END IONS

BEGIN IONS
PRECURSOR_MZ=451.206
INCHI=InChI=1S/C9H14N4O3/c10-2-1-8(14)13-7(9(15)16)3-6-4-11-5-12-6/h4-5,7H,1-3,10H2,(H,11,12)(H,13,14)(H,15,16)/t7-/m0/s1
SMILES=NCCC(O)=N[C@@H](Cc1cnc[nH]1)C(=O)O
SCANS=24013
IONMODE=negative
COMPOUND_NAME=L-Carnosine 2M-H
SPECTRUM_ID=CCMSLIB00006709354
50.115501 2254.939941 
60.000999 2205.360107 
65.759903 2351.800049 
66.745201 3778.090088 
118.661003 3197.399902 
122.305 2404.379883 
136.606003 2501.560059 
154.061996 2978.629883 
185.403 2894.48999 
225.100006 15360.200195 
282.178009 2669.050049 
END IONS

BEGIN IONS
PRECURSOR_MZ=399.217
INCHI=InChI=1S/C24H30O5/c1-17(8-12-22(25)24(3,4)27)6-5-7-18(2)14-15-28-20-11-9-19-10-13-23(26)29-21(19)16-20/h6,9-11,13-14,16,27H,5,7-8,12,15H2,1-4H3/b17-6+,18-14+
SMILES=CC(=CCOc1ccc2ccc(=O)oc2c1)CCC=C(C)CCC(=O)C(C)(C)O
SCANS=2551
IONMODE=positive
COMPOUND_NAME=(6E,10E)-2-hydroxy-2,6,10-trimethyl-12-(2-oxochromen-7-yloxy)dodeca-6,10-dien- 3-one M+H
SPECTRUM_ID=CCMSLIB00006687892
53.659321 2579.0 
55.054749 4120.0 
57.07024 2924.0 
59.04953 17927.0 
63.588421 2603.0 
64.977654 2788.0 
66.743843 3885.0 
67.054489 6093.0 
69.033569 3195.0 
69.070183 4881.0 
69.946777 2486.0 
71.049377 15636.0 
79.054489 6662.0 
80.391273 2703.0 
81.070129 68987.0 
83.085663 3381.0 
85.064972 4161.0 
91.054398 5349.0 
93.069878 37835.0 
95.085663 35335.0 
97.064491 12796.0 
97.101196 3835.0 
99.080322 5398.0 
105.069862 40720.0 
107.049202 2976.0 
107.085426 50299.0 
109.06472 5060.0 
109.101196 49289.0 
109.219994 2813.0 
111.080452 5527.0 
118.651817 3043.0 
119.049232 5710.0 
119.085403 29852.0 
121.101059 20222.0 
123.079628 9459.0 
123.116661 23525.0 
125.095993 53168.0 
127.111618 44528.0 
131.085419 5804.0 
133.101105 63857.0 
135.11673 80181.0 
136.000031 2990.0 
141.091141 28398.0 
143.106583 61236.0 
145.101166 77185.0 
147.116653 14824.0 
149.032181 3066.0 
149.132553 36352.0 
151.111618 38898.0 
159.116501 26803.0 
161.132446 60275.0 
163.038834 1249909.0 
169.122757 23932.0 
173.13266 9456.0 
175.038712 67252.0 
175.147537 5588.0 
177.163834 10920.0 
179.14296 29154.0 
191.143036 3839.0 
191.178879 20762.0 
201.163635 80662.0 
219.174179 106071.0 
237.18399 24769.0 
253.524445 2872.0 
262.92276 4694.0 
311.162994 4839.0 
363.192413 3194.0 
369.630585 2957.0 
381.20462 46260.0 
399.216187 18635.0 
END IONS

BEGIN IONS
PRECURSOR_MZ=749.193
INCHI=InChI=1S/C16H17N5O4S/c1-21-14-13(15(23)18-8-17-14)20-16(21)26-7-12(22)19-10-6-9(24-2)4-5-11(10)25-3/h4-6,8H,7H2,1-3H3,(H,19,22)(H,17,18,23)
SMILES=COc1ccc(OC)c(N=C(O)CSc2nc3c(O)ncnc3n2C)c1
SCANS=20334
IONMODE=negative
COMPOUND_NAME=N-(2,5-dimethoxyphenyl)-2-(9-methyl-6-oxohydropurin-8-ylthio)acetamide 2M-H
SPECTRUM_ID=CCMSLIB00006705675
55.031212 3502.0 
58.42775 2875.0 
73.957123 3196.0 
73.961723 4568.0 
79.03009 4872.0 
79.582993 3354.0 
92.38559 4159.0 
104.29657 3556.0 
107.927498 3322.0 
123.710762 3469.0 
127.548363 3261.0 
134.023209 4488.0 
149.046738 68102.0 
179.003586 22234.0 
180.011276 123748.0 
181.019043 28361.0 
195.034286 15738.0 
200.276978 3157.0 
270.063354 5200.0 
300.110474 18854.0 
374.093353 120088.0 
END IONS

BEGIN IONS
PRECURSOR_MZ=344.16
INCHI=InChI=1S/C18H21N3O4/c22-16-14(15(17(23)24)19-18(25)20-16)11-21-8-6-13(7-9-21)10-12-4-2-1-3-5-12/h1-5,13H,6-11H2,(H,23,24)(H2,19,20,22,25)
SMILES=O=C(O)c1nc(O)nc(O)c1CN1CCC(Cc2ccccc2)CC1
SCANS=18226
IONMODE=positive
COMPOUND_NAME=2,6-dioxo-5-{[4-benzylpiperidyl]methyl}-1,3-dihydropyrimidine-4-carboxylic aci d M+H
SPECTRUM_ID=CCMSLIB00006703567
52.018471 59203.0 
54.034321 53007.0 
55.018341 49691.0 
55.05492 9138.0 
56.04995 130616.0 
58.065479 48539.0 
58.210011 7599.0 
66.737396 8434.0 
67.054543 17034.0 
68.049957 10262.0 
69.05764 134847.0 
70.029152 57094.0 
70.065453 355231.0 
79.054153 11641.0 
80.013329 1229962.0 
81.069962 43120.0 
82.028954 553555.0 
82.033417 9005.0 
82.034691 11426.0 
82.0653 306904.0 
84.080856 70042.0 
91.054298 1088800.0 
96.080803 244363.0 
97.039726 14219.0 
97.088707 29426.0 
98.023651 7426719.0 
98.09613 85281.0 
100.039253 1253193.0 
105.069733 88995.0 
110.023712 119827.0 
115.054352 16245.0 
116.034073 134001.0 
117.069748 753991.0 
125.023407 12562.0 
125.034416 1182527.0 
126.01844 1266521.0 
127.050034 155873.0 
128.033676 41034.0 
129.069595 95193.0 
130.077087 9668.0 
131.085358 278971.0 
132.080948 13157.0 
132.540176 7920.0 
136.195679 8038.0 
139.050171 38198.0 
144.029083 50398.0 
145.100922 54932.0 
146.096344 32040.0 
157.101654 12267.0 
159.116684 11288.0 
169.02417 1495898.0 
174.127609 487985.0 
176.143173 8137494.0 
187.034698 242084.0 
188.143143 3988929.0 
214.755264 9207.0 
240.241348 9452.0 
300.12912 11817.0 
300.169678 498731.0 
344.159821 15337325.0 
END IONS

BEGIN IONS
PRECURSOR_MZ=447.123
INCHI=InChI=1S/C21H24N2O7S/c1-14(24)30-20-9-6-10-23(20)31(26,27)19-8-5-4-7-18(19)22-21(25)15-11-16(28-2)13-17(12-15)29-3/h4-5,7-8,11-13,20H,6,9-10H2,1-3H3,(H,22,25)
SMILES=COc1cc(OC)cc(C(O)=Nc2ccccc2S(=O)(=O)N2CCCC2OC(C)=O)c1
SCANS=18306
IONMODE=negative
COMPOUND_NAME=1-({2-[(3,5-dimethoxyphenyl)carbonylamino]phenyl}sulfonyl)pyrrolidin-2-yl acet ate M-H
SPECTRUM_ID=CCMSLIB00006703647
68.995689 15839.0 
70.077057 2409.0 
72.861832 2202.0 
92.391083 2953.0 
92.995796 3635.0 
95.013977 34304.0 
96.993477 2646.0 
100.65654 2527.0 
104.296303 2759.0 
104.304031 3214.0 
107.026482 2256.0 
112.985672 19941.0 
118.670914 2483.0 
118.992813 5097.0 
119.971657 3211.0 
123.008743 3527.0 
130.993607 3257.0 
136.235107 3385.0 
137.061356 13810.0 
138.032944 5038.0 
146.532959 2558.0 
146.961288 65517.0 
157.994659 3121.0 
174.956192 114781.0 
174.972488 4895.0 
240.067307 5084.0 
241.074539 43013.0 
242.943985 58578.0 
242.986893 5563.0 
256.098022 128842.0 
266.989868 4774.0 
310.934021 11257.0 
320.059418 76573.0 
340.984497 2988.0 
406.9758 3118.0 
426.976074 3709.0 
446.979156 15958.0 
832.846924 2510.0 
886.556152 2561.0 
END IONS

BEGIN IONS
PRECURSOR_MZ=345.157
INCHI=InChI=1S/C20H22N2O2/c1-3-24-19-11-7-5-9-17(19)20(23)21-13-12-15-14(2)22-18-10-6-4-8-16(15)18/h4-11,22H,3,12-13H2,1-2H3,(H,21,23)
SMILES=CCOc1ccccc1C(O)=NCCc1c(C)[nH]c2ccccc12
SCANS=13562
IONMODE=positive
COMPOUND_NAME=(2-ethoxyphenyl)-N-[2-(2-methylindol-3-yl)ethyl]carboxamide M+Na
SPECTRUM_ID=CCMSLIB00006698903
54.423328 2324.0 
59.36171 2460.0 
64.449928 2390.0 
73.9561 2465.0 
142.725327 2673.0 
275.501434 2687.0 
345.156891 2016212.0 
END IONS

BEGIN IONS
PRECURSOR_MZ=356.136
INCHI=InChI=1S/C17H19N5O4/c23-7-11-13(24)14(25)17(26-11)22-9-21-12-15(19-8-20-16(12)22)18-6-10-4-2-1-3-5-10/h1-5,8-9,11,13-14,17,23-25H,6-7H2,(H,18,19,20)/t11-,13-,14-,17-/m1/s1
SMILES=OCC1OC(n2cnc3c(NCc4ccccc4)ncnc32)C(O)C1O
SCANS=14669
IONMODE=negative
COMPOUND_NAME=6-Benzylaminopurine riboside;N(6)-Benzyladenosine M-H
SPECTRUM_ID=CCMSLIB00006700010
65.014 6040.0 
74.011383 3415.0 
79.017357 4072.0 
82.401611 4831.0 
92.018791 5705.0 
92.025261 129568.0 
104.288109 3834.0 
106.028481 1280220.0 
116.05043 107919.0 
117.020378 4546.0 
119.036293 84960.0 
123.112183 3401.0 
132.031281 55992.0 
133.039444 1495187.0 
134.023514 3729.0 
143.061584 38061.0 
146.047302 13129.0 
153.045288 12799.0 
154.711792 2913.0 
168.056396 6473.0 
170.07254 76353.0 
181.064407 23062.0 
182.07196 5548.0 
195.066177 4535.0 
197.083221 152519.0 
208.075424 7267.0 
208.927063 13384.0 
222.078964 21485.0 
223.087326 6527.0 
224.094269 4803925.0 
238.110214 6497.0 
266.107727 3580.0 
356.136536 2101120.0 
367.085327 3042.0 
END IONS

BEGIN IONS
PRECURSOR_MZ=360.253
INCHI=InChI=1S/C22H35NO4/c1-4-23-10-20(2)6-5-16(24)22-12-7-11-14(27-3)9-21(26,17(12)18(11)25)13(19(22)23)8-15(20)22/h11-19,24-26H,4-10H2,1-3H3/t11-,12?,13+,14+,15?,16+,17?,18+,19-,20+,21+,22-/m1/s1
SMILES=CCN1CC2(C)CCC(O)C34C5CC6C(OC)CC(O)(C(CC23)C14)C5C6O
SCANS=2907
IONMODE=positive
COMPOUND_NAME=Karakoline M+H-H2O
SPECTRUM_ID=CCMSLIB00006688248
50.914291 2890.0 
50.965981 3036.0 
56.049881 4663.0 
58.06559 62257.0 
60.532242 2449.0 
72.081123 25276.0 
82.404762 3513.0 
84.080879 6696.0 
91.053917 5903.0 
93.069778 4257.0 
98.096321 31454.0 
104.288933 3388.0 
107.762787 3443.0 
110.096169 11978.0 
117.508583 3445.0 
122.096001 5743.0 
124.112053 21514.0 
126.126938 3440.0 
137.060104 4488.0 
143.084732 5597.0 
145.100861 6729.0 
147.079346 3558.0 
155.085678 4642.0 
181.100861 4483.0 
183.117584 5145.0 
189.150238 3628.0 
197.130936 3292.0 
208.939926 12635.0 
227.142105 4542.0 
237.16246 3662.0 
267.170197 4082.0 
282.219971 4717.0 
297.147339 4020.0 
310.215393 13705.0 
314.211426 3779.0 
314.247711 17490.0 
316.190887 3428.0 
328.226715 100097.0 
332.219208 3840.0 
342.204651 79525.0 
342.243073 43485.0 
360.215942 618211.0 
360.254913 4498338.0 
END IONS

BEGIN IONS
PRECURSOR_MZ=450.124
INCHI=InChI=1S/C22H21N5O4S/c1-13-4-6-14(7-5-13)27-20-19(21(29)24-12-23-20)26-22(27)32-11-18(28)25-16-10-15(30-2)8-9-17(16)31-3/h4-10,12H,11H2,1-3H3,(H,25,28)(H,23,24,29)
SMILES=COc1ccc(OC)c(N=C(O)CSc2nc3c(O)ncnc3n2-c2ccc(C)cc2)c1
SCANS=21174
IONMODE=negative
COMPOUND_NAME=N-(2,5-dimethoxyphenyl)-2-[9-(4-methylphenyl)-6-oxohydropurin-8-ylthio]acetami de M-H
SPECTRUM_ID=CCMSLIB00006706515
55.989639 3421.0 
57.97514 261516.0 
58.80674 2890.0 
58.968861 2791.0 
65.014061 416874.0 
65.998093 249550.0 
68.01371 27134.0 
69.009003 6062.0 
70.496391 2985.0 
89.730698 3435.0 
92.025223 210144.0 
93.009117 20873.0 
93.628838 3391.0 
95.9786 4832.0 
96.986397 5429.0 
107.01236 5593.0 
123.026939 4402.0 
131.06105 12640.0 
135.031311 15849.0 
147.031265 4876.0 
154.924545 3930.0 
155.061401 2285922.0 
156.056686 47755.0 
161.012726 6093.0 
176.03447 4287.0 
182.07225 99715.0 
187.03334 57327.0 
193.991699 66395.0 
196.073822 3329.0 
197.059418 143850.0 
198.067398 50167.0 
209.014999 46938.0 
214.024292 5075.0 
214.044586 17114.0 
223.061874 14613.0 
224.038635 122568.0 
224.839706 3939.0 
225.078186 1863435.0 
228.023438 63059.0 
228.059189 5403.0 
236.069656 29070.0 
237.077927 18259.0 
238.085373 3733.0 
241.073105 26327.0 
255.034653 556986.0 
256.04245 757974.0 
257.050415 242843.0 
257.073975 5094.0 
264.065399 7716.0 
269.049866 62840.0 
271.06604 274555.0 
297.045105 154330.0 
304.956512 4407.0 
318.098816 6266.0 
346.048889 5268.0 
346.09494 96350.0 
361.11499 18455.0 
376.141357 361320.0 
430.057343 15102.0 
450.124054 430313.0 
END IONS

BEGIN IONS
PRECURSOR_MZ=242.119
INCHI=InChI=1S/C15H17NO2/c1-8-6-7-9(2)13-12(8)10-4-3-5-11(10)14(16-13)15(17)18/h3-4,6-7,10-11,14,16H,5H2,1-2H3,(H,17,18)
SMILES=Cc1ccc(C)c2c1NC(C(=O)O)C1CC=CC21
SCANS=21292
IONMODE=negative
COMPOUND_NAME=6,9-dimethyl-3,4,5,3a,9b-pentahydrocyclopenta[1,2-c]quinoline-4-carboxylic aci d M-H
SPECTRUM_ID=CCMSLIB00006706633
51.0947 1940.0 
52.212471 2290.0 
71.46524 2790.0 
80.098557 2466.0 
85.802116 2167.0 
92.20816 2390.0 
119.909622 2116.0 
120.081993 20788.0 
185.629272 2184.0 
198.129074 36157.0 
242.118988 595538.0 
252.271118 2361.0 
264.534241 2341.0 
END IONS

BEGIN IONS
PRECURSOR_MZ=416.138
INCHI=InChI=1S/C22H20FN3O3/c23-15-7-9-16(10-8-15)24-20(27)14-26-19-6-2-1-5-17(19)18(13-21(26)28)22(29)25-11-3-4-12-25/h1-2,5-10,13H,3-4,11-12,14H2,(H,24,27)
SMILES=O=C(Cn1c(=O)cc(C(=O)N2CCCC2)c2ccccc21)Nc1ccc(F)cc1
SCANS=11779
IONMODE=positive
COMPOUND_NAME=N-(4-fluorophenyl)-2-[2-oxo-4-(pyrrolidinylcarbonyl)hydroquinolyl]acetamide M+Na
SPECTRUM_ID=CCMSLIB00006697120
68.532066 2325.0 
68.594582 2733.0 
82.394569 3907.0 
136.204819 3465.0 
151.049118 2432.0 
416.137665 2022924.0 
END IONS

BEGIN IONS
PRECURSOR_MZ=269.081
INCHI=InChI=1S/C16H12O4/c1-19-12-4-2-3-10(7-12)15-9-14(18)13-6-5-11(17)8-16(13)20-15/h2-9,17H,1H3
SMILES=COc1cccc(-c2cc(=O)c3ccc(O)cc3o2)c1
SCANS=13960
IONMODE=positive
COMPOUND_NAME=7-Hydroxy-3'-methoxyflavone M+H
SPECTRUM_ID=CCMSLIB00006699301
56.965302 3233.0 
61.540451 3513.0 
65.039146 5663.0 
66.579674 3135.0 
67.842644 3343.0 
68.997513 55711.0 
69.033783 3880.0 
81.033958 19247.0 
82.386627 4537.0 
82.391808 3224.0 
89.039711 3321.0 
92.364693 3599.0 
92.371109 2997.0 
95.01329 14249.0 
105.069702 3279.0 
109.028519 5427.0 
111.043983 4927.0 
118.041382 14822.0 
127.039619 4648.0 
128.175415 3488.0 
133.06485 68914.0 
135.043945 14163.0 
137.023224 268952.0 
147.135834 4189.0 
153.069931 5391.0 
155.033752 89879.0 
158.073181 26500.0 
159.043976 145787.0 
169.064407 15390.0 
170.073029 4042.0 
171.081711 4392.0 
181.064957 7224.0 
186.066986 15158.0 
186.938187 4505.0 
197.059631 16048.0 
198.067337 6597.0 
199.07399 6327.0 
201.05397 4426.0 
201.091522 4036.0 
209.059494 3433.0 
209.852554 5475.0 
225.05455 28840.0 
226.062225 6924232.0 
237.054291 13915.0 
239.069473 5081.0 
241.085205 48980.0 
253.050903 5603.0 
254.056931 1482681.0 
267.064301 5140.0 
269.080353 8744850.0 
270.238708 4322.0 
END IONS

BEGIN IONS
PRECURSOR_MZ=301.127
INCHI=InChI=1S/C13H18N4O3/c1-6(2)5-9(13(18)19)17-11-10-12(15-7(3)14-11)20-8(4)16-10/h6,9H,5H2,1-4H3,(H,18,19)(H,14,15,17)
SMILES=Cc1nc(NC(CC(C)C)C(=O)O)c2nc(C)oc2n1
SCANS=1312
IONMODE=positive
COMPOUND_NAME=2-[(2,5-dimethyl(1,3-oxazolino[4,5-e]pyrimidin-7-yl))amino]-4-methylpentanoic acid M+Na
SPECTRUM_ID=CCMSLIB00006686653
59.281361 1900.0 
70.898621 2079.0 
72.84494 2156.0 
73.9543 3352.0 
82.398399 2216.0 
92.37706 2234.0 
104.283173 2017.0 
135.148804 2273.0 
164.251984 2441.0 
238.199081 2610.0 
254.935928 2445.0 
301.12674 279809.0 
END IONS

BEGIN IONS
PRECURSOR_MZ=374.186
INCHI=InChI=1S/C23H23N3O2/c1-17-5-6-21-20(13-23(27)28-22(21)11-17)16-26-9-7-25(8-10-26)15-19-4-2-3-18(12-19)14-24/h2-6,11-13H,7-10,15-16H2,1H3
SMILES=Cc1ccc2c(CN3CCN(Cc4cccc(C#N)c4)CC3)cc(=O)oc2c1
SCANS=7217
IONMODE=positive
COMPOUND_NAME=3-({4-[(7-methyl-2-oxochromen-4-yl)methyl]piperazinyl}methyl)benzenecarbonitri le M+H
SPECTRUM_ID=CCMSLIB00006692558
56.050018 47292.0 
57.057789 16685.0 
57.48465 3167.0 
58.065571 17862.0 
66.215424 3316.0 
68.049858 7212.0 
70.06546 44174.0 
71.060722 17043.0 
71.073341 5009.0 
73.960678 4295.0 
74.224586 3002.0 
79.067711 2912.0 
83.060608 186348.0 
83.066292 6657.0 
84.068443 59809.0 
85.076241 123010.0 
89.039017 5513.0 
91.054382 4753.0 
97.07608 1223566.0 
98.083817 24121.0 
99.091873 15458.0 
104.297318 4017.0 
116.049393 465459.0 
117.069878 16401.0 
119.085152 4267.0 
129.057556 5832.0 
130.065247 4408.0 
131.085754 7300.0 
132.253433 3460.0 
133.064835 3896.0 
137.395126 3313.0 
145.064682 510644.0 
145.075348 28075.0 
146.072433 3520.0 
147.080109 44058.0 
156.068451 6078.0 
157.076019 21105.0 
159.09166 821713.0 
160.05159 6063.0 
161.05957 81877.0 
163.099014 137384.0 
171.091721 93306.0 
172.086441 6649.0 
173.059677 86501.0 
173.107651 15486.0 
174.067566 34613.0 
174.090836 4749.0 
175.075302 94454.0 
186.090134 4479.0 
187.075104 7689.0 
187.09903 6901.0 
188.106461 45399.0 
198.102783 57239.0 
199.110062 67017.0 
200.118134 163044.0 
201.079025 5415.0 
201.126083 38069.0 
202.086456 23353.0 
202.133667 16983.0 
203.094208 81183.0 
212.117401 17519.0 
214.085373 44849.0 
214.134644 29443.0 
215.094131 22448.0 
216.101746 965751.0 
228.101761 16601.0 
229.133865 22159.0 
230.116882 19486.0 
230.140686 16473.0 
257.128021 30299.0 
258.135956 436980.0 
282.264771 4140.0 
346.190674 108464.0 
366.135132 4033.0 
372.318604 7209.0 
374.18573 8492789.0 
376.067078 6561.0 
END IONS

BEGIN IONS
PRECURSOR_MZ=241.157
INCHI=InChI=1S/C29H40N2O4/c1-6-18-17-31-10-8-20-14-27(33-3)29(35-5)16-23(20)25(31)12-21(18)11-24-22-15-28(34-4)26(32-2)13-19(22)7-9-30-24/h13-16,18,21,24-25,30H,6-12,17H2,1-5H3/t18-,21-,24+,25-/m0/s1
SMILES=CCC1CN2CCc3cc(OC)c(OC)cc3C2CC1CC1NCCc2cc(OC)c(OC)cc21
SCANS=6153
IONMODE=positive
COMPOUND_NAME=EMETINE M+2H]
SPECTRUM_ID=CCMSLIB00006691494
55.03083 2910.0 
56.049919 12295.0 
72.652184 2828.0 
79.735542 3117.0 
83.085518 5714.0 
84.080757 14684.0 
92.369507 3795.0 
105.069557 16457.0 
108.080544 11725.0 
110.096268 272433.0 
111.099861 4345.0 
133.064468 16476.0 
134.072021 4651.0 
134.095917 3788.0 
135.080505 5563.0 
136.111908 3033.0 
147.079758 6432.0 
149.059464 3191.0 
150.067322 97060.0 
151.074539 14117.0 
152.862885 2821.0 
159.064789 12812.0 
159.08017 10513.0 
160.074402 4238.0 
160.088181 2869.0 
163.074677 13213.0 
165.090805 695762.0 
166.09436 28831.0 
170.465469 2528.0 
171.080322 15259.0 
173.059799 4870.0 
175.075256 39950.0 
176.08287 86833.0 
177.090469 26614.0 
181.046783 67182.0 
189.090088 6542.0 
190.09874 164432.0 
191.104858 18346.0 
192.10141 133695.0 
193.105652 5899.0 
194.117538 31838.0 
202.098328 15299.0 
203.106064 3491.0 
205.109222 22924.0 
209.621429 6492.0 
216.630051 11769.0 
217.134506 5851.0 
217.617859 6326.0 
217.638962 5403.0 
218.117126 10977.0 
219.634567 16408.0 
220.133896 16798.0 
224.626221 18581.0 
225.131149 1026919.0 
225.632874 151866.0 
225.651367 3552.0 
226.6427 16165.0 
230.129288 6494.0 
231.137497 6559.0 
232.136444 12871.0 
232.642944 1432911.0 
233.144653 241114.0 
233.164673 3673.0 
233.172073 4865.0 
233.644928 11047.0 
240.138428 3768.0 
240.649307 4018.0 
241.067505 115653.0 
241.09668 5300.0 
241.156021 267717.0 
241.657883 42218.0 
245.153503 3280.0 
246.148148 96399.0 
247.150162 4746.0 
256.133423 6560.0 
258.158936 2759.0 
260.161865 3630.0 
270.148254 10902.0 
272.164825 3953.0 
274.17926 97896.0 
275.183807 5755.0 
284.16272 11515.0 
285.170013 46487.0 
286.176025 4630.0 
300.195892 46583.0 
317.221802 33428.0 
318.225891 3323.0 
403.871246 2740.0 
420.026459 2988.0 
436.246338 6042.0 
450.262512 16265.0 
451.266113 5026.0 
452.278442 207632.0 
453.281708 31741.0 
END IONS

BEGIN IONS
PRECURSOR_MZ=303.095
INCHI=InChI=1S/C13H16N2O5/c1-20-10-4-2-9(3-5-10)8-12(17)15-14-11(16)6-7-13(18)19/h2-5H,6-8H2,1H3,(H,14,16)(H,15,17)(H,18,19)
SMILES=COc1ccc(CC(O)=NN=C(O)CCC(=O)O)cc1
SCANS=8772
IONMODE=positive
COMPOUND_NAME=3-{N-[2-(4-methoxyphenyl)acetylamino]carbamoyl}propanoic acid M+Na
SPECTRUM_ID=CCMSLIB00006694113
59.386311 2559.0 
61.045849 2701.0 
66.74736 3307.0 
80.469276 2663.0 
104.28994 4000.0 
108.942398 2932.0 
118.660873 3246.0 
121.064941 3814.0 
123.005119 14716.0 
136.219849 3004.0 
137.03183 5873.0 
140.628448 2988.0 
141.015564 39747.0 
150.24086 3727.0 
155.042099 9812.0 
159.065201 6534.0 
185.068207 24670.0 
189.05188 55157.0 
203.078979 597013.0 
204.431534 2881.0 
256.884644 3720.0 
285.08313 37008.0 
301.73465 4534.0 
303.094727 6534325.0 
304.464386 5335.0 
END IONS

BEGIN IONS
PRECURSOR_MZ=359.057
INCHI=InChI=1S/C17H12N4O2S/c18-9-11-4-3-5-12(8-11)19-15(22)10-24-17-20-14-7-2-1-6-13(14)16(23)21-17/h1-8H,10H2,(H,19,22)(H,20,21,23)
SMILES=N#Cc1cccc(N=C(O)CSc2nc(O)c3ccccc3n2)c1
SCANS=7824
IONMODE=positive
COMPOUND_NAME=N-(3-cyanophenyl)-2-(4-hydroxyquinazolin-2-ylthio)acetamide M+Na
SPECTRUM_ID=CCMSLIB00006693165
60.532959 2169.0 
76.386681 2446.0 
92.365692 2721.0 
111.757767 2367.0 
136.30043 2408.0 
157.956726 2965.0 
175.928879 2565.0 
215.023575 2960.0 
219.022522 9494.0 
224.539948 2301.0 
241.003464 4607.0 
359.056732 1420816.0 
380.016083 2460.0 
381.019104 2674.0 
END IONS

BEGIN IONS
PRECURSOR_MZ=404.158
INCHI=InChI=1S/C21H23N3O4/c1-14(25)21-23-16-6-4-5-7-17(16)24(21)13-20(26)22-11-10-15-8-9-18(27-2)19(12-15)28-3/h4-9,12H,10-11,13H2,1-3H3,(H,22,26)
SMILES=COc1ccc(CCN=C(O)Cn2c(C(C)=O)nc3ccccc32)cc1OC
SCANS=2571
IONMODE=positive
COMPOUND_NAME=2-(2-acetylbenzimidazolyl)-N-[2-(3,4-dimethoxyphenyl)ethyl]acetamide M+Na
SPECTRUM_ID=CCMSLIB00006687912
61.829762 2048.0 
91.944527 2314.0 
95.572289 2445.0 
104.265869 3013.0 
124.302818 2184.0 
124.346718 2382.0 
155.586029 2358.0 
185.361816 3036.0 
204.381424 2197.0 
210.271713 2675.0 
266.497223 2614.0 
271.413757 2398.0 
348.240936 2644.0 
404.157379 507954.0 
END IONS

BEGIN IONS
PRECURSOR_MZ=517.141
INCHI=InChI=1S/C28H21FN2O7/c1-36-24-11-19(12-25(16-24)37-2)27(32)17-3-5-18(6-4-17)28(33)30-21-13-22(31(34)35)15-26(14-21)38-23-9-7-20(29)8-10-23/h3-16H,1-2H3,(H,30,33)
SMILES=COc1cc(OC)cc(C(=O)c2ccc(C(=O)Nc3cc(Oc4ccc(F)cc4)cc([N+](=O)[O-])c3)cc2)c1
SCANS=19665
IONMODE=positive
COMPOUND_NAME={4-[(3,5-dimethoxyphenyl)carbonyl]phenyl}-N-[5-(4-fluorophenoxy)-3-nitrophenyl ]carboxamide M+H
SPECTRUM_ID=CCMSLIB00006705006
53.039082 15771.0 
65.039009 5194.0 
76.031021 6002.0 
79.018204 4123.0 
79.054573 13370.0 
81.033852 5764.0 
91.054642 21380.0 
92.025887 5404.0 
92.383888 3408.0 
94.041618 5185.0 
95.049294 6094.0 
103.018097 3416.0 
105.033417 18477.0 
109.064857 28146.0 
121.028709 13442.0 
122.036423 34205.0 
125.059731 14163.0 
127.053963 3937.0 
132.020325 25871.0 
135.055237 5534.0 
136.015701 260587.0 
137.059875 3357.0 
151.039444 4297.0 
152.062347 31048.0 
153.069992 76709.0 
155.04924 11917.0 
165.054855 348478.0 
165.068085 12304.0 
166.064697 3877.0 
168.041855 27902.0 
168.05658 8380.0 
169.06517 13892.0 
171.060516 14401.0 
172.068527 44647.0 
181.064407 30327.0 
183.044357 66617.0 
183.079773 4364.0 
194.060608 3996.0 
197.060257 50974.0 
198.067917 49441.0 
199.055252 39502.0 
199.073334 3808.0 
209.077591 5193.0 
211.039124 209462.0 
211.074783 7616.0 
212.04538 6819.0 
213.054749 12908.0 
220.068893 3709.0 
221.075607 4646.0 
225.054779 28845.0 
226.062592 127703.0 
227.070419 28803.0 
228.041718 4535.0 
228.080597 4474.0 
230.057602 38022.0 
233.07608 18748.0 
237.065567 20372.0 
239.035538 3804.0 
241.085953 33903.0 
242.057175 102119.0 
245.080627 4816.0 
248.087677 33150.0 
249.069946 7020.0 
254.058258 7305.0 
255.065094 19261.0 
258.048492 5145.0 
258.075439 5287.0 
269.080841 182716.0 
269.113556 6469.0 
270.084534 16803.0 
276.081543 45037.0 
277.090057 15926.0 
287.072418 4175.0 
304.076691 13398.0 
337.073944 17864.0 
379.072479 4499.0 
394.967407 2978.0 
397.083191 343371.0 
502.11441 3388.0 
517.140686 546917.0 
END IONS

BEGIN IONS
PRECURSOR_MZ=345.088
INCHI=InChI=1S/C20H14N2O4/c21-9-15-17(14-7-3-5-11-4-1-2-6-13(11)14)19-18(26-20(15)22)16(24)8-12(10-23)25-19/h1-8,17,23H,10,22H2
SMILES=N#CC1=C(N)Oc2c(oc(CO)cc2=O)C1c1cccc2ccccc12
SCANS=19668
IONMODE=negative
COMPOUND_NAME=2-amino-6-(hydroxymethyl)-4-naphthyl-8-oxo-4H-pyrano[3,2-b]pyran-3-carbonitril e M-H
SPECTRUM_ID=CCMSLIB00006705009
65.014099 2217685.0 
68.013733 2824.0 
70.82402 2611.0 
95.01358 2490.0 
122.024681 2794.0 
123.080383 2796.0 
136.218948 3620.0 
144.046219 10403.0 
157.977524 3158.0 
177.899429 2360.0 
190.06517 3049.0 
217.077301 11151.0 
244.061707 5101.0 
245.071487 3327.0 
247.088577 4314.0 
259.087097 3197.0 
262.05249 3220.0 
277.096619 2926.0 
287.083069 3197.0 
318.076874 17270.0 
337.781342 2472.0 
345.089508 14826.0 
END IONS

BEGIN IONS
PRECURSOR_MZ=315.123
INCHI=InChI=1S/C18H18O5/c1-20-11-7-8-12-14(19)10-17(23-16(12)9-11)13-5-4-6-15(21-2)18(13)22-3/h4-9,17H,10H2,1-3H3
SMILES=COc1ccc2c(c1)OC(c1cccc(OC)c1OC)CC2=O
SCANS=2750
IONMODE=positive
COMPOUND_NAME=7,2',3'-Trimethoxyflavanone M+H
SPECTRUM_ID=CCMSLIB00006688091
65.487869 3513.0 
70.874329 3805.0 
71.049538 7892.0 
82.390381 7966.0 
91.053963 5688.0 
92.366096 4505.0 
95.049187 63144.0 
103.054024 23068.0 
105.069603 31444.0 
107.049049 6652.0 
108.020508 8519.0 
119.04821 5023.0 
120.057732 5186.0 
121.064629 18104.0 
123.043877 8168.0 
131.049149 7628.0 
132.056412 4842.0 
133.065399 5098.0 
135.08049 61172.0 
136.015701 6013.0 
136.051926 18119.0 
136.194199 5212.0 
137.059692 239081.0 
139.073822 5801.0 
148.052063 32286.0 
149.059189 70207.0 
150.548309 4471.0 
150.560791 21046.0 
151.038971 15378148.0 
151.519424 24182.0 
153.054016 8715.0 
161.058945 14366.0 
163.076248 40573.0 
165.054642 22720.0 
167.069611 6764.0 
169.049438 61896.0 
176.046707 750373.0 
177.05455 301128.0 
177.068466 4644.0 
177.072678 5075.0 
179.070618 5433.0 
187.07309 5178.0 
190.390152 4877.0 
191.07019 6515516.0 
191.754486 5795.0 
213.091125 131233.0 
215.212036 4663.0 
230.092575 15563.0 
241.084579 62737.0 
245.117615 8783.0 
253.086548 5324.0 
273.111786 168970.0 
281.080811 23746.0 
282.088013 18307.0 
284.099182 8581.0 
285.074463 16990.0 
297.11203 8284.0 
300.097687 26991.0 
315.12207 1869592.0 
END IONS

BEGIN IONS
PRECURSOR_MZ=330.17
INCHI=InChI=1S/C19H23NO4/c1-23-17-9-7-14(13-18(17)24-2)11-12-20-19(22)10-8-15-5-3-4-6-16(15)21/h3-7,9,13,21H,8,10-12H2,1-2H3,(H,20,22)
SMILES=COc1ccc(CCN=C(O)CCc2ccccc2O)cc1OC
SCANS=2346
IONMODE=positive
COMPOUND_NAME=N-[2-(3,4-dimethoxyphenyl)ethyl]-3-(2-hydroxyphenyl)propanamide M+H
SPECTRUM_ID=CCMSLIB00006687687
55.01828 7751.0 
76.828583 3225.0 
77.039482 4051.0 
79.054649 4901.0 
80.608879 2866.0 
83.212936 3243.0 
85.140862 3501.0 
91.054138 5376.0 
93.069794 6056.0 
103.054123 12488.0 
105.069893 36177.0 
107.049004 528997.0 
120.05719 3953.0 
121.064636 634471.0 
131.049744 3612.0 
133.064362 37862.0 
134.072647 22022.0 
135.080338 26845.0 
138.067459 53434.0 
149.059464 286268.0 
150.067307 269125.0 
150.090927 14657.0 
165.090836 6621025.0 
168.101334 4094.0 
182.117325 2903674.0 
192.101822 4600.0 
212.942535 4199.0 
312.157227 15331.0 
313.14328 6093.0 
330.169098 2886524.0 
END IONS

BEGIN IONS
PRECURSOR_MZ=293.141
INCHI=InChI=1S/C19H19NO2/c21-19(17-4-2-1-3-5-17)11-8-16-6-9-18(10-7-16)20-12-14-22-15-13-20/h1-11H,12-15H2/b11-8+
SMILES=O=C(C=Cc1ccc(N2CCOCC2)cc1)c1ccccc1
SCANS=1111
IONMODE=positive
COMPOUND_NAME=(2E)-3-(4-morpholin-4-ylphenyl)-1-phenylprop-2-en-1-one M-e
SPECTRUM_ID=CCMSLIB00006686452
57.05777 4983.0 
59.339588 2431.0 
63.790409 2334.0 
66.744652 2989.0 
72.044769 3195.0 
73.955139 3399.0 
81.835228 2597.0 
83.309502 2436.0 
105.033501 5352.0 
105.057289 104387.0 
112.822952 2790.0 
132.080704 5111.0 
158.096634 24058.0 
162.091248 12064.0 
163.099121 196305.0 
179.085205 15540.0 
206.096161 4262.0 
207.080566 196771.0 
216.101837 76107.0 
221.095688 12809.0 
222.255859 2682.0 
234.091324 56527.0 
235.099075 299267.0 
247.121399 5652.0 
247.35437 3072.0 
248.10498 3625.0 
250.11998 3291.0 
262.121948 5733.0 
263.130646 3827.0 
264.136719 9757.0 
265.142639 12839.0 
276.136963 4807.0 
278.118317 5168.0 
288.148499 3321.0 
292.132812 201807.0 
293.140594 2790233.0 
294.14798 62450.0 
393.597351 2874.0 
576.008972 3112.0 
END IONS

BEGIN IONS
PRECURSOR_MZ=420.11
INCHI=InChI=1S/C19H19N5O3S/c1-10-14(22-18(27-10)12-5-7-13(26-4)8-6-12)9-28-19-23-15-16(24(19)3)20-11(2)21-17(15)25/h5-8H,9H2,1-4H3,(H,20,21,25)
SMILES=COc1ccc(-c2nc(CSc3nc4c(O)nc(C)nc4n3C)c(C)o2)cc1
SCANS=4373
IONMODE=positive
COMPOUND_NAME=8-{[2-(4-methoxyphenyl)-5-methyl(1,3-oxazol-4-yl)]methylthio}-2,9-dimethylhydr opurin-6-one M+Na
SPECTRUM_ID=CCMSLIB00006689714
52.356972 3321.0 
65.53569 3244.0 
74.245552 3137.0 
91.137939 3593.0 
104.273552 3682.0 
105.668098 3165.0 
128.540115 3498.0 
134.059921 124033.0 
156.471252 2915.0 
202.086105 945285.0 
218.022995 143244.0 
219.030914 552724.0 
242.149368 2914.0 
405.082825 3808.0 
413.457916 4306.0 
420.109314 3941958.0 
END IONS

BEGIN IONS
PRECURSOR_MZ=495.151
INCHI=InChI=1S/C26H27ClN2OS/c27-25-11-7-21(8-12-25)19-31-16-14-28-26(30)23-9-5-20(6-10-23)17-29-15-13-22-3-1-2-4-24(22)18-29/h1-12H,13-19H2,(H,28,30)
SMILES=O=C(NCCSCc1ccc(Cl)cc1)c1ccc(CN2CCc3ccccc3C2)cc1
SCANS=15448
IONMODE=negative
COMPOUND_NAME=N-{2-[(4-chlorophenyl)methylthio]ethyl}[4-(2-1,2,3,4-tetrahydroisoquinolylmeth yl)phenyl]carboxamide M+formate
SPECTRUM_ID=CCMSLIB00006700789
52.85685 2362.0 
53.278839 2626.0 
61.36018 2310.0 
66.388474 2781.0 
68.995422 3783.0 
75.667343 2635.0 
92.389427 3330.0 
112.985138 4169.0 
144.996216 2674.0 
156.988342 53000.0 
160.432602 2377.0 
168.827591 2319.0 
220.361603 2682.0 
264.535126 3112.0 
449.145752 12922.0 
END IONS

BEGIN IONS
PRECURSOR_MZ=411.113
INCHI=InChI=1S/C20H20N4O4S/c1-11-4-6-13(7-5-11)22-20-23-16(17(21)25)19(29-20)24-18(26)12-8-14(27-2)10-15(9-12)28-3/h4-10H,1-3H3,(H2,21,25)(H,22,23)(H,24,26)
SMILES=COc1cc(OC)cc(C(O)=Nc2sc(Nc3ccc(C)cc3)nc2C(N)=O)c1
SCANS=18575
IONMODE=negative
COMPOUND_NAME=5-[(3,5-dimethoxyphenyl)carbonylamino]-2-[(4-methylphenyl)amino]-1,3-thiazole- 4-carboxamide M-H
SPECTRUM_ID=CCMSLIB00006703916
57.97525 428194.0 
65.014107 5873.0 
66.748619 2429.0 
68.995499 12992.0 
71.991127 4921.0 
79.017403 3007.0 
82.017021 5814.0 
82.405571 3513.0 
84.986343 10895.0 
95.013901 4314.0 
95.978783 26814.0 
96.020287 15026.0 
96.986557 138899.0 
96.993607 5718.0 
104.293343 2683.0 
106.066544 6164.0 
114.996933 33122.0 
118.992653 33972.0 
130.99263 4733.0 
131.061478 622946.0 
132.065323 3060.0 
133.076691 20842.0 
137.060471 4142.0 
138.984543 15330.0 
139.992905 3929.0 
146.987686 5360.0 
155.061539 31608.0 
162.019623 3442.0 
162.982986 15807.0 
168.989471 3887.0 
170.072128 21445.0 
177.049484 5902.0 
177.996674 2677.0 
180.06636 47990.0 
186.067734 9784.0 
187.033661 34057.0 
188.082886 16136.0 
189.030212 6712.0 
190.038605 3231.0 
192.989105 2786.0 
193.020584 3973.0 
196.986084 3558.0 
197.027374 28950.0 
202.044525 46441.0 
203.052338 44027.0 
204.060181 94448.0 
205.061722 14582.0 
206.90004 3396.0 
209.002701 6377.0 
212.070251 96178.0 
213.078506 11617.0 
219.077942 20547.0 
228.048462 2993.0 
229.05452 4411.0 
230.039185 124646.0 
235.072113 23886.0 
245.052475 4436.0 
246.057709 12923.0 
251.049805 13500.0 
262.082947 25194.0 
266.985352 3132.0 
278.061798 6106.0 
304.983368 4053.0 
326.986786 3608.0 
334.121307 3530.0 
338.739563 3520.0 
342.980927 3633.0 
368.107208 165051.0 
370.974396 3728.0 
377.126465 5839.0 
378.080322 3849.0 
390.982086 5282.0 
394.087646 27346.0 
410.984955 34112.0 
411.11319 981401.0 
END IONS

BEGIN IONS
PRECURSOR_MZ=247.108
INCHI=InChI=1S/C13H14N2O3/c1-8(16)15-12(13(17)18)6-9-7-14-11-5-3-2-4-10(9)11/h2-5,7,12,14H,6H2,1H3,(H,15,16)(H,17,18)/t12-/m1/s1
SMILES=CC(O)=N[C@H](Cc1c[nH]c2ccccc12)C(=O)O
SCANS=24485
IONMODE=positive
COMPOUND_NAME=N-Acetyl-D-tryptophan M+H
SPECTRUM_ID=CCMSLIB00006709826
73.416603 221138.0 
79.670998 245691.0 
82.4189 347841.0 
88.040001 525208.0 
90.004799 209745.0 
91.073303 245189.0 
92.400703 265951.0 
118.066002 416188.0 
130.048996 469587.0 
130.065002 10295000.0 
132.080994 2224270.0 
136.242004 327986.0 
142.065002 340541.0 
144.080994 1463350.0 
146.059998 6035750.0 
159.091995 27361500.0 
160.076004 1175460.0 
169.076996 425857.0 
170.059998 3195990.0 
174.091995 491545.0 
183.091995 539078.0 
184.076004 1596190.0 
187.085999 5571000.0 
188.070007 37009500.0 
190.455002 250932.0 
201.102005 32229000.0 
205.097 11180400.0 
211.087006 538204.0 
228.302994 253142.0 
229.095993 4172820.0 
230.080994 1251010.0 
247.108002 3004990.0 
END IONS

BEGIN IONS
PRECURSOR_MZ=725.104
INCHI=InChI=1S/C15H14ClN5O2S/c1-8-3-4-10(9(16)5-8)19-11(22)6-24-15-20-12-13(21(15)2)17-7-18-14(12)23/h3-5,7H,6H2,1-2H3,(H,19,22)(H,17,18,23)
SMILES=Cc1ccc(N=C(O)CSc2nc3c(O)ncnc3n2C)c(Cl)c1
SCANS=7148
IONMODE=negative
COMPOUND_NAME=N-(2-chloro-4-methylphenyl)-2-(9-methyl-6-oxohydropurin-8-ylthio)acetamide 2M-H
SPECTRUM_ID=CCMSLIB00006692489
62.012489 3192.0 
64.62149 2657.0 
72.699829 3076.0 
73.815376 2986.0 
79.420593 2747.0 
92.515739 3334.0 
97.470192 3116.0 
102.391869 3377.0 
149.04715 30557.0 
180.011215 47726.0 
181.019089 28475.0 
195.035126 5546.0 
211.994919 4769.0 
221.014252 5698.0 
244.9552 3366.0 
278.143768 3112.0 
288.065643 6664.0 
342.841125 3202.0 
362.048706 208911.0 
382.348175 3068.0 
END IONS

BEGIN IONS
PRECURSOR_MZ=361.113
INCHI=InChI=1S/C20H18N4OS/c1-13-6-8-16(9-7-13)24-18-17(19(25)22-12-21-18)23-20(24)26-11-15-5-3-4-14(2)10-15/h3-10,12H,11H2,1-2H3,(H,21,22,25)
SMILES=Cc1ccc(-n2c(SCc3cccc(C)c3)nc3c(O)ncnc32)cc1
SCANS=6607
IONMODE=negative
COMPOUND_NAME=9-(4-methylphenyl)-8-[(3-methylphenyl)methylthio]hydropurin-6-one M-H
SPECTRUM_ID=CCMSLIB00006691948
57.97514 13342.0 
61.98838 2623.0 
62.330711 2412.0 
66.469704 2262.0 
68.160713 2329.0 
68.995323 12399.0 
70.227119 2232.0 
112.985649 33448.0 
118.992157 5198.0 
124.360252 2350.0 
129.957336 2553.0 
130.993576 2491.0 
136.228546 2639.0 
138.455383 2491.0 
146.987198 6124.0 
155.061325 14757.0 
162.982712 3347.0 
196.984314 3428.0 
197.059769 12026.0 
198.067719 2688.0 
210.109131 2811.0 
225.078171 76075.0 
240.973999 4680.0 
254.98732 5764.0 
255.034576 27553.0 
256.042694 672506.0 
291.615601 2528.0 
292.984619 5926.0 
294.981964 10020.0 
312.55249 2574.0 
320.978607 12950.0 
340.984406 18675.0 
360.975616 62761.0 
361.113098 642043.0 
END IONS

BEGIN IONS
PRECURSOR_MZ=517.187
INCHI=InChI=1S/C30H30O8/c1-11(2)19-15-7-13(5)21(27(35)23(15)17(9-31)25(33)29(19)37)22-14(6)8-16-20(12(3)4)30(38)26(34)18(10-32)24(16)28(22)36/h7-12,33-38H,1-6H3
SMILES=Cc1cc2c(C(C)C)c(O)c(O)c(C=O)c2c(O)c1-c1c(C)cc2c(C(C)C)c(O)c(O)c(C=O)c2c1O
SCANS=20038
IONMODE=negative
COMPOUND_NAME=gossypol M-H
SPECTRUM_ID=CCMSLIB00006705379
52.589451 2898.0 
61.451099 2314.0 
66.746063 2523.0 
73.953056 2585.0 
77.898293 2392.0 
82.39959 2678.0 
83.051247 2329.0 
92.379593 3611.0 
104.280159 2768.0 
104.28875 2713.0 
105.959053 2785.0 
149.8246 2799.0 
153.122787 2873.0 
156.521729 2534.0 
157.970062 2664.0 
162.019653 2400.0 
182.122543 2580.0 
188.04808 24018.0 
201.056213 2929.0 
201.092209 4070.0 
203.108139 3670.0 
215.071365 22803.0 
226.164764 2984.0 
229.086334 4515.0 
230.094833 47036.0 
231.102493 102335.0 
259.098846 4484.0 
285.520172 2646.0 
385.106537 3051.0 
441.130707 3471.0 
443.190338 4766.0 
471.181885 12508.0 
482.785919 2933.0 
489.189362 9489.0 
499.176331 14826.0 
517.187012 199783.0 
END IONS

BEGIN IONS
PRECURSOR_MZ=386.016
INCHI=InChI=1S/C9H15N3O10P2/c10-7-1-2-12(9(14)11-7)8-3-5(13)6(21-8)4-20-24(18,19)22-23(15,16)17/h1-2,5-6,8,13H,3-4H2,(H,18,19)(H2,10,11,14)(H2,15,16,17)/t5-,6+,8+/m0/s1
SMILES=N=c1ccn([C@H]2C[C@H](O)[C@@H](COP(=O)(O)OP(=O)(O)O)O2)c(O)n1
SCANS=23974
IONMODE=negative
COMPOUND_NAME=dCDP M-H
SPECTRUM_ID=CCMSLIB00006709315
50.550598 1953.050049 
52.9324 2240.139893 
58.453999 2163.22998 
73.967903 2247.72998 
73.973198 2124.280029 
76.357498 2103.860107 
78.068703 2269.570068 
78.958702 116833.0 
87.960297 2100.659912 
92.398903 4081.02002 
96.969704 4704.640137 
104.306999 3943.649902 
136.244003 2405.77002 
158.925003 69934.5 
166.054001 10316.700195 
256.962006 11206.700195 
274.972992 12558.799805 
278.796997 2607.320068 
368.003998 18596.300781 
386.015991 177356.0 
END IONS

BEGIN IONS
PRECURSOR_MZ=437.171
INCHI=InChI=1S/C24H24N2O6/c1-3-31-23(29)15-13-21(27)25-19-11-7-5-9-17(19)18-10-6-8-12-20(18)26-22(28)14-16-24(30)32-4-2/h5-16H,3-4H2,1-2H3,(H,25,27)(H,26,28)/b15-13+,16-14+
SMILES=CCOC(=O)C=CC(O)=Nc1ccccc1-c1ccccc1N=C(O)C=CC(=O)OCC
SCANS=16813
IONMODE=positive
COMPOUND_NAME=ethyl (2E)-3-[N-(2-{2-[(2E)-3-(ethoxycarbonyl)prop-2-enoylamino]phenyl}phenyl) carbamoyl]prop-2-enoate M+H
SPECTRUM_ID=CCMSLIB00006702154
52.177681 3803.0 
53.002621 289971.0 
55.01828 525597.0 
60.54147 3554.0 
64.448486 3446.0 
71.013046 660352.0 
73.028839 4281.0 
99.007584 2233514.0 
99.043961 109938.0 
105.069473 5612.0 
117.018127 21928.0 
118.659508 3366.0 
127.038757 1052044.0 
127.948082 4142.0 
128.942108 4030.0 
142.067764 3360.0 
167.07254 77375.0 
168.080399 111613.0 
180.080734 8424.0 
184.100388 5659.0 
185.106781 102767.0 
192.081055 42201.0 
193.075974 8156.0 
194.083786 5639.0 
195.090942 53711.0 
196.07576 33359.0 
202.064377 8447.0 
204.080444 111098.0 
205.074814 59787.0 
206.060211 6294.0 
207.067947 27983.0 
211.062088 3806.0 
211.085541 7451.0 
218.08313 59560.0 
219.091171 1322948.0 
220.074905 254306.0 
220.099091 98515.0 
221.106033 37158.0 
223.085754 7485.0 
229.075409 17699.0 
230.082123 13804.0 
235.085281 5179.0 
237.102127 61878.0 
243.091507 8707.0 
244.074677 4034.0 
245.070694 14476.0 
246.077606 43216.0 
247.085922 1622431.0 
248.06987 26436.0 
253.074646 23502.0 
254.0849 5084.0 
255.090714 16080.0 
257.069702 27515.0 
263.078156 4869.0 
264.089081 5332.0 
265.096405 1241139.0 
266.081482 7712.0 
271.085815 81735.0 
272.095581 5582.0 
273.064697 24887.0 
273.098358 11260.0 
275.080444 40347.0 
275.114502 7093.0 
278.451843 4559.0 
281.069824 93548.0 
282.078247 41802.0 
283.085785 21306.0 
293.127533 3393846.0 
299.080322 124039.0 
309.064606 62712.0 
311.138031 158021.0 
317.091278 65408.0 
321.121948 33411.0 
327.075836 84700.0 
345.085205 214471.0 
355.106659 42887.0 
363.093445 26713.0 
363.138123 47157.0 
373.11673 78536.0 
383.332092 4566.0 
391.127686 337116.0 
395.158081 25111.0 
396.14209 4941.0 
401.146118 13262.0 
419.158691 686939.0 
422.440369 3609.0 
437.169373 304360.0 
464.202393 4260.0 
END IONS

BEGIN IONS
PRECURSOR_MZ=398.089
INCHI=InChI=1S/C16H14F3N5O2S/c1-2-24-13-12(14(26)21-8-20-13)23-15(24)27-7-11(25)22-10-6-4-3-5-9(10)16(17,18)19/h3-6,8H,2,7H2,1H3,(H,22,25)(H,20,21,26)
SMILES=CCn1c(SCC(O)=Nc2ccccc2C(F)(F)F)nc2c(O)ncnc21
SCANS=6188
IONMODE=positive
COMPOUND_NAME=2-(9-ethyl-6-oxohydropurin-8-ylthio)-N-[2-(trifluoromethyl)phenyl]acetamide M+H
SPECTRUM_ID=CCMSLIB00006691529
59.935631 3183.0 
61.483521 2816.0 
69.134323 2925.0 
71.063217 3436.0 
72.054283 2979.0 
73.941803 3471.0 
78.839577 2832.0 
92.363083 4021.0 
137.045502 18562.0 
147.72348 3856.0 
149.045624 5716.0 
151.062027 4858.0 
154.046326 6768.0 
164.103531 3197.0 
174.052139 4097.0 
175.061295 29274.0 
177.2612 3198.0 
181.017685 266597.0 
195.012863 7505.0 
195.033432 264180.0 
209.012527 69136.0 
209.048981 1099712.0 
215.396652 4754.0 
227.057785 4523.0 
237.043808 4966804.0 
250.074783 5567.0 
255.033737 6419.0 
309.997406 4497.0 
310.038818 131746.0 
338.069916 138920.0 
358.076233 203860.0 
360.075958 4426.0 
380.079102 16366.0 
398.088806 1198571.0 
END IONS

BEGIN IONS
PRECURSOR_MZ=187.023
INCHI=InChI=1S/C6H4N4O2/c11-5-3-4(8-2-1-7-3)9-6(12)10-5/h1-2H,(H2,8,9,10,11,12)
SMILES=Oc1nc(O)c2nccnc2n1
SCANS=23036
IONMODE=positive
COMPOUND_NAME=Lumazine M+Na
SPECTRUM_ID=CCMSLIB00006708377
55.935188 89071.0 
58.827492 4121.0 
60.580608 4196.0 
72.93779 19134.0 
73.941017 4709.0 
74.953552 8125.0 
81.087593 4637.0 
83.086182 25984.0 
88.022133 60301.0 
89.759811 4335.0 
90.948196 33790.0 
104.274193 4361.0 
105.935204 18988.0 
108.016068 4517.0 
109.955902 4557.0 
113.964058 5616.0 
116.952042 17217.0 
117.959892 8989.0 
118.942596 9354.0 
118.967659 48335.0 
123.945847 17406.0 
128.950943 8664.0 
134.962143 10090.0 
135.944946 9242.0 
136.19397 5855.0 
146.961563 10220.0 
153.956284 4783.0 
163.94072 34511.0 
163.964417 6602.0 
176.980789 9872.0 
181.950943 25548.0 
186.966476 9638.0 
187.021835 18436.0 
187.126419 21147.0 
192.426361 4808.0 
202.557571 4579.0 
207.299072 4942.0 
END IONS

BEGIN IONS
PRECURSOR_MZ=195.066
INCHI=InChI=1S/C10H12O4/c1-14-9-6-7(2-4-8(9)11)3-5-10(12)13/h2,4,6,11H,3,5H2,1H3,(H,12,13)
SMILES=COc1cc(CCC(=O)O)ccc1O
SCANS=11976
IONMODE=negative
COMPOUND_NAME=Untitled M-H
SPECTRUM_ID=CCMSLIB00006697317
58.547932 2370.0 
59.01339 62241.0 
63.462139 2083.0 
77.239288 1895.0 
83.164436 2082.0 
84.336578 2273.0 
92.928757 13271.0 
108.021744 3499.0 
119.05024 41793.0 
121.029411 28298.0 
122.036011 2540.0 
123.045059 28184.0 
124.016342 21287.0 
125.024773 5031.0 
130.992386 36410.0 
134.03714 8810.0 
135.045135 117626.0 
136.052841 403620.0 
136.248245 2723.0 
137.024155 10769.0 
149.060745 4813.0 
150.031448 13304.0 
151.039841 37916.0 
151.075928 32525.0 
158.011749 2277.0 
176.894348 5067.0 
177.055756 15912.0 
185.440002 2200.0 
194.905258 26350.0 
195.06604 744208.0 
END IONS

BEGIN IONS
PRECURSOR_MZ=397.128
INCHI=InChI=1S/C22H22O8/c1-25-16-4-10(5-17(26-2)21(16)27-3)18-11-6-14-15(30-9-29-14)7-12(11)20(23)13-8-28-22(24)19(13)18/h4-7,13,18-20,23H,8-9H2,1-3H3/t13-,18+,19-,20-/m0/s1
SMILES=COc1cc(C2c3cc4c(cc3C(O)C3COC(=O)C23)OCO4)cc(OC)c1OC
SCANS=19626
IONMODE=positive
COMPOUND_NAME=Podofilox M+H-H2O
SPECTRUM_ID=CCMSLIB00006704967
53.039051 4189.0 
65.038933 4799.0 
65.943779 3561.0 
67.018227 20434.0 
75.044098 7424.0 
85.028557 320274.0 
91.05426 32222.0 
103.05423 7545.0 
115.054008 78104.0 
116.778702 3945.0 
117.069313 5267.0 
118.639587 3942.0 
119.04911 52915.0 
123.044571 4506.0 
128.061798 6093.0 
129.069977 7287.0 
135.044144 84907.0 
136.051605 15987.0 
137.059219 5663.0 
139.038452 5829.0 
139.075317 4074.0 
143.049072 63668.0 
147.043884 276812.0 
148.051697 24246.0 
148.917786 3924.0 
149.023026 31379.0 
149.059692 26326.0 
151.039032 33043.0 
152.0466 8003.0 
153.069595 8269.0 
154.062256 6587.0 
155.048813 6612.0 
159.043823 21651.0 
161.059952 6022.0 
162.030502 4295.0 
165.054398 5952.0 
166.06218 68746.0 
167.033325 32491.0 
169.085052 9151.0 
171.043121 14779.0 
172.051086 6139.0 
173.05954 55688.0 
175.038788 16247.0 
177.054642 35922.0 
180.041092 9539.0 
180.077621 4367.0 
181.064926 19045.0 
181.085419 89874.0 
183.080124 6405.0 
185.059555 200426.0 
186.06694 9052.0 
187.0383 5804.0 
189.053757 7466.0 
189.071091 7801.0 
190.078583 4784.0 
191.085449 14653.0 
192.056976 4619.0 
192.076965 14354.0 
193.065125 4770.0 
195.065033 214911.0 
195.099228 5048.0 
197.059738 7479.0 
199.038727 14964.0 
201.054382 52382.0 
202.078094 9157.0 
203.085663 23788.0 
205.066696 33571.0 
207.080032 7227.0 
209.059433 81321.0 
210.066849 7801.0 
211.075562 56612.0 
212.045746 5345.0 
214.061752 17987.0 
215.085449 6696.0 
217.046082 6632.0 
217.066437 7416.0 
218.072357 24416.0 
219.080383 93853.0 
219.101807 7218.0 
220.089493 6099.0 
221.060196 7814.0 
221.096161 21378.0 
222.067535 17248.0 
223.075653 32240.0 
223.09642 5499.0 
224.04599 31235.0 
225.054306 28877.0 
226.061325 19855.0 
227.034103 6441.0 
227.069977 6819.0 
229.049164 295795.0 
230.073181 4131.0 
231.080002 17953.0 
232.06929 8065.0 
232.089294 18174.0 
233.059937 39110.0 
233.09668 29229.0 
234.066437 22339.0 
235.075104 64705.0 
236.083588 3837.0 
237.054459 187531.0 
237.085114 8779.0 
237.090424 7591.0 
238.062225 108686.0 
239.069946 586156.0 
240.041443 22343.0 
240.075516 4379.0 
241.085052 17887.0 
245.062088 6954.0 
246.067062 64002.0 
247.0746 150160.0 
248.0466 3472.0 
248.05571 3734.0 
248.082626 38311.0 
249.054657 23176.0 
249.090622 75057.0 
250.062286 36856.0 
250.089935 4801.0 
251.034454 8255.0 
251.069824 30197.0 
251.100021 6314.0 
252.077408 55997.0 
253.053177 7238.0 
253.085464 33791.0 
254.056931 169983.0 
254.088364 13529.0 
255.064774 115871.0 
255.09639 7469.0 
259.074707 77601.0 
260.085358 36789.0 
261.054047 35437.0 
261.090393 51222.0 
262.062103 72727.0 
262.098053 61505.0 
263.070099 212399.0 
263.105927 28449.0 
264.077209 31501.0 
264.108093 4991.0 
265.052246 12631.0 
265.085358 47612.0 
266.056183 25412.0 
267.064758 775091.0 
268.072723 67739.0 
269.044708 37879.0 
269.079803 266555.0 
269.113831 6995.0 
273.053772 8608.0 
274.061798 58714.0 
275.068268 221009.0 
276.077209 110541.0 
277.049683 18459.0 
277.085114 246660.0 
278.056793 42702.0 
278.093933 43136.0 
279.064758 53315.0 
279.10144 44247.0 
280.072296 8455.0 
281.080353 21898.0 
282.088074 1489197.0 
283.059784 665964.0 
283.093842 34441.0 
285.110382 4834.0 
287.070374 19775.0 
288.077209 32960.0 
289.051392 14649.0 
289.085266 223425.0 
290.056793 77852.0 
290.09317 143006.0 
291.064453 293891.0 
291.101074 132789.0 
292.07254 90474.0 
292.109131 19838.0 
293.044464 8012.0 
293.080139 105943.0 
293.11673 36279.0 
294.087982 5740.0 
295.060974 6576.0 
295.093658 28324.0 
296.103729 8279.0 
297.075226 284120.0 
298.083008 305054.0 
303.065704 71719.0 
304.073334 45192.0 
305.08017 447058.0 
306.052063 28941.0 
306.087799 400837.0 
307.059143 41377.0 
307.095337 191850.0 
308.069336 26844.0 
308.099457 28507.0 
309.076355 37706.0 
309.111115 5527.0 
311.091461 33374.0 
312.098541 179961.0 
313.106323 1093427.0 
315.064819 14239.0 
316.07373 15075.0 
317.043579 6173.0 
317.0784 26634.0 
318.05072 12572.0 
318.08847 24329.0 
319.05835 22143.0 
319.096313 98466.0 
320.067596 14817.0 
320.103455 242311.0 
321.074341 204394.0 
321.111908 267166.0 
322.081116 20799.0 
322.120026 43820.0 
323.09082 64754.0 
323.128876 6745.0 
324.10022 5399.0 
326.114441 6804.0 
331.059662 13405.0 
332.067352 8174.0 
333.074982 154669.0 
334.044983 7120.0 
334.086487 11116.0 
335.092163 33845.0 
336.099121 56725.0 
337.067596 5959.0 
337.107178 25503.0 
338.113312 36983.0 
339.086212 34668.0 
339.125549 7124.0 
346.083282 7680.0 
347.093201 34743.0 
348.098297 94703.0 
349.06958 128637.0 
349.105835 8518.0 
351.0867 19951.0 
351.122772 328161.0 
353.138458 32035.0 
355.116302 107570.0 
363.087555 15828.0 
364.091614 37127.0 
365.099243 8823.0 
366.110077 80214.0 
367.079071 9281.0 
367.124756 7211.0 
369.132507 45257.0 
379.116913 255530.0 
382.104492 18476.0 
397.127594 3835296.0 
END IONS

BEGIN IONS
PRECURSOR_MZ=426.109
INCHI=InChI=1S/C19H21N3O5S/c1-24-15-9-12(10-16(25-2)17(15)26-3)11-20-22-19(28)21-14-7-5-13(6-8-14)18(23)27-4/h5-11H,1-4H3,(H2,21,22,28)/b20-11+
SMILES=COC(=O)c1ccc(NC(S)=NN=Cc2cc(OC)c(OC)c(OC)c2)cc1
SCANS=5752
IONMODE=positive
COMPOUND_NAME=methyl 4-[({[(1E)-2-(3,4,5-trimethoxyphenyl)-1-azavinyl]amino}thioxomethyl)ami no]benzoate M+Na
SPECTRUM_ID=CCMSLIB00006691093
60.11132 2336.0 
62.643559 3236.0 
66.744217 3159.0 
73.629387 2548.0 
75.290588 2534.0 
82.397491 2834.0 
129.767838 2517.0 
136.212753 2531.0 
174.052383 177829.0 
215.078476 5352.0 
216.063171 16008.0 
275.045563 116340.0 
299.465454 2864.0 
316.071503 5158.0 
384.467316 2811.0 
420.155121 3301.0 
426.10849 574376.0 
END IONS

BEGIN IONS
PRECURSOR_MZ=339.253
INCHI=InChI=1S/C20H36O5/c1-14-4-5-15-17(2,12-22)16(24)6-7-18(15,3)20(14)9-8-19(13-23,25-20)10-11-21/h14-16,21-24H,4-13H2,1-3H3/t14?,15?,16?,17-,18-,19?,20?/m0/s1
SMILES=CC1CCC2C(C)(CO)C(O)CCC2(C)C12CCC(CO)(CCO)O2
SCANS=16773
IONMODE=positive
COMPOUND_NAME=Lagochiline M+H-H2O
SPECTRUM_ID=CCMSLIB00006702114
53.03907 24514.0 
55.018379 6959.0 
55.054691 124009.0 
57.033951 4372.0 
57.07032 17647.0 
62.05291 3057.0 
65.03891 5133.0 
67.054588 107536.0 
69.033798 46530.0 
69.070229 113038.0 
71.049599 24978.0 
79.054466 163513.0 
81.033653 12097.0 
81.070107 270521.0 
83.049362 2085498.0 
83.08551 26234.0 
85.064789 7297.0 
91.054314 98813.0 
91.059929 3561.0 
93.069923 405535.0 
94.784752 3603.0 
95.049149 14575.0 
95.078682 8045.0 
95.085579 245865.0 
97.06488 56389.0 
97.101303 4844.0 
99.080757 3718.0 
101.059189 3500.0 
104.282494 4435.0 
105.069809 156723.0 
107.085457 430325.0 
109.064774 36243.0 
109.101151 179158.0 
111.080276 37093.0 
113.059357 3277.0 
115.05352 3712.0 
117.070183 25783.0 
118.918678 3001.0 
119.085381 136564.0 
121.064857 15784.0 
121.10112 224403.0 
123.080261 24186.0 
123.116707 69467.0 
125.05983 5062.0 
125.096199 16895.0 
127.075287 7372.0 
129.069809 12880.0 
131.085403 64219.0 
133.101105 172632.0 
135.08049 15759.0 
135.116745 121581.0 
137.096329 44026.0 
137.132568 19948.0 
139.111603 22916.0 
141.091354 5815.0 
142.077682 12095.0 
143.085434 30931.0 
144.093552 4511.0 
145.10112 97146.0 
147.116867 103387.0 
149.096283 46396.0 
149.132446 404713.0 
151.112305 28842.0 
151.148392 3729.0 
153.090637 37649.0 
153.12735 3405.0 
155.085526 12929.0 
155.106445 17274.0 
156.093414 6062.0 
157.100983 41014.0 
157.968018 3968.0 
158.108978 6821.0 
159.116867 69027.0 
161.13269 45007.0 
163.111603 29468.0 
163.148987 13488.0 
165.127167 20875.0 
167.106567 290620.0 
167.818298 3167.0 
169.100983 17613.0 
169.122009 24796.0 
171.116714 29978.0 
173.132294 42001.0 
175.112061 4070.0 
175.148148 68719.0 
177.128082 6848.0 
177.163452 32677.0 
181.122162 13519.0 
182.110107 3125.0 
183.116684 20387.0 
185.116959 405101.0 
185.131622 32106.0 
187.147797 46943.0 
189.12709 3502.0 
189.163498 19732.0 
193.158844 6841.0 
197.132187 17369.0 
199.148544 33244.0 
201.164383 16869.0 
203.143356 5873.0 
203.179581 15672.0 
205.159119 31110.0 
207.17453 15797.0 
211.058563 4038.0 
211.148407 12710.0 
213.163498 12771.0 
215.179886 18315.0 
217.158508 6970.0 
217.194077 4129.0 
221.15274 4584.0 
221.19072 4164.0 
223.168686 6863.0 
225.163177 10796.0 
227.178329 21735.0 
229.195938 18271.0 
233.190826 11971.0 
241.195648 20888.0 
245.189423 37547.0 
255.209503 25405.0 
263.201111 25531.0 
267.211395 26263.0 
273.221283 94299.0 
281.211243 53970.0 
285.221161 68177.0 
291.231476 94489.0 
303.231628 95173.0 
309.241974 205227.0 
315.886658 4535.0 
321.241913 54099.0 
339.252899 89918.0 
END IONS

BEGIN IONS
PRECURSOR_MZ=307.112
INCHI=InChI=1S/C15H20N2O3S/c1-14(2)11-3-6-15(14,13(18)9-11)10-21(19,20)17-12-4-7-16-8-5-12/h4-5,7-8,11H,3,6,9-10H2,1-2H3,(H,16,17)
SMILES=CC1(C)C2CCC1(CS(=O)(=O)N=c1cc[nH]cc1)C(=O)C2
SCANS=14064
IONMODE=negative
COMPOUND_NAME=7,7-dimethyl-1-{[(4-pyridylamino)sulfonyl]methyl}bicyclo[2.2.1]heptan-2-one M-H
SPECTRUM_ID=CCMSLIB00006699405
50.750401 2238.0 
52.02422 2599.0 
62.522442 2512.0 
63.4482 2299.0 
63.962139 3341.0 
65.014198 14353.0 
74.873917 2399.0 
76.025009 2354.0 
79.957123 18455.0 
81.034622 3653.0 
91.030273 12130.0 
92.037903 1214712.0 
93.0457 422375.0 
102.956886 5163.0 
104.306938 2817.0 
108.032784 3664.0 
118.675941 3052.0 
124.028099 4915.0 
137.09726 17831.0 
149.096512 4101.0 
155.999664 186314.0 
157.007095 4124.0 
163.074387 2682.0 
163.118729 3180.0 
181.087036 14485.0 
187.989365 90199.0 
213.059555 18386.0 
214.365402 2509.0 
214.92659 3289.0 
244.127075 2497.0 
290.219147 2434.0 
307.111969 1320275.0 
END IONS

BEGIN IONS
PRECURSOR_MZ=343.121
INCHI=InChI=1S/C19H18FNO4/c1-12-18(19(23)24-2)16-11-14(22)5-8-17(16)21(12)9-10-25-15-6-3-13(20)4-7-15/h3-8,11,22H,9-10H2,1-2H3
SMILES=COC(=O)c1c(C)n(CCOc2ccc(F)cc2)c2ccc(O)cc12
SCANS=18695
IONMODE=positive
COMPOUND_NAME=methyl 1-[2-(4-fluorophenoxy)ethyl]-5-hydroxy-2-methylindole-3-carboxylate M-e
SPECTRUM_ID=CCMSLIB00006704036
56.522911 2165.0 
65.706398 2064.0 
66.736794 3511.0 
92.369133 3264.0 
104.278328 3333.0 
119.32457 2438.0 
121.052162 3141.0 
131.048691 2952.0 
131.072861 14665.0 
144.081223 3779.0 
146.060089 9199.0 
146.096222 17101.0 
148.038605 3581.0 
149.047394 3677.0 
158.06012 45495.0 
159.067856 71902.0 
160.075272 10656.0 
172.075684 13466.0 
173.047028 25702.0 
173.083649 14848.0 
174.091003 54985.0 
174.353455 2725.0 
176.070374 5881.0 
186.055115 68884.0 
190.086212 14885.0 
200.07019 45561.0 
201.079071 3116.0 
204.065079 3549.0 
205.073181 4221.0 
209.244263 3392.0 
218.08107 615650.0 
220.615448 2855.0 
232.097809 3992.0 
312.103058 9402.0 
343.121033 356563.0 
344.127533 2918.0 
384.752136 2469.0 
608.032532 2436.0 
END IONS

BEGIN IONS
PRECURSOR_MZ=458.171
INCHI=InChI=1S/C26H23N3O5/c1-34-18-12-10-16(11-13-18)24(30)28-22-9-5-3-7-20(22)25(31)29-23(26(32)33)14-17-15-27-21-8-4-2-6-19(17)21/h2-13,15,23,27H,14H2,1H3,(H,28,30)(H,29,31)(H,32,33)
SMILES=COc1ccc(C(=O)Nc2ccccc2C(O)=NC(Cc2c[nH]c3ccccc23)C(=O)O)cc1
SCANS=8749
IONMODE=positive
COMPOUND_NAME=3-indol-3-yl-2-({2-[(4-methoxyphenyl)carbonylamino]phenyl}carbonylamino)propan oic acid M+H
SPECTRUM_ID=CCMSLIB00006694090
53.039009 4009.0 
92.383583 4025.0 
104.296227 4891.0 
118.661461 4786.0 
120.044243 42039.0 
126.983757 2895.0 
130.065231 21092.0 
132.080795 39724.0 
135.043991 882421.0 
144.080399 21417.0 
146.023682 433945.0 
146.059937 142691.0 
147.05513 147413.0 
147.068466 4937.0 
159.091537 22473.0 
170.059799 4127.0 
176.323349 3745.0 
188.070465 741818.0 
202.945114 3658.0 
205.097076 1145667.0 
254.080978 3898514.0 
261.100769 28557.0 
278.128571 29294.0 
306.123444 66818.0 
362.391571 3541.0 
382.753265 4081.0 
458.171112 14237.0 
END IONS

BEGIN IONS
PRECURSOR_MZ=273.15
INCHI=InChI=1S/C17H22O3/c1-16-8-3-9-17(2,15(19)20)14(16)7-5-11-4-6-12(18)10-13(11)16/h4,6,10,14,18H,3,5,7-9H2,1-2H3,(H,19,20)/t14-,16-,17+/m1/s1
SMILES=CC1(C(=O)O)CCCC2(C)c3cc(O)ccc3CCC12
SCANS=21471
IONMODE=negative
COMPOUND_NAME=Podocarpic acid M-H
SPECTRUM_ID=CCMSLIB00006706812
79.829132 2564.0 
82.393517 2612.0 
104.278664 3133.0 
146.576767 2443.0 
158.950974 3525.0 
226.877426 3228.0 
273.149933 3344585.0 
END IONS

BEGIN IONS
PRECURSOR_MZ=474.121
INCHI=InChI=1S/C22H21N5O4S/c1-13-4-6-14(7-5-13)27-20-19(21(29)24-12-23-20)26-22(27)32-11-18(28)25-16-9-8-15(30-2)10-17(16)31-3/h4-10,12H,11H2,1-3H3,(H,25,28)(H,23,24,29)
SMILES=COc1ccc(N=C(O)CSc2nc3c(O)ncnc3n2-c2ccc(C)cc2)c(OC)c1
SCANS=10786
IONMODE=positive
COMPOUND_NAME=N-(2,4-dimethoxyphenyl)-2-[9-(4-methylphenyl)-6-oxohydropurin-8-ylthio]acetami de M+Na
SPECTRUM_ID=CCMSLIB00006696127
55.360538 2475.0 
76.900047 2652.0 
78.446022 3030.0 
85.640106 2725.0 
86.698013 3348.0 
96.810112 2903.0 
165.169861 3254.0 
210.255051 6034.0 
216.063705 4832.0 
236.074738 3172.0 
249.074539 18819.0 
249.524048 3035.0 
266.939728 2821.0 
279.03064 77376.0 
280.038055 70189.0 
289.069519 6988.0 
293.0448 7090.0 
299.02121 3366.0 
321.041046 97386.0 
459.095947 13570.0 
474.119812 3373075.0 
END IONS

BEGIN IONS
PRECURSOR_MZ=276.059
INCHI=InChI=1S/C10H11N3O5/c1-6(9(14)15)11-10(16)12-7-4-2-3-5-8(7)13(17)18/h2-6H,1H3,(H,14,15)(H2,11,12,16)
SMILES=CC(N=C(O)Nc1ccccc1[N+](=O)[O-])C(=O)O
SCANS=11077
IONMODE=positive
COMPOUND_NAME=2-{[N-(2-nitrophenyl)carbamoyl]amino}propanoic acid M+Na
SPECTRUM_ID=CCMSLIB00006696418
55.216999 2605.0 
58.900921 2003.0 
73.948029 2406.0 
75.323273 2551.0 
79.297211 2275.0 
80.638763 2498.0 
82.393402 2928.0 
92.371948 2597.0 
94.621696 2459.0 
96.472527 2192.0 
99.987541 3230.0 
112.036987 588886.0 
119.860123 2299.0 
139.049957 2489.0 
157.563812 2116.0 
159.064743 3181.0 
161.032501 4972.0 
187.011322 10127.0 
208.883255 10801.0 
211.983719 5596.0 
226.893311 16555.0 
229.994781 5592.0 
252.87265 39485.0 
252.977478 18451.0 
257.400299 2299.0 
263.198212 2352.0 
266.951752 2537.0 
271.053711 2401.0 
275.888855 9641.0 
276.05896 245973.0 
276.94812 2398.0 
END IONS

BEGIN IONS
PRECURSOR_MZ=352.084
INCHI=InChI=1S/C15H15N5O2S/c1-9-3-5-10(6-4-9)18-11(21)7-23-15-19-12-13(20(15)2)16-8-17-14(12)22/h3-6,8H,7H2,1-2H3,(H,18,21)(H,16,17,22)
SMILES=Cc1ccc(NC(=O)CSc2nc3c(O)ncnc3n2C)cc1
SCANS=9842
IONMODE=positive
COMPOUND_NAME=2-(9-methyl-6-oxohydropurin-8-ylthio)-N-(4-methylphenyl)acetamide M+Na
SPECTRUM_ID=CCMSLIB00006695183
80.479431 2656.0 
108.49437 2797.0 
118.383102 2494.0 
119.677818 3095.0 
120.361961 2566.0 
170.058014 3177.0 
173.04306 13903.0 
198.737335 2526.0 
202.030273 10980.0 
204.007507 60298.0 
211.550079 4008.0 
213.038071 5468.0 
217.016678 3706.0 
245.009384 34715.0 
318.376617 2804.0 
352.083313 3150956.0 
END IONS

BEGIN IONS
PRECURSOR_MZ=302.534
INCHI=InChI=1S/C17H27N3O17P2/c1-6(22)18-10-13(26)11(24)7(4-21)35-16(10)36-39(31,32)37-38(29,30)33-5-8-12(25)14(27)15(34-8)20-3-2-9(23)19-17(20)28/h2-3,7-8,10-16,21,24-27H,4-5H2,1H3,(H,18,22)(H,29,30)(H,31,32)(H,19,23,28)/t7-,8-,10-,11-,12-,13-,14-,15-,16-/m1/s1
SMILES=CC(O)=N[C@H]1[C@@H](OP(=O)(O)OP(=O)(O)OC[C@H]2O[C@@H](n3ccc(O)nc3=O)[C@H](O)[C@@H]2O)O[C@H](CO)[C@@H](O)[C@@H]1O
SCANS=269
IONMODE=negative
COMPOUND_NAME=UDP-GlcNAc M-2H]
SPECTRUM_ID=CCMSLIB00006685610
73.976898 2543.590088 
78.9589 20136.699219 
86.069099 2062.590088 
92.4067 3238.580078 
96.969498 4315.140137 
104.319 2215.100098 
105.760002 2128.449951 
111.019997 51505.601562 
115.459999 2217.429932 
158.925995 9676.269531 
162.212006 2513.139893 
183.029999 2469.72998 
272.957001 3966.189941 
282.040009 16908.699219 
300.046997 4833.680176 
END IONS

BEGIN IONS
PRECURSOR_MZ=402.168
INCHI=InChI=1S/C23H25NO4/c1-15-9-11-24(12-10-15)13-18-20(25)8-7-17-22(26)19(14-28-23(17)18)16-5-3-4-6-21(16)27-2/h3-8,14-15,25H,9-13H2,1-2H3
SMILES=COc1ccccc1-c1coc2c(CN3CCC(C)CC3)c(O)ccc2c1=O
SCANS=12320
IONMODE=positive
COMPOUND_NAME=F0850-4763 M+Na
SPECTRUM_ID=CCMSLIB00006697661
65.81575 3000.0 
76.319633 3252.0 
86.432213 4498.0 
136.194321 4033.0 
146.234772 3433.0 
149.869888 3080.0 
172.330582 3607.0 
288.043915 3637.0 
301.700745 3510.0 
303.062286 6890006.0 
304.431915 4117.0 
321.073608 45567.0 
338.478302 2983.0 
344.088196 54959.0 
363.113892 3886.0 
402.166656 153210.0 
END IONS

BEGIN IONS
PRECURSOR_MZ=261.052
INCHI=InChI=1S/C15H10O3/c16-11-7-5-10(6-8-11)15-9-13(17)12-3-1-2-4-14(12)18-15/h1-9,16H
SMILES=O=c1cc(-c2ccc(O)cc2)oc2ccccc12
SCANS=15959
IONMODE=positive
COMPOUND_NAME=4'-Hydroxyflavone M+Na
SPECTRUM_ID=CCMSLIB00006701300
54.341961 1767.0 
55.149879 2252.0 
56.965279 2614.0 
61.011311 2632.0 
65.506691 1924.0 
66.733307 2270.0 
79.021049 3163.0 
84.959877 8824.0 
87.070396 1960.0 
87.457443 2078.0 
109.901237 2128.0 
118.633034 2715.0 
192.961487 10787.0 
204.414124 2610.0 
215.14888 2274.0 
234.503098 2154.0 
236.983078 2389.0 
237.907928 4093.0 
237.959091 2773.0 
237.984879 9316.0 
261.051941 95413.0 
261.129242 15401.0 
279.062744 3081.0 
END IONS

BEGIN IONS
PRECURSOR_MZ=321.087
INCHI=InChI=1S/C18H12N2O4/c1-9-6-7-13(22-9)14-11(8-19)17(20)24-16-10-4-2-3-5-12(10)23-18(21)15(14)16/h2-7,14H,20H2,1H3
SMILES=Cc1ccc(C2C(C#N)=C(N)Oc3c2c(=O)oc2ccccc32)o1
SCANS=19938
IONMODE=positive
COMPOUND_NAME=2-amino-4-(5-methyl(2-furyl))-5-oxo-4H-pyrano[3,2-c]chromene-3-carbonitrile M+H
SPECTRUM_ID=CCMSLIB00006705279
50.28495 2353.0 
54.076851 2437.0 
62.7328 2485.0 
79.054787 3447.0 
82.041473 2795.0 
82.384804 3013.0 
83.049492 2883.0 
90.173378 2908.0 
92.364487 3871.0 
93.033836 10813.0 
95.049461 3859.0 
107.049156 15394.0 
109.028748 4926.0 
115.054733 4341.0 
116.049507 3985.0 
119.02404 5447.0 
121.028473 258790.0 
122.031303 4579.0 
128.049362 15971.0 
128.059662 2945.0 
129.069855 3023.0 
131.060791 3987.0 
132.044174 3119.0 
133.028305 2917.0 
135.044037 132192.0 
139.038788 2367.0 
140.049561 14454.0 
141.070343 28583.0 
143.060318 16754.0 
144.044464 93808.0 
145.075989 18579.0 
146.059952 11567.0 
155.06044 15676.0 
156.043869 13033.0 
157.064011 3135.0 
159.056564 19358.0 
163.014084 10789.0 
165.069824 85497.0 
171.05481 21344.0 
173.070847 30077.0 
174.054565 2953.0 
176.274414 2767.0 
178.079559 3090.0 
181.065247 3963.0 
183.05484 4009.0 
184.039322 3433.0 
185.059753 5104.0 
187.07579 3051.0 
191.033844 11936.0 
191.072189 22750.0 
192.080536 44921.0 
199.049408 11122.0 
199.073868 4353.0 
201.06601 60339.0 
204.08168 3470.0 
204.108658 2815.0 
207.028671 5404.0 
209.060547 4628.0 
213.054596 445736.0 
214.965195 2816.0 
227.04599 51371.0 
227.070557 10761.0 
236.070374 62233.0 
239.045013 666116.0 
245.055557 571265.0 
247.085266 4362.0 
252.066498 5512.0 
255.064941 263478.0 
275.080841 3980.0 
278.080292 17764.0 
279.073914 29183.0 
294.075684 4438.0 
303.075958 43721.0 
306.059723 3272.0 
321.086578 239858.0 
321.167542 11285.0 
END IONS

BEGIN IONS
PRECURSOR_MZ=419.135
INCHI=InChI=1S/C21H24O9/c1-28-16-5-4-11(8-15(16)24)2-3-12-6-13(23)9-14(7-12)29-21-20(27)19(26)18(25)17(10-22)30-21/h2-9,17-27H,10H2,1H3/b3-2+/t17-,18-,19+,20-,21-/m1/s1
SMILES=COc1ccc(C=Cc2cc(O)cc(OC3OC(CO)C(O)C(O)C3O)c2)cc1O
SCANS=11191
IONMODE=negative
COMPOUND_NAME=rhapontin M-H
SPECTRUM_ID=CCMSLIB00006696532
51.34935 2713.0 
52.502529 3430.0 
62.172901 2901.0 
70.635712 3121.0 
71.013542 22975.0 
73.02932 3187.0 
74.51841 3314.0 
85.029533 6534.0 
101.024071 19077.0 
104.292236 3486.0 
112.371727 3466.0 
113.024292 13715.0 
118.667664 3983.0 
143.034973 6206.0 
155.187607 3436.0 
161.045715 32438.0 
172.052948 45881.0 
180.057358 6717.0 
183.044418 5448.0 
185.059982 14650.0 
204.042938 32703.0 
213.057022 12080.0 
214.063675 6936.0 
220.912277 3558.0 
224.047852 120228.0 
225.055817 33479.0 
240.041489 5240.0 
241.050583 1111285.0 
242.058411 540618.0 
257.082001 5149216.0 
267.002319 3522.0 
275.09256 40860.0 
299.0896 10650.0 
419.134735 428526.0 
END IONS

BEGIN IONS
PRECURSOR_MZ=266.089
INCHI=InChI=1S/C10H13N5O4/c11-10-13-8-7(9(18)14-10)12-3-15(8)6-1-4(17)5(2-16)19-6/h3-6,16-17H,1-2H2,(H3,11,13,14,18)/t4-,5+,6+/m0/s1
SMILES=N=c1nc(O)c2ncn([C@H]3C[C@H](O)[C@@H](CO)O3)c2[nH]1
SCANS=62
IONMODE=negative
COMPOUND_NAME=2'-deoxyguanosine M-H
SPECTRUM_ID=CCMSLIB00006685403
62.997002 212275.0 
68.664597 197394.0 
70.913902 227988.0 
82.422302 214321.0 
92.3992 184831.0 
104.314003 288604.0 
107.036003 850853.0 
108.019997 1288250.0 
118.690002 264032.0 
133.016006 5204660.0 
150.042007 45845100.0 
151.856003 255982.0 
176.057999 4497020.0 
210.695007 304868.0 
210.714005 255824.0 
253.716995 221960.0 
261.347992 209513.0 
266.089996 41289500.0 
END IONS

BEGIN IONS
PRECURSOR_MZ=196.082
INCHI=InChI=1S/C6H13NO6/c7-3(6(12)13)5(11)4(10)2(9)1-8/h2-5,8-11H,1,7H2,(H,12,13)/t2-,3-,4-,5-/m1/s1
SMILES=N[C@@H](C(=O)O)[C@@H](O)[C@H](O)[C@H](O)CO
SCANS=601
IONMODE=positive
COMPOUND_NAME=D-Glucosaminic acid M+H
SPECTRUM_ID=CCMSLIB00006685942
57.0341 47184.601562 
60.044998 184000.0 
61.028999 16908.800781 
68.050003 104280.0 
69.033897 52518.398438 
70.029404 13930.099609 
72.044998 570475.0 
73.029099 70172.0 
74.0242 318628.0 
80.049797 14862.799805 
84.044998 17086.300781 
85.028801 203290.0 
86.060501 78875.101562 
87.044197 12413.099609 
96.044701 78278.796875 
97.028702 28095.800781 
98.060402 60428.300781 
104.033997 56088.300781 
104.313004 14657.0 
112.039001 29449.699219 
114.055 410455.0 
115.039001 113117.0 
116.07 29452.400391 
124.040001 17696.199219 
132.065002 2667380.0 
133.039001 19507.400391 
133.050003 312418.0 
142.050003 28118.400391 
150.076004 836537.0 
160.059998 102360.0 
178.070999 232963.0 
185.440002 12778.400391 
196.080994 2029280.0 
END IONS

BEGIN IONS
PRECURSOR_MZ=358.133
INCHI=InChI=1S/C17H19N5O2S/c1-3-11-7-5-6-8-12(11)20-13(23)9-25-17-21-14-15(22(17)4-2)18-10-19-16(14)24/h5-8,10H,3-4,9H2,1-2H3,(H,20,23)(H,18,19,24)
SMILES=CCc1ccccc1N=C(O)CSc1nc2c(O)ncnc2n1CC
SCANS=18990
IONMODE=positive
COMPOUND_NAME=2-(9-ethyl-6-oxohydropurin-8-ylthio)-N-(2-ethylphenyl)acetamide M+H
SPECTRUM_ID=CCMSLIB00006704331
58.99538 19463.0 
79.054466 5670.0 
91.054131 4936.0 
93.375618 2909.0 
106.064941 75769.0 
110.035294 4555.0 
110.046967 3862.0 
115.05397 3604.0 
117.057152 14111.0 
117.069397 5755.0 
119.072922 36330.0 
120.0802 6647.0 
122.096512 4895.0 
124.050423 4118.0 
125.016586 6359.0 
126.012466 4659.0 
130.065002 57625.0 
131.685471 3567.0 
132.080795 17381.0 
133.051743 7124.0 
133.92392 3434.0 
134.059753 44387.0 
134.096161 47317.0 
137.04567 268457.0 
142.066071 2738.0 
143.027267 3276.0 
143.073135 13464.0 
144.02272 3591.0 
144.080627 57911.0 
145.088531 11479.0 
148.05098 11489.0 
149.045624 38417.0 
150.053345 12545.0 
150.995819 6258.0 
151.06131 47153.0 
152.027832 26248.0 
153.022781 4972.0 
154.00676 38049.0 
160.075424 35506.0 
161.044922 3849.0 
162.090942 2995.0 
163.061142 3130.0 
164.068298 5494.0 
165.076965 12775.0 
167.001816 12270.0 
168.008301 3808.0 
168.022568 70027.0 
169.01828 13184.0 
172.01738 6999.0 
175.061264 134737.0 
176.069183 25640.0 
177.02243 3273.0 
177.076752 14439.0 
181.017624 1380560.0 
182.038101 4024.0 
193.017563 3330.0 
194.026047 11972.0 
195.033264 593285.0 
197.048401 14111.0 
209.012268 72295.0 
209.048813 1244513.0 
227.058624 6828.0 
237.04361 2671688.0 
250.074417 16766.0 
267.625427 3742.0 
310.245209 3758.0 
340.121338 17943.0 
358.131958 93739.0 
END IONS

BEGIN IONS
PRECURSOR_MZ=359.124
INCHI=InChI=1S/C18H18N2O6/c1-9(2)24-18(23)14-13(10-4-3-5-20-7-10)16-15(26-17(14)19)12(22)6-11(8-21)25-16/h3-7,9,13,21H,8,19H2,1-2H3
SMILES=CC(C)OC(=O)C1=C(N)Oc2c(oc(CO)cc2=O)C1c1cccnc1
SCANS=15746
IONMODE=positive
COMPOUND_NAME=methylethyl 2-amino-6-(hydroxymethyl)-8-oxo-4-(3-pyridyl)-4H-pyrano[3,2-b]pyra n-3-carboxylate M+H
SPECTRUM_ID=CCMSLIB00006701087
50.07288 3350.0 
50.997971 3271.0 
55.018211 6283.0 
67.01815 111520.0 
69.033592 3516.0 
78.034027 5010.0 
80.049637 73773.0 
83.012772 3800.0 
85.028542 4866.0 
92.04969 29989.0 
93.057251 24615.0 
96.044144 14317.0 
96.25618 3169.0 
97.028412 30824.0 
101.023239 19259.0 
104.049316 96410.0 
106.028717 47632.0 
108.044518 12314.0 
111.031578 14149.0 
116.049637 4299.0 
118.647041 3512.0 
120.044159 173466.0 
120.053947 5696.0 
122.023331 4013.0 
124.015518 4178.0 
125.022842 14249.0 
128.049988 3847.0 
129.044907 13279.0 
130.065186 29495.0 
131.060104 7697.0 
132.044189 163085.0 
134.05986 7720.0 
141.044403 13846.0 
142.052948 3479.0 
142.065201 14143.0 
143.060074 21450.0 
144.043869 12259.0 
144.080185 4164.0 
145.075684 8037.0 
146.059799 5548.0 
147.054291 4757.0 
148.039154 21892.0 
148.075592 7782.0 
149.046982 4505.0 
154.065125 18229.0 
155.05983 13748.0 
156.044113 3619.0 
157.039413 84255.0 
158.023407 7247.0 
158.046722 13843.0 
158.059998 34679.0 
159.055054 103137.0 
159.069016 5398.0 
160.039124 6060.0 
168.067856 12859.0 
169.039276 82782.0 
169.0755 61823.0 
170.023163 19060.0 
170.045685 5222.0 
170.05983 68632.0 
171.054932 79958.0 
174.018509 4583.0 
174.05365 6023.0 
175.049866 24768.0 
175.063736 3975.0 
176.033936 5491.0 
176.070969 22446.0 
179.059692 35514.0 
181.039078 12324.0 
181.075455 17256.0 
182.060333 7329.0 
183.055328 27131.0 
185.034164 316728.0 
185.071045 15457.0 
186.055038 82029.0 
187.04982 179342.0 
195.055206 7669.0 
196.062332 5781.0 
197.034866 95354.0 
197.070465 273261.0 
198.055252 37584.0 
199.049667 62992.0 
200.057205 4400.0 
202.050156 14256.0 
203.057419 29840.0 
204.06514 371525.0 
207.054443 32254.0 
208.040329 5938.0 
208.062546 4367.0 
209.070099 7848.0 
211.049301 26732.0 
212.057098 13014.0 
213.029785 6189.0 
213.065445 122313.0 
214.050064 5624.0 
215.044373 25152.0 
215.081253 4075.0 
216.065704 14098.0 
220.023453 61415.0 
223.050583 5548.0 
224.057343 12881.0 
225.040451 6755.0 
225.06517 200350.0 
226.049805 28938.0 
226.07164 4026.0 
228.064499 4181.0 
232.059906 1856845.0 
233.067932 19881.0 
235.049927 21158.0 
237.066223 4482.0 
238.033066 38692.0 
239.041977 4424.0 
241.059937 17135.0 
243.039368 5637.0 
243.075851 34463.0 
244.059631 18976.0 
252.053284 20295.0 
253.059998 440437.0 
254.044266 49697.0 
256.059875 21151.0 
270.06485 4402.0 
271.070496 77668.0 
272.054169 11642.0 
273.087646 3960.0 
281.055115 170824.0 
282.036407 5547.0 
298.058838 7737.0 
299.065399 1406956.0 
300.048004 4031.0 
317.075867 555892.0 
359.122681 2530974.0 
END IONS

BEGIN IONS
PRECURSOR_MZ=273.112
INCHI=InChI=1S/C16H16O4/c1-10-3-5-12(6-4-10)20-9-16(19)13-7-11(2)14(17)8-15(13)18/h3-8,17-18H,9H2,1-2H3
SMILES=Cc1ccc(OCC(=O)c2cc(C)c(O)cc2O)cc1
SCANS=5974
IONMODE=positive
COMPOUND_NAME=1-(2,4-dihydroxy-5-methylphenyl)-2-(4-methylphenoxy)ethan-1-one M+H
SPECTRUM_ID=CCMSLIB00006691315
51.141411 2945.0 
61.304001 3069.0 
65.039146 12932.0 
66.752029 2455.0 
67.054657 4648.0 
68.997437 2768.0 
74.694389 3137.0 
81.070122 18316.0 
91.05442 43359.0 
93.069962 97214.0 
107.048759 3760.0 
109.064842 188365.0 
119.049026 10896.0 
119.060013 4312.0 
121.064812 788660.0 
123.043861 2886.0 
125.059708 46274.0 
129.405411 2536.0 
137.059769 1566705.0 
147.044128 102257.0 
148.051788 184112.0 
149.059723 69775.0 
151.038986 196759.0 
163.039032 11622.0 
165.054672 1690458.0 
166.062408 138373.0 
166.07605 4887.0 
176.260574 2770.0 
180.689194 3160.0 
183.064209 3474.0 
206.081833 3926.0 
227.106537 149290.0 
238.450012 4984.0 
255.10141 306153.0 
273.111847 413941.0 
273.167023 13742.0 
END IONS

BEGIN IONS
PRECURSOR_MZ=665.1
INCHI=InChI=1S/C21H26N6O15P2/c22-17(32)9-2-1-3-26(4-9)20-15(30)13(28)10(40-20)5-38-43(34,35)42-44(36,37)39-6-11-14(29)16(31)21(41-11)27-8-25-12-18(27)23-7-24-19(12)33/h1-4,7-8,10-11,13-16,20-21,28-31H,5-6H2,(H4-,22,23,24,32,33,34,35,36,37)/p+1/t10-,11-,13-,14-,15-,16-,20-,21-/m1/s1
SMILES=N=C(O)c1ccc[n+]([C@@H]2O[C@H](COP(=O)(O)OP(=O)(O)OC[C@H]3O[C@@H](n4cnc5c(O)ncnc54)[C@H](O)[C@@H]3O)[C@@H](O)[C@H]2O)c1
SCANS=24492
IONMODE=positive
COMPOUND_NAME=Nicotinamide hypoxanthine dinucleotide M-e
SPECTRUM_ID=CCMSLIB00006709833
64.191002 3220.879883 
69.034203 12560.099609 
92.390099 3820.679932 
97.028801 691711.0 
104.297997 3036.810059 
105.734001 3089.080078 
123.055 89065.203125 
137.046005 200353.0 
141.796997 3229.469971 
167.371994 3449.620117 
193.050003 14929.5 
219.076004 4785.109863 
233.065994 455704.0 
273.015015 4088.449951 
321.079987 3174.939941 
329.703003 3246.790039 
370.992004 22398.300781 
389.002991 4625.569824 
407.013 3249.639893 
415.029999 14906.400391 
462.747009 3715.389893 
467.109009 3725.449951 
511.049988 3835.340088 
525.041992 21021.099609 
529.059998 48754.199219 
543.051025 300897.0 
665.098022 121281.0 
END IONS

BEGIN IONS
PRECURSOR_MZ=401.045
INCHI=InChI=1S/C21H14O5S/c1-24-15-9-4-3-8-14(15)19-20(26-21(23)17-11-6-12-27-17)18(22)13-7-2-5-10-16(13)25-19/h2-12H,1H3
SMILES=COc1ccccc1-c1oc2ccccc2c(=O)c1OC(=O)c1cccs1
SCANS=12530
IONMODE=positive
COMPOUND_NAME=2-(2-methoxyphenyl)-4-oxochromen-3-yl thiophene-2-carboxylate M+Na
SPECTRUM_ID=CCMSLIB00006697871
74.713951 2373.0 
92.364708 2665.0 
112.818512 2340.0 
119.971413 3212.0 
136.191895 3025.0 
142.77803 2762.0 
195.191452 2783.0 
208.972794 9569.0 
309.819305 2567.0 
365.467499 3415.0 
383.288086 2831.0 
401.044525 1486293.0 
END IONS

BEGIN IONS
PRECURSOR_MZ=440.074
INCHI=InChI=1S/C23H15NO7/c1-29-17-12-8-14(9-13-17)21-22(20(25)18-4-2-3-5-19(18)30-21)31-23(26)15-6-10-16(11-7-15)24(27)28/h2-13H,1H3
SMILES=COc1ccc(-c2oc3ccccc3c(=O)c2OC(=O)c2ccc([N+](=O)[O-])cc2)cc1
SCANS=6078
IONMODE=positive
COMPOUND_NAME=2-(4-methoxyphenyl)-4-oxochromen-3-yl 4-nitrobenzoate M+Na
SPECTRUM_ID=CCMSLIB00006691419
77.987457 2250.0 
78.778976 2338.0 
82.391632 3707.0 
84.971802 2245.0 
92.367996 3288.0 
110.989647 12098.0 
115.776909 2562.0 
118.64389 2736.0 
125.098244 2346.0 
125.363403 2838.0 
137.355392 2462.0 
150.018585 39093.0 
151.667557 2734.0 
157.921371 2808.0 
163.80896 2594.0 
168.964737 365593.0 
170.962677 359584.0 
193.874725 2876.0 
329.167145 2422.0 
343.049805 4840.0 
359.996948 5533.0 
393.079224 17637.0 
439.924469 436091.0 
440.072906 489697.0 
440.408966 13727.0 
440.56958 27235.0 
481.098053 10823.0 
489.406616 2769.0 
509.284698 3044.0 
731.12384 10743.0 
END IONS

BEGIN IONS
PRECURSOR_MZ=318.11
INCHI=InChI=1S/C15H17N3O5/c1-21-12-6-10(7-13(22-2)15(12)23-3)8-16-14-5-4-11(9-17-14)18(19)20/h4-7,9H,8H2,1-3H3,(H,16,17)
SMILES=COc1cc(CN=c2ccc([N+](=O)[O-])c[nH]2)cc(OC)c1OC
SCANS=3556
IONMODE=negative
COMPOUND_NAME=(5-nitro(2-pyridyl))[(3,4,5-trimethoxyphenyl)methyl]amine M-H
SPECTRUM_ID=CCMSLIB00006688897
56.166828 2929.0 
69.371696 3035.0 
79.195389 2793.0 
94.017097 6350.0 
112.98539 18024.0 
113.988876 7654.0 
119.024803 55200.0 
120.010696 5450.0 
120.020027 140609.0 
122.01207 37416.0 
136.014786 30559.0 
137.02272 69548.0 
138.03038 16087.0 
178.051193 23306.0 
180.065979 6488.0 
197.072052 7305.0 
211.051392 11720.0 
213.066116 3680.0 
218.055313 13995.0 
227.045975 3505.0 
227.081619 4505.0 
229.06279 5078.0 
241.059464 27379.0 
242.070236 27521.0 
243.040649 19267.0 
245.056442 136635.0 
255.0784 12043.0 
255.592941 3123.0 
257.04483 13294.0 
257.092468 30395.0 
258.02597 4662.0 
258.06308 39738.0 
259.071442 21075.0 
260.078979 20018.0 
270.051331 5380.0 
272.067352 42896.0 
273.038635 500362.0 
273.085938 54258.0 
274.084778 13218.0 
286.048706 3510.0 
286.081085 9649.0 
287.053986 36592.0 
288.062256 1469790.0 
302.077728 452901.0 
303.085632 294409.0 
316.628387 4924.0 
318.1091 5728858.0 
END IONS

BEGIN IONS
PRECURSOR_MZ=344.082
INCHI=InChI=1S/C15H15N5O3S/c1-20-13-12(14(22)17-8-16-13)19-15(20)24-7-11(21)18-9-3-5-10(23-2)6-4-9/h3-6,8H,7H2,1-2H3,(H,18,21)(H,16,17,22)
SMILES=COc1ccc(NC(=O)CSc2nc3c(O)ncnc3n2C)cc1
SCANS=9641
IONMODE=negative
COMPOUND_NAME=N-(4-methoxyphenyl)-2-(9-methyl-6-oxohydropurin-8-ylthio)acetamide M-H
SPECTRUM_ID=CCMSLIB00006694982
51.82505 2373.0 
52.711979 2298.0 
57.19635 2132.0 
57.221439 2118.0 
60.330971 2406.0 
69.047211 2058.0 
71.258682 2113.0 
73.96962 2631.0 
118.68438 2584.0 
131.267258 2301.0 
136.238434 2780.0 
138.378677 2630.0 
142.100266 2380.0 
149.046555 203952.0 
152.029129 3492.0 
156.090515 2848.0 
163.882324 2312.0 
165.042175 3561.0 
173.077927 2492.0 
179.004395 15468.0 
180.010818 250453.0 
181.018631 90732.0 
193.01915 5186.0 
194.027695 51947.0 
195.034286 57986.0 
221.013916 38629.0 
255.075699 4654.0 
270.099854 28944.0 
344.082153 366834.0 
346.451324 2934.0 
END IONS

BEGIN IONS
PRECURSOR_MZ=365.105
INCHI=InChI=1S/C12H22O11/c13-1-4-6(15)8(17)9(18)11(22-4)21-2-5-7(16)10(19)12(20,3-14)23-5/h4-11,13-20H,1-3H2/t4-,5-,6-,7-,8+,9-,10+,11+,12?/m1/s1
SMILES=OC[C@H]1O[C@H](OC[C@H]2OC(O)(CO)[C@@H](O)[C@@H]2O)[C@H](O)[C@@H](O)[C@@H]1O
SCANS=24271
IONMODE=positive
COMPOUND_NAME=Palatinose M+Na
SPECTRUM_ID=CCMSLIB00006709612
56.639801 2423.97998 
59.081799 2401.709961 
61.206799 2361.699951 
66.752403 2330.679932 
92.390999 4005.02002 
98.148598 2733.620117 
100.386002 2339.580078 
127.581001 2171.439941 
142.248001 2456.27002 
146.535004 2701.570068 
157.996994 2691.0 
203.052994 28032.099609 
275.072998 14838.5 
365.105011 740361.0 
END IONS

BEGIN IONS
PRECURSOR_MZ=458.057
INCHI=InChI=1S/C20H22BrNO5/c1-4-27-20(25)16-10(2)22-13-6-5-7-14(23)18(13)17(16)11-8-12(21)19(24)15(9-11)26-3/h8-9,17,22,24H,4-7H2,1-3H3
SMILES=CCOC(=O)C1=C(C)NC2=C(C(=O)CCC2)C1c1cc(Br)c(O)c(OC)c1
SCANS=7676
IONMODE=positive
COMPOUND_NAME=ethyl 4-(3-bromo-4-hydroxy-5-methoxyphenyl)-2-methyl-5-oxo-1,4,6,7,8-pentahydr oquinoline-3-carboxylate M+Na
SPECTRUM_ID=CCMSLIB00006693017
66.743492 3224.0 
68.437134 2867.0 
73.954109 3420.0 
82.400299 3355.0 
104.287407 3775.0 
106.05648 4081.0 
117.770828 3355.0 
136.214035 4000.0 
145.537201 3457.0 
157.976608 4616.0 
234.111954 20131.0 
416.035461 12967.0 
437.537598 30795.0 
438.037842 4462.0 
455.528992 6652.0 
458.057098 7472363.0 
467.061279 3340.0 
476.066833 56094.0 
499.083008 196637.0 
500.08255 4887.0 
518.11792 3547.0 
END IONS

BEGIN IONS
PRECURSOR_MZ=464.158
INCHI=InChI=1S/C26H23N3O4/c1-16-10-12-17(13-11-16)24(30)28-22-9-5-3-7-20(22)25(31)29-23(26(32)33)14-18-15-27-21-8-4-2-6-19(18)21/h2-13,15,23,27H,14H2,1H3,(H,28,30)(H,29,31)(H,32,33)
SMILES=Cc1ccc(C(=O)Nc2ccccc2C(O)=NC(Cc2c[nH]c3ccccc23)C(=O)O)cc1
SCANS=20362
IONMODE=positive
COMPOUND_NAME=3-indol-3-yl-2-({2-[(4-methylphenyl)carbonylamino]phenyl}carbonylamino)propano ic acid M+Na
SPECTRUM_ID=CCMSLIB00006705703
69.485283 3200.0 
91.054176 12421.0 
92.384857 3339.0 
92.487534 2790.0 
96.005417 27927.0 
113.883392 2539.0 
116.251442 2854.0 
118.064987 4307.0 
118.659187 3235.0 
119.04921 155708.0 
119.05912 5511.0 
120.044197 20317.0 
120.556442 2814.0 
130.065567 4027.0 
132.080566 4832.0 
144.081009 4398.0 
146.023712 84824.0 
146.059921 28359.0 
147.055176 11420.0 
159.091782 4726.0 
165.590103 2992.0 
181.073761 12448.0 
182.057129 22664.0 
188.070099 3153.0 
201.832062 2852.0 
210.052933 30829.0 
227.07901 459301.0 
238.085983 62574.0 
259.084686 15216.0 
260.067627 13091.0 
277.096863 3801.0 
278.078583 250527.0 
328.107117 13144.0 
464.158051 2437692.0 
END IONS

BEGIN IONS
PRECURSOR_MZ=189.021
INCHI=InChI=1S/C6H6N4S/c1-11-6-4-5(8-2-7-4)9-3-10-6/h2-3H,1H3,(H,7,8,9,10)
SMILES=CSc1ncnc2[nH]cnc12
SCANS=12905
IONMODE=positive
COMPOUND_NAME=6-(Methylthio)purine M+Na
SPECTRUM_ID=CCMSLIB00006698246
56.965199 125793.0 
56.968239 5388.0 
61.01104 9446.0 
62.01852 2375.0 
62.990311 3915.0 
63.519699 2737.0 
63.691441 2655.0 
66.728706 2691.0 
67.993767 2753.0 
70.98069 12995.0 
71.95208 17703.0 
72.937477 5554.0 
73.937157 2596.0 
74.975632 10981.0 
76.998642 6003.0 
77.637848 2454.0 
78.013947 3416.0 
79.021423 42836.0 
84.960068 3683.0 
86.003693 5848.0 
104.480003 2196.0 
108.99424 5654.0 
110.011528 2439.0 
113.007103 4823.0 
117.021439 2478.0 
117.999527 5964.0 
119.918694 36374.0 
122.012337 10002.0 
127.004204 64035.0 
131.008698 4636.0 
136.009781 542721.0 
136.511444 26237.0 
137.012085 5395.0 
137.929535 19549.0 
138.013458 3875.0 
140.489426 10154.0 
145.015076 621786.0 
145.51709 44072.0 
146.016693 4774.0 
147.517639 25211.0 
148.000168 31706.0 
149.494232 56719.0 
149.996338 3404.0 
150.010529 3062.0 
150.031204 45347.0 
154.020264 50725.0 
154.521805 3048.0 
155.939911 12363.0 
156.523209 16637.0 
157.006104 171663.0 
157.020981 5839.0 
157.508102 12282.0 
158.499649 459604.0 
159.001465 35710.0 
159.017487 16359.0 
160.497803 3680.0 
161.002014 5347.0 
166.011398 1006452.0 
166.512924 86343.0 
167.01387 4924.0 
167.504868 271134.0 
168.00679 25894.0 
168.514053 17938.0 
170.007248 20876.0 
173.950348 3257.0 
175.016647 235451.0 
175.518204 16920.0 
177.51944 69242.0 
178.025787 260308.0 
179.013168 6014.0 
179.030029 14742.0 
184.020523 3640.0 
186.524216 9210.0 
187.035065 4754.0 
189.020218 238781.0 
189.095718 3521.0 
234.819214 2704.0 
253.001999 4913.0 
271.014679 3482.0 
291.634155 2827.0 
294.631226 2832.0 
331.911163 3195.0 
END IONS

BEGIN IONS
PRECURSOR_MZ=539.098
INCHI=InChI=1S/C15H10O5/c16-10-4-2-1-3-8(10)13-7-12(18)9-5-6-11(17)14(19)15(9)20-13/h1-7,16-17,19H
SMILES=O=c1cc(-c2ccccc2O)oc2c(O)c(O)ccc12
SCANS=4831
IONMODE=negative
COMPOUND_NAME=7,8,2'-Trihydroxyflavone 2M-H
SPECTRUM_ID=CCMSLIB00006690172
51.653549 2681.0 
82.384827 2641.0 
104.269997 3818.0 
108.375252 2759.0 
149.02449 83190.0 
208.865906 11811.0 
269.045776 738995.0 
END IONS

BEGIN IONS
PRECURSOR_MZ=177.055
INCHI=InChI=1S/C10H10O4/c1-14-9-6-7(2-4-8(9)11)3-5-10(12)13/h2-6,11H,1H3,(H,12,13)/b5-3+
SMILES=COc1cc(C=CC(=O)O)ccc1O
SCANS=20483
IONMODE=positive
COMPOUND_NAME=ferulic acid M+H-H2O
SPECTRUM_ID=CCMSLIB00006705824
53.002609 2608.0 
53.039028 7000.0 
55.93478 37610.0 
56.965172 13199.0 
63.023651 16341.0 
69.608147 2614.0 
70.958237 3141.0 
72.937553 6335.0 
74.160583 2597.0 
77.038429 2655.0 
78.046669 30740.0 
79.05455 14499.0 
84.959244 3161.0 
88.968643 10523.0 
89.038643 811044.0 
90.947533 6146.0 
91.05426 74898.0 
93.069893 13317.0 
95.04882 11264.0 
103.054077 44135.0 
105.033813 3282.0 
106.041168 59773.0 
107.048866 5400.0 
107.94986 3577.0 
108.957916 3221.0 
117.033363 1931552.0 
117.93412 3693.0 
119.048973 15491.0 
121.064392 17976.0 
124.05162 32846.0 
125.960518 6309.0 
128.950607 35636.0 
129.045517 2807.0 
131.048645 3258.0 
134.036057 244024.0 
135.043793 224960.0 
135.944839 19479.0 
145.028229 2521425.0 
146.961075 28109.0 
147.043854 4612.0 
149.011749 13933.0 
149.059479 770855.0 
153.936218 3383.0 
153.955826 15672.0 
158.059509 14585.0 
158.960678 5056.0 
162.030762 63101.0 
163.038681 127642.0 
167.021973 3250.0 
177.054306 1047028.0 
186.054764 44146.0 
226.196091 2919.0 
288.896606 3063.0 
292.695831 2847.0 
END IONS

BEGIN IONS
PRECURSOR_MZ=472.068
INCHI=InChI=1S/C22H21BrFN3O3/c1-3-26(4-2)22(30)16-12-21(29)27(19-8-6-5-7-15(16)19)13-20(28)25-18-10-9-14(23)11-17(18)24/h5-12H,3-4,13H2,1-2H3,(H,25,28)
SMILES=CCN(CC)C(=O)c1cc(=O)n(CC(O)=Nc2ccc(Br)cc2F)c2ccccc12
SCANS=23338
IONMODE=negative
COMPOUND_NAME=2-[4-(N,N-diethylcarbamoyl)-2-oxohydroquinolyl]-N-(4-bromo-2-fluorophenyl)acet amide M-H
SPECTRUM_ID=CCMSLIB00006708679
56.40398 2639.0 
62.87923 3085.0 
76.024719 3088.0 
78.918648 689563.0 
82.421791 3371.0 
92.401077 2992.0 
100.981087 2621.0 
109.15696 2620.0 
111.857224 2646.0 
128.050552 190042.0 
130.066559 11547.0 
131.03746 5393.0 
142.066666 5288.0 
144.045517 71005.0 
144.082718 4199.0 
146.061249 28984.0 
155.038437 3795.0 
156.045532 49222.0 
157.053345 63376.0 
157.067123 3417.0 
158.061264 3262.0 
169.041382 4186.0 
172.040405 52982.0 
174.05629 19936.0 
183.032562 3794.0 
184.040405 187166.0 
187.95166 61014.0 
196.063797 4714.0 
200.036514 3633.0 
208.542755 12382.0 
215.082794 15407.0 
215.119278 6454.0 
225.103195 4355.0 
229.134888 12739.0 
241.099609 5364.0 
243.113876 214341.0 
257.129517 29400.0 
259.108795 12449.0 
268.110168 16102.0 
283.108429 31713.0 
320.6875 2763.0 
324.996979 4531.0 
345.045898 3232.0 
375.126129 3416.0 
396.03653 4373.0 
424.067413 35470.0 
452.061707 526298.0 
472.067902 507728.0 
END IONS

BEGIN IONS
PRECURSOR_MZ=115.004
INCHI=InChI=1S/C4H4O4/c5-3(6)1-2-4(7)8/h1-2H,(H,5,6)(H,7,8)/b2-1-
SMILES=O=C(O)/C=C\C(=O)O
SCANS=23721
IONMODE=negative
COMPOUND_NAME=maleic acid M-H
SPECTRUM_ID=CCMSLIB00006709062
64.800598 183036.0 
66.767502 233554.0 
71.013496 33205900.0 
73.835197 181625.0 
92.410896 237034.0 
96.041801 193901.0 
104.327003 234604.0 
115.003998 2163110.0 
END IONS

BEGIN IONS
PRECURSOR_MZ=366.168
INCHI=InChI=1S/C20H25NO4/c1-5-6-7-14-8-10-16(11-9-14)21-20(22)15-12-17(23-2)19(25-4)18(13-15)24-3/h8-13H,5-7H2,1-4H3,(H,21,22)
SMILES=CCCCc1ccc(NC(=O)c2cc(OC)c(OC)c(OC)c2)cc1
SCANS=14461
IONMODE=positive
COMPOUND_NAME=N-(4-butylphenyl)(3,4,5-trimethoxyphenyl)carboxamide M+Na
SPECTRUM_ID=CCMSLIB00006699802
59.134449 2135.0 
82.408707 1987.0 
92.387962 3029.0 
104.297089 3145.0 
126.740837 2745.0 
136.224594 2554.0 
165.395554 2416.0 
366.166718 1318843.0 
384.178833 5155.0 
END IONS

BEGIN IONS
PRECURSOR_MZ=355.009
INCHI=InChI=1S/C17H13BrN2O2/c18-14-11-20(17(22)19-16(14)21)15(12-7-3-1-4-8-12)13-9-5-2-6-10-13/h1-11,15H,(H,19,21,22)
SMILES=O=c1nc(O)c(Br)cn1C(c1ccccc1)c1ccccc1
SCANS=11583
IONMODE=negative
COMPOUND_NAME=1-(diphenylmethyl)-5-bromo-1,3-dihydropyrimidine-2,4-dione M-H
SPECTRUM_ID=CCMSLIB00006696924
51.54871 2171.0 
56.053951 2386.0 
61.49765 2161.0 
70.679741 2448.0 
78.918716 19382.0 
82.419281 3004.0 
88.431374 2509.0 
133.021484 2229.0 
165.946518 2220.0 
172.935532 15569.0 
187.92218 5541.0 
204.990204 3091.0 
266.986481 3457.0 
269.291077 2334.0 
270.982544 3768.0 
290.989471 2647.0 
294.981812 3605.0 
296.254791 2540.0 
314.988129 5075.0 
334.994659 5269.0 
355.010773 851206.0 
355.253479 8982.0 
END IONS

BEGIN IONS
PRECURSOR_MZ=369.17
INCHI=InChI=1S/C22H26O6/c1-23-17-7-5-13(9-19(17)25-3)21-15-11-28-22(16(15)12-27-21)14-6-8-18(24-2)20(10-14)26-4/h5-10,15-16,21-22H,11-12H2,1-4H3/t15?,16?,21-,22-/m1/s1
SMILES=COc1ccc(C2OCC3C(c4ccc(OC)c(OC)c4)OCC23)cc1OC
SCANS=8588
IONMODE=positive
COMPOUND_NAME=CHEMBL1726879 M+H-H2O
SPECTRUM_ID=CCMSLIB00006693929
54.09454 2784.0 
55.941021 2866.0 
57.22715 2681.0 
62.742088 3003.0 
71.049561 5531.0 
75.044197 4032.0 
136.051666 37106.0 
139.075317 10800.0 
148.052399 2936.0 
149.059174 3182.0 
150.869797 3004.0 
151.075241 728852.0 
163.074951 15536.0 
165.054581 17621.0 
165.090881 51697.0 
167.070282 12944.0 
172.088348 19211.0 
174.067551 26377.0 
175.075027 5999.0 
177.091003 28235.0 
179.070023 99733.0 
181.086273 14476.0 
188.082886 59743.0 
189.090836 207439.0 
190.098923 5217.0 
191.070282 67169.0 
191.10614 38033.0 
193.085724 29237.0 
200.167084 3132.0 
201.090805 231939.0 
203.106461 106413.0 
205.085709 6219.0 
213.090637 18875.0 
215.106155 6313.0 
224.082794 12254.0 
231.101212 188338.0 
245.096436 4063.0 
253.085312 14538.0 
255.100723 70699.0 
261.09198 12709.0 
262.099426 6572.0 
267.100647 3785.0 
268.076019 4402.0 
268.108704 124198.0 
269.080322 24359.0 
273.090027 4720.0 
275.106445 5729.0 
276.113678 16841.0 
277.089172 4667.0 
277.120544 26258.0 
283.095947 159852.0 
284.103638 100282.0 
284.138519 3356.0 
288.114594 16999.0 
289.086334 9722.0 
289.121033 60364.0 
292.111145 10656.0 
293.117126 40064.0 
294.122284 5828.0 
295.096283 4117.0 
296.102783 14475.0 
298.119385 750256.0 
299.127197 354698.0 
304.1091 13917.0 
305.116516 126375.0 
306.127106 3587.0 
307.132141 30213.0 
308.140381 28828.0 
309.111298 19777.0 
309.146362 3968.0 
311.127136 176630.0 
311.168091 6238.0 
313.143585 5480.0 
319.13205 132062.0 
320.140045 298566.0 
321.11145 58173.0 
321.150116 5609.0 
323.127289 7015.0 
324.135254 91405.0 
325.142792 24122.0 
335.127258 11826.0 
336.13446 97078.0 
337.142639 6480.0 
338.15033 6025.0 
339.158386 160282.0 
341.17392 56265.0 
351.158295 768614.0 
369.168884 1220457.0 
END IONS

BEGIN IONS
PRECURSOR_MZ=431.277
INCHI=InChI=1S/C24H40O5/c1-13(4-7-21(28)29)16-5-6-17-22-18(12-20(27)24(16,17)3)23(2)9-8-15(25)10-14(23)11-19(22)26/h13-20,22,25-27H,4-12H2,1-3H3,(H,28,29)/t13-,14+,15-,16-,17+,18+,19-,20+,22+,23+,24-/m1/s1
SMILES=C[C@H](CCC(=O)O)[C@H]1CC[C@H]2[C@H]3[C@H](C[C@H](O)[C@@]21C)[C@@]1(C)CC[C@@H](O)C[C@H]1C[C@H]3O
SCANS=918
IONMODE=positive
COMPOUND_NAME=cholic acid M+Na
SPECTRUM_ID=CCMSLIB00006686259
61.6633 3371.320068 
92.418701 3614.419922 
118.704002 4195.149902 
211.431 4561.120117 
225.031998 3398.26001 
313.125 3920.620117 
431.276001 3103160.0 
END IONS

BEGIN IONS
PRECURSOR_MZ=243.088
INCHI=InChI=1S/C12H10N4O2/c1-5-3-7-8(4-6(5)2)14-10-9(13-7)11(17)16-12(18)15-10/h3-4H,1-2H3,(H2,14,15,16,17,18)
SMILES=Cc1cc2nc3nc(O)nc(O)c3nc2cc1C
SCANS=3375
IONMODE=positive
COMPOUND_NAME=lumichrome M+H
SPECTRUM_ID=CCMSLIB00006688716
56.043991 352363.0 
56.195309 350152.0 
58.843658 306697.0 
66.006622 315831.0 
66.74353 340593.0 
69.650574 317784.0 
92.380859 441290.0 
113.941902 368327.0 
122.284866 383577.0 
123.824539 324341.0 
172.0867 25915874.0 
190.097244 1555263.0 
198.065979 2704239.0 
200.081665 8633031.0 
212.735214 468776.0 
216.052658 823573.0 
216.076553 25624064.0 
218.092499 520057.0 
243.087311 298989568.0 
244.071152 2797405.0 
END IONS

BEGIN IONS
PRECURSOR_MZ=453.182
INCHI=InChI=1S/C27H24N2O2/c1-31-21-14-12-20(13-15-21)27-26-23(22-9-5-6-10-24(22)28-26)17-18-29(27)25(30)16-11-19-7-3-2-4-8-19/h2-16,27-28H,17-18H2,1H3/b16-11+
SMILES=COc1ccc(C2c3[nH]c4ccccc4c3CCN2C(=O)C=Cc2ccccc2)cc1
SCANS=20425
IONMODE=negative
COMPOUND_NAME=(2E)-1-[1-(4-methoxyphenyl)(1,2,3,4-tetrahydrobeta-carbolin-2-yl)]-3-phenylpro p-2-en-1-one M+formate
SPECTRUM_ID=CCMSLIB00006705766
65.550148 2480.0 
66.774117 3522.0 
69.982063 2405.0 
70.149017 2710.0 
73.987663 3072.0 
75.446648 2678.0 
112.985718 190439.0 
122.401451 2594.0 
146.061554 3291.0 
154.633957 2900.0 
154.994141 2853.0 
158.048996 2582.0 
168.991241 2623.0 
172.076904 2695.0 
174.877182 2878.0 
180.973419 38258.0 
232.076752 223818.0 
233.084641 423134.0 
248.107895 81746.0 
248.960709 69828.0 
261.104584 3900.0 
266.986725 4800.0 
268.721405 3391.0 
275.118195 8641.0 
275.877441 3032.0 
286.111023 4173.0 
316.94696 11053.0 
316.984039 12463.0 
366.980072 25480.0 
373.381744 3270.0 
407.176575 423290.0 
432.972717 23414.0 
452.978851 30193.0 
454.482697 2862.0 
474.178925 2519.0 
636.483276 2973.0 
END IONS

BEGIN IONS
PRECURSOR_MZ=370.074
INCHI=InChI=1S/C15H14FN5O2S/c1-8-17-13-12(14(23)18-8)20-15(21(13)2)24-7-11(22)19-10-5-3-4-9(16)6-10/h3-6H,7H2,1-2H3,(H,19,22)(H,17,18,23)
SMILES=Cc1nc(O)c2nc(SCC(O)=Nc3cccc(F)c3)n(C)c2n1
SCANS=5593
IONMODE=positive
COMPOUND_NAME=2-(2,9-dimethyl-6-oxohydropurin-8-ylthio)-N-(3-fluorophenyl)acetamide M+Na
SPECTRUM_ID=CCMSLIB00006690934
67.977661 3204.0 
73.943573 3028.0 
82.387398 3687.0 
92.365387 3374.0 
118.638962 3583.0 
120.211403 2858.0 
121.429382 2599.0 
129.950974 3216.0 
136.194305 3219.0 
154.783051 3128.0 
187.059219 32857.0 
218.022827 268462.0 
227.054855 3629.0 
231.031723 3733.0 
259.024963 26491.0 
311.949585 3092.0 
367.83902 3050.0 
370.0737 6759244.0 
END IONS

BEGIN IONS
PRECURSOR_MZ=382.107
INCHI=InChI=1S/C16H19N3O6S/c1-8(9-5-10(23-2)14(25-4)11(6-9)24-3)18-19-16-17-15(22)12(26-16)7-13(20)21/h5-6,12H,7H2,1-4H3,(H,20,21)(H,17,19,22)/b18-8+
SMILES=COc1cc(C(C)=NN=C2N=C(O)C(CC(=O)O)S2)cc(OC)c1OC
SCANS=7302
IONMODE=positive
COMPOUND_NAME=2-{2-[(2E)-3-(3,4,5-trimethoxyphenyl)-1,2-diazabut-2-enylidene]-4-oxo-1,3-thia zolidin-5-yl}acetic acid M+H
SPECTRUM_ID=CCMSLIB00006692643
53.039089 29466.0 
55.054661 6268.0 
55.17334 5028.0 
57.03389 5589.0 
58.99543 46176.0 
64.949348 5281.0 
65.038963 39689.0 
66.046204 7596.0 
67.018127 5965.0 
67.054604 11288.0 
67.734169 4870.0 
68.997368 5680.0 
69.033798 26801.0 
71.049294 6094.0 
74.006233 58074.0 
74.990219 11726.0 
75.001701 6020.0 
75.044357 43260.0 
77.039047 8939.0 
78.046783 6009.0 
79.054459 371972.0 
81.033623 96034.0 
81.070068 214228.0 
82.041237 8148.0 
83.049507 36990.0 
85.028816 10286.0 
86.989952 7661.0 
91.054153 24213.0 
93.032944 7529.0 
94.041527 40610.0 
95.049393 41100.0 
96.01992 5121.0 
96.057007 105027.0 
96.910301 5492.0 
97.028397 7508.0 
97.064873 8027.0 
98.023582 22235.0 
98.035698 7214.0 
99.043983 8899.0 
100.021347 6094.0 
101.016808 53162.0 
102.000671 210968.0 
102.98484 95074.0 
102.996002 12846.0 
104.31041 5269.0 
106.04142 5877.0 
107.04879 28461.0 
108.056732 60867.0 
109.028419 27524.0 
109.056183 10554.0 
109.064697 315864.0 
111.044197 6918.0 
111.080353 91789.0 
111.221573 5157.0 
113.023117 105459.0 
113.059402 60987.0 
116.027779 44218.0 
121.027924 12494.0 
121.064827 6139.0 
122.03595 205577.0 
123.043823 10825.0 
124.051682 366237.0 
125.02346 9153.0 
125.059563 21915.0 
126.995827 21927.0 
127.039009 10357.0 
128.046585 203803.0 
129.011551 13401.0 
130.980743 5564.0 
134.096069 7370.0 
135.043518 9047.0 
136.250183 6948.0 
137.023361 32727.0 
137.059616 10432.0 
139.07518 838521.0 
141.017899 205248.0 
142.04364 6851.0 
143.06958 54668.0 
145.006409 333161.0 
148.075653 25812.0 
149.058929 5850.0 
151.026764 5357.0 
151.038818 47128.0 
152.046616 1010781.0 
153.054382 6652.0 
154.991043 5978.0 
155.034012 10344.0 
156.041534 377031.0 
157.006851 58151.0 
162.054718 33734.0 
162.090698 36798.0 
164.070175 45856.0 
165.055878 6155.0 
167.070038 54000.0 
168.021851 82631.0 
170.057663 20029.0 
171.064896 10310.0 
173.001144 9240.0 
175.016235 36559.0 
175.0634 19399.0 
176.070221 38487.0 
178.049057 35895.0 
178.086212 113487.0 
180.06424 10030.0 
180.102249 9337.0 
181.085648 174537.0 
182.318222 6532.0 
184.036118 32603.0 
185.080185 101598.0 
185.122879 6035.0 
193.072647 55619.0 
193.086487 52875.0 
194.08078 224813.0 
195.086319 38368.0 
196.016907 8136.0 
208.096542 5873034.0 
209.104721 276089.0 
209.407654 8135.0 
209.428375 11195.0 
210.110931 41754.0 
214.027695 766547.0 
223.108612 10189.0 
235.070908 11766.0 
250.11824 113027.0 
252.068054 8234.0 
265.061249 6758.0 
267.079468 21868.0 
282.091278 9922.0 
283.934448 6303.0 
289.104462 21569.0 
295.071075 6424.0 
303.197144 17975.0 
319.080597 6894.0 
322.085968 39358.0 
336.099609 64752.0 
340.012756 6430.0 
348.066528 5740.0 
364.094971 315159.0 
365.07962 7444.0 
367.083191 9320.0 
382.105835 17889524.0 
END IONS

BEGIN IONS
PRECURSOR_MZ=233.092
INCHI=InChI=1S/C12H12N2O3/c1-2-17-11(15)8-14-12(16)10-6-4-3-5-9(10)7-13-14/h3-7H,2,8H2,1H3
SMILES=CCOC(=O)Cn1ncc2ccccc2c1=O
SCANS=4921
IONMODE=positive
COMPOUND_NAME=ethyl 2-(1-oxo-2-hydrophthalazin-2-yl)acetate M+H
SPECTRUM_ID=CCMSLIB00006690262
50.01598 4042.0 
58.912048 3289.0 
60.53043 3216.0 
75.125366 3513.0 
76.031174 7106.0 
77.039146 7370.0 
85.14959 3313.0 
89.038567 6564.0 
92.366783 3599.0 
101.734467 4223.0 
102.03405 3946.0 
104.026047 18753.0 
129.044617 4230.0 
130.02919 16289.0 
132.044052 82679.0 
135.750275 3906.0 
140.763046 3902.0 
159.055084 12203371.0 
159.572662 4800.0 
177.065582 252313.0 
187.04985 6814877.0 
200.080978 28559.0 
205.059204 6549.0 
209.725677 7291.0 
218.445206 3996.0 
219.112686 20233.0 
233.091553 887999.0 
END IONS

BEGIN IONS
PRECURSOR_MZ=349.063
INCHI=InChI=1S/C21H13ClO3/c22-15-8-4-7-14(11-15)20-19(13-5-2-1-3-6-13)17-10-9-16(23)12-18(17)25-21(20)24/h1-12,23H
SMILES=O=c1oc2cc(O)ccc2c(-c2ccccc2)c1-c1cccc(Cl)c1
SCANS=7107
IONMODE=positive
COMPOUND_NAME=3-(3-chlorophenyl)-7-hydroxy-4-phenylchromen-2-one M+H
SPECTRUM_ID=CCMSLIB00006692448
68.997292 12639.0 
75.424629 3250.0 
95.012901 3838.0 
97.763977 2720.0 
105.033524 3430.0 
118.647522 2902.0 
137.022919 31349.0 
148.746201 2961.0 
153.266266 2946.0 
169.286942 2677.0 
181.064743 75536.0 
185.617233 2610.0 
199.030792 20129.0 
200.997299 3336.0 
203.373688 3407.0 
215.025131 23887.0 
216.093048 5483.0 
229.101746 5617.0 
239.087387 4001.0 
240.092804 14347.0 
241.101822 11575.0 
242.106766 4588.0 
243.019394 3743.0 
251.061676 14855.0 
251.087997 4078.0 
252.093216 20589.0 
253.099991 6038.0 
255.080566 3960.0 
257.094879 33357.0 
258.103394 24075.0 
268.088745 33501.0 
269.095551 54733.0 
270.103271 109941.0 
275.061462 25937.0 
285.091644 12773.0 
286.098358 360296.0 
287.067841 5437.0 
293.072296 311651.0 
303.055878 6760.0 
307.053406 4592.0 
313.084869 73999.0 
314.093231 5724.0 
321.065308 28543.0 
347.379913 6549.0 
348.050995 17825.0 
349.062042 5647551.0 
350.756653 5641.0 
END IONS

BEGIN IONS
PRECURSOR_MZ=134.045
INCHI=InChI=1S/C4H7NO4/c5-2(4(8)9)1-3(6)7/h2H,1,5H2,(H,6,7)(H,8,9)/t2-/m0/s1
SMILES=N[C@@H](CC(=O)O)C(=O)O
SCANS=902
IONMODE=positive
COMPOUND_NAME=56-84-8 M+H
SPECTRUM_ID=CCMSLIB00006686243
50.806 5489.430176 
54.857498 7135.580078 
57.018902 6085.569824 
58.637798 6819.450195 
69.5951 5841.120117 
70.029297 16213.099609 
71.506699 6452.339844 
72.0812 12954.0 
74.0243 951904.0 
74.812798 7509.410156 
75.860802 6187.359863 
88.039803 585040.0 
97.0821 6702.240234 
116.035004 56969.0 
134.044998 44203.398438 
134.063995 35318.5 
END IONS

BEGIN IONS
PRECURSOR_MZ=420.149
INCHI=InChI=1S/C22H21N5O2S/c1-3-15-6-4-5-7-17(15)25-18(28)12-30-22-26-19-20(23-13-24-21(19)29)27(22)16-10-8-14(2)9-11-16/h4-11,13H,3,12H2,1-2H3,(H,25,28)(H,23,24,29)
SMILES=CCc1ccccc1N=C(O)CSc1nc2c(O)ncnc2n1-c1ccc(C)cc1
SCANS=10082
IONMODE=positive
COMPOUND_NAME=N-(2-ethylphenyl)-2-[9-(4-methylphenyl)-6-oxohydropurin-8-ylthio]acetamide M+H
SPECTRUM_ID=CCMSLIB00006695423
68.558228 3745.0 
73.943512 4958.0 
130.064941 4658.0 
144.080536 13378.0 
212.081329 77749.0 
213.08989 27150.0 
230.037827 69305.0 
238.083405 4999.0 
240.019699 3454.0 
244.053452 617720.0 
257.048431 191293.0 
262.064178 56551.0 
271.06424 2064999.0 
285.081146 16160.0 
298.051788 4300.0 
299.059143 7124482.0 
313.074432 133991.0 
340.04776 3549.0 
402.135651 31420.0 
420.147766 1163882.0 
END IONS

BEGIN IONS
PRECURSOR_MZ=391.285
INCHI=InChI=1S/C24H40O4/c1-14(4-9-22(27)28)18-7-8-19-17-6-5-15-12-16(25)10-11-23(15,2)20(17)13-21(26)24(18,19)3/h14-21,25-26H,4-13H2,1-3H3,(H,27,28)/t14-,15-,16-,17+,18-,19+,20+,21+,23+,24-/m1/s1
SMILES=CC(CCC(=O)O)C1CCC2C3CCC4CC(O)CCC4(C)C3CC(O)C12C
SCANS=19265
IONMODE=negative
COMPOUND_NAME=DEOXYCHOLIC ACID M-H
SPECTRUM_ID=CCMSLIB00006704606
69.034309 1241839.0 
71.049911 191186.0 
74.472153 100753.0 
92.425194 104656.0 
118.707916 105350.0 
140.849121 99988.0 
209.059662 387310.0 
220.545807 89985.0 
309.221008 368440.0 
311.23822 502531.0 
315.267426 125303.0 
317.284027 488810.0 
325.252045 535998.0 
327.269592 5742604.0 
329.246368 158283.0 
329.285828 1525458.0 
341.248901 184517.0 
343.216644 193373.0 
343.264313 7848709.0 
345.279968 13083362.0 
347.295502 2044665.0 
353.248016 180075.0 
355.265106 3296635.0 
363.292358 488194.0 
365.305664 1557119.0 
373.276398 370256.0 
389.271179 961628.0 
391.285828 88876952.0 
END IONS

BEGIN IONS
PRECURSOR_MZ=426.981
INCHI=InChI=1S/C14H12BrClN4O2/c1-18-11-10(12(21)19(2)14(18)22)20(13(16)17-11)7-8-4-3-5-9(15)6-8/h3-6H,7H2,1-2H3
SMILES=Cn1c(=O)c2c(nc(Cl)n2Cc2cccc(Br)c2)n(C)c1=O
SCANS=21786
IONMODE=negative
COMPOUND_NAME=7-[(3-bromophenyl)methyl]-8-chloro-1,3-dimethyl-1,3,7-trihydropurine-2,6-dione M+formate
SPECTRUM_ID=CCMSLIB00006707127
56.158371 2256.0 
66.567459 2417.0 
68.995354 11965.0 
75.811813 2254.0 
88.341904 2771.0 
92.402077 3758.0 
92.995934 13439.0 
98.022133 2149.0 
104.310051 2523.0 
112.985497 3824.0 
118.9925 10202.0 
120.88826 2425.0 
130.992218 3915.0 
142.992767 30878.0 
158.005432 2854.0 
180.989624 11868.0 
192.989502 22662.0 
203.368286 2714.0 
205.062408 9322.0 
213.114807 4246.0 
254.986679 4253.0 
292.98175 9426.0 
320.979065 3835.0 
342.932281 4477.0 
342.979858 131271.0 
362.985413 4451.0 
371.828644 2533.0 
406.976898 5024.0 
426.981537 16956.0 
END IONS

BEGIN IONS
PRECURSOR_MZ=461.218
INCHI=InChI=1S/C25H34O8/c1-23-9-7-15(26)11-14(23)3-4-16-17-8-10-25(32,24(17,2)12-18(27)22(16)23)19(28)13-33-21(31)6-5-20(29)30/h11,16-18,22,27,32H,3-10,12-13H2,1-2H3,(H,29,30)/t16-,17-,18-,22+,23-,24-,25-/m0/s1
SMILES=CC12CCC(=O)C=C1CCC1C2C(O)CC2(C)C1CCC2(O)C(=O)COC(=O)CCC(=O)O
SCANS=19434
IONMODE=negative
COMPOUND_NAME=2203-97-6 M-H
SPECTRUM_ID=CCMSLIB00006704775
50.880932 2429.0 
57.257622 2816.0 
69.353996 2644.0 
73.028793 3153.0 
79.055634 2818.0 
95.049927 4671.0 
97.065536 14348.0 
99.00882 23226.0 
107.050102 41003.0 
109.06559 5634.0 
121.287468 3859.0 
123.045227 148016.0 
123.081413 44006.0 
125.060806 199472.0 
132.198792 2809.0 
135.045227 6257.0 
135.081558 22592.0 
136.224609 3257.0 
137.060684 13266.0 
150.68306 2565.0 
159.044769 14178.0 
161.061234 11954.0 
161.097382 14446.0 
165.948273 3072.0 
173.06073 19681.0 
175.076599 3737.0 
189.092285 127974.0 
210.905502 5701.0 
211.305145 4609.0 
227.108688 3690.0 
238.900955 12665.0 
256.911713 6655.0 
267.141022 5079.0 
269.155548 6199.0 
279.139923 19536.0 
281.118439 52023.0 
282.126404 650429.0 
283.170288 4270.0 
287.167542 3716.0 
292.675293 2879.0 
295.133545 6888.0 
297.149689 411668.0 
301.181 181786.0 
311.128937 3954.0 
311.166107 4369.0 
313.180847 19032.0 
315.159821 41688.0 
319.190552 4641.0 
324.899109 5703.0 
329.176117 844936.0 
331.191498 74100.0 
336.654388 3122.0 
343.190643 12945.0 
345.171265 12203.0 
346.871979 2927.0 
361.202362 12054.0 
363.181427 108854.0 
425.609161 3367.0 
461.219971 4352.0 
END IONS

BEGIN IONS
PRECURSOR_MZ=317.172
INCHI=InChI=1S/C17H26O4/c1-3-4-5-6-14(18)12-15(19)9-7-13-8-10-16(20)17(11-13)21-2/h8,10-11,14,18,20H,3-7,9,12H2,1-2H3/t14-/m0/s1
SMILES=CCCCCC(O)CC(=O)CCc1ccc(O)c(OC)c1
SCANS=19474
IONMODE=positive
COMPOUND_NAME=6-Gingerol M+Na
SPECTRUM_ID=CCMSLIB00006704815
59.685638 2305.0 
69.411583 2157.0 
78.761269 2389.0 
79.254082 2389.0 
92.370949 2437.0 
104.279137 3156.0 
137.606232 2236.0 
203.067474 9441.0 
217.082626 3121.0 
249.085144 2546.0 
317.171814 338041.0 
END IONS

BEGIN IONS
PRECURSOR_MZ=321.123
INCHI=InChI=1S/C19H16N2O3/c22-17(20-10-9-13-5-1-2-6-14(13)11-20)12-21-16-8-4-3-7-15(16)18(23)19(21)24/h1-8H,9-12H2
SMILES=O=C1C(=O)N(CC(=O)N2CCc3ccccc3C2)c2ccccc21
SCANS=7459
IONMODE=positive
COMPOUND_NAME=1-(2-oxo-2-(2-1,2,3,4-tetrahydroisoquinolyl)ethyl)benzo[d]azolidine-2,3-dione M+H
SPECTRUM_ID=CCMSLIB00006692800
53.961578 4153.0 
66.03022 4916.0 
66.739967 4183.0 
66.744087 5841.0 
68.113037 4510.0 
73.952698 6171.0 
77.039284 27597.0 
79.054703 6158.0 
79.1474 4698.0 
80.743423 5151.0 
85.361458 4481.0 
85.393639 4237.0 
91.054207 34024.0 
91.366203 4051.0 
104.049507 10941.0 
104.283737 5408.0 
105.069611 34286.0 
106.065109 95950.0 
116.049454 41317.0 
117.069763 59625.0 
119.085602 84975.0 
132.044449 3004531.0 
132.080795 3256576.0 
133.658386 6282.0 
134.060013 8129664.0 
134.096344 4126104.0 
139.049179 4971.0 
146.096359 684761.0 
147.05603 32344.0 
150.054871 389880.0 
160.03923 245893.0 
160.075653 58915.0 
162.054642 38803.0 
188.0159 9752.0 
188.034088 228357.0 
189.791672 4545.0 
198.498779 4916.0 
223.742447 5567.0 
249.137619 21670.0 
265.133209 4040257.0 
293.12796 4995944.0 
303.112366 10827.0 
321.122925 5614249.0 
END IONS

BEGIN IONS
PRECURSOR_MZ=398.085
INCHI=InChI=1S/C21H15F2NO5/c1-2-27-20(25)17-15(11-8-7-10(22)9-13(11)23)16-18(29-19(17)24)12-5-3-4-6-14(12)28-21(16)26/h3-9,15H,2,24H2,1H3
SMILES=CCOC(=O)C1=C(N)Oc2c(c(=O)oc3ccccc23)C1c1ccc(F)cc1F
SCANS=6612
IONMODE=negative
COMPOUND_NAME=ethyl 2-amino-4-(2,4-difluorophenyl)-5-oxo-4H-pyrano[3,2-c]chromene-3-carboxyl ate M-H
SPECTRUM_ID=CCMSLIB00006691953
50.838211 2486.0 
53.00753 2447.0 
56.847511 2214.0 
57.310188 2488.0 
62.70507 2515.0 
65.998207 413071.0 
66.357224 2555.0 
112.040413 1437285.0 
117.034378 14049.0 
123.852226 2751.0 
126.169479 2912.0 
136.234894 2457.0 
161.024338 733747.0 
183.52977 2557.0 
352.042328 34301.0 
378.078735 13868.0 
398.084167 133511.0 
398.142761 4560.0 
407.19397 2933.0 
END IONS

BEGIN IONS
PRECURSOR_MZ=447.202
INCHI=InChI=1S/C23H30O6/c1-13(24)29-12-19(27)23(28)9-7-17-16-5-4-14-10-15(25)6-8-21(14,2)20(16)18(26)11-22(17,23)3/h10,16-17,20,28H,4-9,11-12H2,1-3H3/t16-,17-,20+,21-,22-,23-/m0/s1
SMILES=CC(=O)OCC(=O)C1(O)CCC2C3CCC4=CC(=O)CCC4(C)C3C(=O)CC21C
SCANS=11524
IONMODE=negative
COMPOUND_NAME=50-04-4 M+formate
SPECTRUM_ID=CCMSLIB00006696865
80.54776 2622.0 
82.182343 2723.0 
82.397186 2850.0 
92.284698 2692.0 
92.375107 3079.0 
101.024651 9355.0 
104.280891 2999.0 
118.654587 3108.0 
120.52594 2468.0 
146.961136 17305.0 
167.513763 2594.0 
174.956131 220604.0 
242.9151 5867.0 
242.943298 159474.0 
299.165497 4258.0 
301.181213 13177.0 
310.930878 81045.0 
311.166931 5136.0 
314.285797 3279.0 
326.151733 3483.0 
327.160156 23705.0 
329.174774 49315.0 
341.175598 157295.0 
359.184601 4474.0 
371.186035 82220.0 
371.235748 4077.0 
378.920258 24562.0 
383.189026 4534.0 
401.196777 256177.0 
447.202667 101659.0 
491.027557 3269.0 
835.661743 2806.0 
END IONS

BEGIN IONS
PRECURSOR_MZ=459.108
INCHI=InChI=1S/C21H24O8S/c1-13-8-10-15(11-9-13)30(23,24)29-19-17(22)18-16(27-21(19)25-2)12-26-20(28-18)14-6-4-3-5-7-14/h3-11,16-22H,12H2,1-2H3
SMILES=COC1OC2COC(c3ccccc3)OC2C(O)C1OS(=O)(=O)c1ccc(C)cc1
SCANS=21508
IONMODE=positive
COMPOUND_NAME=4-hydroxy-2-methoxy-6-phenyl-2H-3,4,5,6,7,8,4a,8a-octahydro-5,7-dioxachromen-3 -yl 4-methylbenzenesulfonate M+Na
SPECTRUM_ID=CCMSLIB00006706849
53.039021 76621.0 
55.018211 20800.0 
55.054642 20695.0 
57.033909 110562.0 
59.049591 94285.0 
61.028801 58455.0 
65.038597 5639.0 
68.978859 5971.0 
69.033836 393456.0 
71.012993 44001.0 
71.045273 8791.0 
71.049461 220379.0 
73.028664 6144.0 
75.044121 25184.0 
79.054489 284860.0 
81.033699 555649.0 
83.013023 6823.0 
85.028526 243049.0 
85.06472 34975.0 
87.038437 6671.0 
87.044189 109407.0 
91.054314 221264.0 
92.374168 6110.0 
95.048683 5310.0 
97.028412 103480.0 
99.044006 94354.0 
101.023087 24835.0 
101.059357 11053.0 
103.038712 21934.0 
103.053993 22568.0 
104.282204 7186.0 
105.033409 73751.0 
105.069839 6720.0 
107.010651 8308.0 
107.049042 218667.0 
109.028267 68572.0 
111.044098 58664.0 
112.115021 5257.0 
113.059708 45348.0 
115.038979 58922.0 
115.053551 6548.0 
117.054222 18048.0 
117.069809 22864.0 
121.064392 67139.0 
127.038773 54281.0 
128.061646 5805.0 
129.07019 42090.0 
131.048416 10182.0 
141.054443 139540.0 
145.05101 6027.0 
149.05957 30813.0 
159.065018 341952.0 
159.079926 12487.0 
163.036484 73129.0 
163.073608 7393.0 
181.046799 10497.0 
195.008408 273807.0 
209.025635 8195.0 
236.035492 23912.0 
255.062393 55177.0 
265.106232 29524.0 
285.831879 6514.0 
287.088409 6157128.0 
305.098694 26434.0 
328.114288 110167.0 
353.068573 7013.0 
459.107422 4420171.0 
477.118073 30910.0 
END IONS

BEGIN IONS
PRECURSOR_MZ=345.073
INCHI=InChI=1S/C19H14O5/c1-23-18(21)15(13-10-6-3-7-11-13)17-16(20)14(19(22)24-17)12-8-4-2-5-9-12/h2-11,20H,1H3/b17-15+
SMILES=COC(=O)C(=C1OC(=O)C(c2ccccc2)=C1O)c1ccccc1
SCANS=16847
IONMODE=positive
COMPOUND_NAME=vulpinic acid M+Na
SPECTRUM_ID=CCMSLIB00006702188
51.149681 2305.0 
57.015362 2023.0 
74.25972 2178.0 
105.069443 2899.0 
119.085487 2666.0 
210.144653 4161.0 
220.627289 2296.0 
222.114365 2286.0 
285.183929 3583.0 
287.995331 2708.0 
345.07251 183660.0 
345.20459 2887.0 
END IONS

BEGIN IONS
PRECURSOR_MZ=433.874
INCHI=InChI=1S/C9H9I2NO3/c10-5-1-4(2-6(11)8(5)13)3-7(12)9(14)15/h1-2,7,13H,3,12H2,(H,14,15)/t7-/m0/s1
SMILES=N[C@@H](Cc1cc(I)c(O)c(I)c1)C(=O)O
SCANS=707
IONMODE=positive
COMPOUND_NAME=3,5-Diiodo-L-tyrosine M+H
SPECTRUM_ID=CCMSLIB00006686048
60.105801 146727.0 
60.2798 151044.0 
60.554401 179054.0 
66.746002 149881.0 
66.759399 145864.0 
73.974098 184011.0 
75.383797 146818.0 
78.743896 151481.0 
92.4039 212346.0 
107.049004 265043.0 
133.052002 532535.0 
134.059998 1280880.0 
136.244995 235032.0 
208.723007 809481.0 
208.742996 183133.0 
219.936996 1541430.0 
233.953003 1556090.0 
243.936996 976587.0 
243.960999 180569.0 
249.436996 170471.0 
259.954987 838296.0 
260.963989 9815800.0 
261.946991 700193.0 
271.933014 1177340.0 
288.936005 312082.0 
289.942993 10300500.0 
370.84201 1298250.0 
374.835999 3144080.0 
387.868011 42984400.0 
398.835999 327367.0 
416.846008 14472200.0 
418.95401 206266.0 
433.872986 37258400.0 
END IONS

BEGIN IONS
PRECURSOR_MZ=265.075
INCHI=InChI=1S/C13H14N2O2/c14-12(8-16)13(17)15-11-6-5-9-3-1-2-4-10(9)7-11/h1-7,12,16H,8,14H2,(H,15,17)
SMILES=NC(CO)C(O)=Nc1ccc2ccccc2c1
SCANS=18209
IONMODE=negative
COMPOUND_NAME=2-amino-3-hydroxy-N-(2-naphthyl)propanamide M+Cl
SPECTRUM_ID=CCMSLIB00006703550
51.265591 2196.0 
52.746422 1808.0 
54.129631 1927.0 
69.840958 2192.0 
70.6334 2367.0 
92.402931 2657.0 
96.506203 2318.0 
104.31765 2159.0 
107.787788 2089.0 
142.065948 22927.0 
168.887375 2213.0 
215.581696 2669.0 
229.098312 14369.0 
END IONS

BEGIN IONS
PRECURSOR_MZ=372.157
INCHI=InChI=1S/C22H23NO3/c1-2-3-6-16-9-11-18(12-10-16)23-14-13-20(24)19-15-17-7-4-5-8-21(17)26-22(19)25/h4-5,7-12,15,23H,2-3,6,13-14H2,1H3
SMILES=CCCCc1ccc(NCCC(=O)c2cc3ccccc3oc2=O)cc1
SCANS=12290
IONMODE=positive
COMPOUND_NAME=3-{3-[(4-butylphenyl)amino]propanoyl}chromen-2-one M+Na
SPECTRUM_ID=CCMSLIB00006697631
57.706379 2607.0 
77.115959 3166.0 
81.078003 3364.0 
91.054222 6554.0 
109.657898 2693.0 
119.04953 10665.0 
119.072357 3093.0 
120.650223 2769.0 
129.878113 2931.0 
151.075485 7208.0 
157.971161 4407.0 
162.113525 3782.0 
162.127243 28568.0 
184.109741 4754.0 
197.020691 193296.0 
211.03627 3211970.0 
211.831543 4300.0 
215.03067 3562.0 
223.036331 44994.0 
224.388947 3151.0 
229.047592 22502.0 
238.047409 13175.0 
252.063156 80712.0 
266.114685 17025.0 
354.145813 29656.0 
372.156403 2436697.0 
END IONS

BEGIN IONS
PRECURSOR_MZ=241.095
INCHI=InChI=1S/C12H14N2O2/c15-8-13-5-9-4-10(7-13)11-2-1-3-12(16)14(11)6-9/h1-3,8-10H,4-7H2/t9-,10+/m0/s1
SMILES=O=CN1CC2CC(C1)c1cccc(=O)n1C2
SCANS=7231
IONMODE=positive
COMPOUND_NAME=N-Formylcytisine M+Na
SPECTRUM_ID=CCMSLIB00006692572
70.873306 3293.0 
82.381844 5074.0 
82.683357 3182.0 
83.677002 3273.0 
84.959808 1534951.0 
102.970047 141080.0 
104.264397 4749.0 
120.980568 19247.0 
125.986366 4905.0 
134.978256 31803.0 
147.950424 21631.0 
149.439987 3788.0 
149.965149 3979.0 
152.988953 14521.0 
157.934311 4033.0 
159.064743 5504.0 
162.973434 2592931.0 
180.350861 4019.0 
180.983963 4134913.0 
181.0439 47773.0 
182.987991 15563.0 
198.994461 367210.0 
203.999802 154044.0 
209.013565 4844.0 
222.010422 5136.0 
223.030807 21132.0 
240.122787 16916.0 
241.094284 10967191.0 
242.071625 14387.0 
259.10553 4189.0 
373.497192 3468.0 
384.421326 3870.0 
END IONS

BEGIN IONS
PRECURSOR_MZ=288.075
INCHI=InChI=1S/C15H10F3N3/c16-15(17,18)10-4-3-5-11(8-10)21-14-12-6-1-2-7-13(12)19-9-20-14/h1-9H,(H,19,20,21)
SMILES=FC(F)(F)c1cccc(Nc2ncnc3ccccc23)c1
SCANS=1072
IONMODE=negative
COMPOUND_NAME=N-[3-(trifluoromethyl)phenyl]quinazolin-4-amine M-H
SPECTRUM_ID=CCMSLIB00006686413
56.207981 2887.0 
66.141487 2733.0 
68.995323 21559.0 
81.364777 3307.0 
87.20607 3197.0 
115.61097 3008.0 
117.045761 5471.0 
160.038193 5113.0 
218.072693 17461.0 
228.056625 48470.0 
233.059921 71992.0 
246.068848 24647.0 
247.054779 5887.0 
248.06308 106176.0 
251.050751 12631.0 
261.06488 24866.0 
268.069519 143244.0 
279.045563 39230.0 
286.060333 63752.0 
287.068726 26436.0 
287.724762 7079.0 
288.075745 11147676.0 
288.407532 11790.0 
289.354462 3766.0 
297.414307 3706.0 
END IONS

BEGIN IONS
PRECURSOR_MZ=227.125
INCHI=InChI=1S/C4H7N3O/c1-7-2-3(8)6-4(7)5/h2H2,1H3,(H2,5,6,8)
SMILES=CN1CC(O)=NC1=N
SCANS=880
IONMODE=positive
COMPOUND_NAME=creatinine 2M+H
SPECTRUM_ID=CCMSLIB00006686221
54.179699 92001.0 
57.093601 92344.5 
66.761703 106837.0 
81.2071 105658.0 
92.406303 81824.796875 
95.192902 94066.296875 
105.740997 94333.5 
114.066002 12670400.0 
116.587997 94022.296875 
117.306 103542.0 
122.453003 107064.0 
END IONS

BEGIN IONS
PRECURSOR_MZ=178.053
INCHI=InChI=1S/C6H11NO3S/c1-11-3-2-5(6(9)10)7-4-8/h4-5H,2-3H2,1H3,(H,7,8)(H,9,10)/t5-/m1/s1
SMILES=CSCCC(N=CO)C(=O)O
SCANS=9539
IONMODE=positive
COMPOUND_NAME=fMet M+H
SPECTRUM_ID=CCMSLIB00006694880
54.612961 5243.0 
56.05027 229072.0 
61.01144 161050.0 
73.943451 4825.0 
74.06089 11876.0 
84.045029 297703.0 
87.026772 5757.0 
88.022324 38506.0 
102.055481 105483.0 
104.053329 699625.0 
104.272667 5946.0 
114.542641 4919.0 
130.05014 695417.0 
133.020554 11408.0 
133.031982 336891.0 
148.938354 5038.0 
150.058395 213739.0 
157.944855 5628.0 
160.04274 9423.0 
178.027649 9532.0 
217.477371 5463.0 
221.287033 6007.0 
343.758301 5973.0 
351.60498 4825.0 
END IONS

BEGIN IONS
PRECURSOR_MZ=451.124
INCHI=InChI=1S/C21H22O11/c22-7-16-18(27)19(28)20(29)21(32-16)30-9-4-12(25)17-13(26)6-14(31-15(17)5-9)8-1-2-10(23)11(24)3-8/h1-5,14,16,18-25,27-29H,6-7H2/t14-,16-,18-,19+,20-,21-/m0/s1
SMILES=O=C1CC(c2ccc(O)c(O)c2)Oc2cc(OC3OC(CO)C(O)C(O)C3O)cc(O)c21
SCANS=21947
IONMODE=positive
COMPOUND_NAME=CHEMBL1602917 M+H
SPECTRUM_ID=CCMSLIB00006707288
61.996349 2640.0 
63.53944 2453.0 
67.018219 3104.0 
68.997421 5700.0 
85.028648 6136.0 
89.038612 4798.0 
107.049622 3260.0 
111.007553 4245.0 
117.033577 16126.0 
123.044212 16493.0 
123.723427 2897.0 
131.049286 2688.0 
135.044067 38161.0 
145.028046 39635.0 
153.018204 301481.0 
159.04454 4449.0 
163.038956 191650.0 
165.018387 5190.0 
171.029037 19076.0 
173.67952 2581.0 
179.033966 16767.0 
183.029449 4368.0 
187.039749 5076.0 
191.032715 2842.0 
195.029037 12092.0 
205.050552 3679.0 
237.987305 2436.0 
289.070343 349215.0 
301.069397 4073.0 
331.077118 2883.0 
337.469666 2500.0 
451.213501 2622.0 
END IONS

BEGIN IONS
PRECURSOR_MZ=466.122
INCHI=InChI=1S/C26H21ClFNO4/c1-16-21(14-25(30)33-15-18-5-3-4-6-23(18)28)22-13-20(32-2)11-12-24(22)29(16)26(31)17-7-9-19(27)10-8-17/h3-13H,14-15H2,1-2H3
SMILES=COc1ccc2c(c1)c(CC(=O)OCc1ccccc1F)c(C)n2C(=O)c1ccc(Cl)cc1
SCANS=20179
IONMODE=positive
COMPOUND_NAME=(2-fluorophenyl)methyl 2-{1-[(4-chlorophenyl)carbonyl]-5-methoxy-2-methylindol -3-yl}acetate M+H
SPECTRUM_ID=CCMSLIB00006705520
50.015671 44162.0 
51.023472 130672.0 
53.443661 2771.0 
53.537399 2937.0 
54.253132 3011.0 
55.018509 8037.0 
57.014011 5895.0 
59.029411 4031.0 
60.984371 5128.0 
62.96352 4901.0 
70.597504 3512.0 
72.983887 3750.0 
73.949448 3011.0 
74.015427 5262.0 
74.708618 3393.0 
75.023163 52504.0 
79.01815 52912.0 
82.394409 3612.0 
83.029442 84359.0 
86.99984 357633.0 
93.033478 5408.0 
94.041443 5071.0 
109.044853 2077631.0 
110.999023 32084.0 
111.044067 17683.0 
114.994453 34072.0 
129.010208 126616.0 
135.431976 3442.0 
138.571823 5973.0 
138.994537 5582687.0 
139.005035 268954.0 
139.419785 4216.0 
139.998032 45807.0 
150.07132 20824.0 
158.060211 14458.0 
173.083725 24787.0 
174.090851 5305.0 
183.912033 4136.0 
186.091461 34727.0 
201.078339 18802.0 
225.094086 19752.0 
236.088394 3480.0 
250.103699 4860.0 
252.081894 4683.0 
253.088943 3851.0 
266.097443 13968.0 
267.10498 5710.0 
268.112885 67743.0 
282.12854 605708.0 
310.12326 70351.0 
312.078094 52870.0 
313.08136 15996.0 
356.067932 3779.0 
357.075073 40239.0 
370.080109 4643.0 
420.113068 22038.0 
466.121094 128940.0 
END IONS

BEGIN IONS
PRECURSOR_MZ=459.183
INCHI=InChI=1S/C28H27ClN2O2/c1-28(2)15-24-26(25(32)16-28)27(31-23-9-4-3-8-22(23)30-24)19-10-12-21(13-11-19)33-17-18-6-5-7-20(29)14-18/h3-14,27,30-31H,15-17H2,1-2H3
SMILES=CC1(C)CC(=O)C2=C(C1)Nc1ccccc1NC2c1ccc(OCc2cccc(Cl)c2)cc1
SCANS=4815
IONMODE=positive
COMPOUND_NAME=11-{4-[(3-chlorophenyl)methoxy]phenyl}-3,3-dimethyl-2,3,4-trihydro-5H,10H,11H- benzo[b]benzo[2,1-f]1,4-diazepin-1-one M+H
SPECTRUM_ID=CCMSLIB00006690156
55.05471 3147.0 
55.51326 3767.0 
66.846947 3142.0 
68.057953 3663.0 
68.558884 3325.0 
83.044167 4505.0 
83.049377 109927.0 
104.293289 4346.0 
125.015137 142188.0 
125.025337 5195.0 
132.067902 13767.0 
133.075958 62544.0 
157.07579 35494.0 
159.091812 29086.0 
173.106873 24090.0 
185.070663 191147.0 
199.124695 9829.0 
211.087112 3770.0 
213.139328 4250.0 
215.117767 98588.0 
223.12262 20587.0 
224.106186 4034.0 
241.133148 8166884.0 
250.109634 4404.0 
277.097839 7109.0 
278.10791 3764.0 
312.898071 3434.0 
332.150177 4877.0 
333.154083 11320.0 
334.166962 7468.0 
403.114197 3855.0 
459.182556 2161023.0 
END IONS

BEGIN IONS
PRECURSOR_MZ=313.13
INCHI=InChI=1S/C16H16N4O3/c1-3-10-14-13(8-4-5-11(21)12(6-8)22-2)9(7-17)15(18)23-16(14)20-19-10/h4-6,13,21H,3,18H2,1-2H3,(H,19,20)
SMILES=CCc1[nH]nc2c1C(c1ccc(O)c(OC)c1)C(C#N)=C(N)O2
SCANS=16854
IONMODE=positive
COMPOUND_NAME=6-amino-3-ethyl-4-(4-hydroxy-3-methoxyphenyl)-4H-pyrano[3,2-d]pyrazole-5-carbo nitrile M+H
SPECTRUM_ID=CCMSLIB00006702195
52.22757 5355.0 
56.050201 34972.0 
59.94252 5502.0 
59.949429 5764.0 
67.054443 6035.0 
67.831299 7021.0 
68.013657 10000.0 
71.060753 183124.0 
71.064949 8499.0 
78.034363 14704.0 
79.02916 47640.0 
80.013512 10144.0 
80.049797 11445.0 
85.040161 14515.0 
89.038849 6342.0 
91.029648 9391.0 
91.054283 54092.0 
92.049713 6187.0 
93.033852 6555.0 
95.04937 10411.0 
95.06044 5820.0 
96.044609 12839.0 
97.039917 73469.0 
98.059929 91875.0 
103.05481 12978.0 
104.049553 11876.0 
104.268173 9359.0 
105.045242 12653.0 
106.028313 7796.0 
106.039948 69797.0 
106.066742 6554.0 
107.02404 9083.0 
108.057243 9146.0 
109.065071 9740.0 
109.075592 6498.0 
110.034851 63683.0 
111.055679 34595.0 
113.070953 105750.0 
114.235458 6108.0 
115.054314 9748.0 
116.049347 69865.0 
117.033249 9375.0 
117.045288 9554.0 
117.070061 9130.0 
118.04007 51117.0 
118.065498 9528.0 
119.048492 8109.0 
119.060661 14607.0 
120.080833 8623.0 
121.052521 12652.0 
122.036423 6807.0 
123.044312 153411.0 
123.055557 111785.0 
123.062851 7017.0 
124.05217 8895.0 
125.060478 16735.0 
125.070793 316832.0 
130.065445 31856.0 
130.077057 7420.0 
131.049713 26887.0 
131.060349 14072.0 
131.072601 6592.0 
131.085831 9777.0 
132.034775 7262.0 
132.044052 54156.0 
132.080933 12909.0 
133.028458 8643.0 
133.052444 57869.0 
133.063812 7169.0 
134.034958 52888.0 
134.060272 55285.0 
134.071594 46344.0 
135.032013 11113.0 
136.050812 34189.0 
137.059494 53310.0 
138.065979 79805.0 
142.028763 12376.0 
142.065414 29354.0 
143.072983 7008.0 
144.019531 26462.0 
144.044266 362988.0 
144.080536 13492.0 
145.028275 96430.0 
145.039597 10941.0 
145.064209 19375.0 
146.060349 30587.0 
146.072266 7308.0 
147.043808 9902.0 
147.055893 22227.0 
147.068222 43068.0 
147.08046 19854.0 
147.091644 21551.0 
148.063049 22705.0 
148.075058 105849.0 
148.09938 6741.0 
149.023376 9698.0 
149.046936 19209.0 
149.060104 48281.0 
150.054779 132772.0 
152.071259 60762.0 
158.047256 26258.0 
158.060379 49861.0 
158.072693 11905.0 
159.055344 60079.0 
159.068161 42031.0 
159.091751 88069.0 
160.039474 9410.0 
160.075668 57741.0 
161.046341 565350.0 
161.070267 265363.0 
161.082489 23179.0 
162.054321 25352.0 
162.06723 45843.0 
162.079697 10983.0 
164.068573 12901.0 
164.082047 101609.0 
170.02356 126773.0 
170.059631 70159.0 
171.054855 25763.0 
172.063202 11245.0 
172.076218 21456.0 
174.053879 144387.0 
175.050201 40351.0 
175.072952 73288.0 
175.089188 24351.0 
176.070755 277912.0 
176.094589 37711.0 
177.041489 20737.0 
177.05481 301121.0 
178.050491 27364.0 
182.060303 7552.0 
185.072266 23804.0 
186.041443 179786.0 
186.077652 80545.0 
187.049301 67804.0 
187.063538 125160.0 
187.086838 274239.0 
188.034103 9147.0 
188.070602 87897.0 
189.07724 1882369.0 
190.08287 16496.0 
190.098923 71237.0 
191.080063 46964.0 
192.065552 189355.0 
198.055115 45252.0 
199.050247 30139.0 
200.072052 130069.0 
201.065491 227457.0 
202.049713 72600.0 
202.086334 37482.0 
203.044952 73650.0 
203.079544 68720.0 
203.11763 23032.0 
204.053558 151195.0 
204.088196 381059.0 
205.073761 27353.0 
205.097061 28921.0 
211.04953 8530.0 
213.066193 26011.0 
214.072067 67287.0 
214.087875 70486.0 
215.057861 304856.0 
215.081604 1062213.0 
216.065231 99384.0 
217.060669 226506.0 
217.096008 62829.0 
218.068237 52621.0 
219.076172 485780.0 
219.111755 119664.0 
220.060471 8244.0 
226.03804 11760.0 
229.096725 24568.0 
230.08078 1174538.0 
231.0495 7979.0 
231.076447 475075.0 
231.111771 79499.0 
232.083847 1029473.0 
233.09314 42648.0 
237.065292 8043.0 
241.059921 24331.0 
241.096649 6471.0 
243.100021 50940.0 
247.107361 12356720.0 
248.115097 227566.0 
252.075577 8803.0 
253.084549 11563.0 
254.091599 23457.0 
258.087585 50343.0 
264.077362 6258.0 
268.108643 9920.0 
271.095581 140849.0 
273.110138 33549.0 
281.074585 11975.0 
281.104095 35298.0 
286.118317 309192.0 
295.119476 10873.0 
296.101776 50049.0 
313.128845 5423800.0 
END IONS

BEGIN IONS
PRECURSOR_MZ=239.071
INCHI=InChI=1S/C15H12O3/c16-13-7-3-1-5-11(13)9-10-15(18)12-6-2-4-8-14(12)17/h1-10,16-17H/b10-9+
SMILES=O=C(C=Cc1ccccc1O)c1ccccc1O
SCANS=2817
IONMODE=negative
COMPOUND_NAME=2,2'-Dihydroxychalcone M-H
SPECTRUM_ID=CCMSLIB00006688158
55.800812 2182.0 
70.932549 2140.0 
93.034538 172097.0 
102.956833 51455.0 
112.985481 3697.0 
117.034508 14067.0 
119.050262 373154.0 
121.029251 5143.0 
133.029449 24243.0 
136.211685 2817.0 
145.029572 12289.0 
153.055939 11663.0 
154.063644 12245.0 
183.912674 2880.0 
195.081924 9566.0 
195.139038 41197.0 
210.097687 3993.0 
238.870941 9056.0 
239.071472 331418.0 
END IONS

BEGIN IONS
PRECURSOR_MZ=391.163
INCHI=InChI=1S/C21H24N2O4/c1-26-19-10-7-14(13-20(19)27-2)18(24)11-12-22-17-6-4-3-5-16(17)21(25)23-15-8-9-15/h3-7,10,13,15,22H,8-9,11-12H2,1-2H3,(H,23,25)
SMILES=COc1ccc(C(=O)CCNc2ccccc2C(O)=NC2CC2)cc1OC
SCANS=13035
IONMODE=positive
COMPOUND_NAME=(2-{[3-(3,4-dimethoxyphenyl)-3-oxopropyl]amino}phenyl)-N-cyclopropylcarboxamid e M+Na
SPECTRUM_ID=CCMSLIB00006698376
52.957378 2841.0 
57.35537 2618.0 
58.746521 2936.0 
64.090492 3142.0 
64.717506 2947.0 
74.568176 2662.0 
91.800636 3070.0 
92.363541 3128.0 
99.99337 2577.0 
103.369377 2847.0 
130.056305 2566.0 
132.04425 13686.0 
142.264801 3306.0 
149.023392 22833.0 
160.22377 3077.0 
171.091904 12317.0 
208.675247 11586.0 
211.084122 97964.0 
391.162262 4167654.0 
END IONS

BEGIN IONS
PRECURSOR_MZ=384.077
INCHI=InChI=1S/C18H20ClNO4/c1-22-16-9-12(10-17(23-2)18(16)24-3)15(21)7-8-20-14-6-4-5-13(19)11-14/h4-6,9-11,20H,7-8H2,1-3H3
SMILES=COc1cc(C(=O)CCNc2cccc(Cl)c2)cc(OC)c1OC
SCANS=14040
IONMODE=negative
COMPOUND_NAME=3-[(3-chlorophenyl)amino]-1-(3,4,5-trimethoxyphenyl)propan-1-one M+Cl
SPECTRUM_ID=CCMSLIB00006699381
57.05859 2243.0 
75.682213 2343.0 
82.41301 2230.0 
82.421051 3061.0 
83.60598 2193.0 
90.780098 2241.0 
92.481377 2548.0 
102.557663 2099.0 
103.779747 2537.0 
103.980614 2005.0 
109.976196 2317.0 
121.579613 2311.0 
129.380096 2251.0 
271.551147 2270.0 
521.087708 2895.0 
END IONS

BEGIN IONS
PRECURSOR_MZ=269.046
INCHI=InChI=1S/C15H10O5/c16-9-3-1-8(2-4-9)13-7-12(18)10-5-6-11(17)14(19)15(10)20-13/h1-7,16-17,19H
SMILES=O=c1cc(-c2ccc(O)cc2)oc2c(O)c(O)ccc12
SCANS=5675
IONMODE=negative
COMPOUND_NAME=7,8,4'-trihydroxyflavone M-H
SPECTRUM_ID=CCMSLIB00006691016
51.39349 25483.0 
51.912682 20652.0 
66.02961 21529.0 
73.662643 24830.0 
91.018837 623284.0 
102.8908 23303.0 
132.022491 61614.0 
133.029541 18425750.0 
135.008804 6810468.0 
135.033096 34976.0 
136.22702 25604.0 
141.323471 25055.0 
153.019348 1393937.0 
157.995346 31530.0 
160.016022 31880.0 
169.066177 56484.0 
181.066574 30993.0 
182.03804 29901.0 
195.047791 28874.0 
196.052841 29302.0 
197.061081 311053.0 
199.040237 159347.0 
201.056229 839090.0 
208.055145 50845.0 
212.328781 28813.0 
213.057083 200775.0 
223.040726 43880.0 
224.048019 394852.0 
225.056076 1808408.0 
226.027603 250435.0 
227.034851 1110811.0 
241.050568 951433.0 
251.034561 180897.0 
251.148865 31742.0 
252.041946 44381.0 
267.891205 164716.0 
268.038849 125236.0 
269.045746 126644848.0 
270.049805 28022.0 
270.207428 166270.0 
END IONS

BEGIN IONS
PRECURSOR_MZ=422.171
INCHI=InChI=1S/C23H23N3O5/c1-30-17-6-4-5-16(13-17)24-21(27)15-26-20-8-3-2-7-18(20)19(14-22(26)28)23(29)25-9-11-31-12-10-25/h2-8,13-14H,9-12,15H2,1H3,(H,24,27)
SMILES=COc1cccc(N=C(O)Cn2c(=O)cc(C(=O)N3CCOCC3)c3ccccc32)c1
SCANS=10733
IONMODE=positive
COMPOUND_NAME=N-(3-methoxyphenyl)-2-[4-(morpholin-4-ylcarbonyl)-2-oxohydroquinolyl]acetamide M+H
SPECTRUM_ID=CCMSLIB00006696074
54.863121 2527.0 
58.21257 2494.0 
66.445999 2616.0 
66.742393 2622.0 
70.029198 2542.0 
82.395729 3305.0 
85.653687 2879.0 
98.059914 3107.0 
100.075844 18896.0 
101.040123 2264.0 
114.055077 14474.0 
118.649712 3258.0 
133.429733 2613.0 
158.059769 5158.0 
186.054657 17909.0 
210.111023 4364.0 
227.117844 3665.0 
243.113647 5678.0 
259.107758 60482.0 
271.107391 342646.0 
299.102203 1115272.0 
312.13266 6001.0 
END IONS

BEGIN IONS
PRECURSOR_MZ=113.06
INCHI=InChI=1S/C6H8O2/c1-2-3-4-5-6(7)8/h2-5H,1H3,(H,7,8)/b3-2+,5-4+
SMILES=CC=CC=CC(=O)O
SCANS=11790
IONMODE=positive
COMPOUND_NAME=sorbic acid M+H
SPECTRUM_ID=CCMSLIB00006697131
54.434299 10897.0 
57.034191 207648.0 
57.070679 10838.0 
61.10783 10194.0 
65.039299 122229.0 
67.054878 1740695.0 
69.034286 57534.0 
71.049744 214674.0 
71.940964 22892.0 
80.303078 11102.0 
80.393944 10348.0 
85.065178 72259.0 
95.049553 1220046.0 
113.059959 232099.0 
126.414261 11483.0 
128.069244 10988.0 
END IONS

BEGIN IONS
PRECURSOR_MZ=406.157
INCHI=InChI=1S/C23H22FN3O3/c24-16-8-10-17(11-9-16)25-21(28)15-27-20-7-3-2-6-18(20)19(14-22(27)29)23(30)26-12-4-1-5-13-26/h2-3,6-11,14H,1,4-5,12-13,15H2,(H,25,28)
SMILES=O=C(Cn1c(=O)cc(C(=O)N2CCCCC2)c2ccccc21)Nc1ccc(F)cc1
SCANS=11460
IONMODE=negative
COMPOUND_NAME=N-(4-fluorophenyl)-2-[2-oxo-4-(piperidylcarbonyl)hydroquinolyl]acetamide M-H
SPECTRUM_ID=CCMSLIB00006696801
59.113419 3736.0 
67.41629 2835.0 
76.71003 2825.0 
77.20414 3164.0 
110.041313 91310.0 
118.662781 4390.0 
128.050827 313580.0 
131.038269 5562.0 
142.066437 6225.0 
142.804688 3002.0 
144.045639 10215.0 
144.232224 3476.0 
146.061523 4607.0 
156.046021 25243.0 
157.053604 149353.0 
157.982132 3639.0 
158.024765 35135.0 
172.040924 42922.0 
174.056519 15310.0 
176.035736 18325.0 
184.040756 292322.0 
185.048431 35043.0 
202.051468 24596.0 
209.109619 5304.0 
225.140411 39298.0 
226.124557 4683.0 
227.119461 61370.0 
237.103424 13713.0 
239.120102 4080.0 
241.135117 222883.0 
243.113831 14949.0 
255.11438 285804.0 
269.129913 300196.0 
271.109467 132794.0 
287.141235 6543.0 
295.109375 257290.0 
406.158142 2668638.0 
END IONS

BEGIN IONS
PRECURSOR_MZ=1273.57
INCHI=InChI=1S/C56H92O29/c1-19-7-10-56(75-17-19)20(2)31-45(85-56)37(67)32-22-6-5-21-11-26(24(61)12-55(21,4)23(22)8-9-54(31,32)3)76-50-42(72)39(69)44(30(16-60)80-50)81-53-48(47(36(66)29(15-59)79-53)83-49-40(70)33(63)25(62)18-74-49)84-52-43(73)46(35(65)28(14-58)78-52)82-51-41(71)38(68)34(64)27(13-57)77-51/h19-53,57-73H,5-18H2,1-4H3/t19?,20-,21-,22+,23-,24+,25+,26+,27+,28+,29+,30+,31-,32+,33-,34+,35+,36+,37-,38-,39+,40+,41+,42+,43+,44-,45+,46-,47-,48+,49-,50+,51-,52-,53-,54+,55-,56+/m0/s1
SMILES=CC1CCC2(OC1)OC1C(O)C3C4CCC5CC(OC6OC(CO)C(OC7OC(CO)C(O)C(OC8OCC(O)C(O)C8O)C7OC7OC(CO)C(O)C(OC8OC(CO)C(O)C(O)C8O)C7O)C(O)C6O)C(O)CC5(C)C4CCC3(C)C1C2C
SCANS=12090
IONMODE=negative
COMPOUND_NAME=Digitonin M+formate
SPECTRUM_ID=CCMSLIB00006697431
89.0242 78807.0 
95.013733 70914.0 
97.029572 40204.0 
99.008873 36754.0 
101.024467 222490.0 
113.024513 399954.0 
113.033157 15541.0 
119.034767 12246.0 
125.024307 61834.0 
131.035294 14857.0 
137.024109 9017.0 
143.034866 107911.0 
158.995026 7222.0 
161.0457 178526.0 
221.067535 18748.0 
245.067093 11525.0 
423.696381 7561.0 
609.365295 352439.0 
705.396606 11202.0 
771.420227 39439.0 
898.819763 9726.0 
903.458374 155911.0 
1065.514771 18278.0 
1095.521729 233928.0 
1227.56604 8194433.0 
1273.547852 17899.0 
END IONS

BEGIN IONS
PRECURSOR_MZ=220.098
INCHI=InChI=1S/C12H15NO3/c1-7-4-8(2)11(9(3)5-7)12(16)13-6-10(14)15/h4-5H,6H2,1-3H3,(H,13,16)(H,14,15)
SMILES=Cc1cc(C)c(C(O)=NCC(=O)O)c(C)c1
SCANS=23580
IONMODE=negative
COMPOUND_NAME=2-[(2,4,6-trimethylphenyl)carbonylamino]acetic acid M-H
SPECTRUM_ID=CCMSLIB00006708921
55.173061 2533.0 
55.932751 2195.0 
58.857071 2052.0 
65.025993 2039.0 
66.759247 2199.0 
75.76432 1937.0 
86.907494 2811.0 
90.816933 2315.0 
92.401604 2418.0 
135.974167 2028.0 
158.010468 2150.0 
161.857086 3770.0 
163.076462 2473.0 
176.108093 33710.0 
219.844955 21260.0 
219.989899 22407.0 
220.09787 149425.0 
291.545776 2097.0 
297.972443 2010.0 
438.222565 2070.0 
END IONS

BEGIN IONS
PRECURSOR_MZ=263.164
INCHI=InChI=1S/C16H24O4/c1-11-5-3-2-4-6-12-9-13(17)10-14(12)15(18)7-8-16(19)20-11/h4,6-8,11-15,17-18H,2-3,5,9-10H2,1H3/b6-4+,8-7+/t11-,12+,13-,14+,15+/m0/s1
SMILES=CC1CCCC=CC2CC(O)CC2C(O)C=CC(=O)O1
SCANS=10973
IONMODE=positive
COMPOUND_NAME=brefeldin A M+H-H2O
SPECTRUM_ID=CCMSLIB00006696314
53.039082 4648.0 
55.018242 17816.0 
55.054691 28939.0 
57.033989 6015.0 
57.070351 7354.0 
64.956017 2784.0 
65.039047 5440.0 
67.054588 155119.0 
69.033913 10467.0 
69.07029 42580.0 
71.0495 6002.0 
71.085953 5213.0 
71.468941 2924.0 
73.028526 12421.0 
79.0495 4249.0 
79.054451 89605.0 
81.033737 27529.0 
81.070084 230083.0 
83.049461 21029.0 
83.080238 5846.0 
83.085747 174501.0 
85.028351 4557.0 
85.064957 14020.0 
85.101692 2767.0 
91.05426 121423.0 
93.033257 4489.0 
93.069901 137636.0 
95.049263 65604.0 
95.085541 228883.0 
97.028236 12576.0 
97.064621 18406.0 
97.101067 23275.0 
99.007767 41930.0 
99.080391 16294.0 
101.023163 27567.0 
103.053947 4934.0 
105.069794 241069.0 
106.101021 3108.0 
107.049026 58685.0 
107.077583 6222.0 
107.085388 129294.0 
109.028099 16939.0 
109.06459 19905.0 
109.101128 220823.0 
111.043953 18728.0 
111.080452 27538.0 
113.059471 13734.0 
113.09597 14718.0 
115.05423 3798.0 
117.069817 145104.0 
119.04911 22387.0 
119.085426 127773.0 
121.064743 48102.0 
121.101143 90534.0 
123.043961 14564.0 
123.079964 14618.0 
123.116676 65567.0 
125.059181 6611.0 
125.095863 12236.0 
127.038834 19122.0 
128.062271 5502.0 
129.069733 89016.0 
131.048843 12595.0 
131.085419 204766.0 
133.052902 5190.0 
133.064667 227343.0 
133.101074 307822.0 
134.108734 38188.0 
135.043991 19006.0 
135.080307 36850.0 
135.116577 52206.0 
137.05986 31858.0 
137.09581 26619.0 
137.132217 10644.0 
139.038971 23858.0 
139.074951 6942.0 
139.111237 4371.0 
141.069519 3586.0 
143.085495 119473.0 
145.064575 27604.0 
145.101044 132958.0 
147.043701 12196.0 
147.080322 61635.0 
147.116623 73470.0 
149.05954 107256.0 
149.082794 3111.0 
149.096146 30441.0 
149.132065 47741.0 
151.075134 91170.0 
151.111588 134239.0 
153.054062 3847.0 
153.09079 7026.0 
155.084427 5952.0 
157.064102 25006.0 
157.101059 144965.0 
157.976013 4315.0 
159.079895 15846.0 
159.116669 164474.0 
160.124588 23638.0 
161.059464 37464.0 
161.095703 45493.0 
161.13205 46591.0 
163.075211 90845.0 
163.111481 23091.0 
163.14769 51809.0 
165.054306 13652.0 
165.090637 34593.0 
167.069931 41597.0 
167.08577 15782.0 
169.101059 14274.0 
171.080261 38159.0 
171.116547 76039.0 
173.095612 6924.0 
173.132355 99384.0 
175.075317 64476.0 
175.111481 19435.0 
175.147934 43264.0 
177.090912 22951.0 
177.127258 23478.0 
179.070007 15749.0 
179.105774 24322.0 
181.084946 7145.0 
181.100632 15912.0 
183.116776 55591.0 
185.096115 38346.0 
185.132217 252296.0 
187.111374 12326.0 
189.090683 54356.0 
189.127258 14580.0 
189.163406 57432.0 
191.106293 5419.0 
191.176147 3033.0 
193.085342 13620.0 
197.132095 4364.0 
199.111984 29654.0 
199.147903 700947.0 
201.127365 19950.0 
201.163132 35777.0 
203.106964 40954.0 
203.142365 46210.0 
205.122055 13356.0 
207.101471 4872.0 
209.132095 78064.0 
215.1427 6610.0 
217.121048 19581.0 
217.158325 349534.0 
218.86644 4030.0 
219.137634 30353.0 
220.051132 4108.0 
221.15448 4176.0 
227.142639 312282.0 
235.168671 26310.0 
245.153183 1102378.0 
248.080246 4174.0 
263.099731 25057.0 
263.163635 1038909.0 
END IONS

BEGIN IONS
PRECURSOR_MZ=195.066
INCHI=InChI=1S/C10H12O4/c1-6(11)7-4-8(13-2)10(12)9(5-7)14-3/h4-5,12H,1-3H3
SMILES=COc1cc(C(C)=O)cc(OC)c1O
SCANS=5016
IONMODE=negative
COMPOUND_NAME=Acetosyringone M-H
SPECTRUM_ID=CCMSLIB00006690357
57.730511 1867.0 
58.41708 1857.0 
73.96331 2839.0 
79.228149 2434.0 
87.135193 1979.0 
91.921677 2235.0 
92.929123 17050.0 
128.64502 2200.0 
130.992508 49721.0 
137.024277 4371.0 
139.642776 2039.0 
148.788834 2301.0 
155.156601 2468.0 
165.019348 150583.0 
176.895203 14119.0 
180.042908 621080.0 
185.416702 2371.0 
194.906296 29945.0 
194.986877 3534.0 
195.066315 244776.0 
207.929794 2213.0 
209.040466 3941.0 
END IONS

BEGIN IONS
PRECURSOR_MZ=300.063
INCHI=InChI=1S/C17H11NO3/c18-10-11-20-17-15(19)13-8-4-5-9-14(13)21-16(17)12-6-2-1-3-7-12/h1-9H,11H2
SMILES=N#CCOc1c(-c2ccccc2)oc2ccccc2c1=O
SCANS=17106
IONMODE=positive
COMPOUND_NAME=2-(4-oxo-2-phenylchromen-3-yloxy)ethanenitrile M+Na
SPECTRUM_ID=CCMSLIB00006702447
78.12162 2360.0 
92.37146 2284.0 
135.595566 2125.0 
137.059555 2644.0 
144.059113 2561.0 
232.096939 9474.0 
242.555023 2116.0 
260.044189 570353.0 
284.001953 2374.0 
290.131256 2741.0 
299.029083 14740.0 
300.063141 161120.0 
301.071808 9619.0 
END IONS

BEGIN IONS
PRECURSOR_MZ=146.081
INCHI=InChI=1S/C6H11NO3/c1-5(8)7-4-2-3-6(9)10/h2-4H2,1H3,(H,7,8)(H,9,10)
SMILES=CC(O)=NCCCC(=O)O
SCANS=9983
IONMODE=positive
COMPOUND_NAME=4-Acetamidobutyric acid M+H
SPECTRUM_ID=CCMSLIB00006695324
86.060699 2741874.0 
87.044823 128172.0 
92.361816 16618.0 
92.996986 15709.0 
104.071381 72679.0 
118.967712 29257.0 
162.897491 18931.0 
END IONS

BEGIN IONS
PRECURSOR_MZ=358.095
INCHI=InChI=1S/C18H16ClN3O3/c1-11-13(14-4-2-3-5-17(14)21-11)8-9-20-18(23)15-10-12(22(24)25)6-7-16(15)19/h2-7,10,21H,8-9H2,1H3,(H,20,23)
SMILES=Cc1[nH]c2ccccc2c1CCN=C(O)c1cc([N+](=O)[O-])ccc1Cl
SCANS=8333
IONMODE=positive
COMPOUND_NAME=(2-chloro-5-nitrophenyl)-N-[2-(2-methylindol-3-yl)ethyl]carboxamide M+H
SPECTRUM_ID=CCMSLIB00006693674
97.330544 3180.0 
117.07 4362.0 
130.065186 12007.0 
132.081009 3814.0 
143.073151 73346.0 
144.081009 5285.0 
145.084061 14596.0 
156.081253 54652.0 
157.088425 19882.0 
158.096603 4209257.0 
158.612152 3506.0 
172.099518 25940.0 
183.979965 11592.0 
185.977386 22037.0 
227.021622 63949.0 
237.779526 2861.0 
325.55838 3580.0 
341.070251 5051.0 
358.095673 1024558.0 
384.800537 2762.0 
END IONS

BEGIN IONS
PRECURSOR_MZ=298.104
INCHI=InChI=1S/C11H15N3O4/c1-17-8-4-3-7(5-9(8)18-2)11(16)13-6-10(15)14-12/h3-5H,6,12H2,1-2H3,(H,13,16)(H,14,15)
SMILES=COc1ccc(C(O)=NCC(O)=NN)cc1OC
SCANS=9759
IONMODE=negative
COMPOUND_NAME=(3,4-dimethoxyphenyl)-N-(???methyl)carboxamide M+formate
SPECTRUM_ID=CCMSLIB00006695100
50.732529 2276.0 
54.256779 2162.0 
57.85725 2731.0 
71.024887 10225.0 
73.948036 2343.0 
87.925377 2484.0 
92.907654 2575.0 
97.003853 2785.0 
103.920288 4383.0 
104.276466 3275.0 
125.28331 2654.0 
179.936859 4592.0 
180.066818 14677.0 
185.922043 2937.0 
190.379974 2251.0 
205.037704 2788.0 
221.056808 40040.0 
236.080429 19444.0 
247.293701 2940.0 
252.099045 428382.0 
END IONS

BEGIN IONS
PRECURSOR_MZ=397.078
INCHI=InChI=1S/C21H19ClN2O2S/c1-13-9-17(10-14(2)20(13)22)26-19-11-15(3)23-21(24-19)27-12-18(25)16-7-5-4-6-8-16/h4-11H,12H2,1-3H3
SMILES=Cc1cc(Oc2cc(C)c(Cl)c(C)c2)nc(SCC(=O)c2ccccc2)n1
SCANS=1457
IONMODE=negative
COMPOUND_NAME=2-[6-(4-chloro-3,5-dimethylphenoxy)-4-methylpyrimidin-2-ylthio]-1-phenylethan- 1-one M-H
SPECTRUM_ID=CCMSLIB00006686798
60.528839 2486.0 
65.441353 2153.0 
66.748398 2891.0 
67.012779 2451.0 
70.040901 2281.0 
74.427307 2327.0 
90.933418 45818.0 
99.925621 2455.0 
112.985626 14825.0 
126.030792 2425.0 
137.006592 14239.0 
146.923508 16086.0 
192.928726 63370.0 
208.115128 15480.0 
248.02771 3093.0 
259.065308 5225.0 
260.916718 19016.0 
292.006409 5489.0 
292.043854 105017.0 
328.902863 15839.0 
329.018219 27292.0 
330.980652 4051.0 
332.981201 3028.0 
363.091522 9984.0 
376.979309 4611.0 
396.97934 64400.0 
397.078064 387098.0 
419.472778 2426.0 
END IONS

BEGIN IONS
PRECURSOR_MZ=374.123
INCHI=InChI=1S/C19H19NO7/c1-23-12-6-5-10(7-13(12)24-2)18(21)20-16-15-11(9-27-19(15)22)8-14(25-3)17(16)26-4/h5-8H,9H2,1-4H3,(H,20,21)
SMILES=COc1ccc(C(O)=Nc2c(OC)c(OC)cc3c2C(=O)OC3)cc1OC
SCANS=18262
IONMODE=positive
COMPOUND_NAME=N-(5,6-dimethoxy-3-oxohydroisobenzofuran-4-yl)(3,4-dimethoxyphenyl)carboxamide M+H
SPECTRUM_ID=CCMSLIB00006703603
50.01548 2941.0 
51.02335 13945.0 
53.03904 109562.0 
55.018108 15122.0 
65.038963 27695.0 
66.04673 76839.0 
67.054512 3601.0 
68.025681 3729.0 
68.997383 27642.0 
69.033836 22231.0 
75.044159 5189.0 
75.269089 2852.0 
77.038834 22272.0 
78.046432 3708.0 
79.018097 10519.0 
79.054443 246090.0 
81.033524 19652.0 
81.070023 60496.0 
82.041359 13627.0 
83.049187 12907.0 
85.028557 4258.0 
91.054169 13929.0 
92.025833 22906.0 
92.366478 4122.0 
94.041344 156478.0 
95.012672 6625.0 
95.049133 41520.0 
97.028099 4737.0 
98.036102 43687.0 
105.033249 28962.0 
105.044456 6860.0 
107.012352 11131.0 
107.049026 23313.0 
109.028313 66613.0 
109.064629 150523.0 
111.007637 30032.0 
113.059723 4728.0 
118.116318 2823.0 
121.028084 23454.0 
122.036041 185132.0 
126.021347 5289.0 
126.030952 84575.0 
135.044632 6754.0 
136.192734 4242.0 
137.023041 11966.0 
137.059738 13882.0 
141.054947 28718.0 
154.025696 16394.0 
155.070053 146914.0 
164.505844 3154.0 
165.054382 4219820.0 
165.60614 4176.0 
END IONS

BEGIN IONS
PRECURSOR_MZ=337.105
INCHI=InChI=1S/C18H18O5/c1-21-13-7-8-15(17(20)10-13)16(19)9-5-12-4-6-14(22-2)11-18(12)23-3/h4-11,20H,1-3H3/b9-5+
SMILES=COc1ccc(C(=O)C=Cc2ccc(OC)cc2OC)c(O)c1
SCANS=1831
IONMODE=positive
COMPOUND_NAME=(2E)-3-(2,4-dimethoxyphenyl)-1-(2-hydroxy-4-methoxyphenyl)prop-2-en-1-one M+Na
SPECTRUM_ID=CCMSLIB00006687172
57.233791 2349.0 
66.937737 2265.0 
78.450104 2246.0 
92.377724 2789.0 
97.00061 2153.0 
98.355217 2335.0 
104.729591 2338.0 
118.652687 2968.0 
125.021294 16695.0 
126.363052 2756.0 
139.036255 8847.0 
169.029434 20740.0 
179.067749 3542.0 
203.030838 9433.0 
207.098846 4464.0 
212.211075 2521.0 
249.143616 2512.0 
249.181793 12106.0 
316.681976 2533.0 
317.751709 2793.0 
319.222504 3688.0 
337.104034 870689.0 
337.232391 85236.0 
END IONS

BEGIN IONS
PRECURSOR_MZ=213.052
INCHI=InChI=1S/C11H10O3/c1-6-5-10(13)14-11-7(2)9(12)4-3-8(6)11/h3-5,12H,1-2H3
SMILES=Cc1cc(=O)oc2c(C)c(O)ccc12
SCANS=14354
IONMODE=positive
COMPOUND_NAME=7-hydroxy-4,8-dimethylchromen-2-one M+Na
SPECTRUM_ID=CCMSLIB00006699695
58.575111 2300.0 
69.741257 2271.0 
82.399971 2220.0 
83.085587 2674.0 
88.075691 29644.0 
101.252571 2585.0 
138.067413 4314.0 
139.038437 3732.0 
139.070465 24907.0 
140.042511 9070.0 
140.077286 2081.0 
154.061829 22417.0 
155.065582 76073.0 
169.085403 11428.0 
170.088867 80632.0 
183.510056 2124.0 
213.052216 23220.0 
213.094193 20653.0 
213.159668 13315.0 
END IONS

BEGIN IONS
PRECURSOR_MZ=168.066
INCHI=InChI=1S/C8H9NO3/c1-5-8(12)7(4-11)6(3-10)2-9-5/h2,4,10,12H,3H2,1H3
SMILES=Cc1ncc(CO)c(C=O)c1O
SCANS=19492
IONMODE=positive
COMPOUND_NAME=pyridoxal M+H
SPECTRUM_ID=CCMSLIB00006704833
50.333019 5288.0 
53.039379 49829.0 
56.050228 12129.0 
62.9608 6293.0 
65.03936 32678.0 
67.05497 205454.0 
70.066162 5780.0 
70.631973 6259.0 
79.054787 32626.0 
80.058327 20836.0 
81.034393 19318.0 
93.057968 11054.0 
94.065727 688879.0 
95.049744 25296.0 
96.044792 11739.0 
98.061043 6825.0 
106.065643 158341.0 
108.053223 21868.0 
110.060493 12266.0 
112.039703 7721.0 
118.624573 6686.0 
122.060371 568939.0 
137.047318 5944.0 
138.054382 9061.0 
140.070694 11000.0 
148.03923 11823.0 
150.055099 2514817.0 
168.065628 1668288.0 
END IONS

BEGIN IONS
PRECURSOR_MZ=131.083
INCHI=InChI=1S/C5H12N2O2/c6-3-1-2-4(7)5(8)9/h4H,1-3,6-7H2,(H,8,9)/t4-/m1/s1
SMILES=NCCC[C@@H](N)C(=O)O
SCANS=440
IONMODE=negative
COMPOUND_NAME=D-ornithine M-H
SPECTRUM_ID=CCMSLIB00006685781
64.252998 7840.140137 
77.304298 6155.879883 
83.061302 25351.300781 
85.077003 10426.900391 
87.0448 26877.699219 
87.576103 4959.620117 
92.416603 5959.069824 
104.329002 6737.149902 
113.071999 20994.0 
114.056 6615.839844 
118.702003 7270.560059 
131.082001 1630300.0 
END IONS

BEGIN IONS
PRECURSOR_MZ=323.08
INCHI=InChI=1S/C15H16N2O4/c1-19-12-7-10(8-13(20-2)14(12)21-3)15(18)17-11-5-4-6-16-9-11/h4-9H,1-3H3,(H,17,18)
SMILES=COc1cc(C(O)=Nc2cccnc2)cc(OC)c1OC
SCANS=2152
IONMODE=negative
COMPOUND_NAME=N-(3-pyridyl)(3,4,5-trimethoxyphenyl)carboxamide M+Cl
SPECTRUM_ID=CCMSLIB00006687493
50.73843 2129.0 
60.54808 2980.0 
61.2061 2524.0 
66.754089 2493.0 
71.173691 2046.0 
73.965347 2302.0 
78.737419 2140.0 
92.39209 3122.0 
92.920517 1995.0 
106.928391 3095.0 
123.619987 2226.0 
136.228943 2775.0 
144.859894 2323.0 
146.961426 2573.0 
174.956512 5131.0 
183.173706 2359.0 
197.837387 2495.0 
204.838715 2872.0 
220.94931 2267.0 
230.134613 2541.0 
257.056549 2551.0 
287.103333 32100.0 
335.275513 2210.0 
END IONS

BEGIN IONS
PRECURSOR_MZ=412.121
INCHI=InChI=1S/C22H21NO5S/c1-13-10-20(23-22-18(26-3)7-6-17(25-2)21(13)22)29-12-15(24)14-4-5-16-19(11-14)28-9-8-27-16/h4-7,10-11H,8-9,12H2,1-3H3
SMILES=COc1ccc(OC)c2c(C)cc(SCC(=O)c3ccc4c(c3)OCCO4)nc12
SCANS=12827
IONMODE=positive
COMPOUND_NAME=1-(2H,3H-benzo[e]1,4-dioxan-6-yl)-2-(5,8-dimethoxy-4-methyl(2-quinolylthio))et han-1-one M+H
SPECTRUM_ID=CCMSLIB00006698168
53.039021 4143.0 
68.997269 4858.0 
69.033752 4966.0 
70.050484 2471.0 
72.208214 2753.0 
76.312088 3296.0 
79.054314 15563.0 
81.795937 2767.0 
91.054123 13217.0 
93.069733 13174.0 
95.012894 3707.0 
102.230751 2808.0 
103.053993 12094.0 
105.033272 5678.0 
107.012657 27970.0 
113.400482 3297.0 
121.064598 31440.0 
123.044197 23745.0 
131.049103 17090.0 
148.815399 2623.0 
149.059738 262258.0 
153.054626 10298.0 
153.262329 3612.0 
160.051559 3148.0 
163.038818 884351.0 
172.075226 6525.0 
174.055328 3272.0 
175.076004 3666.0 
177.054169 3975.0 
186.054825 6178.0 
187.062057 22914.0 
190.031418 3833.0 
192.046371 3158.0 
193.030853 6116.0 
202.031876 5400.0 
202.085709 12762.0 
205.054855 11016.0 
206.02684 10268.0 
206.063126 12671.0 
216.048004 22416.0 
217.055725 10271.0 
218.026947 329628.0 
219.034668 41871.0 
220.042618 155730.0 
232.042465 3292.0 
233.04982 46020.0 
234.058197 207491.0 
236.07486 4652.0 
246.021652 66899.0 
248.074158 74194.0 
276.06958 5458.0 
349.093506 5229.0 
356.094147 3840.0 
364.062805 17067.0 
364.117218 11416.0 
382.073822 34549.0 
412.120941 1107055.0 
END IONS

BEGIN IONS
PRECURSOR_MZ=367.123
INCHI=InChI=1S/C19H18F2N2O2/c1-12-14(15-4-2-3-5-17(15)23-12)8-9-22-19(24)11-25-18-7-6-13(20)10-16(18)21/h2-7,10,23H,8-9,11H2,1H3,(H,22,24)
SMILES=Cc1[nH]c2ccccc2c1CCN=C(O)COc1ccc(F)cc1F
SCANS=4542
IONMODE=positive
COMPOUND_NAME=2-(2,4-difluorophenoxy)-N-[2-(2-methylindol-3-yl)ethyl]acetamide M+Na
SPECTRUM_ID=CCMSLIB00006689883
69.790169 2781.0 
82.026299 3157.0 
82.395264 3046.0 
104.278221 3037.0 
149.613754 3078.0 
197.106567 3622.0 
209.375839 5162.0 
232.669769 3157.0 
238.106857 14396.0 
258.276123 2763.0 
365.311584 3078.0 
367.12207 4967507.0 
368.949188 3742.0 
END IONS

BEGIN IONS
PRECURSOR_MZ=331.085
INCHI=InChI=1S/C17H16N2O3/c1-21-15-8-5-13(11-16(15)22-2)17(20)19-14-6-3-12(4-7-14)9-10-18/h3-8,11H,9H2,1-2H3,(H,19,20)
SMILES=COc1ccc(C(=O)Nc2ccc(CC#N)cc2)cc1OC
SCANS=16630
IONMODE=negative
COMPOUND_NAME=(3,4-dimethoxyphenyl)-N-[4-(cyanomethyl)phenyl]carboxamide M+Cl
SPECTRUM_ID=CCMSLIB00006701971
54.489738 1962.0 
54.74456 2058.0 
57.898449 1923.0 
82.403923 2180.0 
87.625214 2021.0 
89.903214 2085.0 
104.298378 2911.0 
119.756577 2243.0 
136.222626 2581.0 
139.887268 2402.0 
146.288422 2411.0 
146.803894 2306.0 
159.761063 2403.0 
210.640305 3484.0 
236.356079 2177.0 
242.848831 2541.0 
265.061157 2807.0 
279.076569 2778.0 
295.108856 40629.0 
316.505371 2157.0 
END IONS

BEGIN IONS
PRECURSOR_MZ=373.172
INCHI=InChI=1S/C21H22F2N2O2/c1-3-14-5-4-6-17-16(13(2)25-21(14)17)9-10-24-20(26)12-27-19-8-7-15(22)11-18(19)23/h4-8,11,25H,3,9-10,12H2,1-2H3,(H,24,26)
SMILES=CCc1cccc2c(CCN=C(O)COc3ccc(F)cc3F)c(C)[nH]c12
SCANS=5565
IONMODE=positive
COMPOUND_NAME=2-(2,4-difluorophenoxy)-N-[2-(7-ethyl-2-methylindol-3-yl)ethyl]acetamide M+H
SPECTRUM_ID=CCMSLIB00006690906
52.737911 3363.0 
56.516869 3597.0 
71.562927 3196.0 
74.662407 3454.0 
85.05246 43739.0 
92.36631 4804.0 
98.615837 4059.0 
117.069656 7875.0 
143.07312 6417.0 
144.080032 14020.0 
145.101013 8398.0 
156.08107 19090.0 
157.088562 368850.0 
158.096313 297509.0 
160.111816 19910.0 
166.067169 5043.0 
170.095993 4893.0 
171.103943 65590.0 
172.112061 47001.0 
173.115906 41383.0 
184.112808 29897.0 
185.119446 75641.0 
185.474976 17495.0 
186.127563 13146250.0 
186.783325 20001.0 
190.334396 3930.0 
194.062347 8116.0 
201.139236 7952.0 
214.067337 109607.0 
214.087891 7285.0 
226.118744 4874.0 
243.148422 36822.0 
355.163666 5419.0 
356.145386 18951.0 
373.1716 5017149.0 
375.039825 5729.0 
382.035339 4270.0 
END IONS

BEGIN IONS
PRECURSOR_MZ=515.139
INCHI=InChI=1S/C27H24N4O5S/c1-33-21-13-18(14-22(34-2)24(21)35-3)25-30-29-23(36-25)16-37-27-28-20-12-8-7-11-19(20)26(32)31(27)15-17-9-5-4-6-10-17/h4-14H,15-16H2,1-3H3
SMILES=COc1cc(-c2nnc(CSc3nc4ccccc4c(=O)n3Cc3ccccc3)o2)cc(OC)c1OC
SCANS=7993
IONMODE=negative
COMPOUND_NAME=3-benzyl-2-{[5-(3,4,5-trimethoxyphenyl)(1,3,4-oxadiazol-2-yl)]methylthio}-3-hy droquinazolin-4-one M-H
SPECTRUM_ID=CCMSLIB00006693334
54.168571 2439.0 
54.770512 2559.0 
57.975349 5366.0 
84.539032 2413.0 
105.286713 2946.0 
118.646004 2653.0 
146.960968 5008.0 
163.027893 3187.0 
174.956131 89628.0 
176.036392 3122.0 
208.162247 15585.0 
217.565201 2941.0 
234.175064 2568.0 
242.943619 61330.0 
273.057617 2707.0 
305.063507 18479.0 
306.070068 13418.0 
310.929749 28425.0 
378.918091 35106.0 
390.977386 3290.0 
392.04187 2600.0 
394.724457 2717.0 
409.061462 3305.0 
446.901886 4547.0 
457.098175 4560.0 
485.092468 21138.0 
494.980286 3257.0 
499.113068 3840.0 
500.120239 3110.0 
514.989197 22765.0 
515.139648 288025.0 
END IONS

BEGIN IONS
PRECURSOR_MZ=335.135
INCHI=InChI=1S/C15H18N4O5/c1-5-9(16)12(21)8-6(4-24-14(17)22)15(23-2)13-7(18-13)3-19(15)10(8)11(5)20/h6-7,13,18H,3-4,16H2,1-2H3,(H2,17,22)/t6-,7+,13+,15-/m1/s1
SMILES=COC12C(COC(=N)O)C3=C(C(=O)C(C)=C(N)C3=O)N1CC1NC12
SCANS=10079
IONMODE=positive
COMPOUND_NAME=mitomycin C M+H
SPECTRUM_ID=CCMSLIB00006695420
50.14233 2943.0 
50.907452 2756.0 
56.470501 2708.0 
66.996872 2497.0 
80.840179 2659.0 
110.059837 15271.0 
137.070694 3320.0 
149.070877 3579.0 
159.055084 16184.0 
169.076462 10914.0 
171.091095 15481.0 
177.065659 3432.0 
187.086456 7116.0 
197.070877 18747.0 
198.103546 11394.0 
199.088623 20411.0 
202.073257 17231.0 
203.081177 16533.0 
213.06636 6251.0 
213.088715 4447.0 
214.075409 4298.0 
214.097458 64555.0 
215.081665 78298.0 
217.097122 11898.0 
219.076447 16581.0 
225.065155 16854.0 
227.083817 24671.0 
229.084305 18717.0 
230.09259 5012.0 
231.076111 41241.0 
232.084122 5925.0 
240.076324 4403.0 
241.08371 5815.0 
242.092041 4976135.0 
243.09816 4945.0 
244.107803 172694.0 
245.091995 27683.0 
257.091705 11363.0 
274.118011 273010.0 
333.361908 2816.0 
335.131958 138923.0 
END IONS

BEGIN IONS
PRECURSOR_MZ=377.111
INCHI=InChI=1S/C19H18N2O5/c1-20-14-7-5-4-6-13(14)18(23)21(19(20)24)11-15(22)12-8-9-16(25-2)17(10-12)26-3/h4-10H,11H2,1-3H3
SMILES=COc1ccc(C(=O)Cn2c(=O)c3ccccc3n(C)c2=O)cc1OC
SCANS=5589
IONMODE=positive
COMPOUND_NAME=3-[2-(3,4-dimethoxyphenyl)-2-oxoethyl]-1-methyl-1,3-dihydroquinazoline-2,4-dio ne M+Na
SPECTRUM_ID=CCMSLIB00006690930
58.04575 3054.0 
68.129501 2860.0 
80.826797 3216.0 
101.486557 2792.0 
117.980614 2997.0 
222.07164 2723.0 
232.600662 2876.0 
264.614655 3265.0 
362.087433 13567.0 
375.216217 3513.0 
377.110077 5245021.0 
379.015381 5613.0 
395.121826 7074.0 
END IONS

BEGIN IONS
PRECURSOR_MZ=440.163
INCHI=InChI=1S/C22H22FN3O3/c1-3-10-24-22(29)17-12-21(28)26(19-7-5-4-6-16(17)19)13-20(27)25-18-9-8-15(23)11-14(18)2/h4-9,11-12H,3,10,13H2,1-2H3,(H,24,29)(H,25,27)
SMILES=CCCN=C(O)c1cc(=O)n(CC(=O)Nc2ccc(F)cc2C)c2ccccc12
SCANS=11547
IONMODE=negative
COMPOUND_NAME=N-(4-fluoro-2-methylphenyl)-2-[2-oxo-4-(N-propylcarbamoyl)hydroquinolyl]acetam ide M+formate
SPECTRUM_ID=CCMSLIB00006696888
66.740997 3239.0 
78.843147 2345.0 
82.395607 2419.0 
104.281387 3242.0 
118.652382 2832.0 
124.056358 2998.0 
130.066528 5737.0 
132.04512 4393.0 
144.045532 21270.0 
157.966995 2961.0 
158.048218 3294.0 
158.061264 12814.0 
160.040878 13509.0 
176.071304 6154.0 
184.039703 4429.0 
199.123169 43632.0 
201.10408 5497.0 
213.103134 25148.0 
220.630875 2779.0 
229.098648 13975.0 
235.926468 11477.0 
243.114105 11694.0 
245.094391 3028.0 
266.131287 2732.0 
269.093262 4816.0 
275.103271 4395.0 
281.344635 2696.0 
309.10434 17879.0 
394.15683 421455.0 
END IONS

BEGIN IONS
PRECURSOR_MZ=765.164
INCHI=InChI=1S/C35H34O18/c1-15(36)44-14-29-32(49-19(5)40)33(50-20(6)41)34(51-21(7)42)35(53-29)52-23-11-27-30(28(12-23)48-18(4)39)31(43)24(13-45-27)22-8-9-25(46-16(2)37)26(10-22)47-17(3)38/h8-13,29,32-35H,14H2,1-7H3
SMILES=CC(=O)OCC1OC(Oc2cc(OC(C)=O)c3c(=O)c(-c4ccc(OC(C)=O)c(OC(C)=O)c4)coc3c2)C(OC(C)=O)C(OC(C)=O)C1OC(C)=O
SCANS=20745
IONMODE=positive
COMPOUND_NAME=Orobole 7-O-Glucoside, Acetate M+Na
SPECTRUM_ID=CCMSLIB00006706086
54.2766 4008.0 
58.565319 3312.0 
67.074097 3498.0 
81.03363 35999.0 
82.394096 4816.0 
97.027817 23420.0 
109.028397 73914.0 
114.896072 3974.0 
127.038696 46604.0 
136.205643 4599.0 
169.048767 5012.0 
211.461105 5064.0 
251.051422 4356.0 
351.045624 45635.0 
353.082306 4764.0 
392.051788 6989.0 
393.05777 137924.0 
393.110352 7445.0 
417.892883 3917.0 
432.729614 4855.0 
435.068024 4222530.0 
705.141174 6980.0 
765.163086 825386.0 
END IONS

BEGIN IONS
PRECURSOR_MZ=359.124
INCHI=InChI=1S/C18H18N2O6/c1-9(2)24-18(23)14-13(10-4-3-5-20-7-10)16-15(26-17(14)19)12(22)6-11(8-21)25-16/h3-7,9,13,21H,8,19H2,1-2H3
SMILES=CC(C)OC(=O)C1=C(N)Oc2c(oc(CO)cc2=O)C1c1cccnc1
SCANS=4408
IONMODE=positive
COMPOUND_NAME=methylethyl 2-amino-6-(hydroxymethyl)-8-oxo-4-(3-pyridyl)-4H-pyrano[3,2-b]pyra n-3-carboxylate M+H
SPECTRUM_ID=CCMSLIB00006689749
50.293789 3090.0 
67.018059 28408.0 
70.56459 3362.0 
80.049698 19021.0 
81.756104 4273.0 
82.402893 4566.0 
90.560516 4559.0 
97.028374 7303.0 
98.053307 3837.0 
101.022926 7536.0 
104.292152 3523.0 
106.028214 15928.0 
120.04454 9416.0 
125.023041 17718.0 
143.059158 7390.0 
157.039474 41668.0 
159.055161 23591.0 
169.039413 33852.0 
169.074982 5487.0 
171.055161 32708.0 
175.050583 27589.0 
175.659897 3905.0 
179.060638 5335.0 
183.055435 4087.0 
185.034073 117909.0 
187.049713 78836.0 
197.035812 40088.0 
197.070618 153091.0 
198.054062 9020.0 
199.049606 36630.0 
204.065491 16900.0 
209.071228 5483.0 
211.049255 6741.0 
212.058533 4951.0 
213.065674 74016.0 
215.044998 15591.0 
220.023651 17790.0 
225.065628 104068.0 
226.049835 16551.0 
232.05983 818093.0 
233.067719 16459.0 
235.049988 4784.0 
237.064575 8278.0 
238.033264 59736.0 
241.061798 27834.0 
243.039246 5072.0 
243.07518 16384.0 
244.06105 6131.0 
252.051865 5082.0 
253.059982 590281.0 
254.04364 38345.0 
255.07399 5918.0 
256.05899 38946.0 
271.069458 92783.0 
273.08667 22285.0 
280.082367 4699.0 
281.054718 346811.0 
282.038635 15999.0 
298.05899 6236.0 
299.065399 5666461.0 
300.047729 5138.0 
317.075836 1717516.0 
358.117462 3753.0 
359.122681 11542459.0 
END IONS

BEGIN IONS
PRECURSOR_MZ=387.113
INCHI=InChI=1S/C18H20N4O4S/c1-4-26-13(23)10-27-18-19-15-14(16(24)20-17(25)21(15)3)22(18)9-12-7-5-6-11(2)8-12/h5-8H,4,9-10H2,1-3H3,(H,20,24,25)
SMILES=CCOC(=O)CSc1nc2c(c(O)nc(=O)n2C)n1Cc1cccc(C)c1
SCANS=20344
IONMODE=negative
COMPOUND_NAME=ethyl 2-{3-methyl-7-[(3-methylphenyl)methyl]-2,6-dioxo-1,3,7-trihydropurin-8-y lthio}acetate M-H
SPECTRUM_ID=CCMSLIB00006705685
54.36483 2592.0 
57.97517 247034.0 
58.40937 2184.0 
60.208431 2092.0 
68.994667 2217.0 
74.94548 2279.0 
82.40313 2882.0 
92.995567 2813.0 
196.006683 2620.0 
216.988983 8633.0 
254.986832 3975.0 
282.982269 5479.0 
302.986633 3595.0 
313.856384 2467.0 
341.066711 2930.0 
386.980103 3445.0 
411.44516 2416.0 
END IONS

BEGIN IONS
PRECURSOR_MZ=645.08
INCHI=InChI=1S/C32H26BrClN2O3/c1-20-27(19-30(37)35-31(21-6-4-3-5-7-21)22-8-12-24(33)13-9-22)28-18-26(39-2)16-17-29(28)36(20)32(38)23-10-14-25(34)15-11-23/h3-18,31H,19H2,1-2H3,(H,35,37)
SMILES=COc1ccc2c(c1)c(CC(O)=NC(c1ccccc1)c1ccc(Br)cc1)c(C)n2C(=O)c1ccc(Cl)cc1
SCANS=22560
IONMODE=negative
COMPOUND_NAME=N-[(4-bromophenyl)phenylmethyl]-2-{1-[(4-chlorophenyl)carbonyl]-5-methoxy-2-me thylindol-3-yl}acetamide M+formate
SPECTRUM_ID=CCMSLIB00006707901
92.405563 4544.0 
97.518387 3222.0 
100.049156 3197.0 
102.035027 25570.0 
107.916763 3623.0 
110.919189 5036.0 
111.000717 42920.0 
112.563568 3393.0 
120.442902 3179.0 
144.045197 19258.0 
150.877487 3347.0 
153.011551 18324.0 
154.99054 48179.0 
157.053009 56144.0 
158.06076 578979.0 
173.047699 4006.0 
246.05513 7283.0 
253.033478 4616.0 
254.037476 67701.0 
255.045151 188373.0 
261.079926 14881.0 
267.042969 4762.0 
268.052734 52761.0 
269.027496 10030.0 
269.060791 192398.0 
270.069305 25548.0 
279.044342 7404.0 
281.02475 4453.0 
282.032562 418850.0 
283.037079 4684.0 
285.986267 92622.0 
295.039612 13387.0 
296.04895 86481.0 
297.055786 438881.0 
301.049988 5946.0 
312.079437 295590.0 
329.047943 13735.0 
455.884888 3717.0 
461.086853 52369.0 
514.940918 4087.0 
568.719666 3834.0 
571.083618 4668.0 
580.972107 14243.0 
597.06543 12293.0 
599.07428 1483830.0 
END IONS

BEGIN IONS
PRECURSOR_MZ=386.179
INCHI=InChI=1S/C25H23FN2O/c1-29-20-12-8-18(9-13-20)25-24-22(21-4-2-3-5-23(21)27-24)14-15-28(25)16-17-6-10-19(26)11-7-17/h2-13,25,27H,14-16H2,1H3
SMILES=COc1ccc(C2c3[nH]c4ccccc4c3CCN2Cc2ccc(F)cc2)cc1
SCANS=12892
IONMODE=positive
COMPOUND_NAME=1-{2-[(4-fluorophenyl)methyl](1,2,3,4-tetrahydrobeta-carbolinyl)}-4-methoxyben zene M-e
SPECTRUM_ID=CCMSLIB00006698233
75.124763 2406.0 
81.858307 2487.0 
82.436142 3055.0 
83.029457 18732.0 
83.859123 2482.0 
84.032722 2774.0 
85.220497 2232.0 
106.065071 2902.0 
109.044777 904730.0 
110.048088 339455.0 
110.056969 6515.0 
130.064941 10156.0 
131.066757 2950.0 
135.060349 18554.0 
136.064194 13682.0 
140.810074 3019.0 
143.072723 16153.0 
144.076645 9544.0 
156.081223 9427.0 
157.084167 3218.0 
218.093323 3660.0 
219.099457 2999.0 
220.096298 11373.0 
232.098495 4156.0 
233.078903 3181.0 
233.102966 17195.0 
237.092438 6257.0 
238.098587 6188.0 
239.094681 12140.0 
245.107239 4374.0 
246.111115 6166.0 
248.10524 5408.0 
249.110184 11927.0 
252.118668 30842.0 
253.121155 72891.0 
254.080688 2910.0 
260.094482 10939.0 
261.098785 20915.0 
268.0961 3200.0 
275.117706 70742.0 
276.120972 164447.0 
277.128845 22604.0 
280.096466 11171.0 
308.089691 5497.0 
308.127228 3016.0 
323.114746 10188.0 
328.118744 3166.0 
340.117706 4515.0 
354.132019 13236.0 
356.111847 19260.0 
370.132416 12670.0 
386.173248 1014967.0 
401.792847 3693.0 
689.396973 3242.0 
END IONS

BEGIN IONS
PRECURSOR_MZ=164.029
INCHI=InChI=1S/C4H9NO3/c1-2(6)3(5)4(7)8/h2-3,6H,5H2,1H3,(H,7,8)/t2-,3-/m0/s1
SMILES=C[C@H](O)[C@H](N)C(=O)O
SCANS=925
IONMODE=positive
COMPOUND_NAME=L-Allothreonine M-H+2Na
SPECTRUM_ID=CCMSLIB00006686266
53.221901 1940.189941 
58.0658 2262.75 
58.721699 2222.97998 
62.9823 299207.0 
84.270599 2095.699951 
92.398201 2984.820068 
100.977997 2118.790039 
102.819 2613.899902 
120.002998 475350.0 
120.101997 3691.110107 
136.244003 2339.280029 
162.483002 2038.630005 
164.029007 219030.0 
164.072998 51246.300781 
164.106003 3105.149902 
164.110992 2762.100098 
164.128006 45393.898438 
165.917007 1965.579956 
END IONS

BEGIN IONS
PRECURSOR_MZ=335.089
INCHI=InChI=1S/C18H16O5/c1-20-14-9-8-11(10-15(14)21-2)17-18(22-3)16(19)12-6-4-5-7-13(12)23-17/h4-10H,1-3H3
SMILES=COc1ccc(-c2oc3ccccc3c(=O)c2OC)cc1OC
SCANS=4811
IONMODE=positive
COMPOUND_NAME=3,3',4'-Trimethoxyflavone M+Na
SPECTRUM_ID=CCMSLIB00006690152
60.533901 2272.0 
61.98225 2509.0 
66.738297 2972.0 
118.615631 2737.0 
258.516663 2619.0 
259.027527 2779.0 
288.210693 2700.0 
320.064453 80008.0 
335.088257 2681114.0 
353.09848 27102.0 
END IONS

BEGIN IONS
PRECURSOR_MZ=374.093
INCHI=InChI=1S/C16H17N5O4S/c1-21-14-13(15(23)18-8-17-14)20-16(21)26-7-12(22)19-9-4-10(24-2)6-11(5-9)25-3/h4-6,8H,7H2,1-3H3,(H,19,22)(H,17,18,23)
SMILES=COc1cc(N=C(O)CSc2nc3c(O)ncnc3n2C)cc(OC)c1
SCANS=7834
IONMODE=negative
COMPOUND_NAME=N-(3,5-dimethoxyphenyl)-2-(9-methyl-6-oxohydropurin-8-ylthio)acetamide M-H
SPECTRUM_ID=CCMSLIB00006693175
52.15572 2632.0 
57.974991 2808.0 
70.694748 2664.0 
73.973534 3913.0 
79.0298 6079.0 
82.418808 2450.0 
104.312187 3808.0 
134.022263 3091.0 
136.244659 3603.0 
149.046722 487103.0 
152.029236 25225.0 
160.040405 2569.0 
164.05751 3037.0 
165.041733 17230.0 
176.035065 20562.0 
177.06691 3155.0 
179.003586 15751.0 
180.011002 710462.0 
181.018829 334348.0 
193.018143 34770.0 
193.990845 22063.0 
195.03447 160299.0 
208.006271 3118.0 
209.015091 27863.0 
212.99411 3596.0 
221.01384 117932.0 
224.038467 142209.0 
240.157959 2718.0 
285.086243 5114.0 
300.110229 128274.0 
331.0867 10832.0 
374.092621 1520149.0 
END IONS

BEGIN IONS
PRECURSOR_MZ=513.103
INCHI=InChI=1S/C25H20O12/c1-11(26)32-17-9-20(35-14(4)29)22-21(10-17)37-24(25(23(22)31)36-15(5)30)16-6-7-18(33-12(2)27)19(8-16)34-13(3)28/h6-10H,1-5H3
SMILES=CC(=O)Oc1cc(OC(C)=O)c2c(=O)c(OC(C)=O)c(-c3ccc(OC(C)=O)c(OC(C)=O)c3)oc2c1
SCANS=7233
IONMODE=positive
COMPOUND_NAME=Peracetate Quercetin M+H
SPECTRUM_ID=CCMSLIB00006692574
83.975517 3372.0 
185.368744 3605.0 
209.57608 4243.0 
209.595963 7962.0 
285.038849 18363.0 
302.043427 8760.0 
303.049438 975922.0 
327.049103 6208.0 
344.054077 8838.0 
345.06015 3231702.0 
369.059692 16178.0 
386.064728 7966.0 
387.070496 2120557.0 
428.071777 4072.0 
429.081085 3525634.0 
471.091766 3161732.0 
485.036682 6054.0 
490.837677 4437.0 
513.102966 183206.0 
END IONS

BEGIN IONS
PRECURSOR_MZ=325.083
INCHI=InChI=1S/C17H14N2O5/c20-17-16(19(21)22)15(13-8-4-5-9-14(13)24-17)18-10-11-23-12-6-2-1-3-7-12/h1-9,18H,10-11H2
SMILES=O=c1oc2ccccc2c(NCCOc2ccccc2)c1[N+](=O)[O-]
SCANS=2184
IONMODE=negative
COMPOUND_NAME=3-nitro-4-[(2-phenoxyethyl)amino]chromen-2-one M-H
SPECTRUM_ID=CCMSLIB00006687525
52.112061 2541.0 
60.550732 2644.0 
67.0299 6241.0 
70.248779 2839.0 
92.050453 53422.0 
93.034538 1421035.0 
95.265709 3242.0 
102.034767 4961.0 
104.454597 2623.0 
105.816879 3145.0 
116.050873 17077.0 
117.034531 4191.0 
118.029968 465506.0 
120.045563 10356.0 
121.02961 4445.0 
127.030602 3946.0 
131.037918 19833.0 
132.045364 6205.0 
133.029449 12420.0 
141.046127 3502.0 
142.029648 3138.0 
143.025223 20837.0 
144.045929 14222.0 
145.041473 5260.0 
146.025055 15475.0 
146.061447 23921.0 
150.055862 26636.0 
157.040634 10064.0 
159.056519 6184.0 
160.040359 33256.0 
161.024704 12015.0 
169.041077 16766.0 
170.048676 19695.0 
171.020264 5025.0 
171.057022 5639.0 
172.028076 22441.0 
173.048782 11354.0 
174.056259 40554.0 
184.040894 18037.0 
185.035675 50880.0 
189.031418 3588.0 
190.01442 10564.0 
191.022919 46440.0 
200.02301 166724.0 
200.044205 5569.0 
201.045944 60749.0 
202.051285 237282.0 
211.141815 7643.0 
213.030914 121424.0 
214.038696 146715.0 
231.04184 36008.0 
254.987152 3549.0 
261.067627 28573.0 
273.067993 12401.0 
280.985107 3443.0 
288.053711 5142.0 
289.061737 117923.0 
290.069855 188739.0 
304.982941 198955.0 
324.992462 87622.0 
325.083221 1202518.0 
END IONS

BEGIN IONS
PRECURSOR_MZ=195.052
INCHI=InChI=1S/C7H8N4O3/c1-10-4-3(8-6(10)13)5(12)11(2)7(14)9-4/h1-2H3,(H,8,13)(H,9,14)
SMILES=Cn1c(O)nc2c(nc(O)n2C)c1=O
SCANS=23171
IONMODE=negative
COMPOUND_NAME=1,9-Dimethyluric acid M-H
SPECTRUM_ID=CCMSLIB00006708512
54.056789 2320.0 
59.69046 2283.0 
63.958698 2423.0 
67.99958 2344.0 
70.187523 2434.0 
79.017174 2633.0 
81.009216 11386.0 
83.025253 2371.0 
84.250801 2296.0 
85.646172 2280.0 
123.007202 12325.0 
124.051582 3025.0 
135.031372 3706.0 
136.038803 47457.0 
137.022949 677216.0 
138.030655 93301.0 
139.216599 2642.0 
142.437317 2821.0 
150.915085 2845.0 
151.0625 22576.0 
152.046555 56121.0 
180.029099 4614.0 
195.052231 3309261.0 
209.822174 5069.0 
END IONS

BEGIN IONS
PRECURSOR_MZ=357.109
INCHI=InChI=1S/C17H16N2O4/c18-16(20)13(8-11-4-2-1-3-5-11)19-17(21)12-6-7-14-15(9-12)23-10-22-14/h1-7,9,13H,8,10H2,(H2,18,20)(H,19,21)
SMILES=N=C(O)C(Cc1ccccc1)N=C(O)c1ccc2c(c1)OCO2
SCANS=18138
IONMODE=negative
COMPOUND_NAME=2H-benzo[3,4-d]1,3-dioxolen-5-yl-N-(1-carbamoyl-2-phenylethyl)carboxamide M+formate
SPECTRUM_ID=CCMSLIB00006703479
59.43475 2566.0 
80.572021 2757.0 
107.150589 2259.0 
123.142708 2717.0 
146.060974 26501.0 
157.981873 3021.0 
164.035004 113734.0 
176.036057 2630.0 
181.904327 2334.0 
188.681656 2150.0 
220.049515 3707.0 
224.861435 3966.0 
311.10379 279392.0 
END IONS

BEGIN IONS
PRECURSOR_MZ=341.113
INCHI=InChI=1S/C18H16N2O5/c1-22-13-5-9(6-14-17(13)24-8-23-14)15-10(7-19)18(20)25-12-4-2-3-11(21)16(12)15/h5-6,15H,2-4,8,20H2,1H3
SMILES=COc1cc(C2C(C#N)=C(N)OC3=C2C(=O)CCC3)cc2c1OCO2
SCANS=11608
IONMODE=positive
COMPOUND_NAME=2-amino-4-(7-methoxy(2H-benzo[3,4-d]1,3-dioxolan-5-yl))-5-oxo-4H-6,7,8-trihydr ochromene-3-carbonitrile M+H
SPECTRUM_ID=CCMSLIB00006696949
55.018639 3586.0 
55.352951 2428.0 
82.404259 3038.0 
135.595596 2718.0 
144.043823 3894.0 
147.055038 105644.0 
151.038269 4379.0 
153.054169 6302.0 
161.070557 4170.0 
189.065536 2952303.0 
229.059753 11113.0 
256.096619 4183.0 
264.062531 4172.0 
275.090393 17313.0 
284.077576 11092.0 
285.082458 38945.0 
286.069 2956.0 
301.093781 37319.0 
309.085327 6400.0 
310.089722 95399.0 
311.099823 4040.0 
313.075012 23183.0 
314.101471 178080.0 
323.10083 19276.0 
324.08551 17284.0 
326.085022 22132.0 
340.099976 15853.0 
341.112274 878744.0 
END IONS

BEGIN IONS
PRECURSOR_MZ=853.165
INCHI=InChI=1S/C18H23BrN2O5/c1-6-21-10(4)14(17(23)26-9(2)3)15(20-18(21)24)11-7-12(19)16(22)13(8-11)25-5/h7-9,15,22H,6H2,1-5H3,(H,20,24)
SMILES=CCN1C(O)=NC(c2cc(Br)c(O)c(OC)c2)C(C(=O)OC(C)C)=C1C
SCANS=19419
IONMODE=positive
COMPOUND_NAME=methylethyl 6-(3-bromo-4-hydroxy-5-methoxyphenyl)-3-ethyl-4-methyl-2-oxo-1,3,6 -trihydropyrimidine-5-carboxylate 2M+H
SPECTRUM_ID=CCMSLIB00006704760
122.059387 7970.0 
124.052147 5134.0 
126.042267 3973.0 
130.086227 180854.0 
137.034378 17062.0 
140.070358 5024.0 
150.0672 4547.0 
155.044998 80144.0 
156.065414 83214.0 
159.044449 4870.0 
172.133102 362502.0 
174.067703 25617.0 
176.046509 19170.0 
177.042389 9171.0 
183.07634 67358.0 
185.37793 4919.0 
187.945923 4691.0 
198.112015 21814.0 
212.942383 31091.0 
214.969727 22543.0 
217.073898 10076.0 
218.057907 14061.0 
225.122772 26833.0 
227.966187 8066.0 
228.949448 72665.0 
228.985626 52971.0 
229.980148 5418.0 
230.965118 9398.0 
240.937134 56110.0 
240.984375 5887.0 
252.985596 64293.0 
254.964935 72956.0 
255.960098 810368.0 
267.996613 61065.0 
270.012024 22354.0 
278.965668 31281.0 
279.213257 4160.0 
280.980743 6238.0 
295.990387 22560.0 
296.026947 15996.0 
296.976257 27426.0 
298.043976 5715.0 
314.004578 5877.0 
324.022705 65293.0 
342.033325 116956.0 
384.080017 63438.0 
385.037659 22511.0 
400.184296 4369.0 
427.085785 1302212.0 
468.109009 6722.0 
1041.886719 4036.0 
1171.330688 4741.0 
END IONS

BEGIN IONS
PRECURSOR_MZ=269.046
INCHI=InChI=1S/C15H10O5/c16-9-5-4-8(6-11(9)18)14-7-12(19)15-10(17)2-1-3-13(15)20-14/h1-7,16-18H
SMILES=O=c1cc(-c2ccc(O)c(O)c2)oc2cccc(O)c12
SCANS=13547
IONMODE=negative
COMPOUND_NAME=5,3',4'-Trihydroxyflavone M-H
SPECTRUM_ID=CCMSLIB00006698888
65.002953 203898.0 
67.018539 69237.0 
68.997833 111063.0 
70.31134 44666.0 
73.829308 54395.0 
73.96022 52729.0 
84.572899 49700.0 
89.039253 81513.0 
91.018806 7667976.0 
92.385117 55453.0 
93.034477 73036.0 
95.013878 58991.0 
95.049744 51539.0 
99.386292 42365.0 
105.034218 279672.0 
109.029266 309175.0 
115.019127 57112.0 
116.314049 55890.0 
117.034569 84210.0 
121.029671 557939.0 
123.008118 58261.0 
123.045326 51516.0 
132.021454 946740.0 
133.029449 72061824.0 
135.008698 23181720.0 
141.07045 106229.0 
143.050018 232198.0 
145.029144 266874.0 
147.007385 50352.0 
148.016159 221642.0 
153.019272 287342.0 
153.070114 48735.0 
154.042404 49723.0 
155.0504 66145.0 
157.02916 263329.0 
160.015533 61125.0 
161.024231 2118784.0 
161.039413 71007.0 
163.039764 159213.0 
167.049927 383689.0 
169.06572 1534766.0 
171.044998 979432.0 
173.024231 782758.0 
175.03978 1502831.0 
177.019653 65931.0 
180.057999 177767.0 
181.066101 525457.0 
182.036804 496777.0 
183.044815 707059.0 
185.024338 335594.0 
185.060471 537190.0 
195.045212 1259745.0 
196.052902 715751.0 
197.060547 2625831.0 
198.031937 1348172.0 
199.039917 3794405.0 
201.01918 4219225.0 
201.053833 159616.0 
207.045364 990108.0 
208.053024 274893.0 
209.814743 78170.0 
210.032196 261208.0 
211.040298 676392.0 
213.055573 3172357.0 
214.026779 77168.0 
222.031555 98751.0 
223.039963 1716319.0 
224.047699 1616866.0 
225.018372 84199.0 
225.055725 3730717.0 
226.027405 770943.0 
227.034821 8437860.0 
230.021835 69669.0 
239.035355 106597.0 
240.042542 458811.0 
241.050552 3606760.0 
250.025879 229591.0 
251.034851 3563149.0 
252.042847 72238.0 
254.021698 195538.0 
256.03833 98509.0 
267.02829 206485.0 
268.038635 458514.0 
269.045563 161111776.0 
END IONS

BEGIN IONS
PRECURSOR_MZ=991.254
INCHI=InChI=1S/C25H24N2O7S/c1-32-21-12-17(13-22(33-2)23(21)34-3)14-26-35(30,31)18-10-8-16(9-11-18)15-27-24(28)19-6-4-5-7-20(19)25(27)29/h4-13,26H,14-15H2,1-3H3
SMILES=COc1cc(CNS(=O)(=O)c2ccc(CN3C(=O)c4ccccc4C3=O)cc2)cc(OC)c1OC
SCANS=6802
IONMODE=negative
COMPOUND_NAME=2-{[4-({[(3,4,5-trimethoxyphenyl)methyl]amino}sulfonyl)phenyl]methyl}benzo[c]a zolidine-1,3-dione 2M-H
SPECTRUM_ID=CCMSLIB00006692143
81.756432 4752.0 
81.864273 4058.0 
112.986214 6514.0 
120.144821 3975.0 
146.024673 188182.0 
146.036911 7790.0 
174.955933 8786.0 
178.051346 21319.0 
300.033783 64022.0 
315.042023 4665.0 
435.066986 6280.0 
464.069031 27937.0 
465.076782 21519.0 
479.092621 151532.0 
495.12384 1219785.0 
END IONS

BEGIN IONS
PRECURSOR_MZ=419.279
INCHI=InChI=1S/C25H38O5/c1-14(26)20-8-9-21-19-7-6-17-12-18(29-15(2)27)10-11-24(17,4)22(19)13-23(25(20,21)5)30-16(3)28/h17-23H,6-13H2,1-5H3/t17-,18-,19+,20-,21+,22+,23+,24+,25-/m1/s1
SMILES=CC(=O)OC1CCC2(C)C(CCC3C2CC(OC(C)=O)C2(C)C(C(C)=O)CCC32)C1
SCANS=4495
IONMODE=positive
COMPOUND_NAME=ST082265 M+H
SPECTRUM_ID=CCMSLIB00006689836
55.15279 2261.0 
64.070557 2147.0 
85.06472 2902.0 
90.976547 3980.0 
104.137787 2317.0 
121.028282 2410.0 
138.980209 3203.0 
159.115646 3132.0 
164.901398 2106.0 
168.631546 2234.0 
183.538544 2370.0 
189.127182 9595.0 
208.23024 11553.0 
208.251144 2820.0 
281.225708 29390.0 
299.237091 74214.0 
350.890778 8996.0 
359.25824 67520.0 
397.203888 9531.0 
415.214233 5257.0 
419.219391 25204.0 
419.274597 9990.0 
END IONS

BEGIN IONS
PRECURSOR_MZ=452.126
INCHI=InChI=1S/C23H20FN3O6/c1-31-17-10-12(4-9-16(17)28)18-15(11-25)21(26)27(14-7-5-13(24)6-8-14)20(23(30)33-3)19(18)22(29)32-2/h4-10,18,28H,26H2,1-3H3
SMILES=COC(=O)C1=C(C(=O)OC)N(c2ccc(F)cc2)C(N)=C(C#N)C1c1ccc(O)c(OC)c1
SCANS=17555
IONMODE=negative
COMPOUND_NAME=methyl 6-amino-5-cyano-1-(4-fluorophenyl)-4-(4-hydroxy-3-methoxyphenyl)-3-(met hoxycarbonyl)-1,4-dihydropyridine-2-carboxylate M-H
SPECTRUM_ID=CCMSLIB00006702896
54.776951 2487.0 
57.78973 2200.0 
65.014091 254661.0 
65.998199 6279.0 
66.560638 2657.0 
75.008171 2596.0 
110.04081 2735.0 
118.275307 2877.0 
118.666634 2719.0 
121.028717 3313.0 
123.008926 9768.0 
134.03743 10815.0 
135.032547 18077.0 
142.354904 2497.0 
149.060623 2593.0 
150.056305 17618.0 
152.451324 2793.0 
156.032791 6260.0 
157.016647 3821.0 
159.035797 4317.0 
175.04007 3030.0 
184.026779 21745.0 
199.052002 14549.0 
205.050827 10811.0 
207.041107 6311.0 
216.029419 2640.0 
217.038498 12355.0 
220.042236 3136.0 
252.046432 18496.0 
253.054352 2889.0 
258.068604 30389.0 
261.040771 6085.0 
280.042572 4854.0 
284.07254 5983.0 
294.068573 17076.0 
312.068542 4771.0 
371.080139 4585.0 
386.104645 235455.0 
420.099304 64681.0 
452.125122 11065.0 
END IONS

BEGIN IONS
PRECURSOR_MZ=277.118
INCHI=InChI=1S/C14H16N2O4/c1-3-20-13(18)11-8(2)15-14(19)16-12(11)9-4-6-10(17)7-5-9/h4-7,12,17H,3H2,1-2H3,(H2,15,16,19)
SMILES=CCOC(=O)C1=C(C)N=C(O)NC1c1ccc(O)cc1
SCANS=19225
IONMODE=positive
COMPOUND_NAME=ethyl 6-(4-hydroxyphenyl)-4-methyl-2-oxo-1,3,6-trihydropyrimidine-5-carboxylat e M+H
SPECTRUM_ID=CCMSLIB00006704566
53.135349 3315.0 
55.90115 3284.0 
60.044788 37198.0 
61.028782 16142.0 
61.040131 5497.0 
65.038933 6231.0 
67.018204 29525.0 
67.054626 50728.0 
68.01342 18506.0 
68.058029 25087.0 
69.992661 8271.0 
79.000603 2984.0 
81.069839 6331.0 
84.04464 57150.0 
84.960342 4196.0 
85.028358 14890.0 
85.039726 12880.0 
86.023613 32524.0 
88.075928 35729.0 
91.054329 81313.0 
94.028816 67147.0 
95.049294 58370.0 
100.08033 3133.0 
103.054123 74474.0 
105.069908 8200.0 
107.04911 44470.0 
107.085579 4284.0 
108.052353 7622.0 
108.088966 4042.0 
109.101227 33096.0 
110.023819 8241.0 
110.104462 18988.0 
113.059837 18737.0 
114.054863 22848.0 
115.053947 58777.0 
117.058762 9712.0 
117.069778 121541.0 
118.065041 17952.0 
119.049072 237083.0 
120.044456 7451.0 
121.064796 23711.0 
122.059937 647285.0 
123.043938 329888.0 
123.059341 5092.0 
124.119987 4896.0 
127.054413 4903.0 
128.214539 3849.0 
130.065048 20580.0 
131.048981 41961.0 
132.044159 3943.0 
132.08078 97258.0 
133.06456 31352.0 
134.068039 5779.0 
135.080338 53027.0 
136.083694 57555.0 
137.034576 6128.0 
143.049118 12054.0 
143.072861 4793.0 
144.056808 89006.0 
145.064697 741578.0 
146.059647 84132.0 
147.043945 3013474.0 
147.508286 3710.0 
148.038956 30067.0 
150.091446 4395.0 
151.075226 275437.0 
151.096207 11664.0 
155.044891 13665.0 
155.060257 58091.0 
155.246887 3758.0 
158.060043 42465.0 
158.072037 5654.0 
159.06781 18352.0 
160.075577 2739603.0 
161.059372 32176.0 
162.089981 4654.0 
163.094543 7151.0 
171.043762 489955.0 
172.039139 17715.0 
173.05954 13985.0 
173.096024 7992.0 
174.100098 4119.0 
183.077209 13282.0 
185.407074 4131.0 
186.054642 123576.0 
188.070404 1639761.0 
189.054382 162282.0 
190.085953 18668.0 
206.080643 5953.0 
214.0495 152731.0 
216.066071 8107.0 
217.085831 194386.0 
230.16185 6475.0 
231.076035 245937.0 
231.157303 7251.0 
234.112091 1464132.0 
259.188141 312138.0 
260.05954 7881.0 
260.091156 301537.0 
277.117828 1618704.0 
277.197357 295118.0 
318.144318 13240.0 
383.104889 3487.0 
569.375977 3370.0 
END IONS

BEGIN IONS
PRECURSOR_MZ=478.187
INCHI=InChI=1S/C26H27NO5/c1-17-8-10-19(11-9-17)31-13-12-27-18(2)24(26(29)32-15-14-30-3)22-16-23(28)20-6-4-5-7-21(20)25(22)27/h4-11,16,28H,12-15H2,1-3H3
SMILES=COCCOC(=O)c1c(C)n(CCOc2ccc(C)cc2)c2c1cc(O)c1ccccc12
SCANS=8960
IONMODE=negative
COMPOUND_NAME=2-methoxyethyl 5-hydroxy-2-methyl-1-[2-(4-methylphenoxy)ethyl]benzo[g]indole-3 -carboxylate M+formate
SPECTRUM_ID=CCMSLIB00006694301
53.096619 2213.0 
56.04047 2470.0 
56.569809 2257.0 
72.570137 2089.0 
82.416283 3173.0 
92.578552 2765.0 
118.679802 3416.0 
213.663177 2624.0 
237.224075 2537.0 
297.100983 28126.0 
342.869232 2888.0 
426.223114 3000.0 
432.18158 33626.0 
END IONS

BEGIN IONS
PRECURSOR_MZ=243.16
INCHI=InChI=1S/C13H24O4/c1-2-3-4-5-6-8-11(13(16)17)9-7-10-12(14)15/h11H,2-10H2,1H3,(H,14,15)(H,16,17)
SMILES=CCCCCCCC(CCCC(=O)O)C(=O)O
SCANS=4425
IONMODE=negative
COMPOUND_NAME=2-heptylhexanedioic acid M-H
SPECTRUM_ID=CCMSLIB00006689766
59.013241 138296.0 
71.01358 42836.0 
73.835762 32383.0 
74.562576 30875.0 
80.026459 138245.0 
81.034187 62127.0 
82.399719 41738.0 
83.049911 1090425.0 
95.050209 52179.0 
106.700348 38677.0 
141.128052 69064.0 
152.423935 34451.0 
153.128143 505620.0 
157.123444 53527.0 
174.95546 132191.0 
179.143982 5352054.0 
180.989777 48796.0 
181.159668 56099784.0 
199.170303 24533526.0 
208.087769 180582.0 
225.149765 950813.0 
242.173691 132374.0 
242.898376 115350.0 
243.160141 135503344.0 
244.153061 70483.0 
END IONS

BEGIN IONS
PRECURSOR_MZ=322.141
INCHI=InChI=1S/C18H21NO3/c1-13(14-7-5-4-6-8-14)12-19-18(20)15-9-10-16(21-2)17(11-15)22-3/h4-11,13H,12H2,1-3H3,(H,19,20)
SMILES=COc1ccc(C(O)=NCC(C)c2ccccc2)cc1OC
SCANS=2880
IONMODE=positive
COMPOUND_NAME=(3,4-dimethoxyphenyl)-N-(2-phenylpropyl)carboxamide M+Na
SPECTRUM_ID=CCMSLIB00006688221
51.664001 3158.0 
67.749557 3193.0 
104.284523 3488.0 
110.458382 2756.0 
140.384201 3034.0 
157.975113 4576.0 
170.242294 3667.0 
307.117096 10112.0 
320.649048 6101.0 
322.1409 5972205.0 
323.644043 5603.0 
330.88501 3414.0 
END IONS

BEGIN IONS
PRECURSOR_MZ=301.104
INCHI=InChI=1S/C11H16N2O5/c1-2-6-4-13(11(17)12-10(6)16)9-3-7(15)8(5-14)18-9/h4,7-9,14-15H,2-3,5H2,1H3,(H,12,16,17)
SMILES=CCc1cn(C2CC(O)C(CO)O2)c(=O)nc1O
SCANS=21926
IONMODE=negative
COMPOUND_NAME=5-Ethyl-2'-deoxyuridine M+formate
SPECTRUM_ID=CCMSLIB00006707267
60.231689 1929.0 
66.646408 2032.0 
82.410767 3428.0 
91.245918 2334.0 
104.30291 2924.0 
109.789917 2289.0 
134.030319 2196.0 
136.23555 2449.0 
136.93248 12911.0 
139.051636 4441.0 
159.641052 2184.0 
164.927139 16487.0 
165.068039 2610.0 
174.9561 3559.0 
214.914688 14429.0 
232.92485 16100.0 
254.90773 8909.0 
255.098907 336313.0 
264.656952 2644.0 
END IONS

BEGIN IONS
PRECURSOR_MZ=179.167
INCHI=InChI=1S/C24H40N2/c1-16-20-8-9-22-19-7-6-17-14-18(25(3)4)10-12-23(17,2)21(19)11-13-24(20,22)15-26(16)5/h6,16,18-22H,7-15H2,1-5H3/t16-,18-,19+,20+,21?,22?,23-,24-/m0/s1
SMILES=CC1C2CCC3C4CC=C5CC(N(C)C)CCC5(C)C4CCC32CN1C
SCANS=18778
IONMODE=positive
COMPOUND_NAME=CCG-208440 M+2H]
SPECTRUM_ID=CCMSLIB00006704119
50.427589 2760.0 
53.002789 2841.0 
55.054729 32750.0 
56.058048 3307.0 
57.07032 4889.0 
58.065601 146641.0 
65.039223 3029.0 
65.111504 3350.0 
66.046837 3383.0 
67.054642 103303.0 
69.07029 190394.0 
70.06575 3721.0 
70.073517 5217.0 
71.073509 6174.0 
71.812927 2871.0 
72.080971 10736.0 
79.04966 4261.0 
79.054543 79542.0 
80.062309 19750.0 
80.067001 2936.0 
81.070213 103341.0 
81.568001 5307.0 
82.073273 3294.0 
82.4105 3477.0 
83.085876 28893.0 
87.567543 4182.0 
88.575523 22710.0 
91.054321 35342.0 
92.390266 3495.0 
93.070007 90945.0 
93.567734 4528.0 
94.07785 12407.0 
94.575363 19533.0 
95.085648 61125.0 
95.583313 48377.0 
96.085243 3876.0 
96.937477 4186.0 
100.575241 6156.0 
101.583221 26877.0 
102.590759 6124.0 
102.948753 3963.0 
104.298897 2791.0 
105.069862 40449.0 
107.085457 176836.0 
107.583282 28797.0 
108.093643 56222.0 
108.591003 43417.0 
109.101189 13722.0 
109.598534 12955.0 
114.591019 180225.0 
115.092613 18919.0 
115.598824 160295.0 
116.100471 18405.0 
119.085823 23110.0 
119.949799 2575.0 
120.591026 11624.0 
121.101013 13882.0 
121.598808 325285.0 
122.100639 37389.0 
122.606583 263957.0 
123.108307 39645.0 
127.598732 59053.0 
128.100189 11123.0 
128.606613 1087401.0 
129.108246 129395.0 
129.614532 52482.0 
130.116455 5088.0 
131.085495 6471.0 
132.958557 5163.0 
133.101059 16973.0 
134.606125 24473.0 
135.614517 675979.0 
136.116135 102339.0 
138.127014 5621.0 
140.952011 2846.0 
142.622406 46122.0 
143.085159 4479.0 
143.124405 5624.0 
145.101395 6999.0 
147.116745 14353.0 
152.143478 5422.0 
155.630432 10948.0 
155.97493 12342.0 
156.637955 1481080.0 
157.100891 4934.0 
157.139511 275470.0 
159.116486 19387.0 
161.132553 14028.0 
163.147873 4657.0 
164.142685 5552.0 
166.15947 4730.0 
174.984589 17685.0 
176.143402 17524.0 
178.159012 16125.0 
179.063919 21704.0 
179.166809 1569664.0 
179.668381 309049.0 
185.132797 6144.0 
187.147949 10625.0 
190.158844 32884.0 
191.16539 6047.0 
192.17485 18456.0 
199.148209 16021.0 
204.174637 24329.0 
205.182602 38004.0 
206.19014 173293.0 
207.193268 12870.0 
213.163589 22327.0 
216.175003 2928.0 
218.190018 36532.0 
219.197357 6950.0 
220.205826 26627.0 
227.178833 6468.0 
228.175278 27735.0 
230.190048 73221.0 
231.19342 6705.0 
232.205902 69905.0 
242.189941 134158.0 
243.192947 20640.0 
244.205688 262625.0 
245.209427 26183.0 
246.22139 61055.0 
247.225464 4579.0 
256.205139 29341.0 
257.2099 3152.0 
258.221313 177284.0 
259.224915 24666.0 
269.225311 21424.0 
270.220978 135591.0 
271.223877 17155.0 
272.236908 2927.0 
284.237213 5899.0 
300.234528 2923.0 
300.269043 45707.0 
301.272186 4473.0 
312.267944 641113.0 
313.271332 118032.0 
313.312714 4795.0 
314.283783 15637.0 
END IONS

BEGIN IONS
PRECURSOR_MZ=330.088
INCHI=InChI=1S/C19H13N3O3/c20-9-13-15(10-4-3-5-11(23)8-10)16-17(25-18(13)21)12-6-1-2-7-14(12)22-19(16)24/h1-8,15,23H,21H2,(H,22,24)
SMILES=N#CC1=C(N)Oc2c(c(O)nc3ccccc23)C1c1cccc(O)c1
SCANS=19941
IONMODE=negative
COMPOUND_NAME=2-amino-4-(3-hydroxyphenyl)-5-oxo-6-hydro-4H-pyrano[3,2-c]quinoline-3-carbonit rile M-H
SPECTRUM_ID=CCMSLIB00006705282
60.54705 2544.0 
61.536011 2832.0 
63.374561 2258.0 
65.014168 561799.0 
66.752411 2450.0 
81.844177 2247.0 
83.889297 2163.0 
92.394676 2309.0 
99.926079 11250.0 
103.377403 2470.0 
104.303688 2192.0 
136.231094 3260.0 
143.105011 2375.0 
157.992966 2785.0 
183.913177 3119.0 
214.879028 2553.0 
232.078018 3165.0 
246.057373 4489.0 
247.066071 3534.0 
260.071503 60302.0 
261.068542 11410.0 
264.067352 16458.0 
276.066498 3663.0 
285.067352 16089.0 
289.062531 3569.0 
290.069855 69653.0 
303.078491 51087.0 
314.070068 105378.0 
330.088837 59982.0 
END IONS

BEGIN IONS
PRECURSOR_MZ=494.184
INCHI=InChI=1S/C27H28ClN3O4/c1-3-33-22-8-9-25-23(15-22)20(14-26(32)35-25)16-30-10-12-31(13-11-30)17-24-18(2)34-27(29-24)19-4-6-21(28)7-5-19/h4-9,14-15H,3,10-13,16-17H2,1-2H3
SMILES=CCOc1ccc2oc(=O)cc(CN3CCN(Cc4nc(-c5ccc(Cl)cc5)oc4C)CC3)c2c1
SCANS=16718
IONMODE=positive
COMPOUND_NAME=4-[(4-{[2-(4-chlorophenyl)-5-methyl(1,3-oxazol-4-yl)]methyl}piperazinyl)methyl ]-6-ethoxychromen-2-one M+H
SPECTRUM_ID=CCMSLIB00006702059
50.015549 5906.0 
53.75732 3524.0 
56.05006 32552.0 
59.049881 5233.0 
63.043331 3916.0 
65.104156 3917.0 
69.033859 1635147.0 
70.065331 27632.0 
75.023308 10476.0 
78.034317 10166.0 
83.06057 122107.0 
84.068291 100274.0 
85.076233 116674.0 
86.083847 9893.0 
86.999924 17319.0 
87.091553 9857.0 
92.379967 5400.0 
97.075752 50643.0 
99.091583 8444.0 
102.033524 7366.0 
110.999817 16438.0 
130.04007 10626.0 
133.063995 8310.0 
137.004196 6366.0 
137.015091 29149.0 
137.591736 8755.0 
138.010422 10148343.0 
138.430923 6219.0 
138.994324 135652.0 
139.005142 10240.0 
143.072906 4999.0 
145.06517 4106.0 
147.044022 63407.0 
149.059692 9662.0 
156.020996 114555.0 
175.038177 18139.0 
175.075287 154371.0 
179.036484 85539.0 
180.057358 8514.0 
189.090851 22693.0 
191.071243 40564.0 
198.067352 6673.0 
203.070511 35765.0 
205.087189 6682.0 
205.271927 14532.0 
206.036514 11689894.0 
206.803757 8626.0 
208.051346 28561.0 
246.112411 30049.0 
247.063004 59666.0 
266.094391 23898.0 
287.138672 116422.0 
288.145844 9980.0 
289.153992 1431971.0 
301.15274 10860.0 
304.385468 5351.0 
334.587219 5077.0 
357.180817 8522.0 
386.411255 4538.0 
408.100555 56645.0 
438.582062 4935.0 
494.183105 2799427.0 
END IONS

BEGIN IONS
PRECURSOR_MZ=610.313
INCHI=InChI=1S/C32H43N3O6/c1-22(2)19-26(30(38)41-32(3,4)5)34-28(36)25(20-23-13-8-6-9-14-23)33-29(37)27-17-12-18-35(27)31(39)40-21-24-15-10-7-11-16-24/h6-11,13-16,22,25-27H,12,17-21H2,1-5H3,(H,33,37)(H,34,36)
SMILES=CC(C)CC(N=C(O)C(Cc1ccccc1)N=C(O)C1CCCN1C(=O)OCc1ccccc1)C(=O)OC(C)(C)C
SCANS=17365
IONMODE=negative
COMPOUND_NAME=tert-butyl 4-methyl-2-[3-phenyl-2-({1-[benzyloxycarbonyl]pyrrolidin-2-yl}carbo nylamino)propanoylamino]pentanoate M+formate
SPECTRUM_ID=CCMSLIB00006702706
61.19492 2625.0 
64.924889 2516.0 
73.966797 3327.0 
82.923569 2632.0 
92.393204 4219.0 
104.306137 3164.0 
118.670853 3495.0 
139.051376 812943.0 
143.612015 3092.0 
162.531998 3336.0 
208.410309 17351.0 
372.347595 2997.0 
384.193665 2919.0 
456.250336 75026.0 
456.315826 5535.0 
581.354431 3410.0 
END IONS

BEGIN IONS
PRECURSOR_MZ=192.138
INCHI=InChI=1S/C12H19NO2/c1-9(2)13-8-12(14)10-5-4-6-11(7-10)15-3/h4-7,9,12-14H,8H2,1-3H3
SMILES=COc1cccc(C(O)CNC(C)C)c1
SCANS=1376
IONMODE=positive
COMPOUND_NAME=1-(3-methoxyphenyl)-2-[(methylethyl)amino]ethan-1-ol M+H-H2O
SPECTRUM_ID=CCMSLIB00006686717
52.418339 3195.0 
57.432449 3146.0 
59.192459 2965.0 
66.745132 2958.0 
71.26458 3241.0 
91.054749 31202.0 
92.378647 3696.0 
93.070107 13824.0 
105.069923 12690.0 
108.057121 19045.0 
117.057007 4079.0 
118.065102 481746.0 
119.073067 30053.0 
121.064758 368444.0 
123.080406 266736.0 
123.090881 7300.0 
133.064514 21810.0 
135.06778 67638.0 
135.080292 24331.0 
149.616638 4351.0 
150.091354 5593226.0 
150.568497 5773.0 
157.971741 3833.0 
160.087082 4518.0 
175.111618 121376.0 
191.451019 4571.0 
192.138199 6942352.0 
192.829117 5679.0 
END IONS

BEGIN IONS
PRECURSOR_MZ=419.158
INCHI=InChI=1S/C22H24N2O5/c1-13(24-25)16-11-21(28-4)20(27-3)10-15(16)8-18-17-12-22(29-5)19(26-2)9-14(17)6-7-23-18/h6-7,9-12,25H,8H2,1-5H3/b24-13+
SMILES=COc1cc(Cc2nccc3cc(OC)c(OC)cc23)c(C(C)=NO)cc1OC
SCANS=1883
IONMODE=positive
COMPOUND_NAME=1-{2-[(6,7-dimethoxyisoquinolyl)methyl]-4,5-dimethoxyphenyl}-1-(hydroxyimino)e thane M+Na
SPECTRUM_ID=CCMSLIB00006687224
56.07312 2722.0 
80.867523 2549.0 
82.399193 3626.0 
88.433884 2504.0 
103.147926 2409.0 
136.210281 2638.0 
147.092484 2321.0 
194.257675 2851.0 
213.359985 2898.0 
315.405273 2573.0 
350.894135 3287.0 
372.113342 2784.0 
379.170685 4253.0 
387.132538 14242.0 
389.161469 4138.0 
395.042877 2961.0 
404.445129 3072.0 
419.157043 1292598.0 
END IONS

BEGIN IONS
PRECURSOR_MZ=181.086
INCHI=InChI=1S/C10H12O3/c1-3-13-10-8(7-11)5-4-6-9(10)12-2/h4-7H,3H2,1-2H3
SMILES=CCOc1c(C=O)cccc1OC
SCANS=22417
IONMODE=positive
COMPOUND_NAME=2-ethoxy-3-methoxybenzaldehyde M+H
SPECTRUM_ID=CCMSLIB00006707758
53.039291 3087.0 
54.94735 2893.0 
56.965351 35944.0 
57.935299 10761.0 
65.039093 873711.0 
67.054657 5531.0 
70.942368 15094.0 
73.684647 2664.0 
73.947594 3094.0 
79.054489 45606.0 
81.070213 44549.0 
84.960083 5690.0 
88.952507 5531.0 
91.054489 43346.0 
93.033737 703195.0 
93.070236 20600.0 
94.041397 27866.0 
95.049339 3957.0 
97.065086 6674.0 
97.991547 3867.0 
98.975258 10190.0 
103.054413 14011.0 
105.07003 5991.0 
107.049301 44365.0 
107.086143 2920.0 
109.027992 2787.0 
109.065018 54784.0 
110.036377 493434.0 
111.044182 1766893.0 
111.968498 17402.0 
113.047417 3179.0 
116.972229 26372.0 
116.986473 6118.0 
121.065018 19085.0 
121.101608 3472.0 
122.036118 36130.0 
123.043762 3881.0 
125.059853 1434479.0 
129.979004 4085.0 
134.060257 78706.0 
134.996078 4179.0 
135.08078 13722.0 
137.05983 601555.0 
138.031281 29503.0 
139.963318 3891.0 
139.98822 10666.0 
148.054138 3482.0 
148.963028 3220.0 
153.054749 1480935.0 
163.075531 16056.0 
171.60524 3229.0 
181.087219 83953.0 
181.122971 12017.0 
END IONS

BEGIN IONS
PRECURSOR_MZ=605.209
INCHI=InChI=1S/C12H13N7O3/c20-9(17-15-7-8-2-1-4-13-6-8)3-5-14-10-11(21)16-12(22)19-18-10/h1-2,4,6-7H,3,5H2,(H,14,18)(H,17,20)(H2,16,19,21,22)/b15-7+
SMILES=OC(CCNc1nnc(O)nc1O)=NN=Cc1cccnc1
SCANS=18160
IONMODE=negative
COMPOUND_NAME=N-((1E)-2-(3-pyridyl)-1-azavinyl)-3-[(3,5-dioxo(2H,4H-1,2,4-triazin-6-yl))amin o]propanamide 2M-H
SPECTRUM_ID=CCMSLIB00006703501
59.230808 2689.0 
62.91188 2901.0 
69.432533 3179.0 
75.178551 2480.0 
84.020073 58801.0 
104.297096 3529.0 
127.025963 48094.0 
136.228378 3831.0 
175.978775 2708.0 
181.036026 2771.0 
209.172165 4933.0 
209.248306 2943.0 
302.100555 64151.0 
384.938873 3393.0 
401.019043 2899.0 
452.00296 2756.0 
END IONS

BEGIN IONS
PRECURSOR_MZ=390.099
INCHI=InChI=1S/C18H17N5O2S/c1-10-13(21-17(25-10)12-7-5-4-6-8-12)9-26-18-22-14-15(23(18)3)19-11(2)20-16(14)24/h4-8H,9H2,1-3H3,(H,19,20,24)
SMILES=Cc1nc(O)c2nc(SCc3nc(-c4ccccc4)oc3C)n(C)c2n1
SCANS=15951
IONMODE=positive
COMPOUND_NAME=2,9-dimethyl-8-[(5-methyl-2-phenyl(1,3-oxazol-4-yl))methylthio]hydropurin-6-on e M+Na
SPECTRUM_ID=CCMSLIB00006701292
54.24876 2560.0 
66.903488 2245.0 
69.033882 34820.0 
70.984451 2507.0 
73.940521 3101.0 
104.049469 501125.0 
104.27372 2633.0 
123.355423 2815.0 
165.890976 2677.0 
172.075638 404389.0 
177.305893 2978.0 
218.023209 110247.0 
219.031143 167841.0 
313.912689 3712.0 
330.233521 2608.0 
345.185791 2900.0 
386.53714 3603.0 
390.09903 1794550.0 
END IONS

BEGIN IONS
PRECURSOR_MZ=692.523
INCHI=InChI=1S/C37H74NO8P/c1-3-5-7-9-11-13-15-17-19-21-23-25-27-29-36(39)43-33-35(34-45-47(41,42)44-32-31-38)46-37(40)30-28-26-24-22-20-18-16-14-12-10-8-6-4-2/h35H,3-34,38H2,1-2H3,(H,41,42)
SMILES=CCCCCCCCCCCCCCCC(=O)OCC(COP(=O)(O)OCCN)OC(=O)CCCCCCCCCCCCCCC
SCANS=24237
IONMODE=positive
COMPOUND_NAME=DIPALMITOYL CEPHALIN M+H
SPECTRUM_ID=CCMSLIB00006709578
52.4809 3195.350098 
53.002899 3889.090088 
55.0546 22705.199219 
57.070599 250109.0 
67.054802 66204.296875 
69.070503 50873.601562 
71.086098 213447.0 
71.092796 4976.22998 
71.159203 3374.169922 
79.0541 3730.840088 
81.065598 5770.660156 
81.070396 119781.0 
83.086197 87456.796875 
85.1017 132569.0 
95.085899 180605.0 
97.101501 50887.898438 
99.116501 4293.120117 
109.100998 78162.796875 
111.116997 5542.120117 
118.699997 4526.680176 
123.116997 38956.0 
125.132004 4447.879883 
134.141998 3543.439941 
137.130997 7304.009766 
148.908005 3474.72998 
158.028 4844.919922 
189.927002 3631.050049 
221.223999 4262.310059 
239.235992 74165.5 
273.57901 3700.560059 
282.278015 78558.101562 
313.27301 48195.800781 
436.28299 13919.200195 
454.294006 7407.859863 
551.502991 2968380.0 
692.520996 446183.0 
END IONS

BEGIN IONS
PRECURSOR_MZ=246.088
INCHI=InChI=1S/C12H13N3O3/c13-12(18)15-10(11(16)17)5-7-6-14-9-4-2-1-3-8(7)9/h1-4,6,10,14H,5H2,(H,16,17)(H3,13,15,18)
SMILES=N=C(O)NC(Cc1c[nH]c2ccccc12)C(=O)O
SCANS=20510
IONMODE=negative
COMPOUND_NAME=2-(aminocarbonylamino)-3-indol-3-ylpropanoic acid M-H
SPECTRUM_ID=CCMSLIB00006705851
52.529072 2905.0 
57.528419 2311.0 
61.987671 4216.0 
64.09111 2208.0 
64.736641 2767.0 
70.494087 2550.0 
72.008728 196487.0 
74.024399 231315.0 
74.672462 2243.0 
101.547043 2272.0 
104.264771 2300.0 
104.286583 3418.0 
116.050377 720007.0 
129.058823 3900.0 
130.065826 27376.0 
142.065857 226114.0 
157.076614 11638.0 
159.092407 96320.0 
161.048676 5748.0 
178.442734 2596.0 
186.055496 31778.0 
203.082336 1458379.0 
229.029846 2246.0 
229.061172 14985.0 
246.090347 19555.0 
END IONS

BEGIN IONS
PRECURSOR_MZ=299.071
INCHI=InChI=1S/C17H11FO4/c18-11-7-5-10(6-8-11)14(19)9-13-16(20)12-3-1-2-4-15(12)22-17(13)21/h1-8,20H,9H2
SMILES=O=C(Cc1c(O)c2ccccc2oc1=O)c1ccc(F)cc1
SCANS=9170
IONMODE=positive
COMPOUND_NAME=3-[2-(4-fluorophenyl)-2-oxoethyl]-4-hydroxychromen-2-one M+H
SPECTRUM_ID=CCMSLIB00006694511
56.67778 2258.0 
72.784767 2598.0 
83.743881 2655.0 
92.368149 3400.0 
109.044739 794195.0 
121.02845 5440.0 
130.038559 2240.0 
137.039642 333355.0 
138.332489 2623.0 
158.824203 2421.0 
163.038727 63100.0 
175.03685 3622.0 
190.87767 2800.0 
299.070892 1468992.0 
299.177246 44020.0 
END IONS

BEGIN IONS
PRECURSOR_MZ=343.118
INCHI=InChI=1S/C19H18O6/c1-21-16-9-5-12(18(22-2)19(16)23-3)4-7-14(20)13-6-8-15-17(10-13)25-11-24-15/h4-10H,11H2,1-3H3/b7-4+
SMILES=COc1ccc(C=CC(=O)c2ccc3c(c2)OCO3)c(OC)c1OC
SCANS=3067
IONMODE=positive
COMPOUND_NAME=(2E)-1-(2H-benzo[d]1,3-dioxolan-5-yl)-3-(2,3,4-trimethoxyphenyl)prop-2-en-1-on e M+H
SPECTRUM_ID=CCMSLIB00006688408
53.039108 95263.0 
54.55344 43952.0 
68.026047 468229.0 
76.031372 63437.0 
77.038857 82243.0 
79.018211 417078.0 
79.054604 311647.0 
81.033623 58061.0 
91.054642 81174.0 
92.025574 495989.0 
93.6521 51506.0 
95.049316 224817.0 
96.020691 99300.0 
103.054176 1429435.0 
105.069473 414840.0 
107.049393 453461.0 
111.044403 115943.0 
118.041138 122076.0 
121.064743 5200480.0 
125.059723 4620598.0 
131.049088 1794811.0 
133.0289 123867.0 
133.064713 986096.0 
135.044037 112786096.0 
146.035919 365183.0 
149.059723 3373947.0 
153.054855 323951.0 
159.054993 67182.0 
161.059692 111460416.0 
163.074921 555790.0 
177.054016 375879.0 
181.048874 369042.0 
183.065018 2132672.0 
192.041077 81543.0 
195.065018 295920.0 
205.049698 223811.0 
209.044327 1034668.0 
220.036392 1430686.0 
235.059692 1492371.0 
255.063721 70807.0 
269.078918 64122.0 
300.100098 56522.0 
301.106384 11644456.0 
310.082245 98698.0 
312.094757 95048.0 
313.105499 66409.0 
343.116913 22876144.0 
END IONS

BEGIN IONS
PRECURSOR_MZ=355.202
INCHI=InChI=1S/C21H26N2O3/c1-3-20-10-6-11-22-12-9-15-14-7-4-5-8-16(14)23(17(15)18(20)22)21(25,13-20)19(24)26-2/h4-5,7-8,18,25H,3,6,9-13H2,1-2H3
SMILES=CCC12CCCN3CCc4c(n(c5ccccc45)C(O)(C(=O)OC)C1)C32
SCANS=1681
IONMODE=positive
COMPOUND_NAME=Isovincamine M+H
SPECTRUM_ID=CCMSLIB00006687022
52.61235 2247.0 
66.743919 2823.0 
70.065338 17473.0 
75.221069 2291.0 
76.789963 2817.0 
82.065063 4543.0 
82.40049 2550.0 
84.080849 27975.0 
108.08123 2632.0 
122.096298 3222.0 
130.064804 4972.0 
132.98967 3200.0 
144.081146 29092.0 
150.033463 2473.0 
158.095993 10540.0 
162.619553 2788.0 
182.081253 5148.0 
194.116821 12525.0 
198.126633 3184.0 
209.119232 4665.0 
210.111877 4297.0 
212.127563 6489.0 
224.130386 20242.0 
224.146271 3157.0 
228.067352 2852.0 
236.143066 18710.0 
238.122604 2971.0 
246.127548 3925.0 
248.141327 2641.0 
250.15625 4129.0 
251.153427 3265.0 
253.169724 38734.0 
254.117752 12588.0 
261.151825 3084.0 
265.171021 2937.0 
266.151917 3692.0 
267.125397 2835.0 
268.132599 41521.0 
277.168854 14569.0 
280.132477 61943.0 
281.207581 3304.0 
294.147644 46307.0 
295.180267 54561.0 
305.165222 3236.0 
306.149292 14523.0 
308.163879 37662.0 
308.898285 4426.0 
325.189789 19774.0 
326.17392 25779.0 
337.190582 185682.0 
338.174805 17674.0 
355.201172 2523950.0 
END IONS

BEGIN IONS
PRECURSOR_MZ=135.044
INCHI=InChI=1S/C8H8O3/c1-5(9)7-3-2-6(10)4-8(7)11/h2-4,10-11H,1H3
SMILES=CC(=O)c1ccc(O)cc1O
SCANS=17159
IONMODE=positive
COMPOUND_NAME=2',4'-DIHYDROXYACETOPHENONE M+H-H2O
SPECTRUM_ID=CCMSLIB00006702500
53.03907 19165.0 
56.942791 2152.0 
56.96524 32332.0 
72.937431 3515.0 
74.7183 2122.0 
79.054443 25503.0 
81.253227 1843.0 
92.775291 2421.0 
94.584717 2060.0 
95.049171 3518.0 
107.049072 191072.0 
130.850784 1867.0 
134.978516 3477.0 
135.043915 50396.0 
147.043991 1929.0 
149.98407 1919.0 
152.989716 4846.0 
END IONS

BEGIN IONS
PRECURSOR_MZ=216.102
INCHI=InChI=1S/C13H13NO2/c15-13(16)12(14-8-4-5-9-14)10-11-6-2-1-3-7-11/h1-9,12H,10H2,(H,15,16)
SMILES=O=C(O)C(Cc1ccccc1)n1cccc1
SCANS=19109
IONMODE=positive
COMPOUND_NAME=3-phenyl-2-pyrrolylpropanoic acid M+H
SPECTRUM_ID=CCMSLIB00006704450
53.039051 4168.0 
65.038933 4780.0 
68.049828 298726.0 
69.033989 4484.0 
73.514 3184.0 
78.046753 3153.0 
79.054459 231499.0 
80.044724 5438.0 
80.049713 127177.0 
81.929466 2942.0 
89.079933 2778.0 
91.054298 862125.0 
92.049583 18132.0 
93.069893 17271.0 
96.044617 6393.0 
103.054123 790996.0 
104.04953 12618.0 
104.325546 4691.0 
105.069817 28251.0 
106.056587 12830.0 
107.049026 546748.0 
108.044434 3456.0 
110.059982 50653.0 
115.054169 11476.0 
117.854668 2772.0 
120.080704 6700.0 
121.064568 20085.0 
124.039124 12157.0 
124.065964 3679.0 
125.047569 4342.0 
128.061584 39267.0 
129.06958 24886.0 
130.065414 5914.0 
131.049026 378764.0 
133.930664 3344.0 
137.712006 2638.0 
141.069443 19979.0 
142.065048 5544.0 
142.076874 2863.0 
143.085419 97016.0 
144.080963 15109.0 
149.059311 44731.0 
151.938599 12011.0 
152.061859 5921.0 
153.069641 172881.0 
154.06488 14492.0 
155.072647 67654.0 
167.071732 3410.0 
168.080597 509755.0 
169.088531 12315.0 
170.096207 1963300.0 
180.080719 6696.0 
185.973282 11340.0 
186.976212 3558.0 
187.980591 22756.0 
188.107086 47205.0 
198.09111 3958.0 
215.973938 74151.0 
216.101608 1367454.0 
END IONS

BEGIN IONS
PRECURSOR_MZ=271.06
INCHI=InChI=1S/C15H10O5/c16-10-6-5-8(7-11(10)17)15-14(19)13(18)9-3-1-2-4-12(9)20-15/h1-7,16-17,19H
SMILES=O=c1c(O)c(-c2ccc(O)c(O)c2)oc2ccccc12
SCANS=4487
IONMODE=positive
COMPOUND_NAME=3,3',4'-Trihydroxyflavone M+H
SPECTRUM_ID=CCMSLIB00006689828
57.02206 2928.0 
66.755318 3170.0 
71.049728 2884.0 
71.421333 2646.0 
82.411758 3198.0 
87.116028 2795.0 
105.033546 33570.0 
121.028374 115121.0 
133.028442 65672.0 
136.232285 3832.0 
137.023163 40694.0 
149.023148 6760.0 
151.038879 5263.0 
153.069321 4031.0 
159.078751 3638.0 
169.064789 30396.0 
181.06459 11735.0 
187.075165 16449.0 
197.05957 129977.0 
215.070114 44875.0 
225.029602 4589.0 
225.05426 94092.0 
242.056549 3778.0 
243.064301 26854.0 
247.89325 10948.0 
253.049423 52986.0 
271.059906 6167910.0 
272.657532 2767.0 
288.925751 4974.0 
END IONS

BEGIN IONS
PRECURSOR_MZ=346.056
INCHI=InChI=1S/C10H13N5O7P/c11-10-13-8-7(9(17)14-10)12-3-15(8)6-1-4(16)5(22-6)2-21-23(18,19)20/h3-6,16H,1-2H2,(H,18,19,20)(H3,11,13,14,17)/t4-,5+,6+/m0/s1
SMILES=N=c1nc(O)c2ncn(C3CC(O)C(CO[P](=O)(=O)O)O3)c2[nH]1
SCANS=23591
IONMODE=negative
COMPOUND_NAME=2'-Deoxyguanosine 5'-monophosphate, sodium salt hydrate M-H
SPECTRUM_ID=CCMSLIB00006708932
70.070747 2144.0 
73.966728 2163.0 
78.95887 175463.0 
96.969803 18531.0 
130.479889 2361.0 
133.015762 17751.0 
150.042191 16164.0 
196.963745 2289.0 
267.349823 2182.0 
346.056061 33437.0 
END IONS

BEGIN IONS
PRECURSOR_MZ=149.046
INCHI=InChI=1S/C5H10O5/c6-2-1-10-5(9)4(8)3(2)7/h2-9H,1H2/t2-,3+,4-,5?/m1/s1
SMILES=OC1OC[C@@H](O)[C@H](O)[C@H]1O
SCANS=149
IONMODE=negative
COMPOUND_NAME=D-Xylose M-H
SPECTRUM_ID=CCMSLIB00006685490
76.969902 7428.180176 
94.980499 3371.120117 
104.334999 2501.820068 
144.733002 2048.959961 
148.973007 3023.899902 
149.059998 2670.610107 
END IONS

BEGIN IONS
PRECURSOR_MZ=371.104
INCHI=InChI=1S/C17H20N2O4S/c1-5-11-9(2)24-17(14(11)15(18)20)19-16(21)10-6-7-12(22-3)13(8-10)23-4/h6-8H,5H2,1-4H3,(H2,18,20)(H,19,21)
SMILES=CCc1c(C)sc(N=C(O)c2ccc(OC)c(OC)c2)c1C(N)=O
SCANS=9610
IONMODE=positive
COMPOUND_NAME=2-[(3,4-dimethoxyphenyl)carbonylamino]-4-ethyl-5-methylthiophene-3-carboxamide M+Na
SPECTRUM_ID=CCMSLIB00006694951
66.738579 4575.0 
83.157158 2570.0 
91.054268 16506.0 
110.597298 2760.0 
136.639862 3624.0 
282.350372 2910.0 
354.076965 11101.0 
356.080688 4264.0 
371.10321 3354693.0 
END IONS

BEGIN IONS
PRECURSOR_MZ=191.029
INCHI=InChI=1S/C6H10O4/c1-4(6(9)10)2-3-5(7)8/h4H,2-3H2,1H3,(H,7,8)(H,9,10)
SMILES=CC(CCC(=O)O)C(=O)O
SCANS=940
IONMODE=positive
COMPOUND_NAME=2-METHYLGLUTARIC ACID M-H+2Na
SPECTRUM_ID=CCMSLIB00006686281
58.8909 2135.530029 
62.9823 159374.0 
75.628403 1979.849976 
120.510002 2060.090088 
142.906998 2113.429932 
158.013 2226.350098 
173.018005 9908.549805 
191.029007 148627.0 
191.154007 13193.700195 
END IONS

BEGIN IONS
PRECURSOR_MZ=450.167
INCHI=InChI=1S/C24H25N3O6/c1-31-20-8-7-16(13-21(20)32-2)25-22(28)15-27-19-6-4-3-5-17(19)18(14-23(27)29)24(30)26-9-11-33-12-10-26/h3-8,13-14H,9-12,15H2,1-2H3,(H,25,28)
SMILES=COc1ccc(N=C(O)Cn2c(=O)cc(C(=O)N3CCOCC3)c3ccccc32)cc1OC
SCANS=11484
IONMODE=negative
COMPOUND_NAME=N-(3,4-dimethoxyphenyl)-2-[4-(morpholin-4-ylcarbonyl)-2-oxohydroquinolyl]aceta mide M-H
SPECTRUM_ID=CCMSLIB00006696825
57.91674 2717.0 
58.06039 2705.0 
58.24802 2626.0 
59.015469 2749.0 
86.055527 3753.0 
86.061127 99754.0 
118.69352 3037.0 
122.02478 4315.0 
128.050629 89719.0 
130.065948 16564.0 
136.25293 3700.0 
137.048157 22582.0 
142.066376 3239.0 
143.650986 2539.0 
144.04567 10835.0 
149.01181 26595.0 
156.045013 26143.0 
156.081192 2859.0 
157.053314 69906.0 
158.025116 19256.0 
158.061249 54030.0 
164.03537 90456.0 
172.040634 37810.0 
174.040909 3047.0 
174.055786 25634.0 
176.035309 16675.0 
184.040436 247063.0 
185.048874 20950.0 
202.051254 47584.0 
228.101807 3281.0 
229.097977 58895.0 
243.114136 37270.0 
245.093414 12104.0 
257.093414 148545.0 
271.109039 323330.0 
273.088135 91399.0 
297.088104 136619.0 
313.259735 3138.0 
389.460968 2727.0 
420.119598 5429.0 
435.14389 35279.0 
450.167328 1437609.0 
END IONS

BEGIN IONS
PRECURSOR_MZ=255.066
INCHI=InChI=1S/C15H12O4/c16-11-6-7-12(15(19)9-11)14(18)8-5-10-3-1-2-4-13(10)17/h1-9,16-17,19H/b8-5+
SMILES=O=C(C=Cc1ccccc1O)c1ccc(O)cc1O
SCANS=15009
IONMODE=negative
COMPOUND_NAME=2,2',4'-Trihydroxychalcone M-H
SPECTRUM_ID=CCMSLIB00006700350
59.013439 17119.0 
65.002907 5600.0 
65.039291 357860.0 
67.006149 2530.0 
67.018593 150749.0 
79.061363 2722.0 
80.993233 4551.0 
81.543694 2858.0 
91.01889 513746.0 
93.034599 27444.0 
102.496094 2916.0 
107.326424 2905.0 
108.021873 5019.0 
108.950851 5307.0 
109.029556 4287065.0 
109.112053 4005.0 
109.32811 3476.0 
117.034714 213480.0 
118.642479 2991.0 
119.050308 2221773.0 
121.029343 3932.0 
123.645477 3094.0 
135.008942 319362.0 
144.22789 3172.0 
145.029678 46209.0 
148.016663 3481.0 
149.024109 27277.0 
151.984131 2796.0 
153.019531 158893.0 
158.951355 28485.0 
161.024612 14929.0 
187.134506 30451.0 
213.056076 5670.0 
216.922318 6927.0 
218.91803 5817.0 
237.054504 2961.0 
254.906998 15616.0 
254.940872 20504.0 
255.06662 753183.0 
END IONS

BEGIN IONS
PRECURSOR_MZ=430.165
INCHI=InChI=1S/C26H23NO5/c1-17-13-22(10-11-24(17)27(29)30)32-16-21-15-18(7-12-25(21)31-2)14-20-9-8-19-5-3-4-6-23(19)26(20)28/h3-7,10-15H,8-9,16H2,1-2H3/b20-14+
SMILES=COc1ccc(C=C2CCc3ccccc3C2=O)cc1COc1ccc([N+](=O)[O-])c(C)c1
SCANS=10019
IONMODE=positive
COMPOUND_NAME=2-({4-methoxy-3-[(3-methyl-4-nitrophenoxy)methyl]phenyl}methylene)-3,4-dihydro naphthalen-1-one M+H
SPECTRUM_ID=CCMSLIB00006695360
69.033623 2874.0 
75.81398 2551.0 
76.019249 2398.0 
91.054283 14303.0 
92.370941 3701.0 
97.947121 2515.0 
104.278221 4222.0 
105.069748 26066.0 
107.101593 2554.0 
107.293587 2512.0 
108.784447 2745.0 
117.070107 19078.0 
121.064743 17422.0 
129.069946 3227.0 
133.064789 48472.0 
149.059036 11349.0 
151.075378 11038.0 
157.064819 5281.0 
159.080276 13369.0 
164.145889 3589.0 
170.072922 3537.0 
204.094482 3848.0 
216.093765 10749.0 
217.100784 6418.0 
219.116821 5207.0 
221.13205 3495.0 
229.100235 23221.0 
231.116974 24336.0 
232.087997 3986.0 
234.103546 11175.0 
235.111282 4984.0 
244.085968 3250.0 
245.096451 12658.0 
246.103622 3336.0 
247.11142 222104.0 
249.127029 33938.0 
259.111511 29313.0 
262.098389 12746.0 
277.12204 1994050.0 
311.295563 3908.0 
330.143768 2795.0 
390.657227 2938.0 
430.163788 4232.0 
430.386566 4509.0 
584.829651 3055.0 
866.806396 3170.0 
END IONS

BEGIN IONS
PRECURSOR_MZ=138.091
INCHI=InChI=1S/C8H11NO/c9-6-8(10)7-4-2-1-3-5-7/h1-5,8,10H,6,9H2
SMILES=NCC(O)c1ccccc1
SCANS=591
IONMODE=positive
COMPOUND_NAME=2-Amino-1-phenylethanol M+H
SPECTRUM_ID=CCMSLIB00006685932
54.513302 13775.799805 
57.630299 13560.400391 
59.012199 14714.5 
103.054001 25526.099609 
120.081001 361131.0 
138.091003 22807.5 
END IONS

BEGIN IONS
PRECURSOR_MZ=605.201
INCHI=InChI=1S/C15H17N3O2S/c1-9-5-4-6-12(11(9)3)17-14(20)8-21-15-16-10(2)7-13(19)18-15/h4-7H,8H2,1-3H3,(H,17,20)(H,16,18,19)
SMILES=Cc1cc(O)nc(SCC(O)=Nc2cccc(C)c2C)n1
SCANS=2080
IONMODE=negative
COMPOUND_NAME=N-(2,3-dimethylphenyl)-2-(4-hydroxy-6-methylpyrimidin-2-ylthio)acetamide 2M-H
SPECTRUM_ID=CCMSLIB00006687421
66.738892 2909.0 
73.95118 3810.0 
118.983757 2562.0 
131.173737 2849.0 
132.581558 2715.0 
136.206528 2695.0 
139.481552 2759.0 
141.012787 21996.0 
144.466492 3040.0 
145.076752 12088.0 
155.028473 17024.0 
157.958282 2929.0 
167.040283 2545.0 
228.114334 270349.0 
232.45665 3143.0 
243.421875 3365.0 
257.127045 2918.0 
297.598022 2670.0 
302.096863 334061.0 
315.544769 3197.0 
361.313538 2923.0 
449.756531 3528.0 
END IONS

BEGIN IONS
PRECURSOR_MZ=434.061
INCHI=InChI=1S/C20H22BrNO5/c1-4-27-20(25)16-10(2)22-13-6-5-7-14(23)18(13)17(16)11-8-12(21)19(24)15(9-11)26-3/h8-9,17,22,24H,4-7H2,1-3H3
SMILES=CCOC(=O)C1=C(C)NC2=C(C(=O)CCC2)C1c1cc(Br)c(O)c(OC)c1
SCANS=19015
IONMODE=negative
COMPOUND_NAME=ethyl 4-(3-bromo-4-hydroxy-5-methoxyphenyl)-2-methyl-5-oxo-1,4,6,7,8-pentahydr oquinoline-3-carboxylate M-H
SPECTRUM_ID=CCMSLIB00006704356
60.458599 2556.0 
61.176079 2746.0 
68.673317 3001.0 
78.91877 1520311.0 
82.409439 3207.0 
92.393028 3479.0 
103.920441 4372.0 
130.066696 3625.0 
142.066025 5002.0 
144.044785 3240.0 
146.061737 9842.0 
148.040344 13524.0 
149.048386 2923.0 
158.061005 34348.0 
160.076767 28094.0 
162.055679 13581.0 
174.056625 6745.0 
185.932236 526855.0 
186.056152 3621.0 
191.060059 3041.0 
200.955704 125960.0 
203.058929 15257.0 
204.066345 3572.0 
232.097778 115936.0 
235.048828 12248.0 
297.901794 6423.0 
343.992615 3286.0 
357.972992 3942.0 
388.021881 6512.0 
413.750031 3415.0 
434.061005 729827.0 
END IONS

BEGIN IONS
PRECURSOR_MZ=393.068
INCHI=InChI=1S/C18H19ClN2O4S/c1-10-12(19)6-5-7-13(10)20-18(26)21-17(22)11-8-14(23-2)16(25-4)15(9-11)24-3/h5-9H,1-4H3,(H2,20,21,22,26)
SMILES=COc1cc(C(O)=NC(S)=Nc2cccc(Cl)c2C)cc(OC)c1OC
SCANS=19726
IONMODE=negative
COMPOUND_NAME=N-{[(3-chloro-2-methylphenyl)amino]thioxomethyl}(3,4,5-trimethoxyphenyl)carbox amide M-H
SPECTRUM_ID=CCMSLIB00006705067
66.76133 3000.0 
68.995209 3086.0 
73.0224 2114.0 
81.77845 2512.0 
83.889954 2391.0 
92.401756 2768.0 
102.245064 2408.0 
104.314667 4181.0 
118.992493 2559.0 
124.196541 2270.0 
124.265053 2348.0 
135.137268 2228.0 
142.992569 3081.0 
165.022263 29918.0 
179.6064 2648.0 
192.989441 62826.0 
197.983521 3055.0 
210.077194 438910.0 
242.985733 48830.0 
254.985764 15431.0 
266.983185 2793.0 
323.982147 4729.0 
334.08374 3082.0 
384.686279 2585.0 
392.97641 116811.0 
END IONS

BEGIN IONS
PRECURSOR_MZ=369.05
INCHI=InChI=1S/C18H15ClO5/c1-9-11-7-12(19)13(20)8-15(11)24-18(21)17(9)10-4-5-14(22-2)16(6-10)23-3/h4-8,20H,1-3H3
SMILES=COc1ccc(-c2c(C)c3cc(Cl)c(O)cc3oc2=O)cc1OC
SCANS=6037
IONMODE=positive
COMPOUND_NAME=3-(3,4-dimethoxyphenyl)-6-chloro-7-hydroxy-4-methylchromen-2-one M+Na
SPECTRUM_ID=CCMSLIB00006691378
57.554741 2315.0 
92.37278 3097.0 
137.724426 2148.0 
175.436371 2673.0 
187.816528 2485.0 
369.049164 1531956.0 
387.059937 36403.0 
END IONS

BEGIN IONS
PRECURSOR_MZ=345.097
INCHI=InChI=1S/C18H16O7/c1-6-14(22)12(8(3)20)16-13(15(6)23)18(4)10(25-16)5-9(21)11(7(2)19)17(18)24/h5,11,22-23H,1-4H3/t11?,18-/m0/s1
SMILES=CC(=O)c1c(O)c(C)c(O)c2c1OC1=CC(=O)C(C(C)=O)C(=O)C12C
SCANS=22196
IONMODE=positive
COMPOUND_NAME=(+)-Usnic acid M+H
SPECTRUM_ID=CCMSLIB00006707537
57.053822 2264.0 
71.013 2946.0 
78.276489 2690.0 
78.688332 2339.0 
91.054062 4323.0 
113.023643 2293.0 
118.659607 2592.0 
121.064857 3792.0 
125.309433 2560.0 
130.654755 2487.0 
159.080139 4411.0 
164.22818 2648.0 
173.058807 2973.0 
177.054016 4397.0 
187.074768 13408.0 
191.069672 16902.0 
201.054428 14426.0 
205.086105 3627.0 
211.074356 3354.0 
215.070145 82432.0 
219.065018 24604.0 
229.085754 3384.0 
233.080551 102625.0 
234.216782 2243.0 
235.074463 4293.0 
238.061295 3288.0 
239.069275 4675.0 
243.064728 25061.0 
257.080048 16767.0 
261.0755 37699.0 
263.068115 5904.0 
266.053955 3573.0 
267.063477 11872.0 
269.044159 4717.0 
273.037933 2750.0 
281.080505 15763.0 
284.065979 5349.0 
285.074707 15365.0 
291.063568 10298.0 
294.052826 4916.0 
297.038361 21078.0 
299.091217 10870.0 
303.085754 40609.0 
309.075073 22718.0 
312.06369 19011.0 
315.04953 31135.0 
317.099915 3417.0 
327.085724 113065.0 
330.073883 35097.0 
345.096375 248677.0 
345.236359 4278.0 
END IONS

BEGIN IONS
PRECURSOR_MZ=282.134
INCHI=InChI=1S/C14H19NO5/c1-17-11-8-10(9-12(18-2)13(11)19-3)14(16)15-4-6-20-7-5-15/h8-9H,4-7H2,1-3H3
SMILES=COc1cc(C(=O)N2CCOCC2)cc(OC)c1OC
SCANS=3249
IONMODE=positive
COMPOUND_NAME=TRIMETOZINE M+H
SPECTRUM_ID=CCMSLIB00006688590
50.400459 2976.0 
58.150372 4511.0 
60.044731 7034.0 
61.9673 3407.0 
66.732697 3177.0 
69.033546 4949.0 
70.029099 830611.0 
70.315269 3241.0 
72.044884 5934.0 
79.054367 24747.0 
81.033951 4530.0 
81.070107 16642.0 
90.018738 3203.0 
96.056808 3579.0 
107.049103 3660.0 
107.6548 3349.0 
109.064636 29227.0 
111.080254 5251.0 
113.023163 15311.0 
114.054939 1986083.0 
122.036278 8524.0 
124.05201 21096.0 
128.046692 21293.0 
136.190781 3677.0 
139.075302 84370.0 
141.018433 25468.0 
143.070862 7185.0 
152.046738 86215.0 
156.04126 57568.0 
184.035736 4139.0 
185.080826 16282.0 
194.362961 3634.0 
195.065033 8004000.0 
267.110901 5039.0 
282.133118 7990271.0 
END IONS

BEGIN IONS
PRECURSOR_MZ=348.084
INCHI=InChI=1S/C18H15NO5/c1-23-14-8-12-13(9-15(14)24-2)17(21)19(18(22)16(12)20)10-11-6-4-3-5-7-11/h3-9H,10H2,1-2H3
SMILES=COc1cc2c(cc1OC)C(=O)N(Cc1ccccc1)C(=O)C2=O
SCANS=11231
IONMODE=positive
COMPOUND_NAME=6,7-dimethoxy-2-benzyl-2-hydroisoquinoline-1,3,4-trione M+Na
SPECTRUM_ID=CCMSLIB00006696572
54.268459 2361.0 
55.480659 2201.0 
73.961647 2353.0 
89.777153 2453.0 
92.385628 2927.0 
212.562256 2903.0 
258.68689 2296.0 
307.049133 3053.0 
325.057251 2940.0 
348.083466 974837.0 
351.111206 2605.0 
366.094208 12775.0 
END IONS

BEGIN IONS
PRECURSOR_MZ=268.131
INCHI=InChI=1S/C15H19NO2/c1-4-14(2)15(3)12-8-6-5-7-11(12)9-10-16(15)13(17)18-14/h5-8H,4,9-10H2,1-3H3
SMILES=CCC1(C)OC(=O)N2CCc3ccccc3C21C
SCANS=13929
IONMODE=positive
COMPOUND_NAME=10-ethyl-10,10a-dimethyl-5,6,7,10a-tetrahydro-1,3-oxazolidino[4,3-a]isoquinoli n-8-one M+Na
SPECTRUM_ID=CCMSLIB00006699270
52.579708 7335.0 
63.183998 7130.0 
63.356911 6706.0 
65.285454 7216.0 
93.250717 7494.0 
151.187576 8306.0 
152.226852 7905.0 
166.013046 8659.0 
188.955231 7520.0 
212.369476 8707.0 
260.687469 10106.0 
268.130463 9268809.0 
270.642853 7648.0 
286.1409 269078.0 
END IONS

BEGIN IONS
PRECURSOR_MZ=396.046
INCHI=InChI=1S/C17H18INO2/c1-20-15-9-11-6-7-19-17(14(11)10-16(15)21-2)12-4-3-5-13(18)8-12/h3-5,8-10,17,19H,6-7H2,1-2H3
SMILES=COc1cc2c(cc1OC)C(c1cccc(I)c1)NCC2
SCANS=14207
IONMODE=positive
COMPOUND_NAME=1-(3-iodophenyl)-6,7-dimethoxy-1,2,3,4-tetrahydroisoquinoline M+H
SPECTRUM_ID=CCMSLIB00006699548
55.01828 7495.0 
59.729488 4910.0 
65.038963 148761.0 
65.252411 4064.0 
66.046768 238869.0 
70.8825 4218.0 
73.772758 3719.0 
73.98909 4405.0 
75.044167 40881.0 
75.154121 3860.0 
78.046631 30442.0 
79.054459 73847.0 
81.033546 5024.0 
81.070236 6470.0 
89.033737 4161.0 
89.038651 163924.0 
90.046494 896544.0 
91.054298 750461.0 
92.010094 4178.0 
93.033684 8599.0 
93.057587 6994.0 
93.069817 7669.0 
94.041443 18024.0 
94.065323 10632.0 
95.049156 19624.0 
103.054222 56366.0 
104.049393 20095.0 
104.061951 17389.0 
105.033363 8596.0 
105.069687 96910.0 
106.065521 8817.0 
107.048943 106986.0 
108.056808 8468.0 
108.080849 26103.0 
108.992073 4439.0 
109.064827 65886.0 
110.03653 8387.0 
115.054161 316817.0 
116.062202 21883.0 
117.057121 41988.0 
117.069008 3746.0 
118.041092 29597.0 
118.064934 94286.0 
118.073723 8005.0 
119.049057 328077.0 
120.043999 5386.0 
120.056892 7728.0 
121.02829 10577.0 
121.052498 25066.0 
121.064621 67821.0 
122.03627 18157.0 
122.06031 5789.0 
122.072319 9047.0 
123.043968 7830.0 
124.051659 4929.0 
125.059357 9828.0 
128.049911 4478.0 
128.062241 16223.0 
129.069748 4839.0 
130.064835 64794.0 
131.049011 176630.0 
131.072632 90946.0 
132.044281 57142.0 
132.056778 49465.0 
133.052963 11997.0 
133.064606 77746.0 
134.059967 59330.0 
134.072723 68844.0 
135.043701 83113.0 
135.067825 50590.0 
135.08049 29622.0 
136.052032 49177.0 
136.075607 366116.0 
137.047226 25456.0 
137.059357 154912.0 
138.067429 23478.0 
141.069901 23366.0 
144.056931 9023.0 
146.059891 227655.0 
147.045242 29700.0 
147.067535 111924.0 
148.051743 18487.0 
148.075623 32158.0 
149.059875 46665.0 
150.067413 337955.0 
151.061523 9205.0 
151.075195 230483.0 
152.061798 24738.0 
152.083023 34150.0 
153.069672 46358.0 
154.077621 9030.0 
155.085083 6187.0 
160.051956 8827.0 
160.075256 67033.0 
161.059998 102212.0 
161.083237 254522.0 
162.054596 14978.0 
162.067657 41912.0 
162.090317 7912.0 
162.519379 4811.0 
163.062912 10167.0 
164.070419 3564313.0 
165.05452 10119.0 
165.070053 215411.0 
165.090927 561453.0 
166.077408 207064.0 
167.085205 108667.0 
168.057434 7716.0 
169.064545 5102.0 
169.101212 48918.0 
175.076096 10683.0 
176.070084 8924.0 
177.068649 50496.0 
178.077194 366764.0 
179.094147 2778379.0 
180.093994 7614.0 
181.064529 73607.0 
181.100937 170447.0 
182.072556 75969.0 
183.080231 36897.0 
189.070145 26783.0 
190.076752 61506.0 
191.08522 239364.0 
192.102966 41706.0 
193.064346 48864.0 
193.101288 21311.0 
194.072388 928575.0 
195.080002 133784.0 
196.088135 18969.0 
197.095825 156936.0 
200.7957 4381.0 
205.064529 88545.0 
206.072601 215120.0 
206.094482 10259.0 
207.079865 110957.0 
208.088058 281822.0 
208.110733 9634.0 
209.095795 1618454.0 
210.067841 43490.0 
210.089111 6495.0 
211.075104 27470.0 
216.950592 3515108.0 
219.079453 63303.0 
220.089142 6662.0 
221.095734 1077415.0 
222.067139 111522.0 
222.089828 9780.0 
223.074615 20515.0 
224.083221 94446.0 
225.090637 173840.0 
231.961288 139161.0 
235.074966 7364.0 
236.082489 42404.0 
237.090515 743743.0 
238.09845 80553.0 
239.106216 267122.0 
240.113831 72929.0 
240.950363 170194.0 
251.082397 8283.0 
251.10611 489689.0 
252.113998 1215636.0 
257.975708 32275.0 
258.08783 4684.0 
268.133392 34041.0 
269.14093 16636.0 
272.103973 22244.0 
282.088135 6106.0 
284.104889 8091.0 
290.965698 8228.0 
292.983398 6188.0 
303.973938 25454.0 
304.982422 61721.0 
308.974976 7263.0 
316.982452 8198.0 
320.977203 50525.0 
322.99176 6723.0 
331.968201 19421.0 
332.97583 191084.0 
334.993347 10609.0 
346.99054 35417.0 
347.999634 251312.0 
348.97113 37547.0 
353.001526 57538.0 
363.989838 61797.0 
365.001923 53040.0 
367.018005 275663.0 
367.070587 8846.0 
377.001709 10060.0 
379.018036 1146201.0 
396.044678 6230098.0 
398.098969 5739.0 
END IONS

BEGIN IONS
PRECURSOR_MZ=408.099
INCHI=InChI=1S/C19H19N3O4S/c1-20-17-8-7-15(11-16(17)18(23)21(2)19(20)24)27(25,26)22-10-9-13-5-3-4-6-14(13)12-22/h3-8,11H,9-10,12H2,1-2H3
SMILES=Cn1c(=O)c2cc(S(=O)(=O)N3CCc4ccccc4C3)ccc2n(C)c1=O
SCANS=19585
IONMODE=positive
COMPOUND_NAME=1,3-dimethyl-6-(2-1,2,3,4-tetrahydroisoquinolylsulfonyl)-1,3-dihydroquinazolin e-2,4-dione M+Na
SPECTRUM_ID=CCMSLIB00006704926
56.96516 2815.0 
57.344608 2561.0 
66.76355 3161.0 
71.158432 2164.0 
80.947983 3347.0 
86.439857 2319.0 
92.402847 2572.0 
118.688133 2432.0 
123.044708 2420.0 
134.036102 19700.0 
156.079407 2455.0 
159.114349 2762.0 
166.114029 2795.0 
175.03891 2751.0 
179.033752 32868.0 
189.992371 3118.0 
196.796204 2816.0 
205.049667 6127.0 
208.004013 6018.0 
209.061218 6863.0 
267.064209 33982.0 
268.068939 9486.0 
281.045349 3186.0 
281.96933 3063.0 
283.060181 2620.0 
284.031006 10516.0 
295.059906 49897.0 
296.062836 11502.0 
311.054352 14045.0 
312.062683 31130.0 
313.065643 4906.0 
325.067902 3509.0 
327.085876 131969.0 
328.088745 36248.0 
344.090546 3047.0 
344.136536 77412.0 
346.059326 101111.0 
346.561493 76215.0 
355.063843 54384.0 
355.565826 40687.0 
356.070374 3582.0 
364.069702 4675.0 
366.571838 40591.0 
367.075104 33086.0 
367.579559 3047.0 
368.019501 3154.0 
383.044098 9582.0 
385.023132 41613.0 
386.029846 68633.0 
387.036469 20513.0 
388.036774 3574.0 
401.053558 32034.0 
402.056427 3456.0 
403.033875 20962.0 
404.040527 61978.0 
405.044403 17869.0 
408.098206 196882.0 
409.045532 12214.0 
424.067902 4135.0 
426.111694 9962.0 
427.05542 4302.0 
449.12326 15195.0 
488.504425 2692.0 
END IONS

BEGIN IONS
PRECURSOR_MZ=360.181
INCHI=InChI=1S/C20H25NO5/c1-5-6-11-26-16-10-8-7-9-15(16)21-20(22)14-12-17(23-2)19(25-4)18(13-14)24-3/h7-10,12-13H,5-6,11H2,1-4H3,(H,21,22)
SMILES=CCCCOc1ccccc1N=C(O)c1cc(OC)c(OC)c(OC)c1
SCANS=14089
IONMODE=positive
COMPOUND_NAME=N-(2-butoxyphenyl)(3,4,5-trimethoxyphenyl)carboxamide M+H
SPECTRUM_ID=CCMSLIB00006699430
53.039082 22419.0 
65.038963 10083.0 
66.730652 2737.0 
67.054581 3753.0 
71.049011 3341.0 
79.054604 56793.0 
80.061752 2299.0 
80.948273 3262.0 
81.033737 35750.0 
81.070267 30120.0 
82.383537 3273.0 
83.996513 2650.0 
86.363197 2504.0 
94.041199 5682.0 
95.049217 9857.0 
96.057129 28230.0 
108.05645 3603.0 
109.028511 6244.0 
109.064697 46016.0 
111.080513 14377.0 
113.023514 5600.0 
113.059593 10269.0 
121.027817 3770.0 
122.036247 36317.0 
123.044197 3329.0 
124.051979 60738.0 
128.046875 13544.0 
137.023209 10269.0 
139.075378 98822.0 
141.018326 14741.0 
151.038605 18073.0 
152.046661 129366.0 
154.061951 5843.0 
156.041458 27675.0 
184.036438 6047.0 
185.080841 5267.0 
195.065155 975145.0 
208.514526 6111.0 
208.533752 3845.0 
284.157837 2502.0 
293.507874 2676.0 
383.607269 2765.0 
END IONS

BEGIN IONS
PRECURSOR_MZ=194.082
INCHI=InChI=1S/C10H13NO3/c1-14-8-4-2-7(3-5-8)6-9(11)10(12)13/h2-5,9H,6,11H2,1H3,(H,12,13)/t9-/m0/s1
SMILES=COc1ccc(CC(N)C(=O)O)cc1
SCANS=14627
IONMODE=negative
COMPOUND_NAME=(2S)-2-amino-3-(4-methoxyphenyl)propanoic acid M-H
SPECTRUM_ID=CCMSLIB00006699968
50.25383 2016.0 
50.461601 1892.0 
50.832989 2198.0 
51.76981 2018.0 
51.93568 1762.0 
72.008919 19987.0 
78.429482 2122.0 
87.251534 2034.0 
87.688873 2064.0 
87.694778 1883.0 
118.663437 2242.0 
119.050369 34732.0 
122.745132 2153.0 
133.065826 2294.0 
134.491791 1908.0 
143.734421 2085.0 
151.618469 2408.0 
177.055923 46002.0 
194.082489 78438.0 
END IONS

BEGIN IONS
PRECURSOR_MZ=347.072
INCHI=InChI=1S/C21H13FO4/c22-16-11-10-13(12-18(16)25-14-6-2-1-3-7-14)21-20(24)19(23)15-8-4-5-9-17(15)26-21/h1-12,24H
SMILES=O=c1c(O)c(-c2ccc(F)c(Oc3ccccc3)c2)oc2ccccc12
SCANS=16769
IONMODE=negative
COMPOUND_NAME=2-(4-fluoro-3-phenoxyphenyl)-3-hydroxychromen-4-one M-H
SPECTRUM_ID=CCMSLIB00006702110
51.557041 2359.0 
51.733582 2165.0 
66.318367 2739.0 
68.486023 2828.0 
80.608429 2471.0 
81.95311 3406.0 
93.034599 152604.0 
94.661293 3041.0 
155.111572 2546.0 
165.03511 31629.0 
177.034927 3665.0 
185.04155 19297.0 
187.055923 5531.0 
195.045242 4941.0 
197.040421 9945.0 
213.035858 155015.0 
214.043549 28232.0 
215.05159 111185.0 
226.043503 32534.0 
227.049805 8211.0 
241.030823 90078.0 
242.039261 3389.0 
243.081345 4755.0 
263.088989 2615.0 
270.069214 5753.0 
271.076111 25332.0 
289.065857 3960.0 
290.077209 4245.0 
291.082397 17284.0 
319.077667 30923.0 
347.072662 724845.0 
END IONS

BEGIN IONS
PRECURSOR_MZ=444.166
INCHI=InChI=1S/C22H25NO6/c1-12(24)23-16-8-6-13-10-19(27-3)21(28-4)22(29-5)20(13)14-7-9-18(26-2)17(25)11-15(14)16/h7,9-11,16H,6,8H2,1-5H3,(H,23,24)
SMILES=COc1cc2c(c(OC)c1OC)-c1ccc(OC)c(=O)cc1C(N=C(C)O)CC2
SCANS=13900
IONMODE=negative
COMPOUND_NAME=64-86-8 M+formate
SPECTRUM_ID=CCMSLIB00006699241
51.91037 2289.0 
57.792671 2396.0 
66.752457 3190.0 
72.536591 2016.0 
73.090828 2332.0 
73.965897 2056.0 
75.481796 2417.0 
173.010437 2464.0 
214.195297 2678.0 
244.872345 2569.0 
330.674133 2489.0 
332.957825 2488.0 
END IONS

BEGIN IONS
PRECURSOR_MZ=346.274
INCHI=InChI=1S/C22H35NO2/c1-14-7-6-9-17(23(14)3)11-12-19-18-10-5-4-8-16(18)13-20-21(19)15(2)25-22(20)24/h11-12,14-21H,4-10,13H2,1-3H3/b12-11+/t14-,15-,16+,17+,18-,19+,20-,21+/m0/s1
SMILES=CC1OC(=O)C2CC3CCCCC3C(C=CC3CCCC(C)N3C)C12
SCANS=13831
IONMODE=positive
COMPOUND_NAME=Himbacine M+H
SPECTRUM_ID=CCMSLIB00006699172
55.054741 270442.0 
55.057671 12541.0 
56.04998 142617.0 
57.070431 31767.0 
58.065632 768435.0 
60.192879 5635.0 
62.2925 5233.0 
62.394138 5357.0 
65.039062 147772.0 
67.054672 3188080.0 
69.070297 302221.0 
70.065491 124490.0 
71.049561 13734.0 
71.073372 102952.0 
72.081268 94911.0 
73.028954 14310.0 
77.03904 12519.0 
79.054558 1866182.0 
81.070198 1692549.0 
81.074348 30206.0 
82.38118 7052.0 
83.049492 8064.0 
83.085869 153547.0 
84.081039 643628.0 
85.064911 9024.0 
91.054382 893673.0 
92.357986 7511.0 
93.070053 3358789.0 
95.049149 70027.0 
95.085632 1162717.0 
96.080811 52933.0 
97.064796 24470.0 
97.088379 25823.0 
97.100952 50698.0 
98.096519 513627.0 
99.044411 7754.0 
99.080902 10053.0 
103.054138 8414.0 
105.069923 806753.0 
107.048927 8493.0 
107.085541 769603.0 
108.080818 11813.0 
109.064796 28839.0 
109.101212 679705.0 
110.096367 157817.0 
111.080276 24730.0 
111.104301 38136.0 
112.112106 104058.0 
115.055153 7473.0 
117.069893 232146.0 
119.085571 1056264.0 
121.064743 24152.0 
121.101196 1231555.0 
123.080582 31052.0 
123.11705 101227.0 
124.112137 111818.0 
125.059914 32718.0 
126.127037 9050.0 
128.062332 8960.0 
129.069962 123408.0 
130.07753 9729.0 
131.085571 612694.0 
133.064713 24564.0 
133.101196 1167628.0 
135.08049 40152.0 
135.116776 477725.0 
136.112213 73119.0 
137.059631 34678.0 
137.096069 61543.0 
137.120789 12868.0 
137.132874 25677.0 
138.127823 162174.0 
139.075317 56667.0 
140.143677 98914.0 
141.069992 11296.0 
143.085541 282012.0 
144.093292 12521.0 
145.065475 24494.0 
145.101196 1377450.0 
147.080307 48432.0 
147.11676 642907.0 
149.059677 14519.0 
149.096786 45482.0 
149.132446 286231.0 
150.127762 38653.0 
151.07515 53039.0 
151.111786 9442.0 
152.143585 160350.0 
153.090836 9815.0 
155.084991 23550.0 
157.101242 231883.0 
158.109116 7578.0 
159.081665 44008.0 
159.116806 656888.0 
160.124359 11417.0 
161.097733 51125.0 
161.132401 1124901.0 
163.075302 27395.0 
163.111984 28107.0 
163.147934 79464.0 
165.091187 84948.0 
166.158936 38199.0 
168.172897 6641.0 
169.101532 43626.0 
170.108597 10256.0 
171.081253 8161.0 
171.116669 356175.0 
172.125046 7171.0 
173.095688 29288.0 
173.13237 590434.0 
174.1409 7445.0 
175.075546 12045.0 
175.111969 23900.0 
175.14801 198694.0 
177.091385 98407.0 
177.127411 40251.0 
177.164124 9708.0 
179.106064 54066.0 
181.100922 11128.0 
183.116425 62250.0 
184.124496 7171.0 
185.132462 1065563.0 
186.140564 72108.0 
187.111038 37184.0 
187.148087 682547.0 
189.091431 115530.0 
189.126587 43784.0 
189.163635 142853.0 
191.106537 55528.0 
191.143204 26049.0 
193.122116 34934.0 
195.11705 27961.0 
197.133148 51872.0 
198.140259 7896.0 
199.112946 13394.0 
199.148148 325730.0 
200.154724 8877.0 
201.12767 33846.0 
201.163773 251485.0 
203.107117 13325.0 
203.143173 48662.0 
203.179062 14412.0 
204.174759 6447.0 
205.122635 52881.0 
207.137558 64999.0 
209.132233 11394.0 
211.147736 25561.0 
213.126785 39802.0 
213.163788 162068.0 
215.142502 39856.0 
215.180099 65759.0 
217.122513 35705.0 
217.158249 12973.0 
219.137894 29089.0 
221.152802 8822.0 
225.162888 9864.0 
227.141876 11739.0 
227.179108 369383.0 
229.194809 28483.0 
231.137909 232367.0 
232.205551 8498.0 
233.151535 45061.0 
237.163925 31678.0 
239.181244 11126.0 
241.196243 25711.0 
243.210495 26769.0 
245.154282 25916.0 
245.189499 7491.0 
246.220093 8958.0 
255.177933 18038.0 
259.170105 8952.0 
264.192993 8556.0 
269.225891 196769.0 
271.242523 24625.0 
273.184113 11119.0 
274.251312 29204.0 
297.220276 35355.0 
300.26889 112365.0 
302.244751 14231.0 
302.283661 436191.0 
315.23053 8890.0 
328.263092 213447.0 
344.605957 37366.0 
346.273743 26102876.0 
347.951843 36868.0 
END IONS

BEGIN IONS
PRECURSOR_MZ=358.153
INCHI=InChI=1S/C20H21N3O2/c1-13-3-8-19-18(11-13)16(12-22-19)9-10-21-20(25)15-4-6-17(7-5-15)23-14(2)24/h3-8,11-12,22H,9-10H2,1-2H3,(H,21,25)(H,23,24)
SMILES=CC(O)=Nc1ccc(C(=O)NCCc2c[nH]c3ccc(C)cc23)cc1
SCANS=16410
IONMODE=positive
COMPOUND_NAME=N-(4-{N-[2-(5-methylindol-3-yl)ethyl]carbamoyl}phenyl)acetamide M+Na
SPECTRUM_ID=CCMSLIB00006701751
56.35714 3799.0 
101.342201 4605.0 
121.745689 3661.0 
134.186127 4051.0 
140.501572 4192.0 
142.136948 3967.0 
165.525757 4746.0 
206.587875 4111.0 
209.680984 8146.0 
315.13623 4677.0 
347.871185 5210.0 
358.151703 7941318.0 
376.162567 4869.0 
END IONS

BEGIN IONS
PRECURSOR_MZ=267.149
INCHI=InChI=1S/C17H19N2O/c1-18(2)14-7-5-12-9-13-6-8-15(19(3)4)11-17(13)20-16(12)10-14/h5-11H,1-4H3/q+1
SMILES=CN(C)c1ccc2cc3ccc(N(C)C)cc3[o+]c2c1
SCANS=1233
IONMODE=positive
COMPOUND_NAME=CHEBI:90416 M
SPECTRUM_ID=CCMSLIB00006686574
56.967449 4257.0 
73.944679 4106.0 
81.30983 3708.0 
82.788498 3676.0 
85.441231 3299.0 
87.817436 3712.0 
95.669807 4430.0 
104.272072 5491.0 
128.158127 4423.0 
183.913757 4477.0 
202.896408 9542.0 
220.905014 37621.0 
222.089813 5625.0 
223.099503 39176.0 
224.107529 16737.0 
235.08725 7692.0 
251.117172 433916.0 
252.125275 338938.0 
255.087601 19718.0 
266.012604 5348.0 
266.139984 17306.0 
267.148651 33570376.0 
268.292145 7525.0 
END IONS

BEGIN IONS
PRECURSOR_MZ=335.056
INCHI=InChI=1S/C19H12O6/c20-16-10-5-1-3-7-14(10)24-18(22)12(16)9-13-17(21)11-6-2-4-8-15(11)25-19(13)23/h1-8,20-21H,9H2
SMILES=O=c1oc2ccccc2c(O)c1Cc1c(O)c2ccccc2oc1=O
SCANS=8967
IONMODE=negative
COMPOUND_NAME=dicumarol M-H
SPECTRUM_ID=CCMSLIB00006694308
72.046837 2125.0 
92.389542 2284.0 
100.385941 2489.0 
117.034248 4868.0 
118.297432 2242.0 
139.946579 2257.0 
161.024292 531402.0 
258.28537 2312.0 
291.890808 2329.0 
335.056793 4102.0 
END IONS

BEGIN IONS
PRECURSOR_MZ=345.122
INCHI=InChI=1S/C19H17F3N2O/c1-12-15(16-4-2-3-5-17(16)24-12)10-11-23-18(25)13-6-8-14(9-7-13)19(20,21)22/h2-9,24H,10-11H2,1H3,(H,23,25)
SMILES=Cc1[nH]c2ccccc2c1CCNC(=O)c1ccc(C(F)(F)F)cc1
SCANS=3780
IONMODE=negative
COMPOUND_NAME=N-[2-(2-methylindol-3-yl)ethyl][4-(trifluoromethyl)phenyl]carboxamide M-H
SPECTRUM_ID=CCMSLIB00006689121
50.470261 2874.0 
55.380421 3420.0 
83.239288 2483.0 
92.400002 4078.0 
104.31292 4683.0 
106.744583 3061.0 
130.065918 11144.0 
136.248825 3766.0 
145.026718 61755.0 
175.393097 3027.0 
188.032761 1815578.0 
189.016876 3893.0 
278.985565 4637.0 
280.982117 46837.0 
304.982666 6227.0 
324.986542 6065.0 
345.121857 4403401.0 
361.279144 4036.0 
END IONS

BEGIN IONS
PRECURSOR_MZ=414.155
INCHI=InChI=1S/C22H23NO7/c1-23-8-7-11-9-14-20(29-10-28-14)21(27-4)15(11)17(23)18-12-5-6-13(25-2)19(26-3)16(12)22(24)30-18/h5-6,9,17-18H,7-8,10H2,1-4H3/t17-,18+/m1/s1
SMILES=COc1ccc2c(c1OC)C(=O)OC2C1c2c(cc3c(c2OC)OCO3)CCN1C
SCANS=1522
IONMODE=positive
COMPOUND_NAME=noscapine M+H
SPECTRUM_ID=CCMSLIB00006686863
50.850941 3242.0 
57.23941 3480.0 
73.952888 3772.0 
76.58094 3196.0 
85.582977 2952.0 
91.054062 4034.0 
98.566841 3074.0 
104.285454 4033.0 
121.064583 13036.0 
132.156891 3525.0 
149.059067 6251.0 
164.046982 3371.0 
165.055008 5399.0 
179.069992 176916.0 
191.07016 7235.0 
193.048676 13560.0 
204.065506 4958.0 
205.072968 66796.0 
206.080811 129523.0 
218.08049 24757.0 
219.088364 37638.0 
220.096451 3032012.0 
248.0914 25593.0 
250.142899 4218.0 
262.062195 4380.0 
263.06842 13238.0 
264.077972 13502.0 
265.084778 4961.0 
267.100525 6396.0 
274.064087 3693.0 
276.076538 13965.0 
277.086517 6652.0 
279.065063 5286.0 
279.099915 3911.0 
280.072174 32859.0 
291.063171 14937.0 
292.073578 27834.0 
293.079529 7012.0 
294.087524 4187.0 
295.060638 7231.0 
295.094818 64178.0 
296.104492 3997.0 
297.111206 5650.0 
303.063568 4192.0 
304.071564 7086.0 
305.081665 24890.0 
306.050598 25602.0 
307.059143 26386.0 
307.096313 26897.0 
308.065765 19261.0 
308.102997 6249.0 
309.075348 20001.0 
310.083069 18129.0 
312.098206 14331.0 
313.103668 4000.0 
319.059418 6475.0 
320.066284 7727.0 
321.074219 24128.0 
322.08255 58921.0 
323.058655 10500.0 
323.090759 209597.0 
324.098389 36850.0 
325.105927 78242.0 
327.12085 5994.0 
332.066742 16173.0 
334.082916 57752.0 
335.054504 14302.0 
335.093445 24024.0 
337.069214 6942.0 
338.076752 37064.0 
339.124054 5507.0 
350.076965 114917.0 
351.082428 6627.0 
352.094421 28974.0 
353.100891 534212.0 
355.117554 14889.0 
363.111511 5487.0 
365.100861 126256.0 
366.097534 34195.0 
371.112701 12645.0 
378.133759 7424.0 
381.11853 40868.0 
383.112823 12463.0 
396.144012 43746.0 
399.128418 4219.0 
411.982544 4039.0 
414.153656 4663519.0 
416.34375 4638.0 
END IONS

BEGIN IONS
PRECURSOR_MZ=337.083
INCHI=InChI=1S/C21H14O3/c22-16-11-12-17-18(13-16)24-21(23)20(15-9-5-2-6-10-15)19(17)14-7-3-1-4-8-14/h1-13,22H
SMILES=O=c1oc2cc(O)ccc2c(-c2ccccc2)c1-c1ccccc1
SCANS=2429
IONMODE=positive
COMPOUND_NAME=3,4-Diphenyl-7-hydroxycoumarin M+Na
SPECTRUM_ID=CCMSLIB00006687770
87.856194 2760.0 
95.235893 2509.0 
97.259651 2554.0 
101.003342 3588.0 
104.445534 2608.0 
114.113831 2682.0 
136.590012 2608.0 
141.689011 2602.0 
175.148712 2657.0 
204.0681 2676.0 
276.938599 3981.0 
337.08313 4004617.0 
337.751801 3303.0 
355.09256 34142.0 
END IONS

BEGIN IONS
PRECURSOR_MZ=400.118
INCHI=InChI=1S/C24H17NO5/c1-15-13-17(22(27)16-7-3-2-4-8-16)11-12-20(15)30-21(26)14-25-23(28)18-9-5-6-10-19(18)24(25)29/h2-13H,14H2,1H3
SMILES=Cc1cc(C(=O)c2ccccc2)ccc1OC(=O)CN1C(=O)c2ccccc2C1=O
SCANS=19795
IONMODE=positive
COMPOUND_NAME=2-methyl-4-(phenylcarbonyl)phenyl 2-(1,3-dioxobenzo[c]azolin-2-yl)acetate M+H
SPECTRUM_ID=CCMSLIB00006705136
51.02354 14284.0 
51.21003 3062.0 
53.03907 78784.0 
63.713112 3031.0 
64.706627 3565.0 
64.764351 3366.0 
69.040413 3055.0 
75.537148 3232.0 
77.039192 18563.0 
79.054489 13612.0 
81.033813 16078.0 
92.373207 3339.0 
95.049294 38062.0 
104.050034 5200.0 
105.033524 2034680.0 
122.117691 3179.0 
130.028976 48084.0 
132.044113 7773.0 
133.028381 280857.0 
135.044006 437833.0 
159.875275 3849.0 
160.039276 3879667.0 
162.51265 3020.0 
162.530716 3558.0 
178.049484 6550.0 
188.034073 32629.0 
213.090912 1450012.0 
399.464844 3472.0 
400.118347 87461.0 
END IONS

BEGIN IONS
PRECURSOR_MZ=352.106
INCHI=InChI=1S/C20H15N3O2/c1-12-10-17-13-6-2-4-8-16(13)21-20(23(17)22-12)15-11-25-18-9-5-3-7-14(18)19(15)24/h2-11,20-21H,1H3
SMILES=Cc1cc2n(n1)C(c1coc3ccccc3c1=O)Nc1ccccc1-2
SCANS=14221
IONMODE=positive
COMPOUND_NAME=3-(9-methyl-5,6,7-trihydropyrazolo[1,5-c]quinazolin-6-yl)chromen-4-one M+Na
SPECTRUM_ID=CCMSLIB00006699562
57.405071 2858.0 
58.32864 2965.0 
82.414398 2534.0 
92.394279 2980.0 
92.400726 2435.0 
104.310379 2747.0 
118.680878 2436.0 
134.480133 2881.0 
149.22818 2178.0 
206.096191 2947.0 
289.121826 2905.0 
338.65799 3420.0 
352.10498 2476611.0 
END IONS

BEGIN IONS
PRECURSOR_MZ=367.084
INCHI=InChI=1S/C16H16N4O3S/c1-9-17-13-12(14(21)18-9)19-16(20(13)2)24-8-10-4-6-11(7-5-10)15(22)23-3/h4-7H,8H2,1-3H3,(H,17,18,21)
SMILES=COC(=O)c1ccc(CSc2nc3c(O)nc(C)nc3n2C)cc1
SCANS=4007
IONMODE=positive
COMPOUND_NAME=methyl 4-[(2,9-dimethyl-6-oxohydropurin-8-ylthio)methyl]benzoate M+Na
SPECTRUM_ID=CCMSLIB00006689348
52.594189 2750.0 
53.455189 3114.0 
68.650787 3089.0 
92.361076 3607.0 
93.076607 3212.0 
104.269234 3825.0 
105.069908 147149.0 
106.073036 28289.0 
111.004372 3264.0 
136.18483 3540.0 
218.023193 1694635.0 
236.034317 4645.0 
259.049103 3348.0 
272.997406 5565.0 
308.071594 13091.0 
352.059601 4598.0 
366.583984 6830.0 
367.08316 6733292.0 
368.909851 4889.0 
404.044983 7467.0 
627.111023 3825.0 
628.100159 25539.0 
629.10022 17285.0 
685.597473 4249.0 
END IONS

BEGIN IONS
PRECURSOR_MZ=387.148
INCHI=InChI=1S/C21H24N2O3/c1-12-16-10-23-8-7-14-13-5-3-4-6-18(13)22-20(14)19(23)9-15(16)17(11-26-12)21(24)25-2/h3-6,11-12,15-16,19,22H,7-10H2,1-2H3/t12-,15-,16-,19-/m0/s1
SMILES=COC(=O)C1=COC(C)C2CN3CCc4c([nH]c5ccccc45)C3CC12
SCANS=14162
IONMODE=negative
COMPOUND_NAME=Tetrahydroalstonine M+Cl
SPECTRUM_ID=CCMSLIB00006699503
54.625641 2227.0 
65.002983 2714.0 
82.407822 3399.0 
82.858803 2141.0 
86.071838 2392.0 
90.169281 2410.0 
92.389107 2572.0 
104.29953 2252.0 
118.669487 3391.0 
151.00351 3799.0 
170.882904 2258.0 
183.870163 2486.0 
194.028336 2578.0 
208.479218 12633.0 
262.890961 3095.0 
END IONS

BEGIN IONS
PRECURSOR_MZ=583.255
INCHI=InChI=1S/C33H34N4O6/c1-7-20-19(6)32(42)37-27(20)14-25-18(5)23(10-12-31(40)41)29(35-25)15-28-22(9-11-30(38)39)17(4)24(34-28)13-26-16(3)21(8-2)33(43)36-26/h7-8,13-15,34-35H,1-2,9-12H2,3-6H3,(H,37,42)(H,38,39)(H,40,41)/b24-13+,27-14-,28-15-
SMILES=C=CC1=C(C)C(C=c2[nH]c(=Cc3[nH]c(C=C4N=C(O)C(C)=C4C=C)c(C)c3CCC(=O)O)c(CCC(=O)O)c2C)=NC1=O
SCANS=5335
IONMODE=positive
COMPOUND_NAME=biliverdin M+H
SPECTRUM_ID=CCMSLIB00006690676
104.273033 254340.0 
143.463531 218899.0 
157.954819 266542.0 
183.829315 230907.0 
209.108734 356736.0 
212.092804 269731.0 
212.146759 245594.0 
225.102234 981579.0 
227.118286 1401198.0 
237.10141 1493723.0 
238.110382 1017782.0 
239.119034 351677.0 
251.118362 870907.0 
253.097168 264608.0 
253.133713 1956838.0 
255.294312 246602.0 
261.405823 248729.0 
269.128601 3206824.0 
271.107941 1621502.0 
271.141357 428411.0 
279.113495 2045569.0 
285.007507 254243.0 
285.122742 1127074.0 
297.123322 79665792.0 
298.125488 2808907.0 
299.139038 6954960.0 
375.84256 258203.0 
390.185516 298239.0 
450.197083 430279.0 
451.211456 1345783.0 
463.213593 266642.0 
465.225983 1883427.0 
509.217255 548355.0 
510.226898 537756.0 
514.667969 259833.0 
523.234985 1559167.0 
524.239258 398043.0 
555.257385 578987.0 
565.240356 2776265.0 
566.235168 484858.0 
583.255554 323252448.0 
583.752747 2910661.0 
584.258423 27357794.0 
END IONS

BEGIN IONS
PRECURSOR_MZ=494.064
INCHI=InChI=1S/C22H26BrNO5S/c1-4-30-9-8-29-22(27)18-12(2)24-15-6-5-7-16(25)20(15)19(18)13-10-14(23)21(26)17(11-13)28-3/h10-11,19,24,26H,4-9H2,1-3H3
SMILES=CCSCCOC(=O)C1=C(C)NC2=C(C(=O)CCC2)C1c1cc(Br)c(O)c(OC)c1
SCANS=19648
IONMODE=negative
COMPOUND_NAME=2-ethylthioethyl 4-(3-bromo-4-hydroxy-5-methoxyphenyl)-2-methyl-5-oxo-1,4,6,7, 8-pentahydroquinoline-3-carboxylate M-H
SPECTRUM_ID=CCMSLIB00006704989
52.490742 2717.0 
61.01125 46773.0 
68.597794 2687.0 
78.918602 2539669.0 
89.109238 2952.0 
92.384468 4359.0 
92.391006 3019.0 
130.065933 7617.0 
136.0392 3567.0 
146.061111 14257.0 
148.040253 21887.0 
151.773575 2876.0 
152.770844 3710.0 
158.060959 76413.0 
160.076813 223570.0 
162.055664 16267.0 
174.055817 19615.0 
185.932175 748781.0 
186.055618 4615.0 
188.034805 3233.0 
191.060211 3373.0 
200.955597 303196.0 
203.059326 13244.0 
204.066498 44577.0 
210.004196 4236.0 
210.02269 4569.0 
235.048004 19096.0 
264.065094 4638.0 
265.073456 19495.0 
266.082611 4464.0 
292.06311 4233.0 
292.100708 122300.0 
293.068939 4478.0 
343.437195 3235.0 
346.010254 4076.0 
371.986847 4351.0 
388.018463 38400.0 
406.031586 4390.0 
494.06424 1419560.0 
END IONS

BEGIN IONS
PRECURSOR_MZ=438.189
INCHI=InChI=1S/C23H29NO6/c1-15(2)11-12-30-23(26)20(16-9-7-6-8-10-16)24-22(25)17-13-18(27-3)21(29-5)19(14-17)28-4/h6-10,13-15,20H,11-12H2,1-5H3,(H,24,25)
SMILES=COc1cc(C(O)=NC(C(=O)OCCC(C)C)c2ccccc2)cc(OC)c1OC
SCANS=16359
IONMODE=positive
COMPOUND_NAME=3-methylbutyl 2-phenyl-2-[(3,4,5-trimethoxyphenyl)carbonylamino]acetate M+Na
SPECTRUM_ID=CCMSLIB00006701700
64.906738 2880.0 
88.64637 2750.0 
104.290154 3013.0 
116.198357 2995.0 
162.46022 2897.0 
195.064713 5565.0 
209.205109 5733.0 
234.073059 21057.0 
368.109863 135033.0 
368.160675 6046.0 
423.164398 5906.0 
435.815826 3688.0 
438.188202 4830495.0 
440.577423 4002.0 
END IONS

BEGIN IONS
PRECURSOR_MZ=415.102
INCHI=InChI=1S/C20H15F3N4O3/c1-11-3-2-4-13(9-11)30-8-7-27-15-6-5-12(20(21,22)23)10-14(15)24-16-17(27)25-19(29)26-18(16)28/h2-6,9-10H,7-8H2,1H3,(H,26,28,29)
SMILES=Cc1cccc(OCCn2c3nc(=O)nc(O)c-3nc3cc(C(F)(F)F)ccc32)c1
SCANS=8633
IONMODE=negative
COMPOUND_NAME=10-[2-(3-methylphenoxy)ethyl]-7-(trifluoromethyl)-3,10-dihydrobenzo[g]pteridin e-2,4-dione M-H
SPECTRUM_ID=CCMSLIB00006693974
51.346729 2325.0 
58.398819 2435.0 
69.689743 2379.0 
73.96994 2861.0 
92.400543 3133.0 
98.580093 2294.0 
104.313477 2404.0 
107.050217 194582.0 
113.620193 2465.0 
118.676964 2439.0 
218.535934 2471.0 
220.675308 2588.0 
264.038055 4422.0 
278.913849 5200.0 
307.044769 289731.0 
321.16803 2413.0 
376.485199 2638.0 
414.995422 20828.0 
415.102203 297837.0 
END IONS

BEGIN IONS
PRECURSOR_MZ=238.07
INCHI=InChI=1S/C10H9N5O/c1-2-7(16-3-1)4-11-9-8-10(13-5-12-8)15-6-14-9/h1-3,5-6H,4H2,(H2,11,12,13,14,15)
SMILES=c1coc(CNc2nc[nH]c3ncnc2-3)c1
SCANS=2656
IONMODE=positive
COMPOUND_NAME=kinetin M+Na
SPECTRUM_ID=CCMSLIB00006687997
55.93491 2241.0 
73.949806 2558.0 
79.021637 4386.0 
86.093651 2457.0 
92.856842 2594.0 
102.637657 2187.0 
104.276749 3066.0 
118.649139 2304.0 
125.726761 2035.0 
133.30191 2381.0 
136.197845 1922.0 
157.965149 2640.0 
169.956177 2481.0 
170.043777 4652.0 
190.946808 3853.0 
192.961624 13807.0 
193.969788 10380.0 
196.954025 2421.0 
211.593979 2969.0 
214.922256 12955.0 
214.96225 2368.0 
215.016586 2728.0 
216.530304 2332.0 
224.951599 2299.0 
236.590515 2093.0 
237.258255 2529.0 
237.909058 3418.0 
237.959076 15476.0 
237.984543 15897.0 
238.069611 523976.0 
389.834595 2332.0 
END IONS

BEGIN IONS
PRECURSOR_MZ=390.159
INCHI=InChI=1S/C20H25N3O3/c1-25-18-9-8-16(14-19(18)26-2)20(24)21-15-22-10-12-23(13-11-22)17-6-4-3-5-7-17/h3-9,14H,10-13,15H2,1-2H3,(H,21,24)
SMILES=COc1ccc(C(O)=NCN2CCN(c3ccccc3)CC2)cc1OC
SCANS=7904
IONMODE=negative
COMPOUND_NAME=(3,4-dimethoxyphenyl)-N-[(4-phenylpiperazinyl)methyl]carboxamide M+Cl
SPECTRUM_ID=CCMSLIB00006693245
54.095551 2206.0 
56.07608 2150.0 
65.697029 2530.0 
96.363953 2369.0 
97.809227 2751.0 
108.564529 2297.0 
136.214325 2913.0 
140.482773 2453.0 
185.405319 2426.0 
209.982574 2373.0 
212.169571 2949.0 
225.283615 2590.0 
261.76123 2714.0 
END IONS

BEGIN IONS
PRECURSOR_MZ=1224.83
INCHI=InChI=1S/C62H111N11O12/c1-25-27-28-40(15)52(75)51-56(79)65-43(26-2)58(81)67(18)33-48(74)68(19)44(29-34(3)4)55(78)66-49(38(11)12)61(84)69(20)45(30-35(5)6)54(77)63-41(16)53(76)64-42(17)57(80)70(21)46(31-36(7)8)59(82)71(22)47(32-37(9)10)60(83)72(23)50(39(13)14)62(85)73(51)24/h25,27,34-47,49-52,75H,26,28-33H2,1-24H3,(H,63,77)(H,64,76)(H,65,79)(H,66,78)/b27-25+/t40-,41+,42-,43+,44+,45+,46+,47+,49+,50+,51+,52-/m1/s1
SMILES=CC=CCC(C)C(O)C1C(O)=NC(CC)C(=O)N(C)CC(=O)N(C)C(CC(C)C)C(O)=NC(C(C)C)C(=O)N(C)C(CC(C)C)C(O)=NC(C)C(O)=NC(C)C(=O)N(C)C(CC(C)C)C(=O)N(C)C(CC(C)C)C(=O)N(C)C(C(C)C)C(=O)N1C
SCANS=11592
IONMODE=positive
COMPOUND_NAME=cyclosporin A M+Na
SPECTRUM_ID=CCMSLIB00006696933
92.792526 13504.0 
97.078857 11336.0 
100.111702 80394.0 
122.052254 12203.0 
123.091797 13964.0 
171.148727 13582.0 
193.131073 16265.0 
197.088852 11617.0 
199.143494 16622.0 
209.200714 29382.0 
210.148666 30897.0 
221.125656 22016.0 
224.163452 26402.0 
235.015076 10994.0 
238.149506 11805.0 
264.167175 52950.0 
277.18811 17525.0 
292.201202 93113.0 
306.259155 62043.0 
310.173828 14365.0 
323.204285 118389.0 
335.205597 17850.0 
351.236969 16145.0 
360.225983 15118.0 
363.240784 27577.0 
373.224854 17306.0 
377.198914 25438.0 
377.251953 654063.0 
387.241211 20097.0 
391.268341 30499.0 
403.232635 52435.0 
419.304382 36387.0 
423.257629 62856.0 
432.258636 32595.0 
433.314758 21479.0 
434.277924 16727.0 
436.288361 74976.0 
437.268555 20173.0 
446.312866 19541.0 
448.291168 131609.0 
450.305298 235695.0 
460.285004 24016.0 
461.308319 56060.0 
462.308838 17968.0 
464.324829 21075.0 
471.332794 19877.0 
476.319336 69917.0 
487.298401 20763.0 
490.336304 418405.0 
492.35318 13176.0 
504.351898 259735.0 
507.321472 17284.0 
518.370972 309214.0 
519.331421 16313.0 
530.333069 72804.0 
531.359253 31175.0 
532.348755 107400.0 
533.342346 65514.0 
535.361267 25073.0 
546.367554 22079.0 
549.369995 118756.0 
559.353394 104327.0 
561.372864 661032.0 
563.394958 24197.0 
570.36145 126928.0 
575.387939 835161.0 
577.400024 108865.0 
585.371643 101194.0 
587.350464 16692.0 
589.403564 321874.0 
599.390625 59023.0 
601.362793 109040.0 
602.396973 30017.0 
603.385193 113381.0 
604.377258 91315.0 
607.370117 111119.0 
609.340698 16558.0 
612.450684 24607.0 
613.374756 19748.0 
615.389038 14808.0 
617.397949 24295.0 
620.412354 264081.0 
621.396973 61132.0 
629.388672 77305.0 
629.894226 17963.0 
630.438049 17745.0 
631.377197 24663.0 
631.463562 16936.0 
635.413147 17621.0 
644.409851 21748.0 
646.425842 1148250.0 
648.430298 47551.0 
656.408813 29730.0 
657.436829 57920.0 
660.437012 121000.0 
670.423401 159475.0 
671.430054 27929.0 
672.404297 109376.0 
674.421692 120907.0 
676.471619 84689.0 
684.437927 32241.0 
686.439758 29627.0 
688.475342 227275.0 
690.496887 27824.0 
692.430481 253736.0 
697.453247 28157.0 
701.492249 57230.0 
702.395508 251281.0 
703.446167 59581.0 
705.462463 764437.0 
712.465393 23834.0 
714.445374 28078.0 
715.439636 125684.0 
716.462402 74591.0 
717.466675 161180.0 
729.494934 22362.0 
730.483765 107140.0 
731.475952 412536.0 
740.502686 75043.0 
741.461487 21491.0 
742.502747 31583.0 
745.48114 27873.0 
747.508057 202037.0 
755.488098 31428.0 
756.491333 24117.0 
757.510437 29041.0 
759.516296 96589.0 
763.467529 18817.0 
768.503845 63463.0 
773.52417 465518.0 
774.492371 23501.0 
782.524658 20192.0 
784.514832 19319.0 
787.542175 689373.0 
797.51355 65171.0 
799.530029 99999.0 
800.52002 20200.0 
801.523071 95478.0 
802.514832 60741.0 
803.569885 16944.0 
811.528381 76620.0 
814.574097 23712.0 
815.573059 418618.0 
827.537109 31821.0 
829.525635 32030.0 
830.533508 105229.0 
832.562561 1125140.0 
839.537781 101565.0 
841.536804 24971.0 
842.557129 25604.0 
843.558289 18472.0 
855.563965 60954.0 
857.540344 56932.0 
858.570068 819419.0 
868.590088 21185.0 
870.574463 24779.0 
872.571594 26987.0 
874.606689 119188.0 
881.611938 62921.0 
882.587952 20436.0 
884.533569 31143.0 
886.606201 488787.0 
889.581665 61650.0 
895.600708 20842.0 
896.591614 163961.0 
899.647339 91553.0 
900.622803 96617.0 
903.596313 127570.0 
909.649902 56493.0 
910.619263 23269.0 
912.600342 55258.0 
913.587219 21293.0 
914.593201 16253.0 
917.619873 26104.0 
924.599976 64676.0 
926.629395 98976.0 
927.655701 92367.0 
928.634155 184586.0 
929.59314 23532.0 
930.644226 62728.0 
931.641418 23664.0 
938.633606 18813.0 
940.636047 21326.0 
942.618958 61921.0 
945.630249 100967.0 
954.650391 26577.0 
955.629639 25490.0 
956.62561 27419.0 
957.635864 154755.0 
959.655396 159668.0 
966.636353 87295.0 
967.62561 65566.0 
969.647827 73720.0 
971.641846 55838.0 
980.679138 53108.0 
982.651672 25184.0 
984.637878 29756.0 
985.642822 244421.0 
987.692688 80052.0 
995.625549 56442.0 
997.671143 27903.0 
998.672058 80651.0 
999.684143 112235.0 
1008.666016 30915.0 
1009.67157 61188.0 
1011.638977 28997.0 
1012.667542 27074.0 
1013.701599 545210.0 
1023.682678 20916.0 
1026.64856 142464.0 
1027.685059 129456.0 
1036.661743 23038.0 
1039.683472 44619.0 
1040.696167 79600.0 
1041.688965 99327.0 
1051.700073 184847.0 
1065.702515 54369.0 
1066.71521 63333.0 
1068.757324 111334.0 
1069.705566 28276.0 
1080.721924 102781.0 
1084.744751 4239047.0 
1094.742554 90697.0 
1107.794189 93248.0 
1108.736572 116956.0 
1112.739014 3455197.0 
1121.753906 28502.0 
1122.716431 21043.0 
1125.780151 60033.0 
1136.735962 124045.0 
1138.772095 21293.0 
1162.822754 28112.0 
1178.825806 551651.0 
1180.777588 44809.0 
1196.831421 493684.0 
1206.817993 630136.0 
1208.798828 54405.0 
1209.814087 74513.0 
1213.542725 26991.0 
1213.868164 48575.0 
1224.828857 93041832.0 
1235.936401 53236.0 
1236.288086 25573.0 
END IONS

BEGIN IONS
PRECURSOR_MZ=465.322
INCHI=InChI=1S/C26H44O4/c1-5-30-24(29)11-6-16(2)20-9-10-21-19-8-7-17-14-18(27)12-13-25(17,3)22(19)15-23(28)26(20,21)4/h16-23,27-28H,5-15H2,1-4H3/t16-,17-,18-,19+,20-,21+,22+,23+,25+,26-/m1/s1
SMILES=CCOC(=O)CCC(C)C1CCC2C3CCC4CC(O)CCC4(C)C3CC(O)C12C
SCANS=18796
IONMODE=negative
COMPOUND_NAME=ethyl 4-((1S,2S,11S,16S,5R,7R,10R,14R,15R)-5,16-dihydroxy-2,15-dimethyltetracy clo[8.7.0.0<2,7>.0<11,15>]heptadec-14-yl)pentanoate M+formate
SPECTRUM_ID=CCMSLIB00006704137
70.437157 2238.0 
90.933418 33690.0 
104.290123 3031.0 
112.98568 4929.0 
118.661591 2584.0 
163.077408 2664.0 
168.989944 2846.0 
192.929062 13951.0 
251.05809 2516.0 
328.904663 4372.0 
464.966217 20326.0 
END IONS

BEGIN IONS
PRECURSOR_MZ=302.079
INCHI=InChI=1S/C16H14O6/c1-21-14-4-8(2-3-10(14)18)13-7-12(20)16-11(19)5-9(17)6-15(16)22-13/h2-6,13,17-19H,7H2,1H3/t13-/m0/s1
SMILES=COc1cc(C2CC(=O)c3c(O)cc(O)cc3O2)ccc1O
SCANS=5636
IONMODE=positive
COMPOUND_NAME=Homoeriodictyol M-e
SPECTRUM_ID=CCMSLIB00006690977
64.763947 2802.0 
92.363792 3104.0 
95.317429 2314.0 
110.582047 2075.0 
111.683487 2316.0 
150.020569 2854.0 
212.199432 2231.0 
226.014267 2383.0 
239.073837 2428.0 
261.052124 399155.0 
270.397369 3093.0 
279.061401 12310.0 
302.079681 8894.0 
302.140381 2767.0 
302.24646 3828.0 
END IONS

BEGIN IONS
PRECURSOR_MZ=274.083
INCHI=InChI=1S/C13H13N3O4/c1-8(20-9-5-3-2-4-6-9)11(17)15-10-7-14-13(19)16-12(10)18/h2-8H,1H3,(H,15,17)(H2,14,16,18,19)
SMILES=CC(Oc1ccccc1)C(O)=Nc1cnc(O)nc1O
SCANS=20116
IONMODE=negative
COMPOUND_NAME=N-(2,4-dioxo(1,3-dihydropyrimidin-5-yl))-2-phenoxypropanamide M-H
SPECTRUM_ID=CCMSLIB00006705457
58.856979 2051.0 
64.577538 2297.0 
82.016937 2883.0 
93.034569 101815.0 
93.045639 9626.0 
110.024689 9759.0 
118.690117 2461.0 
123.505203 2158.0 
125.023033 38817.0 
128.44046 2440.0 
136.015594 2953.0 
137.035812 96703.0 
180.041351 13293.0 
188.053543 2056.0 
274.08371 147453.0 
276.744293 2219.0 
END IONS

BEGIN IONS
PRECURSOR_MZ=288.08
INCHI=InChI=1S/C14H15N3O3S/c1-7-4-5-8-10(15)11(21-12(8)16-7)13(18)17-6-2-3-9(17)14(19)20/h4-5,9H,2-3,6,15H2,1H3,(H,19,20)/t9-/m0/s1
SMILES=Cc1ccc2c(N)c(C(=O)N3CCCC3C(=O)O)sc2n1
SCANS=15093
IONMODE=positive
COMPOUND_NAME=(2S)-1-[(3-amino-6-methylthiopheno[2,3-b]pyridin-2-yl)carbonyl]pyrrolidine-2-c arboxylic acid M+H-H2O
SPECTRUM_ID=CCMSLIB00006700434
50.84428 2891.0 
55.16449 2894.0 
68.049873 27631.0 
70.06546 738236.0 
73.958977 3171.0 
81.057343 3909.0 
92.049667 2824.0 
94.065018 6706.0 
104.291992 3489.0 
109.075813 6783.0 
110.05999 69907.0 
111.055267 4355.0 
114.054733 9684.0 
117.477837 2618.0 
119.060509 10029.0 
122.058952 3330.0 
125.029228 3626.0 
126.036911 11736.0 
128.932327 2890.0 
138.036392 3466.0 
150.036835 30656.0 
151.032303 68091.0 
152.016296 108712.0 
163.032211 240218.0 
166.03157 4211.0 
175.032227 38544.0 
176.040482 2811.0 
177.047333 3953.0 
182.103668 3098.0 
189.048309 5270.0 
191.0271 855280.0 
193.042816 10422.0 
194.027069 28962.0 
199.073166 11981.0 
200.118088 12517.0 
203.0271 45790.0 
203.062851 4737.0 
209.037659 22163.0 
210.102432 3225.0 
211.110062 5065.0 
215.063263 16536.0 
216.058655 35968.0 
217.042786 4821.0 
217.079681 19786.0 
219.021942 1127766.0 
226.097717 34087.0 
227.063232 14163.0 
227.104858 10439.0 
231.059753 25003.0 
232.054153 19885.0 
232.089844 13721.0 
242.075104 19725.0 
243.058487 13591.0 
244.090454 66603.0 
245.072495 4861.0 
258.068604 11236.0 
259.052551 41428.0 
260.051239 15281.0 
260.084564 246573.0 
270.070831 5327.0 
288.080841 3025789.0 
END IONS

BEGIN IONS
PRECURSOR_MZ=401.13
INCHI=InChI=1S/C12H22O11/c13-1-3-5(15)7(17)9(19)11(21-3)23-12-10(20)8(18)6(16)4(2-14)22-12/h3-20H,1-2H2/t3-,4-,5-,6-,7+,8+,9-,10-,11-,12-/m1/s1
SMILES=OC[C@H]1O[C@H](O[C@H]2O[C@H](CO)[C@@H](O)[C@H](O)[C@H]2O)[C@H](O)[C@@H](O)[C@@H]1O
SCANS=339
IONMODE=negative
COMPOUND_NAME=trehalose M+acetate
SPECTRUM_ID=CCMSLIB00006685680
55.7215 26265.0 
59.013401 279100.0 
66.758301 29540.5 
71.013496 263203.0 
89.0243 569874.0 
101.025002 229497.0 
104.309998 26135.400391 
110.768997 24816.800781 
113.025002 199172.0 
113.961998 33061.699219 
116.733002 24166.099609 
119.035004 281997.0 
121.710999 26548.800781 
130.25 33629.699219 
131.460999 25408.099609 
141.268005 28319.699219 
161.046005 55837.101562 
163.003006 29197.0 
179.056 418186.0 
251.895004 28742.0 
341.109009 2988860.0 
401.130005 63818.398438 
END IONS

BEGIN IONS
PRECURSOR_MZ=492.226
INCHI=InChI=1S/C29H31N3O3/c1-19-23(24-9-5-6-10-25(24)31-19)15-16-30-28(34)26(18-22-8-7-17-35-22)32-27(33)20-11-13-21(14-12-20)29(2,3)4/h5-14,17-18,31H,15-16H2,1-4H3,(H,30,34)(H,32,33)/b26-18-
SMILES=Cc1[nH]c2ccccc2c1CCN=C(O)C(=Cc1ccco1)NC(=O)c1ccc(C(C)(C)C)cc1
SCANS=4916
IONMODE=positive
COMPOUND_NAME=(2Z)-2-{[4-(tert-butyl)phenyl]carbonylamino}-3-(2-furyl)-N-[2-(2-methylindol-3 -yl)ethyl]prop-2-enamide M+Na
SPECTRUM_ID=CCMSLIB00006690257
92.382393 10500.0 
104.289574 7685.0 
118.659409 8053.0 
136.214584 8869.0 
142.74826 7810.0 
158.096527 152264.0 
161.09639 11632.0 
162.100174 10235.0 
187.046814 8605.0 
192.057205 36649.0 
194.054016 61794.0 
197.104553 214606.0 
263.604706 14613.0 
264.103455 8641.0 
272.154694 10043.0 
277.140686 8765.0 
318.11087 32679.0 
327.112885 9420.0 
335.136169 34997.0 
474.210236 99780.0 
475.218536 12263.0 
477.198364 92707.0 
489.416473 40858.0 
491.213562 17944.0 
491.709656 185526.0 
492.225098 41191484.0 
495.058289 43799.0 
END IONS

BEGIN IONS
PRECURSOR_MZ=428.037
INCHI=InChI=1S/C10H15N5O10P2/c11-8-5-9(13-2-12-8)15(3-14-5)10-7(17)6(16)4(24-10)1-23-27(21,22)25-26(18,19)20/h2-4,6-7,10,16-17H,1H2,(H,21,22)(H2,11,12,13)(H2,18,19,20)/t4-,6-,7-,10-/m1/s1
SMILES=Nc1ncnc2c1ncn2[C@@H]1O[C@H](COP(=O)(O)OP(=O)(O)O)[C@@H](O)[C@H]1O
SCANS=24144
IONMODE=positive
COMPOUND_NAME=Adenosine diphosphate M+H
SPECTRUM_ID=CCMSLIB00006709485
56.359001 2712.179932 
67.994598 2427.800049 
74.301498 2688.0 
92.3955 3369.820068 
97.028801 52829.601562 
104.306999 2831.149902 
128.451996 2445.590088 
133.395004 2704.110107 
136.061996 1673180.0 
140.373993 3094.199951 
157.998993 2669.199951 
168.069 17057.400391 
170.612 3364.320068 
178.072006 5185.049805 
186.539001 3219.639893 
193.024002 2992.030029 
218.925995 3339.620117 
231.278 2703.610107 
232.082001 13650.599609 
236.800003 3599.870117 
236.936996 21437.599609 
306.031006 2879.399902 
330.05899 6288.209961 
348.070007 208730.0 
379.369995 3209.389893 
410.023987 35867.5 
423.940002 2978.860107 
427.828003 56449.699219 
428.036011 902374.0 
END IONS

BEGIN IONS
PRECURSOR_MZ=306.134
INCHI=InChI=1S/C16H19NO5/c1-10(2)22-16(18)12(9-17)8-11-6-7-13(19-3)15(21-5)14(11)20-4/h6-8,10H,1-5H3/b12-8+
SMILES=COc1ccc(C=C(C#N)C(=O)OC(C)C)c(OC)c1OC
SCANS=23006
IONMODE=positive
COMPOUND_NAME=methylethyl (2E)-2-cyano-3-(2,3,4-trimethoxyphenyl)prop-2-enoate M+H
SPECTRUM_ID=CCMSLIB00006708347
60.244499 2412.0 
63.77795 2396.0 
68.997322 10685.0 
69.335983 2634.0 
73.950333 3232.0 
82.005539 2787.0 
89.210617 2604.0 
92.371674 2809.0 
104.04937 6070.0 
104.28154 3289.0 
106.041267 10421.0 
107.966629 4440.0 
115.053886 3568.0 
116.049347 23566.0 
118.064392 3067.0 
120.044617 6258.0 
129.057419 4881.0 
130.06456 6146.0 
132.044342 40092.0 
133.027924 10827.0 
133.052246 3734.0 
134.035904 57890.0 
134.060455 6346.0 
143.036514 4527.0 
144.04422 51068.0 
145.052277 2944.0 
146.05986 18118.0 
147.043579 16944.0 
147.067017 22535.0 
148.051361 3346.0 
149.05986 4281.0 
151.075424 3558.0 
156.043747 3045.0 
157.051895 4428.0 
158.023346 9483.0 
158.060059 16180.0 
159.031677 3480.0 
159.067444 3414.0 
160.038559 46655.0 
161.02301 4749.0 
161.044708 3640.0 
162.030945 15160.0 
162.05397 25905.0 
163.023727 2790.0 
163.038818 10913.0 
163.074875 2613.0 
165.054504 15066.0 
167.071198 2833.0 
172.039032 23830.0 
173.046661 4588.0 
174.016281 3174.0 
174.05452 28359.0 
175.038986 19357.0 
175.061798 14641.0 
176.046249 14827.0 
176.070648 9665.0 
177.056442 3066.0 
178.062057 5561.0 
185.04689 3526.0 
186.054764 10360.0 
187.062256 15447.0 
188.033798 265965.0 
189.076523 4820.0 
190.049561 191783.0 
191.033905 4785.0 
191.070862 6334.0 
198.016006 3911.0 
200.034805 21563.0 
202.04953 149919.0 
203.05751 41474.0 
204.064896 11884.0 
205.072327 35766.0 
215.057449 40100.0 
216.028778 621373.0 
218.043961 2902.0 
218.080734 5567.0 
219.065292 38233.0 
220.095901 22041.0 
221.080719 6125.0 
227.968903 3180.0 
230.043869 34699.0 
231.052185 517256.0 
232.058029 6267.0 
233.06485 24524.0 
234.039764 12520.0 
246.075516 1079676.0 
249.061996 22931.0 
264.085938 618370.0 
271.511078 2708.0 
306.129578 14506.0 
END IONS

BEGIN IONS
PRECURSOR_MZ=315.948
INCHI=InChI=1S/C10H7BrClN3O2/c11-7-8(13)15(10(17)14-9(7)16)6-4-2-1-3-5(6)12/h1-4H,13H2,(H,14,16,17)
SMILES=Nc1c(Br)c(O)nc(=O)n1-c1ccccc1Cl
SCANS=22291
IONMODE=positive
COMPOUND_NAME=6-amino-5-bromo-1-(2-chlorophenyl)-1,3-dihydropyrimidine-2,4-dione M+H
SPECTRUM_ID=CCMSLIB00006707632
66.021156 2858.0 
68.013779 2790.0 
77.889839 3088.0 
91.566727 2899.0 
92.049431 4956.0 
92.374046 3463.0 
93.057503 35045.0 
119.944359 103033.0 
124.593399 2819.0 
126.010696 31761.0 
127.018173 16409.0 
128.026123 110626.0 
129.01001 23416.0 
129.044952 4262.0 
131.06012 7099.0 
135.054871 4286.0 
138.009964 3182.0 
144.939575 19176.0 
145.923584 101507.0 
146.90715 3697.0 
151.018234 29497.0 
153.021408 116969.0 
154.005386 316012.0 
157.967789 3293.0 
158.047501 33998.0 
159.05513 64729.0 
162.935501 3439.0 
162.950165 80841.0 
163.934036 7335.0 
165.021362 28786.0 
166.02919 162844.0 
167.013519 3562.0 
171.031876 49464.0 
176.01326 16598.0 
176.997574 88135.0 
181.960007 6818.0 
187.945282 6831.0 
193.016281 29507.0 
194.024078 335997.0 
194.941177 3695.0 
200.911041 6494.0 
208.970978 29968.0 
209.011597 36120.0 
209.956528 6608.0 
209.978531 22507.0 
227.920807 197961.0 
229.936478 53378.0 
236.021912 32659.0 
236.965744 56523.0 
237.973495 194865.0 
245.931702 12746.0 
254.032944 6502.0 
255.915756 198286.0 
272.942169 1744127.0 
273.926056 68027.0 
279.972168 15620.0 
288.895844 3103.0 
297.77356 2887.0 
298.921509 5401.0 
315.947968 2955654.0 
551.170593 3714.0 
END IONS

BEGIN IONS
PRECURSOR_MZ=364.132
INCHI=InChI=1S/C19H23NO4/c1-13-9-14(2)11-16(10-13)24-8-7-20-19(21)15-5-6-17(22-3)18(12-15)23-4/h5-6,9-12H,7-8H2,1-4H3,(H,20,21)
SMILES=COc1ccc(C(O)=NCCOc2cc(C)cc(C)c2)cc1OC
SCANS=15280
IONMODE=negative
COMPOUND_NAME=(3,4-dimethoxyphenyl)-N-[2-(3,5-dimethylphenoxy)ethyl]carboxamide M+Cl
SPECTRUM_ID=CCMSLIB00006700621
61.547321 2204.0 
89.249496 2082.0 
92.4048 2276.0 
97.046661 2320.0 
104.308029 2182.0 
136.233215 2234.0 
136.616333 2223.0 
174.231689 2706.0 
187.119431 2913.0 
209.411438 2347.0 
248.721268 2399.0 
279.694763 2296.0 
343.983368 11366.0 
363.99057 5383.0 
470.603912 2184.0 
END IONS

BEGIN IONS
PRECURSOR_MZ=854.338
INCHI=InChI=1S/C47H51NO14/c1-25-31(60-43(56)36(52)35(28-16-10-7-11-17-28)48-41(54)29-18-12-8-13-19-29)23-47(57)40(61-42(55)30-20-14-9-15-21-30)38-45(6,32(51)22-33-46(38,24-58-33)62-27(3)50)39(53)37(59-26(2)49)34(25)44(47,4)5/h7-21,31-33,35-38,40,51-52,57H,22-24H2,1-6H3,(H,48,54)/t31-,32-,33+,35-,36+,37+,38?,40-,45+,46-,47+/m0/s1
SMILES=CC(=O)OC1C(=O)C2(C)C(O)CC3OCC3(OC(C)=O)C2C(OC(=O)c2ccccc2)C2(O)CC(OC(=O)C(O)C(N=C(O)c3ccccc3)c3ccccc3)C(C)=C1C2(C)C
SCANS=11774
IONMODE=positive
COMPOUND_NAME=paclitaxel M+H
SPECTRUM_ID=CCMSLIB00006697115
59.75507 3962.0 
67.054581 6127.0 
69.033867 7815.0 
71.143257 4549.0 
77.038986 8694.0 
79.054573 31437.0 
81.033432 7679.0 
81.070107 5237.0 
82.394577 4797.0 
83.049507 4296.0 
91.054283 102519.0 
93.070183 42525.0 
95.04911 36404.0 
95.085732 20652.0 
95.812477 4878.0 
97.065102 4261.0 
103.054497 4657.0 
105.033493 1403102.0 
105.069687 73295.0 
106.065071 10496.0 
107.049179 9199.0 
107.085663 33196.0 
109.064873 17810.0 
117.070282 16656.0 
118.065071 93992.0 
118.640472 4638.0 
119.049179 40066.0 
119.085564 47983.0 
121.06472 67462.0 
121.101013 28130.0 
122.059998 551761.0 
123.044006 9088.0 
123.080238 31135.0 
129.069626 5433.0 
131.085358 22599.0 
133.064819 89306.0 
133.101089 97117.0 
135.080627 25258.0 
136.076141 11027.0 
137.060135 15955.0 
137.096222 5331.0 
143.085861 34309.0 
144.094742 4027.0 
145.064987 7419.0 
145.101242 17856.0 
147.043823 9382.0 
147.080399 28506.0 
149.059937 58869.0 
149.096008 59294.0 
151.075394 33685.0 
151.111649 26178.0 
155.085785 17865.0 
156.093246 5059.0 
157.10112 23488.0 
159.045776 4965.0 
159.080536 50788.0 
159.116333 5440.0 
161.060135 16720.0 
161.096268 59849.0 
163.075714 6878.0 
163.111877 6683.0 
165.053741 5334.0 
167.070465 18920.0 
167.085632 8392.0 
169.100357 33018.0 
171.080521 22831.0 
171.116684 10444.0 
173.096161 30660.0 
175.075241 18363.0 
175.110947 6472.0 
177.054474 36326.0 
177.090057 40460.0 
179.070099 6353.0 
179.085815 19241.0 
181.101257 21322.0 
183.080246 6789.0 
183.116989 36661.0 
185.096344 22726.0 
185.13179 6470.0 
187.07457 8099.0 
187.111649 20879.0 
189.091034 10608.0 
193.101227 27619.0 
194.108932 5324.0 
195.064865 18594.0 
195.082916 6466.0 
195.116699 38683.0 
197.095932 23301.0 
197.132843 24075.0 
199.076508 5015.0 
199.111694 19022.0 
201.090469 8835.0 
201.127563 5829.0 
203.105835 6499.0 
206.109283 29576.0 
207.116287 25472.0 
209.096024 21241.0 
209.132385 46596.0 
210.088516 6827.0 
211.111267 32649.0 
211.148209 29441.0 
213.091904 6357.0 
213.126678 10437.0 
215.10672 10940.0 
219.11676 19344.0 
220.124115 23533.0 
221.132172 57830.0 
222.105148 8214.0 
223.112091 39464.0 
223.149033 7188.0 
224.118332 10565.0 
225.090164 7283.0 
225.127502 36176.0 
225.164917 8093.0 
227.106094 16425.0 
227.144897 15425.0 
229.122803 9337.0 
230.109222 7094.0 
233.094391 5512.0 
233.133743 6875.0 
235.111618 4969.0 
235.147919 50153.0 
237.127075 55516.0 
237.164261 8954.0 
239.110733 14857.0 
239.142944 61327.0 
240.101547 399720.0 
241.121719 19593.0 
245.132248 34908.0 
247.111191 7433.0 
248.119385 28679.0 
249.126358 41679.0 
251.104919 8567.0 
251.142349 29640.0 
253.128464 7961.0 
253.157516 52927.0 
255.138275 26835.0 
257.154572 7813.0 
263.14267 115810.0 
265.123047 10232.0 
265.158081 7695.0 
266.130707 9069.0 
266.934326 5547.0 
267.105743 8915.0 
267.135895 50176.0 
268.096436 310123.0 
269.080719 8825.0 
269.117249 16794.0 
271.169891 5657.0 
273.127045 8850.0 
276.113831 6493.0 
279.137085 25491.0 
281.153198 137171.0 
283.132721 10009.0 
285.147705 25176.0 
286.106934 1122099.0 
291.137787 98035.0 
297.149414 7745.0 
299.16394 52877.0 
309.14801 247447.0 
327.158447 292302.0 
328.116913 5688.0 
329.138702 8027.0 
341.173737 7959.0 
345.167969 66372.0 
351.15863 10909.0 
359.185059 7050.0 
369.170013 81764.0 
372.121124 6223.0 
387.179352 134538.0 
390.133148 27731.0 
405.190186 27169.0 
413.172333 5269.0 
429.18988 20045.0 
431.182617 33578.0 
447.200531 29287.0 
449.196716 68346.0 
473.194794 18633.0 
491.206451 73195.0 
509.216583 481418.0 
533.220398 6708.0 
551.227234 143332.0 
569.238281 211081.0 
655.251282 32801.0 
776.305969 46254.0 
794.311218 6487.0 
854.336243 142932.0 
END IONS

BEGIN IONS
PRECURSOR_MZ=352.111
INCHI=InChI=1S/C21H19NO2/c1-2-3-5-10-21(24)22-19-14-11-17(12-15-19)13-16-20(23)18-8-6-4-7-9-18/h2-16H,1H3,(H,22,24)/b3-2+,10-5+,16-13+
SMILES=CC=CC=CC(=O)Nc1ccc(C=CC(=O)c2ccccc2)cc1
SCANS=13354
IONMODE=negative
COMPOUND_NAME=N-[4-((1E)-3-oxo-3-phenylprop-1-enyl)phenyl](2E,4E)hexa-2,4-dienamide M+Cl
SPECTRUM_ID=CCMSLIB00006698695
63.938431 2287.0 
71.100998 2024.0 
73.95549 2170.0 
77.844917 2597.0 
100.618782 2445.0 
105.850342 2737.0 
115.959671 2266.0 
118.658997 2981.0 
124.379883 2461.0 
136.216064 2902.0 
149.443237 2175.0 
209.814346 5005.0 
222.092285 80243.0 
277.438354 2442.0 
316.133972 110306.0 
END IONS

BEGIN IONS
PRECURSOR_MZ=571.205
INCHI=InChI=1S/C30H32N2O8/c1-34-23-11-17-8-9-31-22(20(17)15-25(23)36-3)10-18-12-24(35-2)26(37-4)16-21(18)32-30(33)19-13-27(38-5)29(40-7)28(14-19)39-6/h8-9,11-16H,10H2,1-7H3,(H,32,33)
SMILES=COc1cc(Cc2nccc3cc(OC)c(OC)cc23)c(N=C(O)c2cc(OC)c(OC)c(OC)c2)cc1OC
SCANS=3481
IONMODE=positive
COMPOUND_NAME=N-{2-[(6,7-dimethoxyisoquinolyl)methyl]-4,5-dimethoxyphenyl}(3,4,5-trimethoxyp henyl)carboxamide M+Na
SPECTRUM_ID=CCMSLIB00006688822
55.599239 3289.0 
57.08744 4140.0 
61.453758 3463.0 
65.341316 3182.0 
69.158241 3191.0 
82.399483 4068.0 
99.494507 3273.0 
104.290833 3580.0 
159.934753 3199.0 
201.016357 18037.0 
203.031342 19888.0 
209.412338 7777.0 
268.091919 3711.0 
322.106628 6537.0 
361.114044 29328.0 
376.137482 4607.0 
377.144501 4197.0 
541.155212 7973.0 
553.2005 3862.0 
555.174011 21991.0 
556.183716 18069.0 
571.204224 6136339.0 
END IONS

BEGIN IONS
PRECURSOR_MZ=229.17
INCHI=InChI=1S/C15H21N2/c1-11-5-6-14-12(9-11)13-10-17(3,4)8-7-15(13)16(14)2/h5-6,9H,7-8,10H2,1-4H3/q+1
SMILES=Cc1ccc2c(c1)c1c(n2C)CC[N+](C)(C)C1
SCANS=1951
IONMODE=positive
COMPOUND_NAME=2,2,5,8-tetramethyl-1,2,3,4-tetrahydropyridino[4,3-b]indole, iodide M
SPECTRUM_ID=CCMSLIB00006687292
50.753059 2750.0 
51.511539 2834.0 
53.21286 3334.0 
54.706131 2908.0 
56.049839 16479.0 
58.065559 7321963.0 
64.795227 2537.0 
92.3685 3206.0 
100.139503 3058.0 
101.55101 2663.0 
118.640312 4451.0 
136.199646 3238.0 
171.103485 3552.0 
186.127365 392464.0 
212.407913 3831.0 
214.141663 3035.0 
229.169449 2066524.0 
END IONS

BEGIN IONS
PRECURSOR_MZ=488.129
INCHI=InChI=1S/C23H22F3NO6/c1-2-31-17-5-3-4-6-18(17)32-21-19(29)14-7-8-16(28)15(13-27-9-11-30-12-10-27)20(14)33-22(21)23(24,25)26/h3-8,28H,2,9-13H2,1H3
SMILES=CCOc1ccccc1Oc1c(C(F)(F)F)oc2c(CN3CCOCC3)c(O)ccc2c1=O
SCANS=5457
IONMODE=positive
COMPOUND_NAME=3-(2-ethoxyphenoxy)-7-hydroxy-8-(morpholin-4-ylmethyl)-2-(trifluoromethyl)chro men-4-one M+Na
SPECTRUM_ID=CCMSLIB00006690798
59.37331 2962.0 
60.252079 3023.0 
66.733231 3142.0 
80.992554 3081.0 
81.145554 3031.0 
91.26516 3122.0 
92.366386 4018.0 
104.271347 4691.0 
114.123993 3588.0 
115.589561 3152.0 
118.635437 3855.0 
184.394531 3480.0 
401.059998 4133235.0 
413.992218 3427.0 
442.08667 43175.0 
453.904846 3628.0 
488.128296 1316122.0 
END IONS

BEGIN IONS
PRECURSOR_MZ=511.069
INCHI=InChI=1S/C25H23BrN2O3S/c1-2-31-21-13-15(10-16(26)25(21)30)24-23-19(27-17-6-3-4-7-18(17)28-24)11-14(12-20(23)29)22-8-5-9-32-22/h3-10,13-14,24,27-28,30H,2,11-12H2,1H3
SMILES=CCOc1cc(C2Nc3ccccc3NC3=C2C(=O)CC(c2cccs2)C3)cc(Br)c1O
SCANS=9249
IONMODE=positive
COMPOUND_NAME=11-(3-bromo-5-ethoxy-4-hydroxyphenyl)-3-(2-thienyl)-2,3,4-trihydro-5H,10H,11H- benzo[b]benzo[2,1-f]1,4-diazepin-1-one M+H
SPECTRUM_ID=CCMSLIB00006694590
85.009956 4428.0 
112.981247 3410.0 
125.77771 3813.0 
133.075897 56306.0 
136.994949 3805.0 
137.005646 60976.0 
151.184052 3682.0 
157.075699 95084.0 
170.346161 4077.0 
183.091461 189661.0 
185.070679 632299.0 
189.110291 3379.0 
197.070602 5112.0 
198.078369 18833.0 
211.086288 456365.0 
212.343155 4680.0 
213.232239 3871.0 
227.06308 19610.0 
238.884888 3862.0 
253.078522 37303.0 
261.100525 5652.0 
267.09436 6768.0 
268.980225 5496.0 
269.07312 22206.0 
277.078156 18358.0 
293.072449 4272.0 
294.076691 5000.0 
295.089417 10001145.0 
296.093048 4131.0 
300.081665 3875.0 
378.998962 17057.0 
391.734283 3889.0 
401.048309 5379.0 
431.140381 7931.0 
494.045166 4173.0 
511.067749 3222451.0 
END IONS

BEGIN IONS
PRECURSOR_MZ=363.135
INCHI=InChI=1S/C21H20N2O4/c1-2-14-8-9-18-16(10-14)17(22-12-20(24)23-13-21(25)26)11-19(27-18)15-6-4-3-5-7-15/h3-11H,2,12-13H2,1H3,(H,23,24)(H,25,26)/b22-17+
SMILES=CCc1ccc2oc(-c3ccccc3)cc(=NCC(O)=NCC(=O)O)c2c1
SCANS=12898
IONMODE=negative
COMPOUND_NAME=2-[3-(6-ethyl-2-phenylchromen-4-ylidene)-3-azapropanoylamino]acetic acid M-H
SPECTRUM_ID=CCMSLIB00006698239
68.419617 2404.0 
73.961708 2608.0 
74.024567 568721.0 
76.850853 2346.0 
99.925728 3936.0 
100.004013 33305.0 
104.297974 3172.0 
126.889061 2481.0 
161.59111 2484.0 
163.258362 2325.0 
187.721619 2597.0 
188.334427 2264.0 
214.442871 2185.0 
246.092789 4448.0 
281.531586 2346.0 
363.135376 55317.0 
END IONS

BEGIN IONS
PRECURSOR_MZ=494.088
INCHI=InChI=1S/C23H21NO8S/c1-28-19-12-16(23(25)31-4)20(22(30-3)21(19)29-2)24-33(26,27)13-9-10-18-15(11-13)14-7-5-6-8-17(14)32-18/h5-12,24H,1-4H3
SMILES=COC(=O)c1cc(OC)c(OC)c(OC)c1NS(=O)(=O)c1ccc2oc3ccccc3c2c1
SCANS=18070
IONMODE=positive
COMPOUND_NAME=methyl 2-[(dibenzo[b,d]furan-2-ylsulfonyl)amino]-3,4,5-trimethoxybenzoate M+Na
SPECTRUM_ID=CCMSLIB00006703411
53.68808 2587.0 
56.5172 2606.0 
64.155281 3295.0 
66.742844 3551.0 
67.155037 3311.0 
85.076393 3076.0 
102.118782 2766.0 
180.028275 17033.0 
189.506226 3565.0 
193.036987 6775.0 
208.059799 22168.0 
208.080032 3055.0 
216.026184 40130.0 
240.08519 4440.0 
248.052353 536897.0 
263.075806 1635101.0 
289.077484 6146.0 
299.536407 3137.0 
304.101776 11982.0 
398.101562 3735.0 
477.200165 3407.0 
494.086914 1086627.0 
END IONS

BEGIN IONS
PRECURSOR_MZ=354.098
INCHI=InChI=1S/C19H17NO6/c1-25-12-6-3-10(4-7-12)17(22)15-16(20-19(24)18(15)23)11-5-8-13(21)14(9-11)26-2/h3-9,16,21,23H,1-2H3,(H,20,24)
SMILES=COc1ccc(C(=O)C2=C(O)C(O)=NC2c2ccc(O)c(OC)c2)cc1
SCANS=21534
IONMODE=negative
COMPOUND_NAME=3-hydroxy-5-(4-hydroxy-3-methoxyphenyl)-4-[(4-methoxyphenyl)carbonyl]-3-pyrrol in-2-one M-H
SPECTRUM_ID=CCMSLIB00006706875
58.97192 2705.0 
64.399117 2665.0 
69.935204 2349.0 
73.971039 2834.0 
93.034073 4272.0 
94.42971 3191.0 
109.029427 3513.0 
117.034431 4826.0 
133.02916 13013.0 
134.025604 4434.0 
134.037094 45581.0 
146.03714 3765.0 
149.060745 18048.0 
160.016312 13079.0 
161.0242 11997.0 
175.025681 3003.0 
175.040604 9285.0 
176.035187 23731.0 
180.057785 2508.0 
187.005112 2684.0 
202.015076 19673.0 
204.029739 15993.0 
208.054138 3958.0 
209.061661 3456.0 
210.031052 2981.0 
224.048645 3015.0 
225.055847 48359.0 
235.039383 2498.0 
236.047455 14514.0 
240.078766 5613.0 
252.04187 9963.0 
253.050446 163984.0 
267.066162 16524.0 
268.073914 74712.0 
280.039856 3192.0 
281.044678 3723.0 
283.096863 20260.0 
295.059448 2751.0 
338.065216 4147.0 
339.073517 4690.0 
354.0979 348218.0 
END IONS

BEGIN IONS
PRECURSOR_MZ=364.09
INCHI=InChI=1S/C14H15N5O7/c1-17-12(11(6-15-17)19(25)26)14(22)16-10(7-20)13(21)8-2-4-9(5-3-8)18(23)24/h2-6,10,13,20-21H,7H2,1H3,(H,16,22)
SMILES=Cn1ncc([N+](=O)[O-])c1C(=O)NC(CO)C(O)c1ccc([N+](=O)[O-])cc1
SCANS=22415
IONMODE=negative
COMPOUND_NAME=N-[2-hydroxy-1-(hydroxymethyl)-2-(4-nitrophenyl)ethyl](1-methyl-4-nitropyrazol -5-yl)carboxamide M-H
SPECTRUM_ID=CCMSLIB00006707756
52.457909 2778.0 
56.852249 2410.0 
61.987862 20629.0 
66.761322 2679.0 
67.694817 2990.0 
78.034492 33964.0 
84.00872 18220.0 
87.15239 2290.0 
88.501213 2751.0 
91.018997 12094.0 
99.019943 16045.0 
104.314507 3632.0 
108.021584 23343.0 
119.01358 3532.0 
121.029121 254340.0 
122.024261 28644.0 
124.039963 2726.0 
126.030869 11698.0 
137.024719 3773.0 
138.019516 10587.0 
148.039963 3399.0 
150.019348 5316.0 
151.026947 251666.0 
152.034698 58626.0 
166.014191 47993.0 
176.035995 2534.0 
179.046204 3775.0 
207.04158 5202.0 
210.222275 9964.0 
237.051285 50260.0 
259.661194 2331.0 
364.089966 19972.0 
389.511078 2589.0 
END IONS

BEGIN IONS
PRECURSOR_MZ=169.025
INCHI=InChI=1S/C6H6N2O4/c1-8-4(9)2-3(5(10)11)7-6(8)12/h2H,1H3,(H,7,12)(H,10,11)
SMILES=Cn1c(O)nc(C(=O)O)cc1=O
SCANS=10703
IONMODE=negative
COMPOUND_NAME=1-methyl-2,6-dioxo-1,3-dihydropyrimidine-4-carboxylic acid M-H
SPECTRUM_ID=CCMSLIB00006696044
51.437439 5363.0 
54.03434 18481.0 
68.013809 160347.0 
81.045593 29173.0 
124.671738 9523.0 
124.940147 27003.0 
125.035744 32017752.0 
125.137177 24427.0 
125.400574 9460.0 
126.039574 8422.0 
141.030212 22773.0 
169.025558 1065492.0 
END IONS

BEGIN IONS
PRECURSOR_MZ=809.433
INCHI=InChI=1S/C41H64O13/c1-20-36(46)29(42)16-34(49-20)53-38-22(3)51-35(18-31(38)44)54-37-21(2)50-33(17-30(37)43)52-25-8-11-39(4)24(15-25)6-7-28-27(39)9-12-40(5)26(10-13-41(28,40)47)23-14-32(45)48-19-23/h14,20-22,24-31,33-38,42-44,46-47H,6-13,15-19H2,1-5H3/t20-,21-,22-,24-,25+,26-,27+,28-,29+,30+,31+,33+,34+,35+,36-,37-,38-,39+,40-,41+/m1/s1
SMILES=CC1OC(OC2C(O)CC(OC3C(O)CC(OC4CCC5(C)C(CCC6C5CCC5(C)C(C7=CC(=O)OC7)CCC65O)C4)OC3C)OC2C)CC(O)C1O
SCANS=18080
IONMODE=negative
COMPOUND_NAME=Digitoxoside M+formate
SPECTRUM_ID=CCMSLIB00006703421
66.76033 3358.0 
83.090691 3230.0 
85.029533 13474.0 
92.400902 4755.0 
93.530647 2930.0 
111.045097 3500.0 
118.682388 3495.0 
120.227669 3582.0 
136.24118 3621.0 
171.105499 3098.0 
209.880219 6947.0 
215.880875 4006.0 
232.860611 4007.0 
373.238983 6097.0 
374.84259 3502.0 
383.374207 3595.0 
633.360657 28150.0 
702.460632 3879.0 
763.427246 135554.0 
763.584595 4504.0 
809.433167 72077.0 
END IONS

BEGIN IONS
PRECURSOR_MZ=428.033
INCHI=InChI=1S/C16H16BrN5O3/c1-9-4-6-10(7-5-9)18-11(23)8-22-12-13(19-15(22)17)20(2)16(25)21(3)14(12)24/h4-7H,8H2,1-3H3,(H,18,23)
SMILES=Cc1ccc(NC(=O)Cn2c(Br)nc3c2c(=O)n(C)c(=O)n3C)cc1
SCANS=8875
IONMODE=positive
COMPOUND_NAME=2-(8-bromo-1,3-dimethyl-2,6-dioxo(1,3,7-trihydropurin-7-yl))-N-(4-methylphenyl )acetamide M+Na
SPECTRUM_ID=CCMSLIB00006694216
52.59898 2745.0 
60.5369 2415.0 
63.802158 3570.0 
67.254723 3182.0 
82.39827 4171.0 
90.697563 2521.0 
92.376717 3402.0 
104.285217 3447.0 
118.653603 3454.0 
179.625031 3211.0 
210.375519 4484.0 
271.736938 3305.0 
288.993134 4010.0 
366.798462 3153.0 
383.780945 2712.0 
389.784454 2884.0 
428.033142 3120639.0 
446.043823 9910.0 
END IONS

BEGIN IONS
PRECURSOR_MZ=456.239
INCHI=InChI=1S/C27H31N5O3/c1-29-23-22(24(34)30(2)26(29)35)32-15-21(27-11-16-8-17(12-27)10-18(9-16)13-27)31(25(32)28-23)14-20(33)19-6-4-3-5-7-19/h3-7,15-18,20,33H,8-14H2,1-2H3
SMILES=Cn1c(=O)c2c(nc3n(CC(O)c4ccccc4)c(C45CC6CC(CC(C6)C4)C5)cn23)n(C)c1=O
SCANS=1789
IONMODE=positive
COMPOUND_NAME=7-adamantanyl-8-(2-hydroxy-2-phenylethyl)-1,3-dimethyl-1,3,5-trihydro-4-imidaz olino[1,2-h]purine-2,4-dione M+H-H2O
SPECTRUM_ID=CCMSLIB00006687130
55.59119 4204.0 
57.610821 4701.0 
67.054527 19070.0 
71.359306 4116.0 
72.765991 4554.0 
79.054451 114420.0 
81.069687 7087.0 
91.054367 100850.0 
92.367691 7597.0 
93.07003 81885.0 
103.054382 27593.0 
105.069847 1868410.0 
107.085403 70200.0 
113.479889 4611.0 
117.069969 7081.0 
117.098846 4109.0 
119.085548 20850.0 
129.069748 6189.0 
131.0849 7918.0 
133.101578 25553.0 
135.116669 304628.0 
157.100677 36534.0 
159.071335 5325.0 
196.083878 7130.0 
220.084763 5056.0 
227.153763 31042.0 
232.08432 34515.0 
237.164749 5876.0 
258.100098 8876.0 
260.112518 48153.0 
267.158203 6714.0 
270.160156 9890.0 
295.118805 10471.0 
295.155884 20866.0 
296.113983 11483.0 
298.128113 11085.0 
300.146484 9646.0 
310.129883 8644.0 
312.170868 97515.0 
322.12912 32398.0 
324.146149 47688.0 
327.180267 108630.0 
330.197205 11220.0 
336.144592 203978.0 
338.161224 7331.0 
350.162048 47749.0 
351.167358 11118.0 
352.175812 340555.0 
356.206421 9531.0 
362.159821 32348.0 
364.173035 38324.0 
365.185059 6501.0 
371.22226 601572.0 
376.176178 23396.0 
378.191193 9084.0 
384.191193 35806.0 
399.217224 1975849.0 
400.174683 24194.0 
414.190887 7086.0 
428.209961 7322.0 
441.214111 33401.0 
453.713928 48463.0 
455.232025 19138.0 
456.238617 31832922.0 
458.786713 47219.0 
END IONS

BEGIN IONS
PRECURSOR_MZ=210.077
INCHI=InChI=1S/C10H13NO4/c1-15-9-5-6(2-3-8(9)12)4-7(11)10(13)14/h2-3,5,7,12H,4,11H2,1H3,(H,13,14)/t7-/m0/s1
SMILES=COc1cc(CC(N)C(=O)O)ccc1O
SCANS=22130
IONMODE=negative
COMPOUND_NAME=3-METHOXY-L-TYROSINE M-H
SPECTRUM_ID=CCMSLIB00006707471
51.735279 5676.0 
53.1432 4768.0 
72.008911 256048.0 
74.024513 12198.0 
77.572113 5059.0 
89.039612 6917.0 
104.279488 6910.0 
108.021782 30404.0 
117.034653 85611.0 
118.642578 4893.0 
118.651573 6698.0 
121.029694 8883.0 
122.03788 7358.0 
123.045197 67556.0 
124.016747 10563.0 
134.037506 796819.0 
135.045319 684275.0 
136.053299 6086.0 
149.048203 20092.0 
149.060944 54850.0 
150.056213 200849.0 
176.035034 11394.0 
192.0672 10366.0 
193.050644 349927.0 
210.077438 1172025.0 
END IONS

BEGIN IONS
PRECURSOR_MZ=456.132
INCHI=InChI=1S/C23H22ClN3O5/c1-31-20-7-6-15(12-18(20)24)25-21(28)14-27-19-5-3-2-4-16(19)17(13-22(27)29)23(30)26-8-10-32-11-9-26/h2-7,12-13H,8-11,14H2,1H3,(H,25,28)
SMILES=COc1ccc(N=C(O)Cn2c(=O)cc(C(=O)N3CCOCC3)c3ccccc32)cc1Cl
SCANS=11330
IONMODE=positive
COMPOUND_NAME=N-(3-chloro-4-methoxyphenyl)-2-[4-(morpholin-4-ylcarbonyl)-2-oxohydroquinolyl] acetamide M+H
SPECTRUM_ID=CCMSLIB00006696671
53.3274 2603.0 
66.080391 2921.0 
100.075623 22469.0 
114.055023 18574.0 
115.811333 2764.0 
132.044266 12408.0 
133.051926 3183.0 
186.054642 18796.0 
214.155869 2875.0 
227.118286 5931.0 
255.1129 3441.0 
259.10791 73891.0 
271.107422 403199.0 
283.111786 3119.0 
299.102295 1342166.0 
303.185425 5065.0 
312.133545 6324.0 
341.06839 3113.0 
436.128784 24713.0 
438.119843 34982.0 
456.129272 110432.0 
END IONS

BEGIN IONS
PRECURSOR_MZ=411.144
INCHI=InChI=1S/C23H22O7/c1-11(9-24)16-7-14-15(29-16)5-4-12-22(25)21-13-6-18(26-2)19(27-3)8-17(13)28-10-20(21)30-23(12)14/h4-6,8,16,20-21,24H,1,7,9-10H2,2-3H3
SMILES=C=C(CO)C1Cc2c(ccc3c2OC2COc4cc(OC)c(OC)cc4C2C3=O)O1
SCANS=8463
IONMODE=positive
COMPOUND_NAME=ST024783 M+H
SPECTRUM_ID=CCMSLIB00006693804
50.979511 3016.0 
63.13929 2767.0 
79.05455 12821.0 
87.533989 2854.0 
91.05426 3886.0 
107.049042 84259.0 
108.056679 4154.0 
109.065102 3207.0 
117.069817 7110.0 
124.052017 19153.0 
131.08551 11545.0 
133.028275 3850.0 
133.064163 10916.0 
135.043961 33233.0 
136.05191 13840.0 
139.075348 91058.0 
141.069489 3320.0 
145.064606 19797.0 
148.051727 11419.0 
149.022827 23636.0 
149.059799 3942.0 
151.075409 83770.0 
153.054626 3968.0 
155.071411 9184.0 
155.085022 4704.0 
159.044296 51665.0 
159.080826 19204.0 
161.060089 15547.0 
162.067474 20015.0 
163.039108 13942.0 
165.054596 6128.0 
165.068954 3266.0 
165.091187 18080.0 
167.033981 14911.0 
167.070297 99434.0 
169.064667 14521.0 
173.059784 67261.0 
175.039307 4391.0 
176.047073 5774.0 
177.054413 27771.0 
177.091476 3999.0 
178.061844 15643.0 
179.070236 845849.0 
181.049362 13216.0 
183.080536 16747.0 
187.038696 11980.0 
187.075287 99507.0 
189.054611 7193.0 
191.07019 178208.0 
192.078049 251884.0 
193.085373 55469.0 
198.067993 16548.0 
199.075989 6492.0 
201.054642 303895.0 
201.090546 25578.0 
205.086411 29427.0 
211.075241 118349.0 
212.083328 3183.0 
213.089951 4652.0 
215.070023 86475.0 
219.065155 193004.0 
220.073853 5129.0 
227.070358 18392.0 
229.085861 204569.0 
237.075058 13857.0 
239.070282 19391.0 
257.080322 33001.0 
313.107117 7386.0 
317.080566 3257.0 
341.102051 53952.0 
347.128632 4608.0 
355.115631 12737.0 
365.138123 47808.0 
375.122864 3507.0 
383.146179 22509.0 
393.132843 229002.0 
396.12085 4671.0 
411.143494 2673199.0 
END IONS

BEGIN IONS
PRECURSOR_MZ=440.163
INCHI=InChI=1S/C22H22FN3O3/c1-3-10-24-22(29)17-12-21(28)26(19-7-5-4-6-16(17)19)13-20(27)25-15-9-8-14(2)18(23)11-15/h4-9,11-12H,3,10,13H2,1-2H3,(H,24,29)(H,25,27)
SMILES=CCCN=C(O)c1cc(=O)n(CC(O)=Nc2ccc(C)c(F)c2)c2ccccc12
SCANS=8381
IONMODE=negative
COMPOUND_NAME=N-(3-fluoro-4-methylphenyl)-2-[2-oxo-4-(N-propylcarbamoyl)hydroquinolyl]acetam ide M+formate
SPECTRUM_ID=CCMSLIB00006693722
53.392078 4110.0 
54.015541 3655.0 
59.013378 16812.0 
82.398079 4629.0 
86.060493 3622.0 
92.050468 7944.0 
101.649406 3696.0 
116.05027 19252.0 
124.046867 5081.0 
124.056778 95096.0 
128.050369 64705.0 
130.066116 158650.0 
132.045486 31915.0 
142.065994 25877.0 
144.045288 880893.0 
144.080902 13064.0 
156.068924 41432.0 
157.076981 23000.0 
158.048126 111328.0 
158.061127 191066.0 
160.040222 100821.0 
164.051804 43375.0 
172.040527 6908.0 
174.055923 7730.0 
176.071503 120193.0 
183.0923 9385.0 
184.040192 63366.0 
186.056519 6250.0 
197.107971 45744.0 
199.123871 675216.0 
200.106705 3942.0 
201.103104 114130.0 
202.050644 93050.0 
207.996719 8675.0 
208.019531 7738.0 
213.103104 390365.0 
215.118774 105299.0 
225.103455 8324.0 
229.097839 334358.0 
231.113663 19640.0 
235.926224 16352.0 
243.113586 182108.0 
245.093155 91837.0 
245.120453 5981.0 
266.967224 4457.0 
269.092773 195564.0 
271.089569 6732.0 
275.103851 102503.0 
289.098022 124560.0 
296.267395 4858.0 
296.327332 4330.0 
309.104431 220753.0 
336.152069 4741.0 
394.157379 8704836.0 
407.786926 4383.0 
440.163544 35791.0 
END IONS

BEGIN IONS
PRECURSOR_MZ=476.219
INCHI=InChI=1S/C26H29N3O3/c1-17-13-18(2)25(19(3)14-17)27-23(30)16-29-22-10-6-5-9-20(22)21(15-24(29)31)26(32)28-11-7-4-8-12-28/h5-6,9-10,13-15H,4,7-8,11-12,16H2,1-3H3,(H,27,30)
SMILES=Cc1cc(C)c(N=C(O)Cn2c(=O)cc(C(=O)N3CCCCC3)c3ccccc32)c(C)c1
SCANS=10741
IONMODE=negative
COMPOUND_NAME=2-[2-oxo-4-(piperidylcarbonyl)hydroquinolyl]-N-(2,4,6-trimethylphenyl)acetamid e M+formate
SPECTRUM_ID=CCMSLIB00006696082
63.23782 2396.0 
67.226181 2629.0 
114.691559 2736.0 
118.675667 2815.0 
157.995483 2428.0 
158.454865 2416.0 
168.015549 2549.0 
193.156189 2721.0 
430.213348 16583.0 
END IONS

BEGIN IONS
PRECURSOR_MZ=472.188
INCHI=InChI=1S/C26H25N3O3/c1-17-9-11-19(12-10-17)25(30)29-24(16-20-6-5-15-32-20)26(31)27-14-13-21-18(2)28-23-8-4-3-7-22(21)23/h3-12,15-16,28H,13-14H2,1-2H3,(H,27,31)(H,29,30)/b24-16-
SMILES=Cc1ccc(C(=O)NC(=Cc2ccco2)C(O)=NCCc2c(C)[nH]c3ccccc23)cc1
SCANS=16506
IONMODE=negative
COMPOUND_NAME=(2Z)-3-(2-furyl)-N-[2-(2-methylindol-3-yl)ethyl]-2-[(4-methylphenyl)carbonylam ino]prop-2-enamide M+formate
SPECTRUM_ID=CCMSLIB00006701847
51.971401 2482.0 
69.50824 2324.0 
92.398468 2886.0 
104.305939 3065.0 
119.50972 2818.0 
147.773071 2372.0 
328.272614 2508.0 
426.182922 22863.0 
END IONS

BEGIN IONS
PRECURSOR_MZ=337.119
INCHI=InChI=1S/C19H18N2O4/c22-18(23)17(10-14-11-20-16-9-5-4-8-15(14)16)21-19(24)25-12-13-6-2-1-3-7-13/h1-9,11,17,20H,10,12H2,(H,21,24)(H,22,23)/t17-/m0/s1
SMILES=O=C(O)C(Cc1c[nH]c2ccccc12)N=C(O)OCc1ccccc1
SCANS=6928
IONMODE=negative
COMPOUND_NAME=(2S)-3-indol-3-yl-2-[(phenylmethoxy)carbonylamino]propanoic acid M-H
SPECTRUM_ID=CCMSLIB00006692269
58.237621 2004.0 
68.686852 2267.0 
68.790916 2514.0 
72.008774 18351.0 
76.839943 2257.0 
76.944656 2680.0 
82.406738 2601.0 
92.385513 3555.0 
100.004021 65258.0 
104.294456 3247.0 
105.253433 2709.0 
116.050613 4230.0 
130.066483 23474.0 
136.216522 2547.0 
142.066223 197837.0 
154.993408 2558.0 
185.072296 16354.0 
186.056015 163816.0 
199.367035 2687.0 
200.881226 10168.0 
204.989395 5006.0 
210.186005 5229.0 
220.983658 5243.0 
229.06189 1070158.0 
239.420624 2304.0 
266.987396 3778.0 
268.868439 10223.0 
269.957794 2756.0 
270.980133 11277.0 
292.981934 20927.0 
296.477173 2503.0 
298.54129 2387.0 
316.982849 22194.0 
336.975128 32503.0 
338.63913 2853.0 
352.558258 2490.0 
END IONS

BEGIN IONS
PRECURSOR_MZ=244.109
INCHI=InChI=1S/C13H15N3O2/c1-8(17)16-12(13(14)18)6-9-7-15-11-5-3-2-4-10(9)11/h2-5,7,12,15H,6H2,1H3,(H2,14,18)(H,16,17)/t12-/m0/s1
SMILES=CC(O)=NC(Cc1c[nH]c2ccccc12)C(=N)O
SCANS=9900
IONMODE=negative
COMPOUND_NAME=2382-79-8 M-H
SPECTRUM_ID=CCMSLIB00006695241
58.029282 89785.0 
63.286121 2105.0 
70.029373 2472.0 
71.024521 3852.0 
73.040329 551229.0 
73.956734 2726.0 
86.024384 48303.0 
92.382797 3531.0 
97.040573 198477.0 
113.035561 77474.0 
113.043861 4464.0 
115.051163 1339723.0 
118.662048 3182.0 
136.21492 2795.0 
142.066299 2738.0 
159.041138 3566.0 
175.959793 4457.0 
185.071976 54301.0 
202.098221 3721.0 
244.108963 1022398.0 
261.891754 3884.0 
END IONS

BEGIN IONS
PRECURSOR_MZ=229.061
INCHI=InChI=1S/C12H8N2O3/c15-12(9-4-6-13-7-5-9)10-2-1-3-11(8-10)14(16)17/h1-8H
SMILES=O=C(c1ccncc1)c1cccc([N+](=O)[O-])c1
SCANS=1744
IONMODE=positive
COMPOUND_NAME=3-nitrophenyl 4-pyridyl ketone M+H
SPECTRUM_ID=CCMSLIB00006687085
66.740822 9919.0 
77.730339 9770.0 
78.140167 10458.0 
79.037598 30606.0 
79.043114 106735.0 
92.369217 12727.0 
95.075523 9285.0 
111.031487 121682.0 
124.039169 110299.0 
130.064575 85768.0 
131.073349 24946.0 
134.023926 25893.0 
143.072754 247994.0 
150.020264 78124.0 
154.064697 290159.0 
154.077118 12958.0 
155.072754 309776.0 
155.086487 12174.0 
158.059555 78376.0 
159.067719 303612.0 
170.059998 372414.0 
171.067596 595619.0 
182.059769 749331.0 
183.067535 859468.0 
186.055695 110325.0 
187.063538 46094.0 
195.472168 12032.0 
198.056122 14593.0 
199.062668 390116.0 
199.082687 13430.0 
201.065613 62369.0 
215.05751 11885644.0 
217.06102 20267.0 
228.051529 16546.0 
228.165054 21712.0 
229.060516 59465472.0 
229.960648 50359.0 
END IONS

BEGIN IONS
PRECURSOR_MZ=386.091
INCHI=InChI=1S/C19H18ClN3O4/c1-11-14(15-10-13(27-2)4-6-18(15)22-11)7-8-21-19(24)16-9-12(23(25)26)3-5-17(16)20/h3-6,9-10,22H,7-8H2,1-2H3,(H,21,24)
SMILES=COc1ccc2[nH]c(C)c(CCN=C(O)c3cc([N+](=O)[O-])ccc3Cl)c2c1
SCANS=19390
IONMODE=negative
COMPOUND_NAME=(2-chloro-5-nitrophenyl)-N-[2-(5-methoxy-2-methylindol-3-yl)ethyl]carboxamide M-H
SPECTRUM_ID=CCMSLIB00006704731
64.247932 2426.0 
82.402313 2814.0 
89.418472 2255.0 
96.747543 2282.0 
116.547157 2361.0 
155.985855 102541.0 
155.99942 3859.0 
174.056259 53871.0 
199.976517 12835.0 
214.074081 3225.0 
229.098404 75301.0 
302.770142 2729.0 
350.112579 5068.0 
386.046997 6207.0 
386.101868 16296.0 
474.510345 2534.0 
706.631836 2961.0 
END IONS

BEGIN IONS
PRECURSOR_MZ=308.126
INCHI=InChI=1S/C17H19NO3/c1-12-4-6-13(7-5-12)11-18-17(19)14-8-9-15(20-2)16(10-14)21-3/h4-10H,11H2,1-3H3,(H,18,19)
SMILES=COc1ccc(C(O)=NCc2ccc(C)cc2)cc1OC
SCANS=2382
IONMODE=positive
COMPOUND_NAME=(3,4-dimethoxyphenyl)-N-[(4-methylphenyl)methyl]carboxamide M+Na
SPECTRUM_ID=CCMSLIB00006687723
57.093288 2536.0 
81.289978 3133.0 
136.99324 3193.0 
141.111969 3149.0 
206.003983 3315.0 
214.261459 3685.0 
224.446686 3076.0 
255.527008 3251.0 
293.102142 13003.0 
308.125153 7170024.0 
309.544098 3477.0 
326.136658 5707.0 
END IONS

BEGIN IONS
PRECURSOR_MZ=286.107
INCHI=InChI=1S/C16H15NO4/c1-2-19-13-6-4-12(5-7-13)17-16(18)11-3-8-14-15(9-11)21-10-20-14/h3-9H,2,10H2,1H3,(H,17,18)
SMILES=CCOc1ccc(NC(=O)c2ccc3c(c2)OCO3)cc1
SCANS=14783
IONMODE=positive
COMPOUND_NAME=2H-benzo[3,4-d]1,3-dioxolen-5-yl-N-(4-ethoxyphenyl)carboxamide M+H
SPECTRUM_ID=CCMSLIB00006700124
50.271759 7582.0 
53.002789 35930.0 
53.299938 6394.0 
55.018379 150321.0 
63.023651 14509.0 
65.038986 826860.0 
67.018181 63796.0 
67.05452 6427.0 
68.013962 5263.0 
68.99749 602736.0 
69.033943 34925.0 
71.013153 40886.0 
80.049637 13861.0 
81.033768 171970.0 
93.033546 303495.0 
95.012871 562054.0 
95.043839 11206.0 
95.049217 678230.0 
108.044357 6011128.0 
109.02874 51783.0 
111.043961 576941.0 
121.028648 34332.0 
123.043968 819544.0 
125.023247 163439.0 
134.060028 28645.0 
136.040131 90694.0 
136.075668 3771374.0 
137.0233 37490.0 
139.038879 121829.0 
149.023254 25191402.0 
150.026871 8950.0 
164.070511 399142.0 
176.070602 7119.0 
240.065445 31761.0 
245.117462 11199.0 
254.07692 8767.0 
257.068268 9326.0 
268.096588 44691.0 
286.106964 15351269.0 
END IONS

BEGIN IONS
PRECURSOR_MZ=351.12
INCHI=InChI=1S/C19H20O5/c1-21-14-8-5-13(6-9-14)7-10-16(20)19-17(23-3)11-15(22-2)12-18(19)24-4/h5-12H,1-4H3/b10-7+
SMILES=COc1ccc(C=CC(=O)c2c(OC)cc(OC)cc2OC)cc1
SCANS=12124
IONMODE=positive
COMPOUND_NAME=2',4,4',6'-Tetramethoxychalcone M+Na
SPECTRUM_ID=CCMSLIB00006697465
58.97963 2462.0 
73.425163 2284.0 
74.596291 2436.0 
90.976547 4365.0 
145.420776 2614.0 
152.29454 3005.0 
157.943192 3570.0 
164.925125 2774.0 
195.063278 3788.0 
235.094482 2731.0 
263.160736 3525.0 
274.977692 5207.0 
282.905975 3304.0 
291.193542 2905.0 
328.061615 2977.0 
331.09024 3239.0 
336.098877 4138.0 
340.097443 3677.0 
350.988373 83537.0 
351.119904 1843948.0 
351.215118 59211.0 
369.130798 6230.0 
END IONS

BEGIN IONS
PRECURSOR_MZ=304.978
INCHI=InChI=1S/C9H11BrN2O5/c10-4-2-12(9(16)11-8(4)15)7-1-5(14)6(3-13)17-7/h2,5-7,13-14H,1,3H2,(H,11,15,16)/t5-,6+,7+/m0/s1
SMILES=O=c1nc(O)c(Br)cn1C1CC(O)C(CO)O1
SCANS=22713
IONMODE=negative
COMPOUND_NAME=5-BROMO-2'-DEOXYURIDINE M-H
SPECTRUM_ID=CCMSLIB00006708054
54.279579 2380.0 
61.433922 2579.0 
65.998177 29906.0 
72.832069 3048.0 
78.918633 1013238.0 
104.309608 4414.0 
118.966476 86844.0 
133.300797 2858.0 
146.961288 277056.0 
152.035858 11587.0 
171.940353 75236.0 
174.956161 285956.0 
182.046524 14502.0 
185.955536 3749.0 
188.930511 209712.0 
192.934464 3471.0 
209.935822 4836.0 
213.950806 13216.0 
214.946289 184656.0 
261.97226 34198.0 
276.917542 3903.0 
304.977783 1627795.0 
329.873535 2861.0 
END IONS

BEGIN IONS
PRECURSOR_MZ=285.028
INCHI=InChI=1S/C11H11ClN2O5/c1-2-19-10(15)6-13-11(16)7-3-4-8(12)9(5-7)14(17)18/h3-5H,2,6H2,1H3,(H,13,16)
SMILES=CCOC(=O)CN=C(O)c1ccc(Cl)c([N+](=O)[O-])c1
SCANS=5630
IONMODE=negative
COMPOUND_NAME=ethyl 2-[(4-chloro-3-nitrophenyl)carbonylamino]acetate, chloride M-H
SPECTRUM_ID=CCMSLIB00006690971
64.018784 2568.0 
66.752579 2227.0 
77.573463 2088.0 
77.911484 2222.0 
81.326714 2604.0 
81.993111 2216.0 
92.97625 2455.0 
98.995888 10274.0 
113.946289 2988.0 
115.030296 11122.0 
128.035324 56698.0 
130.017258 3099.0 
130.864868 2792.0 
136.985245 4231.0 
145.041016 2777.0 
148.957245 3971.0 
155.985825 85779.0 
155.99942 4744.0 
157.988922 3532.0 
159.019836 5402.0 
194.996704 189232.0 
199.975723 9767.0 
208.988586 5498.0 
210.991394 19940.0 
213.006943 2980.0 
216.944977 3229.0 
238.986664 1089057.0 
244.984756 9975.0 
254.588821 2814.0 
256.992523 11610.0 
264.990387 12783.0 
284.984192 16944.0 
285.028534 355299.0 
285.169983 5307.0 
END IONS

BEGIN IONS
PRECURSOR_MZ=507.109
INCHI=InChI=1S/C15H10O4/c16-10-4-1-3-9(7-10)14-8-12(18)15-11(17)5-2-6-13(15)19-14/h1-8,16-17H
SMILES=O=c1cc(-c2cccc(O)c2)oc2cccc(O)c12
SCANS=3666
IONMODE=negative
COMPOUND_NAME=5,3'-Dihydroxyflavone 2M-H
SPECTRUM_ID=CCMSLIB00006689007
51.597481 2814.0 
54.673161 2771.0 
55.9683 2465.0 
74.55378 2964.0 
92.385521 2617.0 
104.29834 2889.0 
115.373283 2710.0 
118.663643 3188.0 
135.008713 22760.0 
136.22554 3157.0 
199.154617 2938.0 
213.819016 2733.0 
253.050873 1274478.0 
399.846191 3025.0 
483.816986 3730.0 
END IONS

BEGIN IONS
PRECURSOR_MZ=346.056
INCHI=InChI=1S/C10H12ClN5O4/c11-7-4-8(15-10(12)14-7)16(2-13-4)9-6(19)5(18)3(1-17)20-9/h2-3,5-6,9,17-19H,1H2,(H2,12,14,15)/t3-,5-,6-,9-/m1/s1
SMILES=N=c1nc2c(ncn2C2OC(CO)C(O)C2O)c(Cl)[nH]1
SCANS=11326
IONMODE=negative
COMPOUND_NAME=2-Amino-6-chloropurine-9-riboside M+formate
SPECTRUM_ID=CCMSLIB00006696667
50.90572 2469.0 
52.009369 2176.0 
92.360527 2658.0 
102.979668 2379.0 
132.031769 29262.0 
157.998566 3243.0 
168.008545 1928953.0 
170.999863 2475.0 
300.050385 84885.0 
346.056091 38184.0 
END IONS

BEGIN IONS
PRECURSOR_MZ=335.142
INCHI=InChI=1S/C17H22N2O3S/c1-5-19(6-2)17(20)13-7-8-15(16(9-13)21-4)22-10-14-11-23-12(3)18-14/h7-9,11H,5-6,10H2,1-4H3
SMILES=CCN(CC)C(=O)c1ccc(OCc2csc(C)n2)c(OC)c1
SCANS=1062
IONMODE=positive
COMPOUND_NAME=N,N-diethyl{3-methoxy-4-[(2-methyl(1,3-thiazol-4-yl))methoxy]phenyl}carboxamid e M+H
SPECTRUM_ID=CCMSLIB00006686403
50.885479 3661.0 
59.96698 8791.0 
60.541691 4153.0 
61.010891 4503.0 
66.745827 4615.0 
70.995461 1117913.0 
71.926353 4423.0 
72.044838 493948.0 
72.081177 17832.0 
74.097 51385.0 
80.064049 4453.0 
84.984932 4051.0 
92.382492 4613.0 
93.199112 3633.0 
100.075829 1931701.0 
100.335716 3996.0 
112.021637 8358003.0 
112.3283 6100.0 
113.029617 25200.0 
123.043854 4841.0 
123.054108 5249.0 
130.032242 1731938.0 
149.023331 20943.0 
150.031586 7760.0 
151.039062 283344.0 
153.047928 56018.0 
154.025986 23546.0 
161.005508 9084.0 
163.038849 44464.0 
165.054962 7055.0 
172.079758 7961.0 
177.054428 8478.0 
185.110458 96139.0 
193.032059 86039.0 
203.041458 4445.0 
204.065994 18579.0 
219.034561 42998.0 
220.042801 32773.0 
221.02681 48807.0 
222.112305 95126.0 
223.120438 19437.0 
224.128494 47551.0 
230.027298 4414.0 
234.058212 49510.0 
247.029633 348374.0 
260.9646 5165.0 
262.053192 8602966.0 
335.142212 3993063.0 
END IONS

BEGIN IONS
PRECURSOR_MZ=609.184
INCHI=InChI=1S/C38H28N2O4S/c1-45-26-21-19-24(20-22-26)31(32-36(42)29-17-10-16-27(34(29)39-37(32)43)23-11-4-2-5-12-23)33-35(41)28-15-8-9-18-30(28)40(38(33)44)25-13-6-3-7-14-25/h2-22,31,41H,1H3,(H2,39,42,43)
SMILES=CSc1ccc(C(c2c(O)nc3c(-c4ccccc4)cccc3c2O)c2c(O)c3ccccc3n(-c3ccccc3)c2=O)cc1
SCANS=22254
IONMODE=positive
COMPOUND_NAME=4-hydroxy-3-[(4-hydroxy-2-oxo-8-phenyl(3-hydroquinolyl))(4-methylthiophenyl)me thyl]-1-phenylhydroquinolin-2-one M+H
SPECTRUM_ID=CCMSLIB00006707595
50.445801 3440.0 
58.2705 3414.0 
64.977631 32325.0 
66.754402 3664.0 
77.039459 4705.0 
89.03894 14559.0 
90.150833 3747.0 
92.39312 4489.0 
95.048843 4575.0 
111.044273 3663.0 
116.049492 33139.0 
116.062157 5683.0 
118.674057 4516.0 
121.387741 3836.0 
132.044846 4405.0 
134.018524 6835.0 
144.044128 16469.0 
149.041687 24465.0 
161.626572 3452.0 
162.054733 405528.0 
167.073074 8505.0 
168.08046 82520.0 
170.096329 23697.0 
177.036911 37799.0 
180.08049 6295.0 
195.068405 4582.0 
196.0755 1124740.0 
200.950882 14996.0 
204.078873 4910.0 
210.091248 54957.0 
219.067368 88979.0 
220.075638 15087.0 
237.078568 7075.0 
238.0858 6719403.0 
247.062302 24069.0 
248.070557 76912.0 
250.085663 5550.0 
250.380936 3397.0 
269.120575 4419.0 
280.108734 4686.0 
296.106354 90798.0 
304.114624 3598.0 
324.101105 222624.0 
324.144379 7979.0 
325.109131 203276.0 
334.064728 4485.0 
372.104279 263037.0 
485.144043 5772.0 
609.17749 4823.0 
END IONS

BEGIN IONS
PRECURSOR_MZ=396.105
INCHI=InChI=1S/C19H19NO7/c1-23-12-6-5-10(7-13(12)24-2)18(21)20-16-15-11(9-27-19(15)22)8-14(25-3)17(16)26-4/h5-8H,9H2,1-4H3,(H,20,21)
SMILES=COc1ccc(C(O)=Nc2c(OC)c(OC)cc3c2C(=O)OC3)cc1OC
SCANS=6923
IONMODE=positive
COMPOUND_NAME=N-(5,6-dimethoxy-3-oxohydroisobenzofuran-4-yl)(3,4-dimethoxyphenyl)carboxamide M+Na
SPECTRUM_ID=CCMSLIB00006692264
59.291962 2964.0 
66.738876 3357.0 
73.948013 3373.0 
74.00148 3025.0 
75.89521 3092.0 
91.641388 2931.0 
104.281013 3720.0 
111.052208 2912.0 
115.060219 2771.0 
199.022842 5306.0 
208.126419 3837.0 
216.02478 4380.0 
380.076782 4767.0 
381.079803 28215.0 
396.104584 5297879.0 
400.787018 3410.0 
414.113129 6610.0 
END IONS

BEGIN IONS
PRECURSOR_MZ=446.161
INCHI=InChI=1S/C25H23NO4/c1-29-21-14-19(15-22(16-21)30-2)23(27)17-8-10-18(11-9-17)24(28)26-25(12-13-25)20-6-4-3-5-7-20/h3-11,14-16H,12-13H2,1-2H3,(H,26,28)
SMILES=COc1cc(OC)cc(C(=O)c2ccc(C(=O)NC3(c4ccccc4)CC3)cc2)c1
SCANS=7424
IONMODE=negative
COMPOUND_NAME={4-[(3,5-dimethoxyphenyl)carbonyl]phenyl}-N-(phenylcyclopropyl)carboxamide M+formate
SPECTRUM_ID=CCMSLIB00006692765
66.779984 2450.0 
73.860023 2280.0 
88.054558 2264.0 
93.820297 2135.0 
117.013931 2456.0 
118.724907 2525.0 
119.556519 2517.0 
136.288956 2441.0 
158.061356 5082.0 
194.898926 2534.0 
210.175598 2798.0 
210.581314 3855.0 
210.60141 4716.0 
242.947754 2399.0 
255.101349 4532.0 
297.113434 12035.0 
303.531616 2323.0 
328.913605 2368.0 
381.977325 4757.0 
400.099854 3297.0 
400.155548 77029.0 
410.458832 2620.0 
429.231445 2533.0 
445.982056 2901.0 
756.410217 2782.0 
END IONS

BEGIN IONS
PRECURSOR_MZ=470.112
INCHI=InChI=1S/C22H20ClN3O4/c23-15-4-3-5-16(12-15)24-20(27)14-26-19-7-2-1-6-17(19)18(13-21(26)28)22(29)25-8-10-30-11-9-25/h1-7,12-13H,8-11,14H2,(H,24,27)
SMILES=O=C(c1cc(=O)n(CC(O)=Nc2cccc(Cl)c2)c2ccccc12)N1CCOCC1
SCANS=9453
IONMODE=negative
COMPOUND_NAME=N-(3-chlorophenyl)-2-[4-(morpholin-4-ylcarbonyl)-2-oxohydroquinolyl]acetamide M+formate
SPECTRUM_ID=CCMSLIB00006694794
60.54924 2125.0 
61.987869 2433.0 
82.41394 2873.0 
85.075897 2412.0 
90.832779 2340.0 
92.394897 2871.0 
104.305252 3125.0 
113.096832 2165.0 
118.676247 2526.0 
129.976013 9476.0 
162.94986 2642.0 
184.041809 4083.0 
187.258804 2633.0 
271.109955 4993.0 
424.106598 69836.0 
END IONS

BEGIN IONS
PRECURSOR_MZ=295.079
INCHI=InChI=1S/C12H16O7/c13-5-8-9(15)10(16)11(17)12(19-8)18-7-3-1-6(14)2-4-7/h1-4,8-17H,5H2/t8?,9-,10-,11?,12-/m1/s1
SMILES=OCC1OC(Oc2ccc(O)cc2)C(O)C(O)C1O
SCANS=23407
IONMODE=positive
COMPOUND_NAME=Arbutin, 98+% M+Na
SPECTRUM_ID=CCMSLIB00006708748
61.011108 162967.0 
66.734123 3530.0 
68.19149 2245.0 
79.021507 112118.0 
104.275543 2936.0 
136.195053 2849.0 
156.974289 24865.0 
158.990952 2791.0 
174.984955 183088.0 
177.337097 2373.0 
206.117264 3021.0 
216.97757 101655.0 
221.845291 2999.0 
234.951447 18446.0 
234.988129 698620.0 
258.004303 2575.0 
276.946014 3115.0 
276.97937 3078.0 
294.915894 9270.0 
294.954529 132970.0 
294.991913 210582.0 
295.078522 916417.0 
321.550049 2497.0 
END IONS

BEGIN IONS
PRECURSOR_MZ=242.082
INCHI=InChI=1S/C14H13NO3/c16-13(17)8-15-12-7-2-1-4-10(12)9-5-3-6-11(9)14(15)18/h1-2,4,7H,3,5-6,8H2,(H,16,17)
SMILES=O=C(O)Cn1c(=O)c2c(c3ccccc31)CCC2
SCANS=4987
IONMODE=negative
COMPOUND_NAME=2-(4-oxo-1,2,3,5-tetrahydrocyclopenta[1,2-c]quinolin-5-yl)acetic acid M-H
SPECTRUM_ID=CCMSLIB00006690328
62.242371 2302.0 
62.970821 2833.0 
68.613564 2529.0 
75.382637 2594.0 
92.40435 3202.0 
104.316383 3869.0 
135.04512 80222.0 
135.056137 4775.0 
136.048477 86323.0 
142.066116 137779.0 
154.065659 6254.0 
156.081665 29260.0 
168.081741 61631.0 
170.061493 11171.0 
170.097443 2734.0 
172.076355 31011.0 
182.06073 24009.0 
183.072296 2957.0 
184.076843 542883.0 
185.911407 3453.0 
186.092117 4875.0 
189.43837 3106.0 
196.077942 4373.0 
197.900055 3112.0 
198.09259 3850839.0 
200.071716 489035.0 
210.208176 3148.0 
212.071594 53413.0 
216.101883 3211.0 
242.082458 611623.0 
END IONS

BEGIN IONS
PRECURSOR_MZ=273.109
INCHI=InChI=1S/C10H16N2O4/c1-3-5-11-9(15)7(13)8(14)10(16)12-6-4-2/h3-4,7-8,13-14H,1-2,5-6H2,(H,11,15)(H,12,16)
SMILES=C=CCN=C(O)C(O)C(O)C(O)=NCC=C
SCANS=20781
IONMODE=negative
COMPOUND_NAME=N,N'-Diallyl-2,3-dihydroxysuccinamide M+formate
SPECTRUM_ID=CCMSLIB00006706122
51.109779 2211.0 
57.034302 8246.0 
59.01379 2284.0 
66.74929 2428.0 
72.008904 3312.0 
79.385902 2474.0 
84.045387 2809.0 
85.029404 12684.0 
92.387299 2935.0 
112.040398 53011.0 
114.056038 9612.0 
126.056023 19497.0 
136.223862 2559.0 
142.05072 17144.0 
168.824951 2216.0 
170.046646 3208.0 
185.036804 2332.0 
209.094818 3624.0 
227.103409 55949.0 
END IONS

BEGIN IONS
PRECURSOR_MZ=220.118
INCHI=InChI=1S/C9H17NO5/c1-9(2,5-11)7(14)8(15)10-4-3-6(12)13/h7,11,14H,3-5H2,1-2H3,(H,10,15)(H,12,13)
SMILES=CC(C)(CO)C(O)C(O)=NCCC(=O)O
SCANS=24100
IONMODE=positive
COMPOUND_NAME=D-pantothenic acid M+H
SPECTRUM_ID=CCMSLIB00006709441
55.018902 124162.0 
55.055401 85607.601562 
57.070702 2490400.0 
57.073799 107709.0 
59.049999 2268950.0 
59.0532 134997.0 
61.029202 92462.296875 
63.088402 80611.898438 
67.055 1911020.0 
69.070702 4063330.0 
70.029404 1706440.0 
72.045197 9631970.0 
73.029198 2213560.0 
74.024498 495006.0 
83.049896 869513.0 
85.065498 7541540.0 
86.097099 1570740.0 
87.0811 2731950.0 
87.753601 69796.296875 
90.055603 117551000.0 
92.386902 95846.296875 
95.049797 3872030.0 
96.081299 301928.0 
98.0242 9670090.0 
100.040001 2163010.0 
103.075996 8907260.0 
103.694 64741.601562 
108.057999 67172.101562 
112.075996 162667.0 
113.059998 2260700.0 
116.035004 17278300.0 
118.050003 159359.0 
118.678001 111819.0 
124.075996 10604900.0 
130.087006 316414.0 
131.070007 1092410.0 
132.102005 176960.0 
142.085999 7052650.0 
152.654007 79906.398438 
156.102005 1432220.0 
160.097 2736790.0 
166.085999 3093760.0 
166.102005 132365.0 
172.097 376809.0 
174.113007 3630820.0 
179.460007 76783.203125 
184.097 32406000.0 
202.108002 50036300.0 
220.117996 61951100.0 
END IONS

BEGIN IONS
PRECURSOR_MZ=493.146
INCHI=InChI=1S/C28H27ClN2O2/c1-17(2)33-26-14-8-4-10-20(26)28-27-24(30-22-12-6-7-13-23(22)31-28)15-18(16-25(27)32)19-9-3-5-11-21(19)29/h3-14,17-18,28,30-31H,15-16H2,1-2H3
SMILES=CC(C)Oc1ccccc1C1Nc2ccccc2NC2=C1C(=O)CC(c1ccccc1Cl)C2
SCANS=2209
IONMODE=negative
COMPOUND_NAME=3-(2-chlorophenyl)-11-[2-(methylethoxy)phenyl]-2,3,4-trihydro-5H,10H,11H-benzo [b]benzo[2,1-f]1,4-diazepin-1-one M+Cl
SPECTRUM_ID=CCMSLIB00006687550
54.943802 2669.0 
64.212128 2389.0 
78.360909 2631.0 
79.659637 2275.0 
111.815948 2382.0 
112.985207 2822.0 
141.072327 2935.0 
142.980072 2490.0 
240.297943 2797.0 
284.096313 5138.0 
287.602234 2528.0 
454.482178 2783.0 
457.168976 75613.0 
484.817902 3235.0 
492.982758 25369.0 
493.14328 4196.0 
END IONS

BEGIN IONS
PRECURSOR_MZ=411.179
INCHI=InChI=1S/C23H24N4O2/c1-16-19(10-12-24-23(28)22-11-13-25-27(22)2)20-14-18(8-9-21(20)26-16)29-15-17-6-4-3-5-7-17/h3-9,11,13-14,26H,10,12,15H2,1-2H3,(H,24,28)
SMILES=Cc1[nH]c2ccc(OCc3ccccc3)cc2c1CCNC(=O)c1ccnn1C
SCANS=13594
IONMODE=positive
COMPOUND_NAME=N-{2-[2-methyl-5-(phenylmethoxy)indol-3-yl]ethyl}(1-methylpyrazol-5-yl)carboxa mide M+Na
SPECTRUM_ID=CCMSLIB00006698935
55.289761 4047.0 
67.14447 3624.0 
82.434273 4211.0 
89.313843 4019.0 
182.057419 147584.0 
312.940613 4289.0 
320.123932 3453696.0 
361.148468 15901.0 
409.023621 6522.0 
411.178619 7682854.0 
413.347565 8240.0 
END IONS

BEGIN IONS
PRECURSOR_MZ=307.044
INCHI=InChI=1S/C10H12N4O5/c15-1-4-6(16)7(17)10(19-4)14-3-13-5-8(14)11-2-12-9(5)18/h2-4,6-7,10,15-17H,1H2,(H,11,12,18)/t4-,6-,7-,10-/m1/s1
SMILES=OC[C@H]1O[C@@H](n2cnc3c(O)ncnc32)[C@H](O)[C@@H]1O
SCANS=599
IONMODE=positive
COMPOUND_NAME=inosine M+K
SPECTRUM_ID=CCMSLIB00006685940
54.0047 1909.48999 
59.288799 2162.550049 
61.2616 2377.060059 
69.352501 3121.110107 
80.748001 2534.459961 
84.561897 2433.899902 
122.257004 2366.030029 
136.225006 2430.419922 
147.598999 2683.76001 
157.988998 2890.26001 
175.001007 82987.898438 
204.962997 2480.899902 
206.987 2733.669922 
208.970001 2568.800049 
222.983994 2481.909912 
247.992004 4917.169922 
264.994995 13246.5 
279.981995 10179.400391 
283.003998 16493.800781 
307.005005 129945.0 
307.042999 257008.0 
END IONS

BEGIN IONS
PRECURSOR_MZ=276.171
INCHI=InChI=1S/C15H21N3O2/c1-15-7-8-17(3)13(15)18(4)12-6-5-10(9-11(12)15)20-14(19)16-2/h5-6,9,13H,7-8H2,1-4H3,(H,16,19)
SMILES=CN=C(O)Oc1ccc2c(c1)C1(C)CCN(C)C1N2C
SCANS=2036
IONMODE=positive
COMPOUND_NAME=CHEMBL11773 M+H
SPECTRUM_ID=CCMSLIB00006687377
58.029789 4769.0 
58.065529 87106.0 
61.239799 3745.0 
72.937477 3538.0 
79.021507 5198.0 
86.426529 3836.0 
134.096069 18227.0 
146.061401 16429.0 
147.067474 115136.0 
147.079498 6205.0 
160.076752 18447.0 
161.083099 89760.0 
162.091125 9351008.0 
173.082779 7966.0 
176.106735 1820713.0 
188.10672 503554.0 
195.949356 14730.0 
197.943893 5342.0 
204.126205 4173.0 
208.883591 18017.0 
211.631027 4691.0 
219.112473 11524177.0 
226.893402 17688.0 
232.180222 22197.0 
233.127991 1251017.0 
234.951126 8438.0 
245.12796 367653.0 
252.871078 39518.0 
275.88913 6760.0 
275.92276 6540.0 
276.169952 913111.0 
292.204346 4095.0 
END IONS

BEGIN IONS
PRECURSOR_MZ=413.158
INCHI=InChI=1S/C22H22N4O3/c23-14-17(13-18-5-6-21(29-18)26-9-11-28-12-10-26)22(27)24-8-7-16-15-25-20-4-2-1-3-19(16)20/h1-6,13,15,25H,7-12H2,(H,24,27)/b17-13+
SMILES=N#CC(=Cc1ccc(N2CCOCC2)o1)C(O)=NCCc1c[nH]c2ccccc12
SCANS=18613
IONMODE=positive
COMPOUND_NAME=(2E)-2-cyano-N-(2-indol-3-ylethyl)-3-(5-morpholin-4-yl(2-furyl))prop-2-enamide M+Na
SPECTRUM_ID=CCMSLIB00006703954
51.603561 3300.0 
52.084831 2865.0 
100.3554 3260.0 
118.647324 2760.0 
133.477631 2750.0 
138.994156 15748.0 
144.080688 4626.0 
146.148117 2816.0 
208.941757 4977.0 
326.089569 11465.0 
340.458801 3782.0 
413.157593 4966196.0 
END IONS

BEGIN IONS
PRECURSOR_MZ=785.143
INCHI=InChI=1S/C20H13ClN4O3/c21-14-9-16-17(24-25(23-16)13-4-2-1-3-5-13)10-15(14)22-20(26)12-6-7-18-19(8-12)28-11-27-18/h1-10H,11H2,(H,22,26)
SMILES=OC(=Nc1cc2nn(-c3ccccc3)nc2cc1Cl)c1ccc2c(c1)OCO2
SCANS=17202
IONMODE=positive
COMPOUND_NAME=2H-benzo[3,4-d]1,3-dioxolan-5-yl-N-(6-chloro-2-phenyl(2-hydrobenzotriazol-5-yl ))carboxamide 2M+H
SPECTRUM_ID=CCMSLIB00006702543
55.018429 66944.0 
58.357349 4952.0 
58.946781 4698.0 
65.039017 304249.0 
66.740868 4563.0 
67.018257 22454.0 
68.997543 183961.0 
69.033836 9068.0 
71.013184 9809.0 
73.956329 5725.0 
92.049454 6026.0 
92.384613 4137.0 
95.012878 194045.0 
109.028618 17191.0 
118.658508 4247.0 
121.02877 16855.0 
123.881081 4448.0 
125.023277 48777.0 
136.218384 4168.0 
137.022614 16406.0 
139.039139 35604.0 
143.169098 4575.0 
149.023346 7530296.0 
149.493927 7105.0 
154.065033 91497.0 
182.06015 27209.0 
183.067352 19694.0 
186.425049 4484.0 
208.470139 13251.0 
210.066116 7408.0 
243.041824 7375.0 
245.061432 6664.0 
246.042358 58298.0 
271.087067 6379.0 
350.955505 4431.0 
357.09848 121072.0 
357.657288 4948.0 
391.061859 17327.0 
393.074493 3037496.0 
END IONS

BEGIN IONS
PRECURSOR_MZ=464.168
INCHI=InChI=1S/C24H24F3NO5/c1-13-10-28(11-14(2)32-13)12-17-18(29)9-8-16-21(30)20(15-6-4-5-7-19(15)31-3)23(24(25,26)27)33-22(16)17/h4-9,13-14,29H,10-12H2,1-3H3
SMILES=COc1ccccc1-c1c(C(F)(F)F)oc2c(CN3CC(C)OC(C)C3)c(O)ccc2c1=O
SCANS=1281
IONMODE=positive
COMPOUND_NAME=8-[(2,6-dimethylmorpholin-4-yl)methyl]-7-hydroxy-3-(2-methoxyphenyl)-2-(triflu oromethyl)chromen-4-one M+H
SPECTRUM_ID=CCMSLIB00006686622
54.389332 54748.0 
55.054661 73183.0 
56.04987 657818.0 
57.902931 57454.0 
58.065708 280721.0 
58.21431 56687.0 
60.112179 58051.0 
70.065407 600037.0 
74.06073 72720.0 
79.054489 143744.0 
81.069778 449594.0 
83.012909 84378.0 
86.096046 86576.0 
92.36422 62772.0 
96.080841 357954.0 
98.096489 21164496.0 
114.091309 2532489.0 
116.106987 66340960.0 
131.012955 84285.0 
135.043793 417955.0 
140.634094 71072.0 
149.023315 4153801.0 
167.033844 2708009.0 
181.047653 64370.0 
198.613876 61038.0 
199.036209 665489.0 
203.031952 57380.0 
205.064651 94200.0 
224.083374 267935.0 
225.069992 304238.0 
227.02951 160683.0 
233.060349 126699.0 
245.076782 86207.0 
251.069946 116859.0 
252.078354 278766.0 
253.06543 578773.0 
255.043686 73721.0 
261.053497 478581.0 
265.046387 67267.0 
273.071747 349050.0 
280.073273 1717795.0 
281.059479 871286.0 
289.047333 259712.0 
290.05249 93872.0 
293.078949 109989.0 
301.029327 94662.0 
301.066498 1862174.0 
309.05481 1515973.0 
314.037567 83791.0 
317.04425 142145.0 
318.049225 9876434.0 
321.073334 397431.0 
329.062195 308146.0 
349.067566 63970128.0 
351.085022 415159.0 
358.727539 65600.0 
464.167206 182460784.0 
END IONS

BEGIN IONS
PRECURSOR_MZ=461.163
INCHI=InChI=1S/C27H25ClN2O3/c1-32-19-11-12-25(33-2)20(15-19)27-26-23(29-21-5-3-4-6-22(21)30-27)13-17(14-24(26)31)16-7-9-18(28)10-8-16/h3-12,15,17,27,29-30H,13-14H2,1-2H3
SMILES=COc1ccc(OC)c(C2Nc3ccccc3NC3=C2C(=O)CC(c2ccc(Cl)cc2)C3)c1
SCANS=16324
IONMODE=positive
COMPOUND_NAME=11-(2,5-dimethoxyphenyl)-3-(4-chlorophenyl)-2,3,4-trihydro-5H,10H,11H-benzo[b] benzo[2,1-f]1,4-diazepin-1-one M+H
SPECTRUM_ID=CCMSLIB00006701665
57.975941 2668.0 
64.977943 3619.0 
66.746628 3764.0 
66.776123 2822.0 
85.106461 3182.0 
102.046547 4136.0 
102.662354 3409.0 
104.292442 3457.0 
116.049133 5690.0 
117.056763 3250.0 
119.060509 18238.0 
125.01461 4139.0 
130.065231 171859.0 
130.076172 5745.0 
132.067917 7488.0 
133.076096 44399.0 
137.015015 38560.0 
140.0495 6547.0 
142.052841 5458.0 
148.998795 3461.0 
156.067993 32551.0 
157.076096 1539656.0 
158.083969 5561.0 
159.09169 14064.0 
165.010178 90001.0 
166.065552 6639.0 
167.074249 4409.0 
170.083618 14395.0 
182.083969 6470.0 
183.091751 134394.0 
185.070938 1267451.0 
189.998611 3401.0 
197.071579 5974.0 
198.078888 28222.0 
211.086609 163191.0 
225.064941 4300.0 
237.090073 3894.0 
245.107773 6637.0 
255.068207 12313.0 
259.122864 4877.0 
269.108215 5191.0 
270.115082 4461.0 
281.08551 35605.0 
287.08371 4256.0 
287.117096 6328.0 
288.125641 13550.0 
295.098877 7686.0 
297.074463 3027.0 
305.082886 48758.0 
323.094299 3409168.0 
381.322083 3253.0 
461.162292 180080.0 
END IONS

BEGIN IONS
PRECURSOR_MZ=550.278
INCHI=InChI=1S/C30H41NO7/c1-6-36-25-17-20(18-26(37-7-2)28(25)38-8-3)29(32)31-16-15-30(33)14-10-9-11-23(30)27(31)22-13-12-21(34-4)19-24(22)35-5/h12-13,17-19,23,27,33H,6-11,14-16H2,1-5H3
SMILES=CCOc1cc(C(=O)N2CCC3(O)CCCCC3C2c2ccc(OC)cc2OC)cc(OCC)c1OCC
SCANS=8557
IONMODE=positive
COMPOUND_NAME=2-(2,4-dimethoxyphenyl)-6-hydroxy-3-azabicyclo[4.4.0]dec-3-yl 3,4,5-triethoxyp henyl ketone M+Na
SPECTRUM_ID=CCMSLIB00006693898
60.346199 3603.0 
73.955688 5119.0 
92.38237 3474.0 
104.288429 3930.0 
121.964951 3412.0 
136.214966 6089.0 
161.969498 3522.0 
213.053146 4219.0 
221.814224 3674.0 
280.130249 7697.0 
312.15625 23441.0 
488.200043 6254.0 
504.145508 6772.0 
506.214203 51317.0 
521.240906 13658.0 
522.156433 5185.0 
535.258972 5863.0 
546.933594 7659.0 
550.277039 9622170.0 
553.646912 6289.0 
568.291382 14477.0 
END IONS

BEGIN IONS
PRECURSOR_MZ=315.084
INCHI=InChI=1S/C15H16O6/c1-5(2)7-8-11(16)19-9(7)10-13(3)14(8,18)4-6-15(13,21-6)12(17)20-10/h6-10,18H,1,4H2,2-3H3/t6-,7+,8-,9-,10-,13-,14-,15+/m1/s1
SMILES=C=C(C)C1C2OC(=O)C1C1(O)CC3OC34C(=O)OC2C14C
SCANS=18171
IONMODE=positive
COMPOUND_NAME=UNII-9K011NUF0R M+Na
SPECTRUM_ID=CCMSLIB00006703512
73.630562 2189.0 
73.963562 2127.0 
87.083252 2496.0 
145.96434 2301.0 
156.99794 2164.0 
158.715973 2133.0 
167.270752 2122.0 
173.330826 2263.0 
315.083313 612739.0 
333.093719 25877.0 
END IONS

BEGIN IONS
PRECURSOR_MZ=285.04
INCHI=InChI=1S/C15H10O6/c16-8-2-3-9-12(6-8)21-15(14(20)13(9)19)7-1-4-10(17)11(18)5-7/h1-6,16-18,20H
SMILES=O=c1c(O)c(-c2ccc(O)c(O)c2)oc2cc(O)ccc12
SCANS=7163
IONMODE=negative
COMPOUND_NAME=Fisetin M-H
SPECTRUM_ID=CCMSLIB00006692504
61.20002 2048.0 
82.392822 2845.0 
91.018753 9397.0 
92.368271 3098.0 
116.502022 2435.0 
121.029602 29503.0 
135.008698 63539.0 
139.040695 2763.0 
148.956924 11551.0 
149.024063 15242.0 
153.019791 25178.0 
157.959595 2474.0 
163.003891 50825.0 
172.299911 2309.0 
216.922424 8427.0 
216.966812 3299.0 
229.051086 10866.0 
241.049484 3975.0 
257.046631 3846.0 
285.040741 534444.0 
END IONS

BEGIN IONS
PRECURSOR_MZ=335.1
INCHI=InChI=1S/C17H16N2O4/c18-16(20)13(8-11-4-2-1-3-5-11)19-17(21)12-6-7-14-15(9-12)23-10-22-14/h1-7,9,13H,8,10H2,(H2,18,20)(H,19,21)
SMILES=N=C(O)C(Cc1ccccc1)N=C(O)c1ccc2c(c1)OCO2
SCANS=6796
IONMODE=positive
COMPOUND_NAME=2H-benzo[3,4-d]1,3-dioxolen-5-yl-N-(1-carbamoyl-2-phenylethyl)carboxamide M+Na
SPECTRUM_ID=CCMSLIB00006692137
55.06324 2317.0 
56.596432 2441.0 
75.87381 3115.0 
92.1511 2753.0 
92.375237 3278.0 
113.505951 2543.0 
118.358322 2793.0 
143.157684 2763.0 
154.220795 2786.0 
229.887634 2539.0 
318.07428 6228.0 
333.571075 2938.0 
335.099731 2905643.0 
END IONS

BEGIN IONS
PRECURSOR_MZ=322.021
INCHI=InChI=1S/C14H13NO4S2/c16-14(17)13-7-12(9-20-13)21(18,19)15-6-5-10-3-1-2-4-11(10)8-15/h1-4,7,9H,5-6,8H2,(H,16,17)
SMILES=O=C(O)c1cc(S(=O)(=O)N2CCc3ccccc3C2)cs1
SCANS=9085
IONMODE=negative
COMPOUND_NAME=4-(2-1,2,3,4-tetrahydroisoquinolylsulfonyl)thiophene-2-carboxylic acid M-H
SPECTRUM_ID=CCMSLIB00006694426
60.93018 2263.0 
63.96204 20351.0 
64.969856 28600.0 
80.487602 2526.0 
82.401093 2377.0 
82.755577 2237.0 
82.995911 107098.0 
83.013496 2461.0 
92.379982 2896.0 
130.066208 10135.0 
146.958054 197156.0 
164.992096 2436.0 
176.816147 2391.0 
191.946686 12368.0 
196.043274 4744.0 
272.315979 2386.0 
278.031555 711980.0 
322.021362 206805.0 
END IONS

BEGIN IONS
PRECURSOR_MZ=349.039
INCHI=InChI=1S/C19H11ClN2O3/c20-13-4-1-11(2-5-13)14-8-16(22-19(23)15(14)9-21)12-3-6-17-18(7-12)25-10-24-17/h1-8H,10H2,(H,22,23)
SMILES=N#Cc1c(-c2ccc(Cl)cc2)cc(-c2ccc3c(c2)OCO3)nc1O
SCANS=7091
IONMODE=negative
COMPOUND_NAME=6-(2H-benzo[3,4-d]1,3-dioxolan-5-yl)-4-(4-chlorophenyl)-2-oxohydropyridine-3-c arbonitrile M-H
SPECTRUM_ID=CCMSLIB00006692432
60.428059 2531.0 
65.997612 19128.0 
71.553818 3083.0 
80.661972 3140.0 
93.03447 30693.0 
104.301033 2814.0 
118.029068 5113.0 
121.770538 3409.0 
124.429611 3066.0 
160.04007 3928.0 
180.99202 3660.0 
182.418884 2593.0 
201.022461 49375.0 
202.005814 4706.0 
209.042862 6372.0 
209.062622 4039.0 
227.002151 15882.0 
234.96907 2718.0 
266.865082 2837.0 
266.990112 3328.0 
278.038269 24789.0 
282.980743 12993.0 
293.049408 34363.0 
304.982819 6092.0 
305.048737 2946.0 
319.027802 89612.0 
320.035614 83228.0 
321.043518 1063398.0 
326.980408 3238.0 
328.983307 26302.0 
335.0224 4126.0 
347.023438 23752.0 
349.038635 4538572.0 
END IONS

BEGIN IONS
PRECURSOR_MZ=422.129
INCHI=InChI=1S/C21H19F2N3O3/c1-2-9-24-21(29)15-11-20(28)26(18-6-4-3-5-14(15)18)12-19(27)25-17-8-7-13(22)10-16(17)23/h3-8,10-11H,2,9,12H2,1H3,(H,24,29)(H,25,27)
SMILES=CCCN=C(O)c1cc(=O)n(CC(O)=Nc2ccc(F)cc2F)c2ccccc12
SCANS=20561
IONMODE=positive
COMPOUND_NAME=N-(2,4-difluorophenyl)-2-[2-oxo-4-(N-propylcarbamoyl)hydroquinolyl]acetamide M+Na
SPECTRUM_ID=CCMSLIB00006705902
56.49271 2567.0 
73.950981 2945.0 
92.373428 2896.0 
97.82225 2748.0 
128.049103 2702.0 
130.064774 6231.0 
146.060333 5072.0 
149.282883 2469.0 
150.034378 12105.0 
157.969879 3121.0 
210.788452 3615.0 
231.11264 3258.0 
243.112885 5785.0 
271.10733 12496.0 
339.029907 3041.0 
341.459869 3076.0 
404.117706 17992.0 
422.127808 2381975.0 
436.606171 3710.0 
442.113068 3333.0 
444.1073 3931.0 
END IONS

BEGIN IONS
PRECURSOR_MZ=118.086
INCHI=InChI=1S/C5H11NO2/c1-3(2)4(6)5(7)8/h3-4H,6H2,1-2H3,(H,7,8)/t4-/m0/s1
SMILES=CC(C)[C@H](N)C(=O)O
SCANS=764
IONMODE=positive
COMPOUND_NAME=L-valine M+H
SPECTRUM_ID=CCMSLIB00006686105
53.0606 24156.0 
55.054901 823232.0 
57.057999 63189.300781 
58.0658 253726.0 
59.073601 308612.0 
63.570999 25913.699219 
67.572098 30512.199219 
72.081398 8145420.0 
73.980103 43569.199219 
82.43 40325.699219 
116.924004 27210.300781 
118.085999 1759810.0 
END IONS

BEGIN IONS
PRECURSOR_MZ=183.092
INCHI=InChI=1S/C12H10N2/c1-8-12-10(6-7-13-8)9-4-2-3-5-11(9)14-12/h2-7,14H,1H3
SMILES=Cc1nccc2c1[nH]c1ccccc12
SCANS=12661
IONMODE=positive
COMPOUND_NAME=HARMANE M+H
SPECTRUM_ID=CCMSLIB00006698002
55.93486 4535.0 
56.942619 62520.0 
63.023769 5125.0 
72.937462 173597.0 
73.943489 4863.0 
74.953049 5741.0 
82.386749 4452.0 
84.959953 65318.0 
88.93174 5451.0 
89.940109 8187.0 
90.947777 81596.0 
99.947433 5493.0 
101.633324 4595.0 
106.943069 6516.0 
107.950989 5458.0 
108.957649 8334.0 
113.95507 8718.0 
113.963654 210671.0 
115.054131 344271.0 
118.942268 6779.0 
125.960258 7745.0 
129.070343 16956.0 
130.96637 20499.0 
131.97377 62220.0 
140.050262 7554.0 
141.957916 56926.0 
142.065033 241123.0 
148.976974 23084.0 
156.082016 41048.0 
159.005341 9238.0 
159.968063 49057.0 
166.06366 10876.0 
167.059525 9805.0 
168.067719 204108.0 
181.076111 6946.0 
182.083954 160849.0 
182.45134 25229.0 
183.091507 44993928.0 
183.734451 28289.0 
185.070328 22047.0 
END IONS

BEGIN IONS
PRECURSOR_MZ=296.976
INCHI=InChI=1S/C12H9BrO4/c1-2-16-11(14)9-6-7-5-8(13)3-4-10(7)17-12(9)15/h3-6H,2H2,1H3
SMILES=CCOC(=O)c1cc2cc(Br)ccc2oc1=O
SCANS=5229
IONMODE=positive
COMPOUND_NAME=ethyl 6-bromo-2-oxochromene-3-carboxylate M+H
SPECTRUM_ID=CCMSLIB00006690570
50.993469 2913.0 
74.096764 4137.0 
75.861313 2972.0 
89.610313 3681.0 
104.282547 4484.0 
118.041443 3340.0 
123.386673 3071.0 
166.948563 60940.0 
206.94249 4539.0 
222.938141 107382.0 
222.961838 5885.0 
232.926987 12558.0 
250.932709 254036.0 
268.943512 10121706.0 
270.947601 20801.0 
279.19339 11102.0 
296.97467 1541722.0 
299.059174 5393.0 
309.967743 3924.0 
END IONS

BEGIN IONS
PRECURSOR_MZ=543.197
INCHI=InChI=1S/C29H27FN6O2S/c1-37-21-11-12-24(26(17-21)38-2)31-27-22-5-3-4-6-23(22)32-28(34-27)35-13-15-36(16-14-35)29-33-25(18-39-29)19-7-9-20(30)10-8-19/h3-12,17-18H,13-16H2,1-2H3,(H,31,32,34)
SMILES=COc1ccc(N=c2[nH]c(N3CCN(c4nc(-c5ccc(F)cc5)cs4)CC3)nc3ccccc23)c(OC)c1
SCANS=13321
IONMODE=positive
COMPOUND_NAME=(2,4-dimethoxyphenyl)(2-{4-[4-(4-fluorophenyl)(1,3-thiazol-2-yl)]piperazinyl}q uinazolin-4-yl)amine M+H
SPECTRUM_ID=CCMSLIB00006698662
55.483292 4052.0 
63.741699 4461.0 
68.049629 7701.0 
69.044838 25746.0 
73.010689 4601.0 
86.006042 4959.0 
92.369102 4788.0 
95.049004 7899.0 
95.059837 4759.0 
100.021332 9006.0 
109.044762 160584.0 
118.064697 7572.0 
122.038673 6595.0 
122.059372 28466.0 
124.07547 5344.0 
127.032379 22363.0 
129.044708 5055.0 
130.064301 7168.0 
131.060394 7791.0 
133.028381 9853.0 
136.055664 8587.0 
138.055542 6465.0 
138.067322 23386.0 
139.000931 6618.0 
139.062149 28201.0 
143.047852 15728.0 
143.060257 15782.0 
144.054291 5896.0 
145.075806 10394.0 
147.054504 19395.0 
148.051758 76895.0 
149.047028 17831.0 
150.054794 7435.0 
151.000748 6323.0 
151.061844 4833.0 
152.008636 34781.0 
152.069901 19019.0 
153.016785 294220.0 
154.086121 9806.0 
160.074188 112456.0 
160.087082 14116.0 
160.505478 4194.0 
161.06282 5806.0 
162.07077 8404.0 
164.07048 7650.0 
167.031754 5291.0 
168.027451 46150.0 
170.055939 7282.0 
170.071121 142167.0 
171.079041 103950.0 
172.086868 9892.0 
175.074173 23150.0 
178.011902 57073.0 
180.027557 45837.0 
184.073532 21861.0 
185.081055 46269.0 
185.095901 4667.0 
187.09729 7026.0 
188.080826 6730.0 
194.043625 111776.0 
195.03772 6943.0 
196.086731 40991.0 
197.096222 37992.0 
198.103058 6503.0 
203.068878 52939.0 
206.043564 9053.0 
207.037094 7138.0 
211.097153 9948.0 
212.082687 5856.0 
213.079071 6782.0 
214.091202 5105.0 
218.043671 5593.0 
219.038101 26079.0 
220.058975 6348.0 
220.08551 7336.0 
221.053925 990367.0 
223.032837 22737.0 
223.099075 48941.0 
225.066025 29576.0 
230.042175 7574.0 
232.045212 4947.0 
235.07196 6238.0 
235.098145 6945.0 
236.08107 19370.0 
237.113098 248146.0 
238.09787 8318.0 
239.091873 32453.0 
240.089172 58647.0 
241.09729 30561.0 
245.05452 30359.0 
247.069641 339332.0 
247.096481 22480.0 
248.062561 6874.0 
248.105469 15300.0 
249.104828 9697.0 
250.060867 25556.0 
250.095993 96911.0 
251.082321 103344.0 
251.12825 8954.0 
252.077484 19440.0 
253.096619 42815.0 
255.111908 17391.0 
261.079437 3943.0 
261.113281 16302.0 
262.081757 7825.0 
263.092529 41989.0 
263.128632 34108.0 
264.107849 20074.0 
265.108124 2441216.0 
266.091614 667527.0 
267.112976 106081.0 
273.112946 5233.0 
275.092438 51346.0 
275.122314 6929.0 
276.100159 124047.0 
277.10791 180274.0 
278.091187 68301.0 
279.124512 72987.0 
280.107727 134002.0 
281.128357 81917.0 
282.11142 29294.0 
289.108124 84334.0 
290.119293 48809.0 
291.123444 3146462.0 
292.090973 48521.0 
293.102661 1164841.0 
294.113251 7106.0 
295.118286 437542.0 
297.132812 17036.0 
302.116089 6704.0 
303.123413 21813.0 
305.103058 6737.0 
305.139496 10388.0 
306.110443 40775.0 
307.118164 1326205.0 
308.125946 1290580.0 
308.54538 4184.0 
309.133606 52138.0 
317.101624 7047.0 
317.138702 137919.0 
318.110504 6379.0 
319.118225 408316.0 
321.132843 66253.0 
323.149445 1086477.0 
333.133789 166209.0 
334.141663 391949.0 
335.14212 19601.0 
349.089447 17333.0 
349.165344 196007.0 
350.159424 20605.0 
442.111359 43866.0 
443.797424 5067.0 
468.131317 4834.0 
474.143036 7088.0 
543.196533 6409352.0 
END IONS

BEGIN IONS
PRECURSOR_MZ=485.105
INCHI=InChI=1S/C22H22O11/c1-30-15-4-9(2-3-11(15)24)14-7-13(26)18-12(25)5-10(6-16(18)32-14)31-22-21(29)20(28)19(27)17(8-23)33-22/h2-7,17,19-25,27-29H,8H2,1H3
SMILES=COc1cc(-c2cc(=O)c3c(O)cc(OC4OC(CO)C(O)C(O)C4O)cc3o2)ccc1O
SCANS=21904
IONMODE=positive
COMPOUND_NAME=5-hydroxy-2-(4-hydroxy-3-methoxyphenyl)-7-[3,4,5-trihydroxy-6-(hydroxymethyl)( 2H-3,4,5,6-tetrahydropyran-2-yloxy)]chromen-4-one M+Na
SPECTRUM_ID=CCMSLIB00006707245
52.74807 2678.0 
53.859989 2517.0 
58.058578 2484.0 
63.85136 2792.0 
83.431229 2870.0 
99.073509 2538.0 
119.602531 2552.0 
122.833923 2692.0 
130.999039 2762.0 
291.641418 3022.0 
342.560425 2733.0 
376.069855 2587.0 
470.091522 5539.0 
485.111969 1939882.0 
501.439301 3038.0 
END IONS

BEGIN IONS
PRECURSOR_MZ=498.091
INCHI=InChI=1S/C25H24BrNO5/c1-13-21(25(30)32-3)22(16-9-17(26)24(29)20(12-16)31-2)23-18(27-13)10-15(11-19(23)28)14-7-5-4-6-8-14/h4-9,12,15,22,27,29H,10-11H2,1-3H3
SMILES=COC(=O)C1=C(C)NC2=C(C(=O)CC(c3ccccc3)C2)C1c1cc(Br)c(O)c(OC)c1
SCANS=19586
IONMODE=positive
COMPOUND_NAME=methyl 4-(3-bromo-4-hydroxy-5-methoxyphenyl)-2-methyl-5-oxo-7-phenyl-1,4,6,7,8 -pentahydroquinoline-3-carboxylate M+H
SPECTRUM_ID=CCMSLIB00006704927
50.862431 3446.0 
52.45282 3508.0 
59.993359 4131.0 
65.294777 3428.0 
65.358841 3646.0 
71.871429 4036.0 
91.054314 52937.0 
95.049133 5056.0 
103.054207 15744.0 
104.049294 26028.0 
105.033539 7914.0 
105.06945 4292.0 
106.065201 8057.0 
108.080482 14589.0 
130.064926 48248.0 
131.048645 28935.0 
131.0728 90990.0 
131.082764 6764.0 
132.044174 164740.0 
132.05481 7197.0 
133.052841 3809.0 
134.059738 35290.0 
136.03949 20966.0 
136.075531 18693.0 
145.05217 13242.0 
146.059723 5732.0 
146.096039 37650.0 
149.046967 784241.0 
154.04953 37113.0 
158.059784 220830.0 
158.074051 8817.0 
160.039093 966973.0 
164.070358 1417433.0 
165.069656 6512.0 
167.085251 9171.0 
174.091293 24649.0 
175.062073 4003.0 
177.0784 8300.0 
178.077011 4361.0 
181.064468 19957.0 
182.081711 15981.0 
186.054642 302230.0 
188.071182 4837.0 
190.085953 182099.0 
191.085846 8741.0 
192.065186 2732357.0 
193.08815 32555.0 
194.096939 30056.0 
205.073151 113061.0 
207.103241 6408.0 
208.111923 17848.0 
212.070145 5098.0 
214.426376 4314.0 
218.080261 449751.0 
219.080429 5868.0 
219.103012 6947.0 
221.08374 38934.0 
222.091507 15319.0 
235.100235 5623.0 
236.10675 712775.0 
237.116425 16558.0 
240.065903 8861.0 
246.090958 17592.0 
247.074753 25682.0 
247.103378 4109.0 
252.101196 18945.0 
254.116867 31527.0 
264.101349 712990.0 
266.117615 15192.0 
268.13327 5641.0 
269.105072 5422.0 
278.117096 66957.0 
281.10379 6067.0 
294.813324 6982.0 
296.127502 8024051.0 
297.450562 5391.0 
372.124176 5272.0 
422.039429 5721.0 
466.065796 35832.0 
496.105164 4476.0 
498.076538 7414.0 
END IONS

BEGIN IONS
PRECURSOR_MZ=222.114
INCHI=InChI=1S/C12H17NO3/c1-2-3-4-5-6-7-8-9(14)10-11(16-10)12(13)15/h2-3,5-6,10-11H,4,7-8H2,1H3,(H2,13,15)/b3-2+,6-5+/t10-,11-/m1/s1
SMILES=CC=CCC=CCCC(=O)C1OC1C(=N)O
SCANS=7646
IONMODE=negative
COMPOUND_NAME=cerulenin M-H
SPECTRUM_ID=CCMSLIB00006692987
53.683868 2040.0 
68.869324 2136.0 
73.956673 2527.0 
74.420937 1817.0 
86.024483 9995.0 
91.479927 2040.0 
97.346512 2170.0 
179.105911 2977.0 
181.121017 2304.0 
189.724808 2097.0 
222.113205 39132.0 
END IONS

BEGIN IONS
PRECURSOR_MZ=481.232
INCHI=InChI=1S/C26H30N6O2/c1-29-22-21(23(33)30(2)25(29)34)31-15-20(26-11-17-8-18(12-26)10-19(9-17)13-26)28-32(24(31)27-22)14-16-6-4-3-5-7-16/h3-7,17-19H,8-15H2,1-2H3
SMILES=Cn1c(=O)c2c(nc3n2CC(C24CC5CC(CC(C5)C2)C4)=NN3Cc2ccccc2)n(C)c1=O
SCANS=21895
IONMODE=positive
COMPOUND_NAME=3-adamantanyl-7,9-dimethyl-1-benzyl-5,7,9-trihydro-4H-1,2,4-triazino[4,3-h]pur ine-6,8-dione M+Na
SPECTRUM_ID=CCMSLIB00006707236
74.710747 3007.0 
90.976547 3965.0 
91.054138 5113.0 
103.378761 2754.0 
104.294388 2924.0 
135.116867 11189.0 
182.625732 3328.0 
203.054398 2603.0 
215.05368 301581.0 
229.056473 47431.0 
238.638672 2940.0 
242.164948 19293.0 
320.111511 17122.0 
327.180511 2890.0 
343.009491 2860.0 
349.16217 41426.0 
350.170807 33637.0 
390.179565 15927.0 
406.220398 3159.0 
481.231506 1839758.0 
END IONS

BEGIN IONS
PRECURSOR_MZ=729.455
INCHI=InChI=1S/C40H68O11.Na/c1-21-11-12-28(46-33(21)26(6)36(42)43)17-29-18-30(45-10)27(7)40(48-29)25(5)19-38(9,51-40)32-13-14-37(8,49-32)35-23(3)16-31(47-35)34-22(2)15-24(4)39(44,20-41)50-34;/h21-35,41,44H,11-20H2,1-10H3,(H,42,43);/q;+1/p-1/t21-,22-,23-,24+,25+,26+,27+,28+,29+,30+,31+,32+,33+,34-,35+,37-,38-,39-,40+;/m0./s1
SMILES=COC1CC(CC2CCC(C)C(C(C)C(=O)[O-])O2)OC2(OC(C)(C3CCC(C)(C4OC(C5OC(O)(CO)C(C)CC5C)CC4C)O3)CC2C)C1C.[Na+]
SCANS=17543
IONMODE=positive
COMPOUND_NAME=Nigericin sodium salt M+H-H2O
SPECTRUM_ID=CCMSLIB00006702884
77.666748 2679.0 
78.969521 3149.0 
89.6521 3432.0 
92.376953 4279.0 
103.280548 3342.0 
191.103897 3531.0 
208.292587 15703.0 
217.264786 2928.0 
237.109879 68812.0 
289.177612 15622.0 
373.235931 23376.0 
375.215546 5907.0 
383.257843 6471.0 
457.294006 14897.0 
483.308838 48289.0 
509.321747 7336.0 
517.316589 4171.0 
585.411011 50972.0 
635.422668 4854.0 
653.436768 12823.0 
685.465332 78886.0 
697.422546 5781.0 
729.453979 510483.0 
END IONS

BEGIN IONS
PRECURSOR_MZ=202.053
INCHI=InChI=1S/C8H11NO3S/c1-8-3-2-6(10)9(8)5(4-13-8)7(11)12/h5H,2-4H2,1H3,(H,11,12)
SMILES=CC12CCC(=O)N1C(C(=O)O)CS2
SCANS=18443
IONMODE=positive
COMPOUND_NAME=7a-methyl-5-oxo-2,3,6,7,7a-pentahydrothiapyrrolizine-3-carboxylic acid M+H
SPECTRUM_ID=CCMSLIB00006703784
53.039139 3281.0 
55.050282 3497.0 
55.054741 99304.0 
55.934952 5592.0 
56.965279 18727.0 
58.97184 2682.0 
58.995499 206914.0 
59.798759 2419.0 
60.956429 2652.0 
70.065536 302934.0 
76.022003 4989.0 
80.049858 15185.0 
80.903458 2734.0 
81.033836 5411.0 
82.06562 11681.0 
84.959923 30865.0 
86.984261 6006.0 
86.990143 139209.0 
92.394707 3395.0 
94.065262 303225.0 
96.015221 3025.0 
96.044327 4180.0 
98.060158 4742141.0 
99.044296 13884.0 
100.991173 2928.0 
101.950073 17487.0 
102.091698 2951.0 
104.304138 3751.0 
105.000473 91448.0 
110.060349 16046.0 
114.956299 42044.0 
122.059853 60918.0 
123.06739 2941.0 
128.052841 203606.0 
128.951141 3793.0 
132.966812 26462.0 
133.017654 3891.0 
146.961655 3008.0 
150.055267 2956.0 
156.047729 962570.0 
161.012451 4565.0 
168.06633 4351.0 
178.957977 12548.0 
178.969513 13166.0 
179.022842 12472.0 
184.042801 12908.0 
196.979111 14179.0 
202.053192 742285.0 
231.380386 3096.0 
END IONS

BEGIN IONS
PRECURSOR_MZ=178.053
INCHI=InChI=1S/C6H11NO3S/c1-11-3-2-5(6(9)10)7-4-8/h4-5H,2-3H2,1H3,(H,7,8)(H,9,10)/t5-/m1/s1
SMILES=CSCCC(N=CO)C(=O)O
SCANS=20869
IONMODE=positive
COMPOUND_NAME=fMet M+H
SPECTRUM_ID=CCMSLIB00006706210
52.48555 4082.0 
54.03463 7461.0 
55.935329 4094.0 
56.050259 401242.0 
57.034328 19889.0 
61.011429 431050.0 
65.679321 4131.0 
73.034988 3991.0 
74.024406 29691.0 
74.060753 32695.0 
82.385696 5457.0 
84.045059 582062.0 
87.026978 37534.0 
88.02211 48056.0 
90.94883 4109.0 
102.055519 85694.0 
104.053383 434672.0 
119.521072 3609.0 
126.014427 5279.0 
130.050095 387204.0 
133.032074 193178.0 
136.195114 4641.0 
150.058502 120094.0 
178.030121 5816.0 
END IONS

BEGIN IONS
PRECURSOR_MZ=464.22
INCHI=InChI=1S/C29H31NO3/c1-28(2)14-21-26(23(32)16-28)25(18-10-12-20(31)13-11-18)27-22(15-29(3,4)17-24(27)33)30(21)19-8-6-5-7-9-19/h5-13,25,31H,14-17H2,1-4H3
SMILES=CC1(C)CC(=O)C2=C(C1)N(c1ccccc1)C1=C(C(=O)CC(C)(C)C1)C2c1ccc(O)cc1
SCANS=8546
IONMODE=positive
COMPOUND_NAME=9-(4-hydroxyphenyl)-3,3,6,6-tetramethyl-10-phenyl-2,3,4,5,6,7,9,10-octahydroac ridine-1,8-dione M+Na
SPECTRUM_ID=CCMSLIB00006693887
66.743446 3867.0 
72.376572 2953.0 
76.4785 3375.0 
118.656219 3979.0 
162.664719 3209.0 
300.210815 3030.0 
461.638855 4189.0 
463.21051 4193.0 
464.218781 5773237.0 
466.818573 4753.0 
482.228149 41514.0 
505.2453 108602.0 
541.431641 3679.0 
843.151672 3703.0 
END IONS

BEGIN IONS
PRECURSOR_MZ=416.138
INCHI=InChI=1S/C22H20FN3O3/c23-17-8-2-3-9-18(17)24-20(27)14-26-19-10-4-1-7-15(19)16(13-21(26)28)22(29)25-11-5-6-12-25/h1-4,7-10,13H,5-6,11-12,14H2,(H,24,27)
SMILES=O=C(c1cc(=O)n(CC(O)=Nc2ccccc2F)c2ccccc12)N1CCCC1
SCANS=22132
IONMODE=positive
COMPOUND_NAME=N-(2-fluorophenyl)-2-[2-oxo-4-(pyrrolidinylcarbonyl)hydroquinolyl]acetamide M+Na
SPECTRUM_ID=CCMSLIB00006707473
73.943871 2541.0 
77.304123 2365.0 
80.931877 2995.0 
81.030434 2848.0 
82.389412 2766.0 
92.463127 2955.0 
398.128815 16998.0 
416.137634 2645346.0 
END IONS

BEGIN IONS
PRECURSOR_MZ=965.596
INCHI=InChI=1S/C26H45NO5S/c1-17(4-9-24(29)27-14-15-33(30,31)32)21-7-8-22-20-6-5-18-16-19(28)10-12-25(18,2)23(20)11-13-26(21,22)3/h17-23,28H,4-16H2,1-3H3,(H,27,29)(H,30,31,32)/t17-,18-,19-,20+,21-,22+,23+,25+,26-/m1/s1
SMILES=C[C@H](CCC(O)=NCCS(=O)(=O)O)[C@H]1CC[C@H]2[C@@H]3CC[C@@H]4C[C@H](O)CC[C@]4(C)[C@H]3CC[C@@]21C
SCANS=183
IONMODE=negative
COMPOUND_NAME=Taurolithocholate 2M-H
SPECTRUM_ID=CCMSLIB00006685524
82.4328 17455.5 
85.649696 12941.0 
106.314003 13192.5 
131.953003 13081.900391 
136.268005 15792.700195 
211.649994 24980.800781 
258.875 17298.699219 
262.703003 12219.099609 
361.532013 13862.299805 
432.537994 13286.5 
482.294006 11243800.0 
965.599976 427161.0 
END IONS

BEGIN IONS
PRECURSOR_MZ=548.129
INCHI=InChI=1S/C25H30BrNO5/c1-13-20(24(30)32-15-7-5-6-8-15)21(14-9-16(26)23(29)19(10-14)31-4)22-17(27-13)11-25(2,3)12-18(22)28/h9-10,15,21,27,29H,5-8,11-12H2,1-4H3
SMILES=COc1cc(C2C(C(=O)OC3CCCC3)=C(C)NC3=C2C(=O)CC(C)(C)C3)cc(Br)c1O
SCANS=6683
IONMODE=negative
COMPOUND_NAME=cyclopentyl 4-(3-bromo-4-hydroxy-5-methoxyphenyl)-2,7,7-trimethyl-5-oxo-1,4,6, 7,8-pentahydroquinoline-3-carboxylate M+formate
SPECTRUM_ID=CCMSLIB00006692024
68.337402 2473.0 
75.546539 2623.0 
78.918579 35314.0 
86.06546 2566.0 
90.702606 2560.0 
102.879227 2763.0 
104.301048 3101.0 
104.309464 2571.0 
107.374496 2538.0 
179.221008 2634.0 
185.932419 36732.0 
188.107605 4372.0 
220.684174 2849.0 
274.945068 2427.0 
292.233948 2462.0 
300.160309 13636.0 
303.858124 2655.0 
312.225586 2475.0 
502.123505 200617.0 
END IONS

BEGIN IONS
PRECURSOR_MZ=382.162
INCHI=InChI=1S/C20H25NO5/c1-5-6-11-26-16-10-8-7-9-15(16)21-20(22)14-12-17(23-2)19(25-4)18(13-14)24-3/h7-10,12-13H,5-6,11H2,1-4H3,(H,21,22)
SMILES=CCCCOc1ccccc1N=C(O)c1cc(OC)c(OC)c(OC)c1
SCANS=14090
IONMODE=positive
COMPOUND_NAME=N-(2-butoxyphenyl)(3,4,5-trimethoxyphenyl)carboxamide M+Na
SPECTRUM_ID=CCMSLIB00006699431
109.669083 2241.0 
155.272507 2235.0 
202.313538 2606.0 
210.223434 3419.0 
300.046265 2740.0 
356.345856 2492.0 
382.161926 195896.0 
END IONS

BEGIN IONS
PRECURSOR_MZ=180.087
INCHI=InChI=1S/C6H13NO5/c7-3-5(10)4(9)2(1-8)12-6(3)11/h2-6,8-11H,1,7H2/t2-,3-,4+,5-,6?/m1/s1
SMILES=N[C@H]1C(O)O[C@H](CO)[C@H](O)[C@@H]1O
SCANS=24348
IONMODE=positive
COMPOUND_NAME=D-Galactosamine M+H
SPECTRUM_ID=CCMSLIB00006709689
60.081402 24502.300781 
66.749001 2225.050049 
72.044998 37718.800781 
74.295799 2154.98999 
78.985001 4554.27002 
82.406403 2179.679932 
84.044601 3420.310059 
92.387802 2481.800049 
96.044701 15256.700195 
96.995499 35222.101562 
98.060204 4783.100098 
126.055 8947.950195 
136.804001 2111.320068 
144.065002 4370.939941 
144.830994 2283.659912 
162.076004 18171.400391 
162.093994 13004.200195 
180.104996 222211.0 
END IONS

BEGIN IONS
PRECURSOR_MZ=490.238
INCHI=InChI=1S/C33H31NO3/c1-33(2)18-25-30-24-12-8-7-11-22(24)13-15-26(30)34-32(31(25)27(35)19-33)23-14-16-28(29(17-23)36-3)37-20-21-9-5-4-6-10-21/h4-17,32,34H,18-20H2,1-3H3
SMILES=COc1cc(C2Nc3ccc4ccccc4c3C3=C2C(=O)CC(C)(C)C3)ccc1OCc1ccccc1
SCANS=19747
IONMODE=positive
COMPOUND_NAME=5-[3-methoxy-4-(phenylmethoxy)phenyl]-2,2-dimethyl-1,2,3,5,6-pentahydrobenzo[a ]phenanthridin-4-one M+H
SPECTRUM_ID=CCMSLIB00006705088
50.69202 3205.0 
55.05481 3631.0 
58.961189 3159.0 
82.401779 3512.0 
83.049728 23900.0 
92.382881 3683.0 
118.659081 4245.0 
132.922791 3208.0 
136.219208 4090.0 
165.070419 5666.0 
189.27272 3201.0 
191.073807 22997.0 
192.08075 665990.0 
193.090454 5210.0 
194.096512 14499.0 
218.096054 23010.0 
220.075668 417127.0 
225.078186 7608.0 
232.111618 28584.0 
234.092117 5217.0 
234.127808 4817.0 
243.238068 3363.0 
246.091064 63440.0 
258.12793 49707.0 
260.106262 28977.0 
275.132233 6114.0 
276.138184 6106402.0 
317.706848 3758.0 
464.792084 3460.0 
490.238037 7572.0 
END IONS

BEGIN IONS
PRECURSOR_MZ=379.166
INCHI=InChI=1S/C22H24N2O4/c1-3-10-28-18-9-8-13(11-19(18)27-2)20-21-15(12-17(24-20)22(25)26)14-6-4-5-7-16(14)23-21/h4-9,11,17,20,23-24H,3,10,12H2,1-2H3,(H,25,26)
SMILES=CCCOc1ccc(C2NC(C(=O)O)Cc3c2[nH]c2ccccc32)cc1OC
SCANS=6815
IONMODE=negative
COMPOUND_NAME=1-(3-methoxy-4-propoxyphenyl)-1,2,3,4-tetrahydrobeta-carboline-3-carboxylic ac id M-H
SPECTRUM_ID=CCMSLIB00006692156
60.536758 3808.0 
65.216988 2549.0 
66.225723 2754.0 
71.013206 5823.0 
72.008873 371633.0 
80.756828 2648.0 
92.050552 401837.0 
108.022118 3957.0 
109.029091 6873.0 
116.050713 543068.0 
123.045288 110894.0 
123.055237 4365.0 
136.053131 5052.0 
144.081528 4685.0 
146.960678 11872.0 
156.069885 31631.0 
167.061707 39035.0 
168.068451 5234.0 
169.077362 111796.0 
174.956299 117392.0 
200.071106 6051.0 
204.103745 3496.0 
242.943832 61124.0 
248.072281 24438.0 
250.088791 12444.0 
250.109451 166351.0 
260.071777 43630.0 
262.087341 6321.0 
263.095612 94409.0 
263.554535 3152.0 
275.095917 72335.0 
276.10379 27564.0 
277.098572 119069.0 
289.098755 18812.0 
291.114166 47012.0 
292.122345 114678.0 
296.094421 5159.0 
306.108459 5307.0 
306.15036 44159.0 
307.145721 80478.0 
310.930786 11705.0 
318.150818 60809.0 
333.161621 308476.0 
335.083221 7618.0 
335.177155 1216716.0 
379.167053 1557261.0 
455.113953 3185.0 
512.273926 3399.0 
END IONS

BEGIN IONS
PRECURSOR_MZ=383.16
INCHI=InChI=1S/C21H22N2O5/c1-14(24)22-9-11-26-18-6-2-4-15-5-3-10-23(20(15)18)21(25)16-7-8-17-19(12-16)28-13-27-17/h2,4,6-8,12H,3,5,9-11,13H2,1H3,(H,22,24)
SMILES=CC(O)=NCCOc1cccc2c1N(C(=O)c1ccc3c(c1)OCO3)CCC2
SCANS=13947
IONMODE=positive
COMPOUND_NAME=N-{2-[1-(2H-benzo[3,4-d]1,3-dioxolen-5-ylcarbonyl)-8-1,2,3,4-tetrahydroquinoly loxy]ethyl}acetamide M+H
SPECTRUM_ID=CCMSLIB00006699288
53.002701 33945.0 
55.018372 30920.0 
65.039047 136387.0 
67.018356 12671.0 
68.997528 103902.0 
71.01313 4404.0 
86.060303 1716925.0 
95.012802 102514.0 
98.614868 3039.0 
109.028419 5543.0 
125.02314 33539.0 
131.049194 13446.0 
137.02327 3549.0 
139.039062 18690.0 
148.075653 175281.0 
148.089081 6747.0 
149.023361 3765720.0 
157.959045 3410.0 
176.107025 502842.0 
192.06543 19560.0 
216.235245 3207.0 
217.133331 49576.0 
298.107056 226739.0 
341.147858 5066.0 
383.159546 79021.0 
END IONS

BEGIN IONS
PRECURSOR_MZ=535.14
INCHI=InChI=1S/C16H12O4/c1-19-12-5-2-10(3-6-12)15-9-14(18)13-7-4-11(17)8-16(13)20-15/h2-9,17H,1H3
SMILES=COc1ccc(-c2cc(=O)c3ccc(O)cc3o2)cc1
SCANS=13820
IONMODE=negative
COMPOUND_NAME=7-Hydroxy-4'-methoxyflavone 2M-H
SPECTRUM_ID=CCMSLIB00006699161
52.926208 2411.0 
91.019257 10260.0 
104.306023 2768.0 
135.009201 16036.0 
153.018784 3903.0 
194.112732 3035.0 
194.940445 4012.0 
223.040802 16745.0 
224.049454 6050.0 
231.191986 2906.0 
252.043091 228310.0 
267.06665 166843.0 
344.322479 2819.0 
356.22525 3055.0 
465.255219 3025.0 
END IONS

BEGIN IONS
PRECURSOR_MZ=255.065
INCHI=InChI=1S/C15H10O4/c16-10-4-1-3-9(7-10)14-8-12(18)15-11(17)5-2-6-13(15)19-14/h1-8,16-17H
SMILES=O=c1cc(-c2cccc(O)c2)oc2cccc(O)c12
SCANS=15003
IONMODE=positive
COMPOUND_NAME=5,3'-Dihydroxyflavone M+H
SPECTRUM_ID=CCMSLIB00006700344
57.07024 3970.0 
57.216068 3102.0 
59.353519 3125.0 
65.039001 6067.0 
66.747398 4103.0 
68.997543 33692.0 
73.544807 2960.0 
81.03376 7820.0 
91.054443 64365.0 
92.381989 3945.0 
95.012993 4808.0 
99.18045 3348.0 
99.305687 3558.0 
101.203911 3241.0 
109.028313 8069.0 
111.044029 6976.0 
119.039963 7107.0 
119.049294 171456.0 
121.028587 13015.0 
137.023499 633034.0 
138.089035 118325.0 
145.028687 86771.0 
153.069916 18971.0 
155.034317 105192.0 
155.048294 8142.0 
165.069656 5737.0 
169.066055 9621.0 
181.064728 92294.0 
187.651062 3706.0 
189.06636 3153.0 
195.137161 5728.0 
199.075867 6901.0 
209.059723 20050.0 
227.070145 136838.0 
237.054657 41214.0 
254.012772 14539.0 
254.056396 7519.0 
255.065216 12213850.0 
255.167145 853859.0 
256.12674 10375.0 
END IONS

BEGIN IONS
PRECURSOR_MZ=373.047
INCHI=InChI=1S/C10H5NO3/c11-5-7-3-6-1-2-8(12)4-9(6)14-10(7)13/h1-4,12H
SMILES=N#Cc1cc2ccc(O)cc2oc1=O
SCANS=3686
IONMODE=negative
COMPOUND_NAME=3-Cyano-7-hydroxycoumarin 2M-H
SPECTRUM_ID=CCMSLIB00006689027
73.967957 3300.0 
84.313927 2228.0 
92.396523 3141.0 
95.571358 2523.0 
107.71907 2135.0 
174.955292 26632.0 
186.019073 149376.0 
304.913269 41696.0 
334.976501 2536.0 
473.448944 2901.0 
END IONS

BEGIN IONS
PRECURSOR_MZ=335.124
INCHI=InChI=1S/C16H18N2O6/c1-16(15(22)23)10-9(13(20)18(2)14(10)21)11(17-16)7-5-4-6-8(24-3)12(7)19/h4-6,9-11,17,19H,1-3H3,(H,22,23)
SMILES=COc1cccc(C2NC(C)(C(=O)O)C3C(=O)N(C)C(=O)C23)c1O
SCANS=10461
IONMODE=positive
COMPOUND_NAME=3-(2-hydroxy-3-methoxyphenyl)-1,5-dimethyl-4,6-dioxo-1,2,3,5,3a,6a-hexahydro-2 ,5-diazapentalenecarboxylic acid M+H
SPECTRUM_ID=CCMSLIB00006695802
53.70322 3777.0 
55.054779 14981.0 
62.89502 3614.0 
70.065483 135729.0 
80.049797 49898.0 
81.033882 4586.0 
82.065331 17651.0 
82.403976 3227.0 
88.039337 19189.0 
88.234154 3597.0 
98.060066 153444.0 
99.04364 7681.0 
103.054176 5443.0 
108.044296 187803.0 
110.036217 4721.0 
111.091904 27558.0 
112.075577 5937.0 
114.054947 8661.0 
125.059303 32391.0 
127.086769 6197.0 
131.049103 82193.0 
137.046967 22282.0 
137.059708 60041.0 
138.054642 8520.0 
140.070251 8521.0 
146.059555 5740.0 
151.074997 13315.0 
152.07048 343826.0 
153.054596 40828.0 
155.08139 1431321.0 
157.064743 5495.0 
157.985123 3661.0 
159.04393 78089.0 
161.059708 28642.0 
162.054901 17609.0 
163.075211 342221.0 
165.065811 500854.0 
166.049301 32851.0 
166.085876 13542.0 
167.081818 48164.0 
170.247375 4158.0 
172.074799 7228.0 
174.091537 6202.0 
176.070435 384595.0 
177.078339 165705.0 
178.086075 113982.0 
179.094666 5202.0 
184.06015 18390.0 
187.075287 201991.0 
189.054459 54230.0 
189.092224 5855.0 
191.070572 34444.0 
192.101959 14489.0 
201.054245 13761.0 
204.101547 213572.0 
205.050079 4962.0 
206.080292 5838.0 
206.116989 6591.0 
211.071182 639003.0 
215.069763 27464.0 
217.048767 17002.0 
217.071747 4506.0 
218.081223 26908.0 
222.075516 38528.0 
223.084091 6568.0 
224.091888 21035.0 
230.080536 18177.0 
232.096375 95720.0 
234.521194 3749.0 
242.079895 4443.0 
248.091354 446812.0 
258.075226 7416.0 
263.13855 148525.0 
266.1008 5573.0 
272.091431 280569.0 
274.093567 5711.0 
289.117889 2808895.0 
291.09726 7702.0 
291.133362 189447.0 
291.507965 3727.0 
320.097382 4380.0 
335.12326 8942296.0 
END IONS

BEGIN IONS
PRECURSOR_MZ=452.138
INCHI=InChI=1S/C25H20FN3O3/c26-18-9-6-10-19(13-18)28-23(30)16-29-22-12-5-4-11-20(22)21(14-24(29)31)25(32)27-15-17-7-2-1-3-8-17/h1-14H,15-16H2,(H,27,32)(H,28,30)
SMILES=O=c1cc(C(O)=NCc2ccccc2)c2ccccc2n1CC(O)=Nc1cccc(F)c1
SCANS=8645
IONMODE=positive
COMPOUND_NAME=N-(3-fluorophenyl)-2-{2-oxo-4-[N-benzylcarbamoyl]hydroquinolyl}acetamide M+Na
SPECTRUM_ID=CCMSLIB00006693986
60.244789 2724.0 
91.054298 27042.0 
104.289452 3867.0 
106.708183 2996.0 
291.11145 10597.0 
319.107086 13317.0 
412.143768 4007.0 
434.126373 6924.0 
445.281769 3716.0 
452.137512 3524314.0 
470.146637 11188.0 
474.11908 3331.0 
END IONS

BEGIN IONS
PRECURSOR_MZ=484.186
INCHI=InChI=1S/C25H32ClNO5/c1-6-7-8-9-32-24(30)20-14(2)27-17-12-25(3,4)13-18(28)22(17)21(20)15-10-16(26)23(29)19(11-15)31-5/h10-11,21,27,29H,6-9,12-13H2,1-5H3
SMILES=CCCCCOC(=O)C1=C(C)NC2=C(C(=O)CC(C)(C)C2)C1c1cc(Cl)c(O)c(OC)c1
SCANS=3448
IONMODE=positive
COMPOUND_NAME=pentyl 4-(3-chloro-4-hydroxy-5-methoxyphenyl)-2,7,7-trimethyl-5-oxo-1,4,6,7,8- pentahydroquinoline-3-carboxylate M+Na
SPECTRUM_ID=CCMSLIB00006688789
56.416908 2704.0 
59.07135 2931.0 
100.977791 2625.0 
104.282303 3061.0 
134.221024 2733.0 
157.966827 3953.0 
162.649109 3145.0 
210.017227 6537.0 
484.185547 3327134.0 
502.197296 25674.0 
END IONS

BEGIN IONS
PRECURSOR_MZ=499.997
INCHI=InChI=1S/C20H16INO5/c1-2-9-22-18(23)15-10-12-7-8-13(11-17(12)27-20(15)25)26-19(24)14-5-3-4-6-16(14)21/h3-8,10-11H,2,9H2,1H3,(H,22,23)
SMILES=CCCNC(=O)c1cc2ccc(OC(=O)c3ccccc3I)cc2oc1=O
SCANS=20003
IONMODE=positive
COMPOUND_NAME=2-oxo-3-(N-propylcarbamoyl)chromen-7-yl 2-iodobenzoate M+Na
SPECTRUM_ID=CCMSLIB00006705344
52.0313 2615.0 
55.155842 3206.0 
73.947769 3602.0 
81.034119 3447.0 
81.962463 2806.0 
92.372307 4025.0 
94.041496 50341.0 
104.276558 3350.0 
118.88076 3237.0 
133.563522 2777.0 
161.618149 3250.0 
165.054977 6571.0 
188.033951 4152.0 
230.929718 116820.0 
499.996155 1274257.0 
END IONS

BEGIN IONS
PRECURSOR_MZ=286.071
INCHI=InChI=1S/C10H13N5O3/c11-9-8-10(13-3-12-9)15(4-14-8)7-1-5(17)6(2-16)18-7/h3-7,16-17H,1-2H2,(H2,11,12,13)/t5-,6+,7+/m0/s1
SMILES=Nc1ncnc2c1ncn2[C@H]1C[C@H](O)[C@@H](CO)O1
SCANS=219
IONMODE=negative
COMPOUND_NAME=2'-deoxyadenosine M+Cl
SPECTRUM_ID=CCMSLIB00006685560
59.0135 135082.0 
67.838203 3143.120117 
68.675697 2804.219971 
69.698502 3181.090088 
79.956902 3309.199951 
92.414101 3344.590088 
99.533401 3232.949951 
99.925797 4075.0 
107.838997 2905.169922 
113.806999 2788.199951 
115.920998 5212.72998 
116.929001 3969.320068 
118.704002 4048.719971 
136.264008 4662.02002 
141.936996 4469.160156 
158.938995 17878.900391 
166.054001 338184.0 
174.934006 6447.620117 
176.919998 2983.919922 
199.852005 25963.199219 
201.979996 3330.120117 
215.845993 17135.800781 
216.854996 3145.899902 
220.725006 2912.810059 
225.867004 14016.400391 
225.979004 19564.599609 
241.899994 3626.659912 
248.604004 2942.5 
285.888 41399.101562 
286.0 13528.5 
286.076996 6952.759766 
END IONS

BEGIN IONS
PRECURSOR_MZ=305.113
INCHI=InChI=1S/C15H16N2O5/c18-13(5-6-14(19)20)17-12(15(21)22)7-9-8-16-11-4-2-1-3-10(9)11/h1-4,8,12,16H,5-7H2,(H,17,18)(H,19,20)(H,21,22)
SMILES=O=C(O)CCC(O)=NC(Cc1c[nH]c2ccccc12)C(=O)O
SCANS=10755
IONMODE=positive
COMPOUND_NAME=2-(3-carboxypropanoylamino)-3-indol-3-ylpropanoic acid M+H
SPECTRUM_ID=CCMSLIB00006696096
55.018391 19100.0 
73.028717 50249.0 
74.024689 2915.0 
79.362823 3032.0 
88.03949 26290.0 
89.800827 3120.0 
92.361008 2914.0 
100.039589 5790.0 
101.023354 298236.0 
118.050034 12051.0 
118.065262 36448.0 
118.635513 3465.0 
119.033234 3313.0 
120.708931 3378.0 
130.06514 777979.0 
132.080719 115273.0 
138.874924 3205.0 
142.064804 32670.0 
143.073441 3976.0 
144.043854 7413.0 
144.08078 87086.0 
146.059998 589220.0 
158.045273 4711.0 
158.085037 3782.0 
159.09166 1092488.0 
160.075653 21931.0 
169.075409 26190.0 
170.045975 5660.0 
170.059937 156499.0 
187.086624 149635.0 
188.070526 2421992.0 
195.091339 4758.0 
196.075989 7586.0 
205.097046 541336.0 
213.102219 42746.0 
214.086914 4240.0 
223.085922 51870.0 
224.070389 4992.0 
232.097137 6795.0 
241.096817 365365.0 
251.082184 3878.0 
259.107452 1680359.0 
269.091736 329592.0 
281.871582 3516.0 
287.102264 907001.0 
305.112671 460703.0 
328.877228 3653.0 
END IONS

BEGIN IONS
PRECURSOR_MZ=208.097
INCHI=InChI=1S/C11H13NO3/c1-8(13)12-10(11(14)15)7-9-5-3-2-4-6-9/h2-6,10H,7H2,1H3,(H,12,13)(H,14,15)/t10-/m0/s1
SMILES=CC(O)=NC(Cc1ccccc1)C(=O)O
SCANS=4967
IONMODE=positive
COMPOUND_NAME=N-Acetyl-L-phenylalanine M+H
SPECTRUM_ID=CCMSLIB00006690308
56.847481 124913.0 
81.486214 127370.0 
103.054932 194150.0 
104.293121 147980.0 
120.08107 66593020.0 
131.049164 708457.0 
145.453888 138636.0 
149.059601 1057689.0 
155.034622 124679.0 
157.690598 119139.0 
157.980408 122266.0 
162.091385 16918806.0 
166.086319 30012672.0 
190.086929 488447.0 
190.899078 128403.0 
199.155457 127289.0 
208.096695 678278.0 
END IONS

BEGIN IONS
PRECURSOR_MZ=420.156
INCHI=InChI=1S/C23H23N3O5/c1-2-9-24-23(29)17-13-22(28)26(18-6-4-3-5-16(17)18)14-21(27)25-15-7-8-19-20(12-15)31-11-10-30-19/h3-8,12-13H,2,9-11,14H2,1H3,(H,24,29)(H,25,27)
SMILES=CCCN=C(O)c1cc(=O)n(CC(O)=Nc2ccc3c(c2)OCCO3)c2ccccc12
SCANS=21830
IONMODE=negative
COMPOUND_NAME=N-(2H,3H-benzo[3,4-e]1,4-dioxin-6-yl)-2-[2-oxo-4-(N-propylcarbamoyl)hydroquino lyl]acetamide M-H
SPECTRUM_ID=CCMSLIB00006707171
59.013432 7713.0 
60.738998 3096.0 
73.950287 3478.0 
80.049911 4442.0 
82.39711 3209.0 
86.060562 4430.0 
92.050247 17898.0 
94.029518 13786.0 
100.076569 10833.0 
103.920479 2873.0 
104.280952 3724.0 
107.037086 2976.0 
115.055344 20017.0 
116.050468 124110.0 
118.029984 6070.0 
121.016747 14806.0 
121.029167 17235.0 
122.024529 72596.0 
123.032417 20394.0 
124.040283 78004.0 
128.050461 562570.0 
130.066101 506878.0 
131.037109 3969.0 
132.045349 11433.0 
134.024124 5016.0 
142.065964 27296.0 
143.0616 5484.0 
144.045334 764929.0 
144.080505 22623.0 
146.024536 38383.0 
146.061005 15633.0 
147.032379 65887.0 
149.011795 45311.0 
149.047943 3730.0 
150.019394 23313.0 
150.055847 156336.0 
155.059738 3301.0 
156.045364 48926.0 
156.068695 36042.0 
157.05307 7024.0 
157.077026 49647.0 
158.048126 187505.0 
158.061142 339972.0 
160.040207 147988.0 
160.076645 4651.0 
164.035278 15487.0 
167.060852 11896.0 
169.07756 5559.0 
172.040329 116251.0 
174.055847 44177.0 
176.034927 16521.0 
176.071533 103876.0 
182.048401 20205.0 
182.345337 3218.0 
183.092926 14718.0 
184.040024 40381.0 
186.057785 4112.0 
190.050842 33335.0 
195.092209 16719.0 
197.108383 62354.0 
199.12381 252424.0 
201.103195 170511.0 
201.124481 7021.0 
202.050659 69487.0 
213.103088 192386.0 
215.118027 27093.0 
216.418839 2976.0 
225.103027 13420.0 
229.097824 318033.0 
231.113449 12426.0 
243.11351 148587.0 
245.092957 175188.0 
269.092712 143774.0 
275.103516 193820.0 
287.103699 12746.0 
309.087921 18001.0 
335.103638 911064.0 
356.523224 2981.0 
420.156433 770767.0 
END IONS

BEGIN IONS
PRECURSOR_MZ=472.142
INCHI=InChI=1S/C27H22ClN3O3/c28-20-9-11-21(12-10-20)29-25(32)17-31-24-8-4-3-7-22(24)23(15-26(31)33)27(34)30-14-13-18-5-1-2-6-19(18)16-30/h1-12,15H,13-14,16-17H2,(H,29,32)
SMILES=O=C(Cn1c(=O)cc(C(=O)N2CCc3ccccc3C2)c2ccccc21)Nc1ccc(Cl)cc1
SCANS=10824
IONMODE=positive
COMPOUND_NAME=N-(4-chlorophenyl)-2-[2-oxo-4-(2-1,2,3,4-tetrahydroisoquinolylcarbonyl)hydroqu inolyl]acetamide M+H
SPECTRUM_ID=CCMSLIB00006696165
53.46666 2863.0 
60.534931 3835.0 
62.962021 3429.0 
69.912163 2864.0 
71.977913 3402.0 
82.393311 3071.0 
95.234932 2930.0 
111.903961 2949.0 
125.435577 2930.0 
130.065186 47414.0 
132.080872 665480.0 
135.116974 3065.0 
146.09639 58763.0 
146.480865 2873.0 
156.045166 4202.0 
157.052933 3195.0 
158.060104 180888.0 
160.075775 43368.0 
186.054916 182507.0 
188.137177 2976.0 
208.014755 12061.0 
270.967804 2940.0 
271.123199 3804.0 
273.137756 10283.0 
289.13385 53746.0 
299.139618 3859.0 
305.128174 162092.0 
315.111755 3767.0 
317.128204 531041.0 
327.134064 4818.0 
343.108765 14530.0 
345.12323 2372992.0 
358.154266 18089.0 
387.008972 3129.0 
472.142212 247412.0 
472.210968 8427.0 
485.766937 3677.0 
END IONS

BEGIN IONS
PRECURSOR_MZ=313.108
INCHI=InChI=1S/C18H18O5/c1-21-14-10-16(22-2)18(17(11-14)23-3)15(20)9-6-12-4-7-13(19)8-5-12/h4-11,19H,1-3H3/b9-6+
SMILES=COc1cc(OC)c(C(=O)C=Cc2ccc(O)cc2)c(OC)c1
SCANS=13336
IONMODE=negative
COMPOUND_NAME=4-Hydroxy-2',4',6'-trimethoxychalcone M-H
SPECTRUM_ID=CCMSLIB00006698677
54.257252 2598.0 
62.891178 2825.0 
65.002823 12159.0 
65.45414 2942.0 
69.455406 2283.0 
82.411781 2682.0 
92.392036 3383.0 
92.995796 3601.0 
93.03447 3709.0 
95.013741 28020.0 
97.029343 5692.0 
102.158241 3207.0 
107.013847 3533.0 
108.021561 32682.0 
109.029381 21795.0 
116.026581 15206.0 
117.0345 118121.0 
119.050293 40077.0 
121.029427 21406.0 
123.00843 5511.0 
124.016647 44190.0 
131.05014 6349.0 
132.020874 3177.0 
132.058212 29973.0 
133.029449 4464.0 
133.06572 39131.0 
134.037994 3503.0 
136.016678 5781.0 
137.024612 25874.0 
137.060654 5956.0 
138.032211 60273.0 
139.039978 110938.0 
140.763824 3043.0 
145.016113 4647.0 
145.029327 139584.0 
147.045288 2880.0 
147.065933 2548.0 
148.010086 11367.0 
149.023895 35555.0 
151.004166 4468.0 
151.039932 5256.0 
153.055389 6695.0 
158.00296 3698.0 
158.037292 15045.0 
159.044678 20022.0 
163.040146 4565.0 
164.01178 39205.0 
165.019455 63410.0 
166.026657 19826.0 
169.06572 2718.0 
176.961105 3863.0 
177.002014 3072.0 
177.019196 69586.0 
179.035034 59527.0 
180.058121 3559.0 
181.066391 3952.0 
191.0354 39983.0 
195.045563 13739.0 
196.001953 23608.0 
196.053391 5357.0 
207.046997 3604.0 
209.061325 3570.0 
211.040863 4493.0 
212.047302 18006.0 
215.072311 4754.0 
221.06073 3656.0 
223.040146 26884.0 
224.047943 25442.0 
225.05603 3710.0 
227.071335 16766.0 
236.048416 4481.0 
237.056137 48987.0 
238.063797 14094.0 
239.035019 63330.0 
239.064285 3984.0 
240.042618 61086.0 
242.985489 3762.0 
249.054779 5409.0 
251.036285 10826.0 
251.071594 15582.0 
252.042877 257533.0 
253.051224 6821.0 
255.066254 84814.0 
255.093918 5345.0 
257.081757 31699.0 
264.042389 4177.0 
265.050415 15223.0 
266.058075 100909.0 
267.039642 4022.0 
267.066254 247645.0 
268.03772 425312.0 
268.983093 2923.0 
279.06778 10769.0 
280.072876 4509.0 
281.081757 140436.0 
282.053955 29625.0 
283.061218 262132.0 
292.983368 17893.0 
297.075043 20591.0 
298.08429 39812.0 
313.108185 1752065.0 
END IONS

BEGIN IONS
PRECURSOR_MZ=362.056
INCHI=InChI=1S/C14H13N5O5S/c1-18-9(6-11(21)19(2)14(18)22)15-10(20)7-25-13-17-16-12(24-13)8-4-3-5-23-8/h3-6H,7H2,1-2H3,(H,15,20)
SMILES=Cn1c(N=C(O)CSc2nnc(-c3ccco3)o2)cc(=O)n(C)c1=O
SCANS=21797
IONMODE=negative
COMPOUND_NAME=N-(1,3-dimethyl-2,6-dioxo(1,3-dihydropyrimidin-4-yl))-2-(5-(2-furyl)(1,3,4-oxa diazol-2-ylthio))acetamide M-H
SPECTRUM_ID=CCMSLIB00006707138
56.06815 2486.0 
57.97525 683528.0 
73.970947 2604.0 
79.688187 2136.0 
92.404938 3471.0 
135.020218 241351.0 
136.242401 2733.0 
158.014359 2550.0 
160.955872 2596.0 
166.992279 603202.0 
179.057785 2967.0 
194.057327 3626.0 
212.851562 2637.0 
347.245483 2576.0 
362.059662 20608.0 
END IONS

BEGIN IONS
PRECURSOR_MZ=262.107
INCHI=InChI=1S/C14H15NO4/c1-3-9-12(16)10-7-8(14(18)19-4-2)5-6-11(10)15-13(9)17/h5-7H,3-4H2,1-2H3,(H2,15,16,17)
SMILES=CCOC(=O)c1ccc2nc(O)c(CC)c(O)c2c1
SCANS=3144
IONMODE=positive
COMPOUND_NAME=ethyl 3-ethyl-4-hydroxy-2-oxohydroquinoline-6-carboxylate M+H
SPECTRUM_ID=CCMSLIB00006688485
61.87244 11012.0 
61.876011 9524.0 
69.033928 19694.0 
78.954979 3948.0 
101.950012 5842.0 
104.270531 4583.0 
104.669662 4670.0 
136.192032 6472.0 
144.079681 8797.0 
154.06543 18165.0 
164.034546 96472.0 
172.075455 223392.0 
189.080261 94236.0 
190.08609 31900.0 
192.066254 20727.0 
197.97496 19963.0 
198.054596 70331.0 
216.06543 708723.0 
218.043839 101005.0 
219.052994 30048.0 
232.060806 26313.0 
234.076035 12120342.0 
244.096146 66910.0 
246.074493 7294.0 
247.087204 17365.0 
262.1073 27665056.0 
END IONS

BEGIN IONS
PRECURSOR_MZ=341.06
INCHI=InChI=1S/C10H11F3N2O5/c11-10(12,13)4-2-15(9(19)14-8(4)18)7-1-5(17)6(3-16)20-7/h2,5-7,16-17H,1,3H2,(H,14,18,19)
SMILES=O=c1nc(O)c(C(F)(F)F)cn1C1CC(O)C(CO)O1
SCANS=19610
IONMODE=negative
COMPOUND_NAME=1-[4-hydroxy-5-(hydroxymethyl)oxolan-2-yl]-5-(trifluoromethyl)-1,3-dihydropyri midine-2,4-dione M+formate
SPECTRUM_ID=CCMSLIB00006704951
89.659241 1928.0 
180.374664 2485.0 
209.229523 8100.0 
211.418213 2591.0 
235.509323 2621.0 
295.054138 48630.0 
END IONS

BEGIN IONS
PRECURSOR_MZ=294.993
INCHI=InChI=1S/C14H10Cl2O3/c15-9-2-1-8(12(16)6-9)5-13(18)11-4-3-10(17)7-14(11)19/h1-4,6-7,17,19H,5H2
SMILES=O=C(Cc1ccc(Cl)cc1Cl)c1ccc(O)cc1O
SCANS=5230
IONMODE=negative
COMPOUND_NAME=2-(2,4-dichlorophenyl)-1-(2,4-dihydroxyphenyl)ethan-1-one M-H
SPECTRUM_ID=CCMSLIB00006690571
51.39254 2546.0 
59.018902 2280.0 
68.994766 2941.0 
75.217987 2382.0 
91.018852 76148.0 
92.377197 4121.0 
104.499611 2468.0 
108.021622 5613.0 
109.021927 2274.0 
109.029572 44915.0 
118.648956 2690.0 
135.008789 274664.0 
136.016495 10529.0 
136.206589 3594.0 
136.932648 2803.0 
142.990097 4170.0 
153.006409 4665.0 
153.019379 87612.0 
158.977432 25156.0 
164.926788 17708.0 
177.541321 2643.0 
184.956375 13398.0 
195.044067 3575.0 
212.197205 3342.0 
215.027267 96911.0 
217.006577 13447.0 
223.039032 3355.0 
226.966263 2810.0 
227.249069 2941.0 
230.986328 79551.0 
231.021652 45869.0 
254.98674 14360.0 
259.016937 734983.0 
274.994507 4398.0 
276.982635 11519.0 
294.993652 2161942.0 
END IONS

BEGIN IONS
PRECURSOR_MZ=565.161
INCHI=InChI=1S/C30H27ClN4O4/c1-18-24(17-27(36)32-28-19(2)33(3)35(30(28)38)22-8-6-5-7-9-22)25-16-23(39-4)14-15-26(25)34(18)29(37)20-10-12-21(31)13-11-20/h5-16H,17H2,1-4H3,(H,32,36)
SMILES=COc1ccc2c(c1)c(CC(O)=Nc1c(C)n(C)n(-c3ccccc3)c1=O)c(C)n2C(=O)c1ccc(Cl)cc1
SCANS=6001
IONMODE=positive
COMPOUND_NAME=N-(2,3-dimethyl-5-oxo-1-phenyl(3-pyrazolin-4-yl))-2-{1-[(4-chlorophenyl)carbon yl]-5-methoxy-2-methylindol-3-yl}acetamide M+Na
SPECTRUM_ID=CCMSLIB00006691342
51.023331 5201.0 
62.64455 3426.0 
65.571808 4031.0 
69.392677 3399.0 
83.060677 16926.0 
85.064087 4132.0 
87.000099 6546.0 
92.393806 6246.0 
98.596313 3954.0 
103.022926 4596.0 
105.024834 3965.0 
105.042412 19847.0 
108.851868 3623.0 
111.139397 3933.0 
132.623871 3947.0 
136.236404 4464.0 
138.994522 1270597.0 
160.02504 8848.0 
161.032104 46831.0 
168.273727 3661.0 
174.091614 16300.0 
196.073273 15917.0 
210.063766 15880.0 
224.079269 8169.0 
225.087326 60127.0 
236.07959 24985.0 
252.074173 102379.0 
253.081894 25737.0 
254.089386 111131.0 
312.07782 21803.0 
411.141937 119760.0 
445.133484 6015.0 
524.092773 24588.0 
550.135071 49338.0 
561.681213 8907.0 
565.16095 12279548.0 
568.673828 9251.0 
END IONS

BEGIN IONS
PRECURSOR_MZ=433.128
INCHI=InChI=1S/C25H20O7/c1-28-17-7-4-15(5-8-17)12-23-24(26)19-10-9-18(14-21(19)32-23)31-25(27)16-6-11-20(29-2)22(13-16)30-3/h4-14H,1-3H3/b23-12-
SMILES=COc1ccc(C=C2Oc3cc(OC(=O)c4ccc(OC)c(OC)c4)ccc3C2=O)cc1
SCANS=23422
IONMODE=positive
COMPOUND_NAME=2-[(4-methoxyphenyl)methylene]-3-oxobenzo[3,4-b]furan-6-yl 3,4-dimethoxybenzoa te M+H
SPECTRUM_ID=CCMSLIB00006708763
53.03651 3799.0 
53.039089 48889.0 
55.018242 4551.0 
65.038933 15008.0 
66.046791 35652.0 
66.735123 2860.0 
67.054329 2705.0 
68.997322 11292.0 
69.033813 10487.0 
77.038887 11473.0 
79.054527 109979.0 
79.54422 2614.0 
81.033836 6701.0 
81.070038 30554.0 
82.041283 5546.0 
91.054352 4564.0 
92.025513 4365.0 
92.367813 3448.0 
94.041428 69990.0 
95.049171 22092.0 
97.027763 4488.0 
98.036263 14347.0 
104.274651 3525.0 
105.03373 6558.0 
107.012306 3405.0 
107.049026 12223.0 
109.028603 26056.0 
109.064781 65242.0 
111.007607 12011.0 
119.618401 2976.0 
121.028587 16140.0 
122.036133 93587.0 
126.031052 45630.0 
130.454636 3060.0 
134.802536 2538.0 
136.195755 3102.0 
137.023315 4297.0 
137.059357 3887.0 
141.054428 10449.0 
154.026291 12533.0 
155.056824 3995.0 
155.070236 87750.0 
165.054611 2111537.0 
166.988541 2733.0 
268.707581 2981.0 
337.922699 3563.0 
433.127258 91981.0 
END IONS

BEGIN IONS
PRECURSOR_MZ=338.107
INCHI=InChI=1S/C19H17N3O/c1-21-16-9-5-3-7-14(16)19(23)22-11-10-13-12-6-2-4-8-15(12)20-17(13)18(21)22/h2-9,18,20H,10-11H2,1H3
SMILES=CN1c2ccccc2C(=O)N2CCc3c([nH]c4ccccc34)C21
SCANS=14759
IONMODE=negative
COMPOUND_NAME=Isoevodiamine M+Cl
SPECTRUM_ID=CCMSLIB00006700100
73.965347 2205.0 
75.890747 2155.0 
83.641388 2244.0 
88.44693 2182.0 
92.393448 3066.0 
104.304604 2518.0 
169.076462 17920.0 
206.314758 2147.0 
270.047424 3294.0 
302.128937 10554.0 
303.592041 2249.0 
END IONS

BEGIN IONS
PRECURSOR_MZ=266.102
INCHI=InChI=1S/C13H15NO5/c1-3-18-12(16)8-14-13(17)10-4-6-11(7-5-10)19-9(2)15/h4-7H,3,8H2,1-2H3,(H,14,17)
SMILES=CCOC(=O)CNC(=O)c1ccc(OC(C)=O)cc1
SCANS=6735
IONMODE=positive
COMPOUND_NAME=ethyl 2-[(4-acetyloxyphenyl)carbonylamino]acetate M+H
SPECTRUM_ID=CCMSLIB00006692076
65.039284 4459.0 
70.029099 19782.0 
72.358803 2613.0 
82.389687 2677.0 
104.274567 3688.0 
114.055138 99159.0 
118.64518 2841.0 
121.028503 3903752.0 
163.039001 1725360.0 
178.049957 12855.0 
192.065979 19136.0 
199.883606 2854.0 
220.060394 172627.0 
248.091843 15300.0 
266.071014 5632.0 
266.102264 113607.0 
END IONS

BEGIN IONS
PRECURSOR_MZ=330.117
INCHI=InChI=1S/C13H17N5O4/c1-13(2)21-8-6(3-19)20-12(9(8)22-13)18-5-17-7-10(14)15-4-16-11(7)18/h4-6,8-9,12,19H,3H2,1-2H3,(H2,14,15,16)/t6-,8-,9-,12-/m1/s1
SMILES=CC1(C)OC2C(CO)OC(n3cnc4c(N)ncnc43)C2O1
SCANS=3295
IONMODE=positive
COMPOUND_NAME=2',3'-O-Isopropylideneadenosine M+Na
SPECTRUM_ID=CCMSLIB00006688636
60.189251 2396.0 
87.977058 89804.0 
88.023758 2820.0 
88.042183 2538.0 
88.974213 3168.0 
88.980476 4845.0 
93.454247 2729.0 
98.786667 2670.0 
106.398537 2854.0 
130.172379 3202.0 
136.210175 3346.0 
142.118378 2784.0 
158.043549 48423.0 
163.486206 2991.0 
167.864609 2568.0 
215.793854 3001.0 
226.229263 2834.0 
265.086548 4122.0 
328.574036 4356.0 
330.116547 5675565.0 
END IONS

BEGIN IONS
PRECURSOR_MZ=184.037
INCHI=InChI=1S/C9H7NO2/c10-7-2-3-8-6(5-7)1-4-9(11)12-8/h1-5H,10H2
SMILES=Nc1ccc2oc(=O)ccc2c1
SCANS=4773
IONMODE=positive
COMPOUND_NAME=6-aminochromen-2-one M+Na
SPECTRUM_ID=CCMSLIB00006690114
56.942871 2857.0 
72.937393 16839.0 
73.938026 2762.0 
82.41201 1929.0 
89.100693 2307.0 
89.857674 1960.0 
90.947868 3573.0 
91.94873 2026.0 
106.942177 2045.0 
113.963966 9638.0 
114.96489 4425.0 
120.904716 2036.0 
141.959152 2535.0 
142.961121 11571.0 
156.975906 4324.0 
159.968918 8102.0 
160.972122 8827.0 
161.880508 1997.0 
165.04248 2037.0 
184.03685 63582.0 
184.0755 11750.0 
END IONS

BEGIN IONS
PRECURSOR_MZ=403.212
INCHI=InChI=1S/C23H30O6/c1-13(24)29-12-19(27)23(28)9-7-17-16-5-4-14-10-15(25)6-8-21(14,2)20(16)18(26)11-22(17,23)3/h10,16-17,20,28H,4-9,11-12H2,1-3H3/t16-,17-,20+,21-,22-,23-/m0/s1
SMILES=CC(=O)OCC(=O)C1(O)CCC2C3CCC4=CC(=O)CCC4(C)C3C(=O)CC21C
SCANS=22847
IONMODE=positive
COMPOUND_NAME=50-04-4 M+H
SPECTRUM_ID=CCMSLIB00006708188
53.03907 5116.0 
53.373211 3077.0 
55.018349 22823.0 
55.054798 14782.0 
61.028759 18084.0 
63.46183 3013.0 
63.918331 3305.0 
67.054604 42149.0 
69.033707 27958.0 
69.070267 27526.0 
71.049507 6127.0 
79.054497 83203.0 
81.033829 18462.0 
81.070061 101562.0 
83.049301 104029.0 
91.054283 93784.0 
93.069923 196914.0 
95.049294 28443.0 
95.085541 54185.0 
97.064819 135293.0 
99.044182 4782.0 
101.023361 37461.0 
103.053726 5464.0 
104.2668 3732.0 
105.069847 319809.0 
107.049187 36603.0 
107.085442 200189.0 
109.064613 39561.0 
109.101097 13359.0 
111.080467 7881.0 
115.05426 14619.0 
117.069733 72349.0 
117.07827 5233.0 
118.628761 5044.0 
119.048813 4039.0 
119.085518 141921.0 
121.064728 391791.0 
121.101112 91485.0 
122.918297 2877.0 
123.043587 5490.0 
123.080421 66563.0 
125.06076 3287.0 
128.061859 15938.0 
129.069748 31387.0 
130.077682 17599.0 
131.085495 71336.0 
131.147812 3419.0 
133.064789 36633.0 
133.100952 58943.0 
135.080368 102104.0 
135.11673 72577.0 
137.060532 3810.0 
137.09642 16501.0 
139.075256 39205.0 
141.069717 14718.0 
142.077805 13799.0 
143.08551 88276.0 
145.064682 22390.0 
145.101105 207325.0 
145.114029 6886.0 
147.080429 104912.0 
147.117096 23493.0 
148.088028 52885.0 
149.060013 3846.0 
149.095901 37839.0 
151.074936 13482.0 
153.069412 4796.0 
153.090515 7029.0 
154.078476 3892.0 
155.08551 47014.0 
156.092606 3955.0 
157.065109 5157.0 
157.100998 54268.0 
159.080307 62611.0 
159.116348 26205.0 
161.060135 6491.0 
161.095901 79533.0 
162.10405 5499.0 
163.076523 23675.0 
163.111649 1127139.0 
165.070145 7099.0 
165.091217 6528.0 
166.078156 4396.0 
167.085938 22555.0 
168.092804 5565.0 
168.805359 3481.0 
169.101288 49507.0 
170.11026 3221.0 
171.080292 34306.0 
171.115982 29799.0 
173.095947 50703.0 
173.132889 14496.0 
175.111526 35297.0 
177.090805 16709.0 
179.069458 7844.0 
179.085037 13297.0 
179.104553 4161.0 
180.093567 5166.0 
181.085327 5039.0 
181.101395 52663.0 
182.109222 7677.0 
183.079926 14261.0 
183.11647 61106.0 
185.096008 43993.0 
185.132172 21156.0 
187.074142 4033.0 
187.111328 30071.0 
189.090912 34076.0 
189.127136 18098.0 
191.106796 5156.0 
192.092484 5649.0 
193.100739 23101.0 
194.108704 6734.0 
195.081757 4790.0 
195.11647 53530.0 
196.124634 5039.0 
197.095932 20385.0 
197.132248 48385.0 
199.111481 44684.0 
199.147827 15371.0 
201.092209 4213.0 
201.127319 17214.0 
203.106888 5834.0 
205.101639 6361.0 
205.121338 3861.0 
206.108429 13463.0 
207.117538 37182.0 
208.124191 5637.0 
209.095718 21876.0 
209.132721 33434.0 
210.10405 4950.0 
211.112045 24487.0 
211.14827 21796.0 
213.127579 27110.0 
215.106201 4385.0 
215.142242 7035.0 
217.122208 6308.0 
218.108902 4800.0 
219.116623 7867.0 
221.133286 31986.0 
223.112534 28982.0 
223.148361 28115.0 
224.119583 7269.0 
225.126923 44105.0 
225.164139 7882.0 
226.134125 6177.0 
227.106689 4044.0 
227.143051 19884.0 
229.122116 7531.0 
231.115982 6508.0 
232.125427 4704.0 
233.130386 5378.0 
235.147003 5925.0 
236.119766 3956.0 
237.127747 22801.0 
237.162949 18331.0 
238.136536 6801.0 
239.142609 54698.0 
240.15062 3977.0 
241.121613 13566.0 
241.158142 52195.0 
242.166458 13524.0 
243.137772 27629.0 
243.169128 4615.0 
247.147537 14893.0 
249.127426 7671.0 
250.134476 4213.0 
251.143204 15332.0 
253.158173 16192.0 
255.138092 17794.0 
255.17421 21890.0 
256.181732 7627.0 
257.152435 19528.0 
258.160736 60997.0 
261.164337 5305.0 
263.141144 4198.0 
265.158325 62470.0 
267.140076 11327.0 
267.174683 27861.0 
269.153076 28937.0 
269.186523 4157.0 
279.17392 22206.0 
281.153412 13159.0 
283.168854 59304.0 
284.176575 24505.0 
285.151428 8776.0 
285.184631 26009.0 
289.158905 15005.0 
295.169037 16281.0 
297.18512 21372.0 
299.164612 34164.0 
301.179016 36858.0 
307.168884 70220.0 
313.179016 42040.0 
315.192566 5893.0 
325.178925 127080.0 
325.219452 6013.0 
331.19278 4654.0 
341.1745 17682.0 
343.189941 449645.0 
357.2052 4089.0 
361.200195 172735.0 
367.188873 12951.0 
376.42392 3813.0 
385.199951 113738.0 
403.210907 2203584.0 
END IONS

BEGIN IONS
PRECURSOR_MZ=247.069
INCHI=InChI=1S/C10H12N2O4/c11-6(10(15)16)4-8(14)5-2-1-3-7(13)9(5)12/h1-3,6,13H,4,11-12H2,(H,15,16)
SMILES=Nc1c(O)cccc1C(=O)CC(N)C(=O)O
SCANS=24194
IONMODE=positive
COMPOUND_NAME=3-Hydroxy-dl-kynurenine M+Na
SPECTRUM_ID=CCMSLIB00006709535
73.425598 1994.319946 
96.005898 71135.101562 
161.460007 2102.570068 
174.052002 85113.0 
230.042007 246934.0 
247.046997 11860.0 
247.069 208852.0 
END IONS

BEGIN IONS
PRECURSOR_MZ=130.05
INCHI=InChI=1S/C5H9NO4/c1-3(7)10-2-4(6)5(8)9/h4H,2,6H2,1H3,(H,8,9)/t4-/m0/s1
SMILES=CC(=O)OC[C@H](N)C(=O)O
SCANS=24177
IONMODE=positive
COMPOUND_NAME=O-acetyl-L-serine M+H-H2O
SPECTRUM_ID=CCMSLIB00006709518
53.464001 2159.72998 
54.761299 1754.410034 
56.050098 132594.0 
60.044998 29512.300781 
81.487099 1826.180054 
82.413002 1971.579956 
84.0448 427622.0 
86.006401 10988.700195 
88.039703 2493.129883 
104.305 2830.050049 
118.665001 2416.949951 
118.676003 2181.429932 
130.050003 114500.0 
132.013 2029.079956 
END IONS

BEGIN IONS
PRECURSOR_MZ=170.06
INCHI=InChI=1S/C11H9NO2/c13-11(14)6-5-8-7-12-10-4-2-1-3-9(8)10/h1-7,12H,(H,13,14)/b6-5+
SMILES=O=C(O)C=Cc1c[nH]c2ccccc12
SCANS=20621
IONMODE=positive
COMPOUND_NAME=3-Indoleacrylic acid M+H-H2O
SPECTRUM_ID=CCMSLIB00006705962
53.480011 2878.0 
55.05476 3099.0 
55.934921 32125.0 
56.965019 2952.0 
60.22168 2936.0 
62.627121 2799.0 
67.054466 3730.0 
69.934372 4004.0 
70.958351 15659.0 
72.937347 31606.0 
78.981728 2513.0 
79.054398 4066.0 
83.085663 4607.0 
87.944801 5771.0 
88.968781 19631.0 
89.940132 3579.0 
90.947952 6879.0 
91.054466 6303.0 
92.049583 29269.0 
93.057358 39876.0 
97.101402 4281.0 
98.975479 4977.0 
105.955078 5738.0 
107.085411 5683.0 
111.460808 3553.0 
113.963493 40048.0 
115.054268 1954054.0 
116.049347 11164.0 
120.465729 3640.0 
122.969116 15405.0 
123.966011 5676.0 
125.095673 4545.0 
128.950699 121699.0 
128.970688 12344.0 
131.973694 25474.0 
134.99614 4914.0 
140.049362 13577.0 
141.057373 6810.0 
141.957855 4095.0 
142.065155 1430104.0 
143.050476 3738.0 
145.467636 17787.0 
146.961304 81925.0 
146.981842 23049.0 
148.976913 15817.0 
155.415588 2865.0 
161.059204 6664.0 
169.089432 3468.0 
169.487671 5013.0 
170.059967 5101969.0 
170.635361 3750.0 
215.156845 4277.0 
319.085785 2917.0 
END IONS

BEGIN IONS
PRECURSOR_MZ=218.093
INCHI=InChI=1S/C11H13N3O2/c1-13(2)7-8-6-12-11-5-9(14(15)16)3-4-10(8)11/h3-6,12H,7H2,1-2H3
SMILES=CN(C)Cc1c[nH]c2cc([N+](=O)[O-])ccc12
SCANS=7346
IONMODE=negative
COMPOUND_NAME=dimethyl[(6-nitroindol-3-yl)methyl]amine M-H
SPECTRUM_ID=CCMSLIB00006692687
60.951591 3506.0 
73.968536 3083.0 
74.729973 3318.0 
88.189789 3017.0 
99.925751 5616.0 
102.051743 3772.0 
118.676918 4367.0 
127.870644 6186.0 
144.04512 19985.0 
150.071548 3729.0 
159.860168 96247.0 
172.866577 3124.0 
173.035431 13451.0 
174.043579 2163677.0 
175.051331 213229.0 
175.068954 5112.0 
176.022476 7715.0 
191.046173 68575.0 
197.20517 3372.0 
200.852722 4500.0 
202.062561 12935.0 
205.861893 3770.0 
206.033508 2325979.0 
208.037796 6332.0 
218.093628 10460288.0 
END IONS

BEGIN IONS
PRECURSOR_MZ=540.224
INCHI=InChI=1S/C28H33NO7/c1-16-9-8-12-19-23-27(4,35-23)17(2)21-20(15-18-10-6-5-7-11-18)29-24(31)28(19,21)36-25(32)34-14-13-26(3,33)22(16)30/h5-8,10-14,16-17,19-21,23,33H,9,15H2,1-4H3,(H,29,31)/b12-8+,14-13+/t16-,17-,19-,20-,21-,23-,26-,27+,28+/m0/s1
SMILES=CC1CC=CC2C3OC3(C)C(C)C3C(Cc4ccccc4)N=C(O)C23OC(=O)OC=CC(C)(O)C1=O
SCANS=20952
IONMODE=negative
COMPOUND_NAME=CCG-208187 M+formate
SPECTRUM_ID=CCMSLIB00006706293
50.515259 2525.0 
67.703308 2319.0 
69.118141 2314.0 
104.292442 2652.0 
125.060333 2538.0 
136.218582 3388.0 
231.335449 2928.0 
277.481171 2753.0 
500.243774 2980.0 
END IONS

BEGIN IONS
PRECURSOR_MZ=321.065
INCHI=InChI=1S/C13H12N4O4S/c18-8-3-1-2-7(4-8)16-13(22)17(15-14-16)9-5-10(19)12-20-6-11(9)21-12/h1-4,9,11-12,18H,5-6H2/t9-,11+,12+/m0/s1
SMILES=O=C1CC(n2nnn(-c3cccc(O)c3)c2=S)C2COC1O2
SCANS=23548
IONMODE=positive
COMPOUND_NAME=(4S,5S,1R)-4-[4-(3-hydroxyphenyl)-5-thioxo(1,2,3,4-tetraazolinyl)]-7,8-dioxabi cyclo[3.2.1]octan-2-one M+H
SPECTRUM_ID=CCMSLIB00006708889
53.03907 2283.0 
55.01828 5713.0 
65.039017 3470.0 
69.033836 2384.0 
71.049408 3430.0 
80.049637 20807.0 
81.033791 10615.0 
81.057487 4117.0 
82.400726 2395.0 
97.028442 217833.0 
108.044327 15827.0 
109.052193 81469.0 
111.043968 14626.0 
121.039368 9864.0 
127.039131 3164.0 
134.047379 75297.0 
134.058868 3968.0 
139.032455 23951.0 
152.016235 47738.0 
167.027023 68372.0 
195.03334 370938.0 
228.972351 2372.0 
321.064606 205727.0 
321.130798 12744.0 
321.167542 14453.0 
329.596649 3582.0 
END IONS

BEGIN IONS
PRECURSOR_MZ=490.259
INCHI=InChI=1S/C30H37NO6/c1-17-10-9-13-22-26(33)19(3)18(2)25-23(16-21-11-7-6-8-12-21)31-28(35)30(22,25)24(37-20(4)32)14-15-29(5,36)27(17)34/h6-9,11-15,17-18,22-26,33,36H,3,10,16H2,1-2,4-5H3,(H,31,35)/b13-9+,15-14+/t17-,18+,22-,23-,24+,25-,26+,29-,30+/m0/s1
SMILES=C=C1C(C)C2C(Cc3ccccc3)N=C(O)C23C(OC(C)=O)C=CC(C)(O)C(=O)C(C)CC=CC3C1O
SCANS=21600
IONMODE=positive
COMPOUND_NAME=BSPBio_000981 M+H-H2O
SPECTRUM_ID=CCMSLIB00006706941
53.03907 4876.0 
55.018421 4807.0 
55.054691 16497.0 
62.707859 3420.0 
65.038979 24150.0 
66.736588 3484.0 
67.054573 34687.0 
69.034019 14314.0 
69.070267 25082.0 
71.996338 3074.0 
79.054489 72956.0 
81.070168 58667.0 
83.049271 27123.0 
85.064987 7872.0 
85.368973 3355.0 
91.054337 693675.0 
93.069923 115454.0 
94.065086 3812.0 
95.049316 4981.0 
95.085648 35272.0 
103.05423 88679.0 
105.0336 5109.0 
105.069839 243194.0 
106.064857 5985.0 
107.048866 5464.0 
107.085518 50253.0 
109.064682 33595.0 
109.101051 6651.0 
111.080658 6453.0 
115.054237 36021.0 
116.062103 7803.0 
117.056892 7282.0 
117.069847 115184.0 
118.065727 5786.0 
119.049179 3312.0 
119.085503 112809.0 
119.841629 3619.0 
120.080742 653169.0 
121.064903 43438.0 
121.101013 32511.0 
122.059517 5922.0 
123.080421 17504.0 
128.049423 67286.0 
128.061996 34532.0 
129.069763 71359.0 
130.065811 4441.0 
130.077835 15259.0 
131.085403 91166.0 
132.04422 4647.0 
132.080551 47846.0 
133.064728 18757.0 
133.101166 50515.0 
134.059128 5719.0 
134.096176 8173.0 
135.080414 58606.0 
135.116821 7731.0 
141.069794 34656.0 
142.077515 34651.0 
143.085342 108339.0 
144.081253 12164.0 
145.064728 13174.0 
145.101151 65083.0 
146.060028 142523.0 
147.080429 41103.0 
147.116821 4556.0 
149.059891 28205.0 
149.096069 88372.0 
152.062622 4490.0 
153.070099 22666.0 
154.077576 21717.0 
155.085571 77825.0 
156.093414 23418.0 
157.101089 105735.0 
158.060043 5276.0 
158.072998 5872.0 
159.080704 47341.0 
159.117142 19887.0 
160.075958 14815.0 
161.082458 5207.0 
161.095947 40315.0 
162.091461 4542.0 
163.112137 6913.0 
165.070038 43273.0 
166.078064 32471.0 
167.08548 72112.0 
168.093613 20389.0 
169.101028 128930.0 
170.109558 5732.0 
171.080215 23600.0 
171.116287 39989.0 
172.074341 26096.0 
172.089737 5173.0 
173.096252 19310.0 
173.132065 4844.0 
174.091705 7473.0 
175.112137 4819.0 
177.078323 4310.0 
178.078369 17694.0 
179.085464 81265.0 
180.093903 50474.0 
181.064941 5916.0 
181.100952 112838.0 
181.118042 5834.0 
182.109451 19186.0 
183.080215 28294.0 
183.117142 59925.0 
184.089859 4679.0 
185.0961 52012.0 
185.132751 8861.0 
186.091232 16892.0 
187.044022 4156.0 
187.112396 14266.0 
191.085403 17366.0 
192.093216 37171.0 
193.101105 123618.0 
194.109665 75333.0 
195.080353 17253.0 
195.116898 143499.0 
196.074615 6936.0 
196.1259 5728.0 
197.097229 43712.0 
197.133331 26852.0 
198.090118 35921.0 
199.077118 3649.0 
199.112411 31970.0 
199.148132 18362.0 
200.105759 28293.0 
203.085541 22215.0 
204.09343 17531.0 
205.100815 40311.0 
206.108521 68729.0 
207.080444 5188.0 
207.116837 117018.0 
208.087799 24127.0 
208.12529 79687.0 
209.095825 29268.0 
209.132599 104714.0 
209.717545 8311.0 
210.091492 26786.0 
210.141357 5205.0 
211.113953 25728.0 
211.148895 20853.0 
212.105408 32530.0 
213.128998 8075.0 
214.086823 4190.0 
214.122437 5488.0 
216.095154 4525.0 
217.101013 52543.0 
218.109406 35355.0 
219.080261 5983.0 
219.116974 39250.0 
220.126373 46753.0 
221.097 32776.0 
221.132263 70594.0 
222.1035 25651.0 
222.141998 46020.0 
223.114105 50660.0 
223.1483 54355.0 
224.105835 7816.0 
225.126663 17346.0 
225.163757 6869.0 
226.085709 4448.0 
226.122284 15423.0 
227.142365 20703.0 
227.18045 5610.0 
228.137741 55194.0 
229.101837 12714.0 
230.109711 7280.0 
231.117355 16619.0 
232.12558 57172.0 
233.096466 4800.0 
233.132065 45562.0 
234.104156 8338.0 
234.13858 6295.0 
235.113159 44875.0 
235.147552 42055.0 
236.12175 64637.0 
237.125763 31931.0 
237.163467 85773.0 
238.121902 171442.0 
239.142822 8306.0 
239.178345 4280.0 
240.097763 5378.0 
240.138306 4112.0 
243.116226 7062.0 
245.131439 14258.0 
247.110474 7120.0 
247.147827 57738.0 
248.118057 18152.0 
248.154129 8319.0 
249.12558 15722.0 
249.163452 16198.0 
250.127182 28046.0 
250.161026 7215.0 
251.142395 30596.0 
252.137665 4598.0 
253.15799 8050.0 
254.117447 20069.0 
255.174026 23997.0 
256.133026 168477.0 
257.132263 5575.0 
260.145416 6413.0 
261.126678 19536.0 
263.141785 22227.0 
264.13916 15296.0 
265.157959 143378.0 
265.188141 6371.0 
267.172882 38489.0 
268.132812 15294.0 
274.122833 5309.0 
275.13974 5095.0 
276.142334 4863.0 
278.155304 21812.0 
280.136597 4167.0 
280.16925 5439.0 
282.147461 14960.0 
283.168549 28445.0 
288.138031 19536.0 
290.15332 14425.0 
292.131897 4805.0 
292.168915 6972.0 
294.149445 5501.0 
302.154114 6959.0 
304.17041 4655.0 
306.147339 7603.0 
308.164368 17952.0 
310.16153 6787.0 
311.168488 4685.0 
314.154419 7575.0 
318.184967 14030.0 
320.163666 16249.0 
321.170105 3918.0 
326.152588 6193.0 
328.169708 40653.0 
330.187439 4331.0 
341.226288 5428.0 
346.176819 34797.0 
346.219971 7552.0 
347.18515 8778.0 
356.197815 5106.0 
366.221649 6089.0 
369.220276 8277.0 
370.215607 17820.0 
372.196075 15663.0 
374.207642 91495.0 
384.23172 103677.0 
388.227905 67318.0 
394.216064 23576.0 
402.241974 464835.0 
412.226471 364425.0 
430.236938 1980217.0 
448.24646 15256.0 
472.248444 36394.0 
490.259735 17220.0 
END IONS

BEGIN IONS
PRECURSOR_MZ=639.245
INCHI=InChI=1S/C17H20O6/c1-9(5-7-13(18)19)4-6-11-15(20)14-12(8-23-17(14)21)10(2)16(11)22-3/h4,20H,5-8H2,1-3H3,(H,18,19)/b9-4+
SMILES=COc1c(C)c2c(c(O)c1CC=C(C)CCC(=O)O)C(=O)OC2
SCANS=15411
IONMODE=negative
COMPOUND_NAME=mycophenolic acid 2M-H
SPECTRUM_ID=CCMSLIB00006700752
52.328941 2886.0 
60.28545 2941.0 
79.348717 3543.0 
88.006027 2491.0 
92.382881 3024.0 
92.903976 2770.0 
96.796608 3091.0 
116.829147 3061.0 
128.943176 2787.0 
134.48967 2783.0 
153.216751 2812.0 
188.368469 3390.0 
191.035522 6342.0 
319.118561 30359.0 
319.283783 3262.0 
335.419342 2632.0 
394.662598 2944.0 
END IONS

BEGIN IONS
PRECURSOR_MZ=607.266
INCHI=InChI=1S/C33H40N2O9/c1-38-19-7-8-20-21-9-10-35-16-18-13-27(44-32(36)17-11-25(39-2)30(41-4)26(12-17)40-3)31(42-5)28(33(37)43-6)22(18)15-24(35)29(21)34-23(20)14-19/h7-8,11-12,14,18,22,24,27-28,31,34H,9-10,13,15-16H2,1-6H3/t18-,22+,24-,27-,28+,31+/m1/s1
SMILES=COC(=O)C1C2CC3c4[nH]c5cc(OC)ccc5c4CCN3CC2CC(OC(=O)c2cc(OC)c(OC)c(OC)c2)C1OC
SCANS=8539
IONMODE=negative
COMPOUND_NAME=reserpine M-H
SPECTRUM_ID=CCMSLIB00006693880
64.906418 3222.0 
65.002747 6145.0 
81.034203 6100.0 
84.128357 3277.0 
92.380943 3878.0 
93.034348 14550.0 
95.013283 6013.0 
108.864159 3639.0 
109.029282 33620.0 
110.000908 4338.0 
120.992981 8684.0 
123.008003 25266.0 
125.024246 3607.0 
125.995308 6926.0 
136.986908 3567.0 
137.02417 239767.0 
137.060547 6895.0 
137.995911 15585.0 
139.002899 8167.0 
141.019119 3983.0 
153.01918 76563.0 
153.055603 193027.0 
155.034653 64728.0 
166.99852 8940.0 
168.04277 4579.0 
181.01413 286830.0 
182.022202 33385.0 
196.037186 24072.0 
197.045441 86772.0 
198.080017 13995.0 
211.06102 436628.0 
213.102417 5469.0 
236.094452 5849.0 
249.102829 5130.0 
261.289886 4012.0 
316.121704 16897.0 
331.143494 5422.0 
348.148132 17623.0 
349.155151 8325.0 
379.165222 4575.0 
380.173615 96157.0 
395.196869 5356.0 
397.949158 3515.0 
543.21344 4921.0 
549.223511 13087.0 
575.239014 8272.0 
577.218628 169600.0 
591.235779 6227.0 
592.242676 636910.0 
607.266357 4799538.0 
608.263489 5566.0 
END IONS

BEGIN IONS
PRECURSOR_MZ=381.193
INCHI=InChI=1S/C46H52N2O8/c1-23(2)35-31-19-25(5)37(43(51)39(31)33(41(49)45(35)53)21-47-27(7)13-15-29-11-9-17-55-29)38-26(6)20-32-36(24(3)4)46(54)42(50)34(40(32)44(38)52)22-48-28(8)14-16-30-12-10-18-56-30/h9-12,17-24,27-28,47-48,51-54H,13-16H2,1-8H3/b33-21-,34-22-
SMILES=Cc1cc2c(c(O)c1-c1c(C)cc3c(c1O)C(=CNC(C)CCc1ccco1)C(=O)C(O)=C3C(C)C)C(=CNC(C)CCc1ccco1)C(=O)C(O)=C2C(C)C
SCANS=23020
IONMODE=positive
COMPOUND_NAME=1-{[(3-(2-furyl)-1-methylpropyl)amino]methylene}-7-(8-{[(3-(2-furyl)-1-methylp ropyl)amino]methylene}-1,6-dihydroxy-3-methyl-5-(methylethyl)-7-oxo(2-naphthyl ))-3,8-dihydroxy-6-methyl-4-(methylethyl)naphthalen-2-one M+2H]
SPECTRUM_ID=CCMSLIB00006708361
53.03904 78534.0 
55.054649 24788.0 
63.514191 2677.0 
67.054581 59142.0 
70.451393 2974.0 
73.95034 2979.0 
79.054352 5764.0 
80.049568 4746.0 
81.033691 1128719.0 
81.070023 14361.0 
82.036957 24459.0 
84.044777 4087.0 
91.054153 5817.0 
92.376968 3500.0 
93.069939 31580.0 
95.049187 11002.0 
95.085457 106798.0 
105.070312 5512.0 
110.095871 3295.0 
122.096413 4064.0 
123.080139 84392.0 
138.090897 15443.0 
140.106644 48769.0 
157.973999 3120.0 
183.922684 2963.0 
185.096115 3548.0 
189.054443 4532.0 
199.075104 11308.0 
201.797989 2818.0 
213.090469 5603.0 
214.061417 43317.0 
227.070129 45247.0 
228.076035 3202.0 
235.583374 3819.0 
241.087158 4117.0 
241.603348 3856.0 
242.092926 24025.0 
243.097595 25425.0 
250.606186 16263.0 
258.112061 6863.0 
259.118896 21398.0 
260.128906 3499.0 
311.641754 14617.0 
312.65271 6606.0 
320.155762 11536.0 
372.189911 5595.0 
372.678864 3994.0 
381.192535 1734268.0 
381.694061 410528.0 
407.125092 4495.0 
413.130951 3448.0 
425.136566 16931.0 
429.156708 3624.0 
437.171783 13200.0 
440.122162 12137.0 
441.12616 13675.0 
441.180908 4402.0 
450.146179 3644.0 
453.131653 55328.0 
454.139313 6651.0 
458.164062 13044.0 
465.167114 21602.0 
467.149536 13883.0 
468.155243 120104.0 
469.157806 14578.0 
470.165833 5999.0 
473.193756 23689.0 
482.167572 3020.0 
483.178802 346516.0 
484.183136 49243.0 
485.192505 18082.0 
500.205994 41775.0 
612.300659 4515.0 
622.278687 23616.0 
624.286316 5275.0 
END IONS

BEGIN IONS
PRECURSOR_MZ=362.1
INCHI=InChI=1S/C19H17NO5/c1-23-16-8-11(9-17(24-2)18(16)25-3)15(21)10-13-12-6-4-5-7-14(12)20-19(13)22/h4-10H,1-3H3,(H,20,22)/b13-10-
SMILES=COc1cc(C(=O)C=C2C(O)=Nc3ccccc32)cc(OC)c1OC
SCANS=18276
IONMODE=positive
COMPOUND_NAME=3-[2-oxo-2-(3,4,5-trimethoxyphenyl)ethylidene]-1H-benzo[d]azolidin-2-one M+Na
SPECTRUM_ID=CCMSLIB00006703617
66.739563 2714.0 
71.556427 2205.0 
72.633041 2367.0 
76.034264 2270.0 
82.393372 2684.0 
92.37117 3262.0 
118.644279 2617.0 
244.562698 2261.0 
251.728073 2462.0 
362.099487 798097.0 
END IONS

BEGIN IONS
PRECURSOR_MZ=348.121
INCHI=InChI=1S/C19H19NO4/c1-13(21)20-16-8-6-15(7-9-16)17(22)10-4-14-5-11-18(23-2)19(12-14)24-3/h4-12H,1-3H3,(H,20,21)/b10-4+
SMILES=COc1ccc(C=CC(=O)c2ccc(N=C(C)O)cc2)cc1OC
SCANS=19234
IONMODE=positive
COMPOUND_NAME=N-{4-[(2E)-3-(3,4-dimethoxyphenyl)prop-2-enoyl]phenyl}acetamide M+Na
SPECTRUM_ID=CCMSLIB00006704575
78.937286 2475.0 
82.415642 2965.0 
92.396431 2422.0 
141.778961 2840.0 
142.240143 2258.0 
166.170303 2430.0 
272.655487 2829.0 
307.11319 2598.0 
333.096588 3282.0 
348.120056 2327674.0 
354.261139 2874.0 
END IONS

BEGIN IONS
PRECURSOR_MZ=352.079
INCHI=InChI=1S/C17H12F3NO4/c18-17(19,20)25-13-8-6-12(7-9-13)21-14(16(23)24)10-15(22)11-4-2-1-3-5-11/h1-10,21H,(H,23,24)/b14-10-
SMILES=O=C(O)C(=CC(=O)c1ccccc1)Nc1ccc(OC(F)(F)F)cc1
SCANS=22750
IONMODE=positive
COMPOUND_NAME=(2Z)-4-oxo-4-phenyl-2-{[4-(trifluoromethoxy)phenyl]amino}but-2-enoic acid M+H
SPECTRUM_ID=CCMSLIB00006708091
50.015709 5623.0 
51.023399 25781.0 
53.039108 172887.0 
55.018379 3133.0 
68.994766 3695.0 
75.135094 3173.0 
77.03907 19737.0 
79.253357 2834.0 
81.033897 23700.0 
83.391617 2893.0 
84.424606 2827.0 
91.054428 3115.0 
95.049278 81040.0 
103.054268 359769.0 
105.033546 2565742.0 
134.040237 13994.0 
144.080475 3286.0 
165.070587 6504.0 
171.313644 2991.0 
173.020737 5687.0 
173.864075 2861.0 
176.031677 261520.0 
191.072739 39506.0 
200.031921 36160.0 
202.065491 4599.0 
204.026993 42037.0 
209.083389 21658.0 
218.042542 30631.0 
219.068222 17008.0 
220.076614 6317.0 
222.036575 14177.0 
228.02655 81231.0 
230.043411 3467.0 
246.036987 223908.0 
275.822876 3216.0 
278.078003 11885.0 
288.062683 98204.0 
306.073334 275779.0 
334.068115 371423.0 
352.078735 980968.0 
END IONS

BEGIN IONS
PRECURSOR_MZ=320.137
INCHI=InChI=1S/C17H19N3O2/c1-13-2-3-15-14(11-17(21)22-16(15)10-13)12-20-8-6-19(5-4-18)7-9-20/h2-3,10-11H,5-9,12H2,1H3
SMILES=Cc1ccc2c(CN3CCN(CC#N)CC3)cc(=O)oc2c1
SCANS=4491
IONMODE=positive
COMPOUND_NAME=2-{4-[(7-methyl-2-oxochromen-4-yl)methyl]piperazinyl}ethanenitrile M+Na
SPECTRUM_ID=CCMSLIB00006689832
55.084068 2841.0 
62.444 2561.0 
70.065308 16522.0 
73.611847 2551.0 
77.104553 2826.0 
97.076042 153657.0 
98.067627 2652.0 
104.29937 2942.0 
120.065826 28538.0 
136.218262 2737.0 
159.066177 3788.0 
196.049744 28457.0 
197.057419 5353.0 
209.228027 2776.0 
271.143799 168557.0 
293.125488 312274.0 
303.830963 3431.0 
311.136108 63520.0 
320.136444 4524065.0 
334.15152 11639.0 
END IONS

BEGIN IONS
PRECURSOR_MZ=448.064
INCHI=InChI=1S/C22H16ClN5O2S/c1-13-17(26-21(30-13)14-7-9-15(23)10-8-14)11-31-22-27-18-19(24-12-25-20(18)29)28(22)16-5-3-2-4-6-16/h2-10,12H,11H2,1H3,(H,24,25,29)
SMILES=Cc1oc(-c2ccc(Cl)cc2)nc1CSc1nc2c(O)ncnc2n1-c1ccccc1
SCANS=7156
IONMODE=negative
COMPOUND_NAME=8-{[2-(4-chlorophenyl)-5-methyl(1,3-oxazol-4-yl)]methylthio}-9-phenylhydropuri n-6-one M-H
SPECTRUM_ID=CCMSLIB00006692497
50.209869 2696.0 
57.975201 50801.0 
58.382332 3396.0 
66.74366 3324.0 
74.586937 3241.0 
91.294693 2735.0 
92.025017 4804.0 
92.384323 3480.0 
104.288208 5199.0 
109.655746 2971.0 
118.65892 3305.0 
141.046036 87352.0 
173.017517 3938.0 
183.04422 58872.0 
184.052383 17836.0 
211.06282 231488.0 
228.612122 2715.0 
241.019363 204004.0 
241.04686 7717.0 
242.0271 2360262.0 
243.034805 753575.0 
243.056137 16764.0 
302.948639 2928.0 
378.045074 3007.0 
405.056274 6667.0 
448.064575 924918.0 
END IONS

BEGIN IONS
PRECURSOR_MZ=206.082
INCHI=InChI=1S/C11H13NO3/c1-8(13)12-10(11(14)15)7-9-5-3-2-4-6-9/h2-6,10H,7H2,1H3,(H,12,13)(H,14,15)/t10-/m0/s1
SMILES=CC(O)=NC(Cc1ccccc1)C(=O)O
SCANS=4966
IONMODE=negative
COMPOUND_NAME=N-Acetyl-L-phenylalanine M-H
SPECTRUM_ID=CCMSLIB00006690307
58.029339 9465385.0 
66.751587 155025.0 
70.029488 5497853.0 
72.008873 758355.0 
72.096481 145010.0 
79.15844 156739.0 
91.055168 2347204.0 
92.39193 173189.0 
92.777573 138392.0 
104.303612 188743.0 
147.045227 12894053.0 
147.198013 195782.0 
157.99202 176553.0 
162.092377 817590.0 
164.071869 50257144.0 
206.082367 32353418.0 
END IONS

BEGIN IONS
PRECURSOR_MZ=835.298
INCHI=InChI=1S/C24H22N2O5/c1-14(27)20-21(15-7-9-16(10-8-15)24(30)31-2)26(23(29)22(20)28)12-11-17-13-25-19-6-4-3-5-18(17)19/h3-10,13,21,25,28H,11-12H2,1-2H3
SMILES=COC(=O)c1ccc(C2C(C(C)=O)=C(O)C(=O)N2CCc2c[nH]c3ccccc23)cc1
SCANS=18932
IONMODE=negative
COMPOUND_NAME=methyl 4-[3-acetyl-4-hydroxy-1-(2-indol-3-ylethyl)-5-oxo-3-pyrrolin-2-yl]benzo ate 2M-H
SPECTRUM_ID=CCMSLIB00006704273
64.005692 3309.0 
65.150139 2931.0 
66.304749 3321.0 
68.189438 3810.0 
74.948311 3329.0 
107.704987 3470.0 
116.628433 3923.0 
147.045517 5841.0 
160.053299 5905.0 
161.060562 28936.0 
175.075867 5441.0 
188.047836 46282.0 
189.056 27263.0 
200.03595 6010.0 
203.071686 5632.0 
207.673676 25947.0 
283.521149 3439.0 
303.223846 6546.0 
327.822479 3600.0 
402.454346 3548.0 
417.145508 373707.0 
525.88092 3702.0 
END IONS

BEGIN IONS
PRECURSOR_MZ=275.068
INCHI=InChI=1S/C16H12O3/c1-18-12-6-4-5-11(9-12)16-10-14(17)13-7-2-3-8-15(13)19-16/h2-10H,1H3
SMILES=COc1cccc(-c2cc(=O)c3ccccc3o2)c1
SCANS=1255
IONMODE=positive
COMPOUND_NAME=3'-Methoxyflavone M+Na
SPECTRUM_ID=CCMSLIB00006686596
104.278084 2137.0 
113.929863 2550.0 
178.168503 2420.0 
179.171204 2456.0 
210.950836 8469.0 
219.992737 2271.0 
260.914825 2546.0 
275.067322 408347.0 
275.161469 14892.0 
275.19693 4567.0 
275.265503 9081.0 
293.0784 11038.0 
END IONS

BEGIN IONS
PRECURSOR_MZ=425.1
INCHI=InChI=1S/C24H18O6/c1-27-17-7-3-15(4-8-17)13-22-23(25)20-12-11-19(14-21(20)30-22)29-24(26)16-5-9-18(28-2)10-6-16/h3-14H,1-2H3/b22-13-
SMILES=COc1ccc(C=C2Oc3cc(OC(=O)c4ccc(OC)cc4)ccc3C2=O)cc1
SCANS=19479
IONMODE=positive
COMPOUND_NAME=2-[(4-methoxyphenyl)methylene]-3-oxobenzo[3,4-b]furan-6-yl 4-methoxybenzoate M+Na
SPECTRUM_ID=CCMSLIB00006704820
54.497219 2745.0 
60.736069 2073.0 
66.744339 2381.0 
85.959976 2170.0 
90.976646 14383.0 
119.848396 2051.0 
164.535599 2335.0 
220.93483 13204.0 
248.250549 2310.0 
288.921265 4674.0 
291.615295 2648.0 
425.099152 119907.0 
END IONS

BEGIN IONS
PRECURSOR_MZ=281.081
INCHI=InChI=1S/C17H12O4/c1-17(2,20)9-8-10-6-7-13-14-11(10)4-3-5-12(14)15(18)21-16(13)19/h3-7,20H,1-2H3
SMILES=CC(C)(O)C#Cc1ccc2c3c(cccc13)C(=O)OC2=O
SCANS=10406
IONMODE=positive
COMPOUND_NAME=8-(3-Hydroxy-3-methylbut-1-ynyl)-3-oxatricyclo[7.3.1.05,13]trideca-1(12),5(13),6,8,10-pentaene-2,4-dione M+H
SPECTRUM_ID=CCMSLIB00006695747
56.687859 3106.0 
62.397301 3146.0 
69.033539 4024.0 
69.276428 2793.0 
91.636047 2819.0 
104.267921 4251.0 
110.21003 3198.0 
111.080627 2799.0 
118.633408 3401.0 
136.186539 3839.0 
139.05452 12437.0 
141.069305 6380.0 
152.061966 5015.0 
153.069321 5521.0 
165.06955 41495.0 
166.07811 21492.0 
167.085373 206974.0 
169.065399 5016.0 
179.048584 61408.0 
179.063721 3957.0 
179.08519 15521.0 
181.065094 4788.0 
181.100494 11916.0 
182.073227 5963.0 
183.08017 5132.0 
190.092514 2698.0 
191.085953 22380.0 
193.064301 98743.0 
194.070831 24335.0 
195.045242 24193.0 
195.080261 13606.0 
197.059845 3178.0 
197.096603 3099.0 
198.067688 23116.0 
199.038208 14594.0 
207.080078 14257.0 
209.059158 6634.0 
209.095398 40610.0 
210.068039 32506.0 
211.075912 27108.0 
213.827362 3794.0 
219.079956 20159.0 
221.059509 5455.0 
222.068741 11714.0 
223.038773 511030.0 
224.047241 4267.0 
225.090515 19614.0 
226.061783 19986.0 
235.07402 37191.0 
237.051941 21711.0 
237.091232 53728.0 
238.062241 83275.0 
239.070068 67098.0 
253.08551 367877.0 
263.06839 22457.0 
266.056824 155351.0 
281.080353 5827734.0 
END IONS

BEGIN IONS
PRECURSOR_MZ=176.071
INCHI=InChI=1S/C10H9NO2/c12-10(13)5-7-6-11-9-4-2-1-3-8(7)9/h1-4,6,11H,5H2,(H,12,13)
SMILES=O=C(O)Cc1c[nH]c2ccccc12
SCANS=9236
IONMODE=positive
COMPOUND_NAME=indole-3-acetic acid M+H
SPECTRUM_ID=CCMSLIB00006694577
62.51223 49484.0 
76.271606 51199.0 
92.355232 49968.0 
130.065292 42523836.0 
176.070572 6543423.0 
END IONS

BEGIN IONS
PRECURSOR_MZ=144.044
INCHI=InChI=1S/C9H7NO2/c11-9(12)7-5-10-8-4-2-1-3-6(7)8/h1-5,10H,(H,11,12)
SMILES=O=C(O)c1c[nH]c2ccccc12
SCANS=22032
IONMODE=positive
COMPOUND_NAME=Indole-3-carboxylic acid M+H-H2O
SPECTRUM_ID=CCMSLIB00006707373
53.039242 3121.0 
55.018242 2769.0 
58.94315 2585.0 
62.019138 2617.0 
63.542599 2528.0 
65.039009 114783.0 
76.361923 2361.0 
78.034157 2995.0 
79.021553 5468.0 
84.959717 6101.0 
86.503571 2632.0 
89.038712 105473.0 
92.049622 38912.0 
92.073486 2143.0 
92.356956 2484.0 
93.033539 22777.0 
104.261337 2527.0 
106.975517 2568.0 
111.043983 27031.0 
113.987923 2555.0 
114.487617 3147.0 
115.981117 12936.0 
116.049469 528976.0 
116.971893 11164.0 
120.044182 14927.0 
120.965157 3540.0 
123.492828 4887.0 
130.039948 4066.0 
132.044495 51621.0 
134.059998 45668.0 
144.044434 2601687.0 
162.054474 3916.0 
215.391678 2585.0 
END IONS

BEGIN IONS
PRECURSOR_MZ=510.088
INCHI=InChI=1S/C27H22ClNO5/c1-15-23(27(32)34-13-16-6-3-2-4-7-16)24(25-20(29-15)8-5-9-21(25)30)19-14-33-22-11-10-17(28)12-18(22)26(19)31/h2-4,6-7,10-12,14,24,29H,5,8-9,13H2,1H3
SMILES=CC1=C(C(=O)OCc2ccccc2)C(c2coc3ccc(Cl)cc3c2=O)C2=C(CCCC2=O)N1
SCANS=15770
IONMODE=negative
COMPOUND_NAME=phenylmethyl 4-(6-chloro-4-oxochromen-3-yl)-2-methyl-5-oxo-1,4,6,7,8-pentahydr oquinoline-3-carboxylate M+Cl
SPECTRUM_ID=CCMSLIB00006701111
50.276939 2235.0 
74.524384 2530.0 
89.420631 2488.0 
92.396492 3635.0 
98.78064 2594.0 
101.704857 2423.0 
104.30365 2401.0 
111.000504 16107.0 
135.001038 3562.0 
136.238419 3280.0 
143.013412 63248.0 
178.990112 241573.0 
275.81604 2927.0 
294.112946 25150.0 
356.050079 5077.0 
474.110321 36093.0 
END IONS

BEGIN IONS
PRECURSOR_MZ=508.939
INCHI=InChI=1S/C18H10BrF3N2O4S/c19-12-7-14-13(26-8-27-14)5-9(12)6-15-16(25)24(17(23)29-15)10-1-3-11(4-2-10)28-18(20,21)22/h1-7,23H,8H2/b15-6-,23-17?
SMILES=N=C1SC(=Cc2cc3c(cc2Br)OCO3)C(=O)N1c1ccc(OC(F)(F)F)cc1
SCANS=8238
IONMODE=positive
COMPOUND_NAME=5-[(6-bromo(2H-benzo[d]1,3-dioxolen-5-yl))methylene]-2-imino-3-[4-(trifluorome thoxy)phenyl]-1,3-thiazolidin-4-one M+Na
SPECTRUM_ID=CCMSLIB00006693579
70.621964 3024.0 
73.829613 3011.0 
83.060997 2789.0 
115.948952 3143.0 
121.064751 35201.0 
124.42366 2588.0 
135.117477 3865.0 
161.096054 12546.0 
176.333359 2852.0 
185.366379 3059.0 
189.101639 5185.0 
207.236938 2883.0 
282.826355 2818.0 
329.223145 5055.0 
407.029297 5248.0 
445.236389 11956.0 
447.256409 4734.0 
490.240845 3639.0 
491.249207 31555.0 
508.257141 20158.0 
508.938812 1089844.0 
509.253876 186751.0 
526.947937 22915.0 
549.964905 96772.0 
641.230835 3666.0 
647.88501 3160.0 
END IONS

BEGIN IONS
PRECURSOR_MZ=374.187
INCHI=InChI=1S/C23H25N3O2/c1-15(2)21(26-22(27)17-9-5-4-6-10-17)23(28)24-14-13-18-16(3)25-20-12-8-7-11-19(18)20/h4-12,25H,13-14H2,1-3H3,(H,24,28)(H,26,27)
SMILES=CC(C)=C(N=C(O)c1ccccc1)C(O)=NCCc1c(C)[nH]c2ccccc12
SCANS=15650
IONMODE=negative
COMPOUND_NAME=3-methyl-N-[2-(2-methylindol-3-yl)ethyl]-2-(phenylcarbonylamino)but-2-enamide M-H
SPECTRUM_ID=CCMSLIB00006700991
54.725498 2422.0 
59.6674 2638.0 
66.267448 2984.0 
68.013763 12961.0 
73.126389 2448.0 
93.034317 18814.0 
96.045341 71600.0 
118.708839 2644.0 
120.04554 56662.0 
121.029121 4858.0 
130.066467 6470.0 
131.037628 22999.0 
137.23111 2838.0 
139.0513 32370.0 
142.066849 2941.0 
144.081451 5800.0 
145.065704 13064.0 
147.081512 93937.0 
151.338882 2681.0 
156.081802 38029.0 
158.044815 2739.0 
158.061615 3605.0 
171.092529 6495.0 
172.077682 4473.0 
173.108383 777999.0 
174.092392 419391.0 
174.580673 3051.0 
175.064758 3711.0 
199.087708 220657.0 
200.071381 25723.0 
202.087463 3142.0 
209.112396 9096.0 
209.13385 5868.0 
217.097855 48683.0 
277.134796 29522.0 
288.243744 2884.0 
296.138428 3821.0 
356.176758 45415.0 
357.021851 2947.0 
374.187225 1796518.0 
END IONS

BEGIN IONS
PRECURSOR_MZ=641.107
INCHI=InChI=1S/C37H25BrN2O4/c38-24-14-9-13-23(21-24)30(31-35(42)28-19-10-18-26(33(28)39-36(31)43)22-11-3-1-4-12-22)32-34(41)27-17-7-8-20-29(27)40(37(32)44)25-15-5-2-6-16-25/h1-21,30,41H,(H2,39,42,43)
SMILES=O=c1c(C(c2cccc(Br)c2)c2c(O)nc3c(-c4ccccc4)cccc3c2O)c(O)c2ccccc2n1-c1ccccc1
SCANS=23117
IONMODE=positive
COMPOUND_NAME=3-[(3-bromophenyl)(4-hydroxy-2-oxo-8-phenyl(3-hydroquinolyl))methyl]-4-hydroxy -1-phenylhydroquinolin-2-one M+H
SPECTRUM_ID=CCMSLIB00006708458
89.038643 9519.0 
92.049561 5230.0 
92.942673 3960.0 
116.049347 37532.0 
144.044205 20339.0 
162.054855 405438.0 
165.070389 4700.0 
167.07225 29871.0 
168.080933 88961.0 
170.096481 19562.0 
195.067917 5770.0 
196.075729 1196087.0 
204.080963 6094.0 
208.959824 16001.0 
210.09137 47702.0 
219.069565 5597.0 
219.769714 4178.0 
220.077774 8744.0 
237.077942 7558.0 
238.08609 10734025.0 
248.070557 39542.0 
280.112061 4510.0 
283.144592 4616.0 
296.106659 34184.0 
308.441376 4001.0 
324.101532 356108.0 
325.108276 59091.0 
336.038147 8863.0 
358.021423 14811.0 
404.027405 189206.0 
641.107178 330431.0 
END IONS

BEGIN IONS
PRECURSOR_MZ=346.165
INCHI=InChI=1S/C19H23NO5/c1-22-15-7-5-14(6-8-15)20-10-9-16(21)13-11-17(23-2)19(25-4)18(12-13)24-3/h5-8,11-12,20H,9-10H2,1-4H3
SMILES=COc1ccc(NCCC(=O)c2cc(OC)c(OC)c(OC)c2)cc1
SCANS=2196
IONMODE=positive
COMPOUND_NAME=3-[(4-methoxyphenyl)amino]-1-(3,4,5-trimethoxyphenyl)propan-1-one M+H
SPECTRUM_ID=CCMSLIB00006687537
55.187389 3137.0 
63.023281 3251.0 
73.852539 3479.0 
74.24913 3375.0 
93.057114 4028.0 
108.0569 32570.0 
109.064438 19334.0 
121.052254 43993.0 
135.665604 13428.0 
136.075745 9660832.0 
136.487823 14968.0 
137.078629 5608.0 
154.062424 14436.0 
169.086411 42826.0 
195.064865 12903.0 
196.067871 3545.0 
210.088882 22690.0 
211.095947 159768.0 
223.096542 13951.0 
285.255157 3222.0 
346.163361 189526.0 
348.989319 3379.0 
END IONS

BEGIN IONS
PRECURSOR_MZ=215.012
INCHI=InChI=1S/C9H9ClO4/c10-6-2-1-3-5(4(2)8(11)12)9(13)14-7(3)6/h2-7H,1H2,(H,11,12)
SMILES=O=C(O)C1C2CC3C(OC(=O)C31)C2Cl
SCANS=12034
IONMODE=negative
COMPOUND_NAME=9-chloro-4-oxo-5-oxatricyclo[4.2.1.0<3,7>]nonane-2-carboxylic acid M-H
SPECTRUM_ID=CCMSLIB00006697375
59.224701 1930.0 
66.742371 2058.0 
68.699417 1882.0 
70.05191 1930.0 
92.376129 2415.0 
103.096573 1919.0 
104.283867 2499.0 
131.162048 2070.0 
157.86351 12962.0 
212.418594 1881.0 
214.860367 2842.0 
215.010284 78063.0 
215.092072 7915.0 
322.003326 2825.0 
END IONS

BEGIN IONS
PRECURSOR_MZ=533.291
INCHI=InChI=1S/C17H18N2O/c18-10-9-14-11-19-17-15(14)7-4-8-16(17)20-12-13-5-2-1-3-6-13/h1-8,11,19H,9-10,12,18H2
SMILES=NCCc1c[nH]c2c(OCc3ccccc3)cccc12
SCANS=15334
IONMODE=positive
COMPOUND_NAME=7-Benzyloxytryptamine 2M+H
SPECTRUM_ID=CCMSLIB00006700675
52.20253 2659.0 
55.884998 3397.0 
58.443451 2655.0 
59.818741 2978.0 
60.518551 3396.0 
65.039101 18878.0 
76.537918 3166.0 
91.054443 1766655.0 
104.286346 3500.0 
130.065262 3973.0 
131.072861 3391.0 
136.2146 4635.0 
146.060745 2861.0 
159.067993 33083.0 
172.076324 22845.0 
172.090027 2934.0 
250.122528 841778.0 
255.41185 4039.0 
267.149048 175029.0 
366.12616 2913.0 
533.460327 3575.0 
END IONS

BEGIN IONS
PRECURSOR_MZ=539.098
INCHI=InChI=1S/C15H10O5/c16-9-3-1-8(2-4-9)13-7-12(19)15-11(18)5-10(17)6-14(15)20-13/h1-7,16-18H
SMILES=O=c1cc(-c2ccc(O)cc2)oc2cc(O)cc(O)c12
SCANS=3705
IONMODE=negative
COMPOUND_NAME=520-36-5 2M-H
SPECTRUM_ID=CCMSLIB00006689046
51.78698 2482.0 
57.885578 2761.0 
78.166252 2432.0 
136.243301 3748.0 
155.751724 2694.0 
269.045563 39519.0 
351.00647 2425.0 
480.395294 3350.0 
END IONS

BEGIN IONS
PRECURSOR_MZ=522.225
INCHI=InChI=1S/C31H33NO5/c1-35-20-14-15-23(27(19-20)36-2)29-24-11-7-8-16-31(24,34)17-18-32(29)30(33)28-21-9-3-5-12-25(21)37-26-13-6-4-10-22(26)28/h3-6,9-10,12-15,19,24,28-29,34H,7-8,11,16-18H2,1-2H3
SMILES=COc1ccc(C2C3CCCCC3(O)CCN2C(=O)C2c3ccccc3Oc3ccccc32)c(OC)c1
SCANS=9579
IONMODE=positive
COMPOUND_NAME=2-(2,4-dimethoxyphenyl)-6-hydroxy-3-azabicyclo[4.4.0]dec-3-yl xanthen-9-yl ket one M+Na
SPECTRUM_ID=CCMSLIB00006694920
52.964539 3359.0 
79.724899 3195.0 
81.937408 3154.0 
82.40522 3608.0 
90.047958 3236.0 
91.82045 3513.0 
132.621338 3526.0 
135.078186 3449.0 
152.587875 3144.0 
176.104416 4321.0 
195.545486 3220.0 
201.07634 15940.0 
214.083603 6147.0 
255.13591 7909.0 
271.13031 4533.0 
285.147552 5459.0 
286.152466 6296.0 
297.145752 3648.0 
340.151428 53185.0 
522.22467 5768234.0 
540.221741 3922.0 
END IONS

BEGIN IONS
PRECURSOR_MZ=291.078
INCHI=InChI=1S/C16H15ClO3/c1-11(18)12-7-8-15(16(9-12)19-2)20-10-13-5-3-4-6-14(13)17/h3-9H,10H2,1-2H3
SMILES=COc1cc(C(C)=O)ccc1OCc1ccccc1Cl
SCANS=3341
IONMODE=positive
COMPOUND_NAME=1-acetyl-4-[(2-chlorophenyl)methoxy]-3-methoxybenzene M+H
SPECTRUM_ID=CCMSLIB00006688682
51.499249 2573.0 
66.745567 2706.0 
89.038712 11197.0 
98.99913 4962.0 
104.287727 3217.0 
123.044197 5691.0 
125.015251 4167672.0 
125.378853 3299.0 
137.059967 34158.0 
155.025314 12596.0 
163.305344 3001.0 
165.054245 10997.0 
166.041641 39384.0 
167.086533 2993.0 
189.046021 13247.0 
203.063171 2797.0 
213.046509 4894.0 
217.041336 16419.0 
231.056946 39046.0 
249.067368 148477.0 
259.051697 169164.0 
263.083496 29448.0 
291.077881 1314706.0 
291.190369 26021.0 
301.696808 2816.0 
END IONS

BEGIN IONS
PRECURSOR_MZ=469.194
INCHI=InChI=1S/C23H30N2O7/c1-8-25(9-2)23(27)15-10-16(20(31-6)17(13-15)28-3)24-22(26)14-11-18(29-4)21(32-7)19(12-14)30-5/h10-13H,8-9H2,1-7H3,(H,24,26)
SMILES=CCN(CC)C(=O)c1cc(N=C(O)c2cc(OC)c(OC)c(OC)c2)c(OC)c(OC)c1
SCANS=14185
IONMODE=positive
COMPOUND_NAME={4,5-dimethoxy-3-[(3,4,5-trimethoxyphenyl)carbonylamino]phenyl}-N,N-diethylcar boxamide M+Na
SPECTRUM_ID=CCMSLIB00006699526
51.041302 2404.0 
52.791389 2115.0 
59.176151 3053.0 
63.658279 3013.0 
65.695587 2918.0 
68.890053 2803.0 
73.943123 2496.0 
73.949562 3513.0 
82.081451 2687.0 
107.050087 3372.0 
136.204361 3052.0 
157.963791 2656.0 
229.181122 2794.0 
328.534668 2871.0 
377.885986 3243.0 
453.166168 13989.0 
454.170624 14665.0 
469.194031 2322253.0 
END IONS

BEGIN IONS
PRECURSOR_MZ=285.032
INCHI=InChI=1S/C16H11ClO3/c1-9-13-8-12(18)5-6-14(13)20-16(19)15(9)10-3-2-4-11(17)7-10/h2-8,18H,1H3
SMILES=Cc1c(-c2cccc(Cl)c2)c(=O)oc2ccc(O)cc12
SCANS=5035
IONMODE=negative
COMPOUND_NAME=3-(3-chlorophenyl)-6-hydroxy-4-methylchromen-2-one M-H
SPECTRUM_ID=CCMSLIB00006690376
62.474892 2763.0 
70.924728 2530.0 
73.956223 2893.0 
80.119881 2774.0 
87.89183 2551.0 
103.444138 2580.0 
131.427292 2934.0 
133.248016 2594.0 
148.956329 10751.0 
150.675537 2695.0 
160.016434 125792.0 
161.449982 2597.0 
207.596008 18445.0 
215.390625 2841.0 
225.069565 3510.0 
229.041275 5230.0 
241.042282 212890.0 
243.020615 9890.0 
244.985016 3538.0 
247.039383 2655.0 
249.05542 15570.0 
256.029327 4617.0 
257.037506 69988.0 
257.068237 3604.0 
264.989471 5827.0 
270.008636 477606.0 
283.016052 5505.0 
284.024475 16587.0 
285.032196 3849687.0 
END IONS

BEGIN IONS
PRECURSOR_MZ=565.176
INCHI=InChI=1S/C10H13N5O5/c11-10-13-7-4(8(19)14-10)12-2-15(7)9-6(18)5(17)3(1-16)20-9/h2-3,5-6,9,16-18H,1H2,(H3,11,13,14,19)/t3-,5-,6-,9-/m1/s1
SMILES=N=c1nc(O)c2ncn([C@@H]3O[C@H](CO)[C@@H](O)[C@H]3O)c2[nH]1
SCANS=233
IONMODE=negative
COMPOUND_NAME=guanosine 2M-H
SPECTRUM_ID=CCMSLIB00006685574
62.519501 49316.300781 
66.770798 50899.601562 
73.986099 74224.796875 
92.418297 78487.101562 
95.547897 47997.898438 
118.705002 61471.800781 
123.065002 55682.300781 
133.014999 65627.0 
133.602005 51884.0 
136.274994 56831.199219 
140.134003 51287.300781 
150.042007 2322840.0 
208.207001 299193.0 
282.084015 4006690.0 
END IONS

BEGIN IONS
PRECURSOR_MZ=436.067
INCHI=InChI=1S/C20H16ClN3O5/c1-11-2-4-13(5-3-11)22-18(25)9-24-19(26)15(23-20(24)27)6-12-7-16-17(8-14(12)21)29-10-28-16/h2-8H,9-10H2,1H3,(H,22,25)(H,23,27)/b15-6+
SMILES=Cc1ccc(NC(=O)CN2C(=O)C(=Cc3cc4c(cc3Cl)OCO4)N=C2O)cc1
SCANS=8209
IONMODE=positive
COMPOUND_NAME=2-{4-[(6-chloro(2H-benzo[d]1,3-dioxolen-5-yl))methylene]-2,5-dioxo(1,3-diazoli dinyl)}-N-(4-methylphenyl)acetamide M+Na
SPECTRUM_ID=CCMSLIB00006693550
60.733589 2598.0 
75.573677 2567.0 
80.783073 2967.0 
175.064026 3177.0 
191.78038 2476.0 
203.726959 2990.0 
226.874268 3291.0 
436.066406 2886578.0 
END IONS

BEGIN IONS
PRECURSOR_MZ=147.044
INCHI=InChI=1S/C9H8O3/c10-8-4-2-1-3-7(8)5-6-9(11)12/h1-6,10H,(H,11,12)/b6-5+
SMILES=O=C(O)C=Cc1ccccc1O
SCANS=16921
IONMODE=positive
COMPOUND_NAME=2-Hydroxycinnamic acid M+H-H2O
SPECTRUM_ID=CCMSLIB00006702262
53.039131 493827.0 
65.039223 145544.0 
65.574753 33269.0 
74.607407 31929.0 
75.078842 30422.0 
76.391609 30319.0 
77.039139 40634.0 
81.034477 34319.0 
91.054466 5376716.0 
95.049538 142567.0 
100.339348 30562.0 
102.04673 157589.0 
103.054329 8836417.0 
119.049652 53944.0 
144.08139 41466.0 
147.044205 9660092.0 
165.583817 32757.0 
END IONS

BEGIN IONS
PRECURSOR_MZ=336.124
INCHI=InChI=1S/C20H19NO4/c22-18-7-6-15-19(23)17(14-4-2-1-3-5-14)13-25-20(15)16(18)12-21-8-10-24-11-9-21/h1-7,13,22H,8-12H2
SMILES=O=c1c(-c2ccccc2)coc2c(CN3CCOCC3)c(O)ccc12
SCANS=3139
IONMODE=negative
COMPOUND_NAME=SMR000104221 M-H
SPECTRUM_ID=CCMSLIB00006688480
58.59956 2708.0 
66.744362 2995.0 
199.978592 2887.0 
213.126511 3010.0 
221.060425 3614.0 
249.054123 4221.0 
250.063644 196260.0 
251.071426 85525.0 
278.082031 17663.0 
282.053497 777657.0 
336.124542 4708691.0 
340.915833 3195.0 
END IONS

BEGIN IONS
PRECURSOR_MZ=458.09
INCHI=InChI=1S/C21H16F3N5O2S/c1-12-5-7-15(8-6-12)29-18-17(19(31)26-11-25-18)28-20(29)32-10-16(30)27-14-4-2-3-13(9-14)21(22,23)24/h2-9,11H,10H2,1H3,(H,27,30)(H,25,26,31)
SMILES=Cc1ccc(-n2c(SCC(O)=Nc3cccc(C(F)(F)F)c3)nc3c(O)ncnc32)cc1
SCANS=21262
IONMODE=negative
COMPOUND_NAME=2-[9-(4-methylphenyl)-6-oxohydropurin-8-ylthio]-N-[3-(trifluoromethyl)phenyl]a cetamide M-H
SPECTRUM_ID=CCMSLIB00006706603
50.466221 3330.0 
57.216728 2688.0 
57.975182 235057.0 
65.014076 194415.0 
65.99411 4414.0 
65.9981 110336.0 
68.013779 14671.0 
71.079674 2936.0 
73.949509 3594.0 
92.025238 96824.0 
92.373672 3841.0 
93.009171 11305.0 
95.978561 18564.0 
96.986328 19359.0 
99.986298 5258.0 
109.843193 3236.0 
111.329437 2922.0 
112.736382 2722.0 
123.997627 4117.0 
124.981163 5421.0 
129.164215 3064.0 
131.061417 26618.0 
134.023438 3540.0 
135.031754 5550.0 
138.985489 4516.0 
147.030945 3645.0 
155.061584 1043859.0 
156.057053 28502.0 
160.038025 19393.0 
165.994888 5479.0 
177.000015 5322.0 
179.018661 5355.0 
182.072403 39349.0 
185.034073 26557.0 
186.067551 7152.0 
187.033447 129681.0 
187.052429 4932.0 
191.992264 22089.0 
197.059525 87453.0 
198.066895 27381.0 
199.025009 393179.0 
204.009979 113710.0 
208.79483 7729.0 
211.998962 45429.0 
213.078644 7370.0 
214.044388 30647.0 
223.062912 13992.0 
225.078201 522192.0 
228.023666 36499.0 
228.059891 11973.0 
230.039566 17170.0 
232.004959 554158.0 
236.069946 24695.0 
237.078918 12749.0 
240.090698 3242.0 
241.073715 30917.0 
255.034607 309682.0 
256.018036 4734.0 
256.04245 392664.0 
257.050232 601414.0 
266.042206 35617.0 
269.050446 48930.0 
271.06601 115561.0 
297.045044 79076.0 
341.101898 16138.0 
384.10788 250135.0 
415.085663 5497.0 
458.090485 794125.0 
END IONS

BEGIN IONS
PRECURSOR_MZ=488.103
INCHI=InChI=1S/C22H19ClFN3O4/c23-17-11-14(5-6-18(17)24)25-20(28)13-27-19-4-2-1-3-15(19)16(12-21(27)29)22(30)26-7-9-31-10-8-26/h1-6,11-12H,7-10,13H2,(H,25,28)
SMILES=O=C(c1cc(=O)n(CC(O)=Nc2ccc(F)c(Cl)c2)c2ccccc12)N1CCOCC1
SCANS=10117
IONMODE=negative
COMPOUND_NAME=N-(3-chloro-4-fluorophenyl)-2-[4-(morpholin-4-ylcarbonyl)-2-oxohydroquinolyl]a cetamide M+formate
SPECTRUM_ID=CCMSLIB00006695458
55.421299 2114.0 
65.27002 2249.0 
80.91655 8493.0 
86.061302 3227.0 
94.176407 2382.0 
128.050476 2895.0 
136.228012 3130.0 
142.066666 11228.0 
142.570297 2397.0 
144.045624 5497.0 
152.893265 2853.0 
153.582596 2177.0 
156.082397 5752.0 
158.061478 11997.0 
165.836441 2537.0 
171.960022 3640.0 
184.040344 11498.0 
186.056488 5566.0 
193.728378 2375.0 
208.48764 8620.0 
238.713943 2550.0 
257.092163 5530.0 
271.109894 9829.0 
297.088318 4918.0 
315.100189 3123.0 
380.357971 2663.0 
442.098236 116089.0 
488.065552 175183.0 
END IONS

BEGIN IONS
PRECURSOR_MZ=287.092
INCHI=InChI=1S/C16H16O5/c1-8(2)3-4-10(17)9-7-13(20)14-11(18)5-6-12(19)15(14)16(9)21/h3,5-7,10,17-19H,4H2,1-2H3/t10-/m1/s1
SMILES=CC(C)=CCC(O)C1=CC(=O)c2c(O)ccc(O)c2C1=O
SCANS=12285
IONMODE=negative
COMPOUND_NAME=shikonin M-H
SPECTRUM_ID=CCMSLIB00006697626
54.409439 2322.0 
60.54089 2323.0 
87.759666 2012.0 
92.382607 2548.0 
117.015503 2718.0 
136.220551 2798.0 
147.161362 2484.0 
190.026596 9477.0 
218.022293 557831.0 
287.092651 71233.0 
287.129059 2969.0 
287.167664 8837.0 
287.228424 2741.0 
398.281311 2456.0 
END IONS

BEGIN IONS
PRECURSOR_MZ=444.979
INCHI=InChI=1S/C18H12Cl2N2O4S/c1-24-12-5-9(6-13-16(12)26-8-25-13)7-14-17(23)22-18(27-14)21-11-4-2-3-10(19)15(11)20/h2-7H,8H2,1H3,(H,21,22,23)/b14-7+
SMILES=COc1cc(C=C2SC(=Nc3cccc(Cl)c3Cl)N=C2O)cc2c1OCO2
SCANS=20183
IONMODE=positive
COMPOUND_NAME=2-[(2,3-dichlorophenyl)azamethylene]-5-[(7-methoxy(2H-benzo[d]1,3-dioxolen-5-y l))methylene]-1,3-thiazolidin-4-one M+Na
SPECTRUM_ID=CCMSLIB00006705524
60.307739 2235.0 
66.378281 2473.0 
77.844017 2155.0 
90.529663 2486.0 
129.274246 2461.0 
314.449738 2422.0 
444.977478 502907.0 
END IONS

BEGIN IONS
PRECURSOR_MZ=651.193
INCHI=InChI=1S/C15H18O8/c1-12(2,3)14(20)4-6-13(5-7(16)21-6)10(19)23-11-15(13,14)8(17)9(18)22-11/h6,8,11,17,20H,4-5H2,1-3H3/t6-,8-,11-,13-,14+,15+/m0/s1
SMILES=CC(C)(C)C1(O)CC2OC(=O)CC23C(=O)OC2OC(=O)C(O)C231
SCANS=19603
IONMODE=negative
COMPOUND_NAME=Bilobalide 2M-H
SPECTRUM_ID=CCMSLIB00006704944
52.763031 2855.0 
53.436298 3048.0 
57.806412 2858.0 
72.99276 18065.0 
73.96331 2628.0 
92.39225 3211.0 
101.060417 2606.0 
107.04995 6053.0 
109.065483 20720.0 
121.029449 35891.0 
135.045197 4688.0 
137.663681 3141.0 
146.960587 21423.0 
163.1129 512369.0 
165.128326 14660.0 
174.956238 31596.0 
175.112488 5262.0 
182.35437 3062.0 
193.124481 27865.0 
207.102051 6091.0 
217.574615 3398.0 
228.047653 3191.0 
237.112244 23034.0 
242.943802 11439.0 
251.092041 61570.0 
287.146759 2995.0 
310.930664 5273.0 
325.093018 111827.0 
341.197174 2999.0 
378.919189 3173.0 
472.844025 3251.0 
510.165009 3461.0 
END IONS

BEGIN IONS
PRECURSOR_MZ=436.151
INCHI=InChI=1S/C22H21N3O4/c26-20(23-16-6-2-1-3-7-16)15-25-19-9-5-4-8-17(19)18(14-21(25)27)22(28)24-10-12-29-13-11-24/h1-9,14H,10-13,15H2,(H,23,26)
SMILES=O=C(c1cc(=O)n(CC(O)=Nc2ccccc2)c2ccccc12)N1CCOCC1
SCANS=11065
IONMODE=negative
COMPOUND_NAME=2-[4-(morpholin-4-ylcarbonyl)-2-oxohydroquinolyl]-N-phenylacetamide M+formate
SPECTRUM_ID=CCMSLIB00006696406
58.111439 2439.0 
68.687424 2303.0 
86.060989 21063.0 
92.050323 2978.0 
100.134552 2502.0 
128.050613 15047.0 
132.077515 2634.0 
143.778854 2877.0 
157.053482 12462.0 
158.06105 12641.0 
172.040329 3596.0 
174.055542 3395.0 
184.040329 42601.0 
185.048553 3204.0 
202.050385 2972.0 
208.271988 6854.0 
229.098618 5027.0 
237.432266 2542.0 
243.114365 11504.0 
257.092712 18467.0 
271.109283 50297.0 
273.088196 5693.0 
297.088043 26210.0 
390.146332 435202.0 
END IONS

BEGIN IONS
PRECURSOR_MZ=371.161
INCHI=InChI=1S/C20H24N2O5/c1-20(2)9-13(23)16-14(10-20)27-18(21)17(19(24)26-8-7-25-3)15(16)12-5-4-6-22-11-12/h4-6,11,15H,7-10,21H2,1-3H3
SMILES=COCCOC(=O)C1=C(N)OC2=C(C(=O)CC(C)(C)C2)C1c1cccnc1
SCANS=13524
IONMODE=negative
COMPOUND_NAME=2-methoxyethyl 2-amino-7,7-dimethyl-5-oxo-4-(3-pyridyl)-4H-6,7,8-trihydrochrom ene-3-carboxylate M-H
SPECTRUM_ID=CCMSLIB00006698865
53.003849 2159.0 
55.04377 2192.0 
65.998192 90783.0 
72.421997 2208.0 
74.82663 2728.0 
82.424744 3084.0 
96.416367 2212.0 
104.312859 2415.0 
121.498619 2585.0 
139.076218 58478.0 
142.050766 46062.0 
184.239487 2412.0 
383.432831 2486.0 
387.080963 2479.0 
END IONS

BEGIN IONS
PRECURSOR_MZ=537.066
INCHI=InChI=1S/C27H21Cl3N4O2/c1-15-18(20-10-11-22(29)24(30)26(20)32-15)12-13-31-23(35)14-34-27(36)21-5-3-2-4-19(21)25(33-34)16-6-8-17(28)9-7-16/h2-11,32H,12-14H2,1H3,(H,31,35)
SMILES=Cc1[nH]c2c(Cl)c(Cl)ccc2c1CCN=C(O)Cn1nc(-c2ccc(Cl)cc2)c2ccccc2c1=O
SCANS=18691
IONMODE=negative
COMPOUND_NAME=N-[2-(6,7-dichloro-2-methylindol-3-yl)ethyl]-2-[4-(4-chlorophenyl)-1-oxo(2-hyd rophthalazin-2-yl)]acetamide M-H
SPECTRUM_ID=CCMSLIB00006704032
57.93161 6348.0 
66.078697 5901.0 
71.020683 10201.0 
71.024712 208006.0 
74.860046 6131.0 
79.846497 6606.0 
81.710762 6653.0 
102.034798 53442.0 
104.294113 10283.0 
134.838867 6682.0 
157.989532 8582.0 
190.066391 9669.0 
197.988266 110677.0 
206.06012 47384.0 
210.056808 8180.0 
212.003677 34345.0 
215.0271 9815.0 
222.056015 65407.0 
224.004379 120421.0 
224.071304 655663.0 
226.018982 13104.0 
226.042725 329579.0 
228.970154 32832.0 
229.042725 8668.0 
241.029816 3361208.0 
242.037552 546666.0 
242.98555 66883.0 
254.04039 7474.0 
255.032883 260623.0 
267.009521 818107.0 
269.047424 60126.0 
296.036133 115537.0 
361.926208 8502.0 
537.066162 14838601.0 
END IONS

BEGIN IONS
PRECURSOR_MZ=390.191
INCHI=InChI=1S/C21H27NO6/c1-6-26-18-11-14(12-19(27-7-2)20(18)28-8-3)21(23)22-15-9-10-16(24-4)17(13-15)25-5/h9-13H,6-8H2,1-5H3,(H,22,23)
SMILES=CCOc1cc(C(O)=Nc2ccc(OC)c(OC)c2)cc(OCC)c1OCC
SCANS=3950
IONMODE=positive
COMPOUND_NAME=N-(3,4-dimethoxyphenyl)(3,4,5-triethoxyphenyl)carboxamide M+H
SPECTRUM_ID=CCMSLIB00006689291
54.50528 2940.0 
81.033691 21438.0 
81.069878 3818.0 
84.097 3324.0 
91.054237 20355.0 
109.028389 437928.0 
109.064827 39302.0 
119.04921 21960.0 
125.059067 7227.0 
127.038857 388615.0 
137.059631 229539.0 
143.367889 3300.0 
152.070435 186564.0 
152.084381 6386.0 
153.018265 52129.0 
154.062256 6143.0 
155.070114 542914.0 
165.090805 12506.0 
177.461136 3326.0 
180.06517 11419.0 
181.049316 147728.0 
182.094131 24951.0 
183.101425 861167.0 
209.080612 979001.0 
211.111877 3231.0 
211.132629 236249.0 
237.111801 846075.0 
238.115921 13140.0 
346.130249 6217.0 
375.168915 4143.0 
388.202515 3159.0 
390.190521 4681852.0 
392.192688 4779.0 
END IONS

BEGIN IONS
PRECURSOR_MZ=585.072
INCHI=InChI=1S/C10H7N5O6/c16-6-2-1-4(15(20)21)3-5(6)13-14-7-8(17)11-10(19)12-9(7)18/h1-3,13,16H,(H2,11,12,17,18,19)
SMILES=O=C1N=C(O)C(=NNc2cc([N+](=O)[O-])ccc2O)C(O)=N1
SCANS=20403
IONMODE=negative
COMPOUND_NAME=5-{[(2-hydroxy-5-nitrophenyl)amino]azamethylene}-1,3-dihydropyrimidine-2,4,6-t rione 2M-H
SPECTRUM_ID=CCMSLIB00006705744
60.01614 2760.0 
62.424129 2844.0 
104.303703 2772.0 
105.062157 2927.0 
110.810333 2687.0 
127.014587 27123.0 
136.255219 2588.0 
179.009659 5139.0 
210.118958 2780.0 
266.493927 2854.0 
289.186951 2853.0 
292.032196 6506.0 
445.673065 3919.0 
END IONS

BEGIN IONS
PRECURSOR_MZ=430.133
INCHI=InChI=1S/C23H19N5O2S/c1-14-7-6-8-16(11-14)22-26-18(15(2)30-22)12-31-23-27-19-20(24-13-25-21(19)29)28(23)17-9-4-3-5-10-17/h3-11,13H,12H2,1-2H3,(H,24,25,29)
SMILES=Cc1cccc(-c2nc(CSc3nc4c(O)ncnc4n3-c3ccccc3)c(C)o2)c1
SCANS=5787
IONMODE=positive
COMPOUND_NAME=8-{[5-methyl-2-(3-methylphenyl)(1,3-oxazol-4-yl)]methylthio}-9-phenylhydropuri n-6-one M+H
SPECTRUM_ID=CCMSLIB00006691128
52.660919 3000.0 
60.528809 3822.0 
61.656429 3365.0 
69.033836 18631.0 
82.388763 3516.0 
92.366127 3649.0 
98.470863 2899.0 
104.271751 3568.0 
105.395554 3600.0 
116.771843 3632.0 
118.065002 447012.0 
119.04908 4353.0 
166.457123 3289.0 
185.436798 3598.0 
186.091171 4520710.0 
227.117813 21979.0 
245.020325 6932.0 
245.048843 192504.0 
350.994049 3726.0 
430.132446 2391254.0 
END IONS

BEGIN IONS
PRECURSOR_MZ=248.092
INCHI=InChI=1S/C13H15NO5/c1-2-19-13(18)9-3-5-10(6-4-9)14-11(15)7-8-12(16)17/h3-6H,2,7-8H2,1H3,(H,14,15)(H,16,17)
SMILES=CCOC(=O)c1ccc(NC(=O)CCC(=O)O)cc1
SCANS=16648
IONMODE=positive
COMPOUND_NAME=3-{N-[4-(ethoxycarbonyl)phenyl]carbamoyl}propanoic acid M+H-H2O
SPECTRUM_ID=CCMSLIB00006701989
51.02375 4477.0 
53.039131 35168.0 
55.018372 226491.0 
63.08815 2853.0 
65.038971 47496.0 
66.748337 3178.0 
69.034088 4370.0 
73.0289 11025.0 
75.023376 17085.0 
77.039391 14512.0 
79.054466 36964.0 
81.033783 12293.0 
83.013046 4361.0 
83.68689 2770.0 
91.054329 5010.0 
92.049606 349647.0 
93.033539 5791.0 
93.070007 13179.0 
94.065239 406516.0 
95.049316 32154.0 
97.028381 10973.0 
100.130043 2875.0 
103.017792 134386.0 
103.053947 45938.0 
104.0495 15465.0 
105.069878 45946.0 
106.065033 90113.0 
108.044312 96090.0 
110.059517 3044.0 
111.043999 4872.0 
116.049828 2973.0 
118.064796 23439.0 
118.659912 4092.0 
119.073402 10858.0 
120.044411 872255.0 
120.08075 262259.0 
121.028351 88077.0 
122.096474 50346.0 
123.080452 6739.0 
125.023438 5413.0 
130.065109 171375.0 
132.044373 82884.0 
132.054337 2645.0 
133.07605 18308.0 
134.096512 15185.0 
136.039322 90749.0 
136.075699 64981.0 
138.054993 59039.0 
143.072632 5972.0 
144.080276 28198.0 
146.060303 16966.0 
147.067749 5096.0 
148.075638 669881.0 
149.0345 3290.0 
150.054794 11208.0 
155.263412 3029.0 
158.096375 26133.0 
162.054932 3082.0 
164.034546 139555.0 
164.07048 333249.0 
166.086166 26126.0 
167.070801 14738.0 
174.054886 95808.0 
176.070587 2192808.0 
177.065796 41468.0 
186.091965 14757.0 
192.065369 248013.0 
202.049072 274212.0 
202.085419 9722.0 
204.101883 103392.0 
220.060349 259666.0 
220.095337 30425.0 
248.091507 1775846.0 
END IONS

BEGIN IONS
PRECURSOR_MZ=374.105
INCHI=InChI=1S/C19H18FNO6/c1-9(2)25-19(24)15-14(10-3-5-11(20)6-4-10)17-16(27-18(15)21)13(23)7-12(8-22)26-17/h3-7,9,14,22H,8,21H2,1-2H3
SMILES=CC(C)OC(=O)C1=C(N)Oc2c(oc(CO)cc2=O)C1c1ccc(F)cc1
SCANS=5719
IONMODE=negative
COMPOUND_NAME=methylethyl 2-amino-4-(4-fluorophenyl)-6-(hydroxymethyl)-8-oxo-4H-pyrano[3,2-b ]pyran-3-carboxylate M-H
SPECTRUM_ID=CCMSLIB00006691060
54.10685 2829.0 
65.9981 1070027.0 
66.383682 2945.0 
67.987083 2829.0 
83.013557 6152.0 
84.008873 15453.0 
85.029167 5149.0 
99.008751 16838.0 
113.024406 3632.0 
126.056107 4118910.0 
126.427391 3567.0 
127.040283 3533.0 
141.019394 316713.0 
160.057022 4839.0 
186.036072 3636.0 
208.857895 11466.0 
214.031174 3506.0 
219.047516 3172.0 
230.463806 3343.0 
231.032501 4974.0 
246.056244 3222.0 
246.093292 32361.0 
247.041 21429.0 
270.057831 16848.0 
274.088898 3397.0 
314.046875 62009.0 
347.095184 3311.0 
374.10498 123314.0 
384.557861 3127.0 
END IONS

BEGIN IONS
PRECURSOR_MZ=629.311
INCHI=InChI=1S/C38H44O8/c1-20(2)10-9-15-36(8)16-14-24-29(39)28-30(40)26-18-23-19-27-35(6,7)46-37(33(23)41,17-13-22(5)34(42)43)38(26,27)45-32(28)25(31(24)44-36)12-11-21(3)4/h10-11,13-14,16,18,23,27,39H,9,12,15,17,19H2,1-8H3,(H,42,43)/b22-13-/t23?,27-,36-,37+,38-/m1/s1
SMILES=CC(C)=CCCC1(C)C=Cc2c(O)c3c(c(CC=C(C)C)c2O1)OC12C(=CC4CC1C(C)(C)OC2(CC=C(C)C(=O)O)C4=O)C3=O
SCANS=11718
IONMODE=positive
COMPOUND_NAME=SCHEMBL12751296 M+H
SPECTRUM_ID=CCMSLIB00006697059
57.220821 2745.0 
67.054909 5037.0 
69.070381 21529.0 
70.793167 3009.0 
71.387703 2796.0 
80.794258 3129.0 
81.070427 14064.0 
83.567886 2902.0 
90.027397 3778.0 
92.367622 4379.0 
93.070374 18917.0 
95.086037 3415.0 
99.044289 3762.0 
107.085854 15705.0 
109.028381 3566.0 
109.101753 20088.0 
123.117111 13191.0 
135.116348 21653.0 
136.198029 3969.0 
147.080734 4525.0 
151.039993 5227.0 
165.018021 5575.0 
185.05986 6419.0 
185.096939 6163.0 
187.075836 5260.0 
191.069901 5304.0 
193.086319 4278.0 
195.02951 6082.0 
199.075806 5326.0 
209.096573 11268.0 
211.112793 12797.0 
213.05484 32674.0 
213.090561 58692.0 
219.065063 5392.0 
225.091583 3878.0 
227.104996 21604.0 
229.122925 45008.0 
231.067108 4228.0 
237.091736 18610.0 
243.06636 5228.0 
245.118134 5451.0 
253.085968 12056.0 
255.101273 42444.0 
257.08197 4651.0 
273.118011 3822.0 
273.148529 28287.0 
275.700104 3632.0 
285.040741 5888.0 
299.127899 46062.0 
317.141449 3749.0 
337.06897 6262.0 
353.061981 6169.0 
355.191406 4024.0 
365.064178 24550.0 
375.123077 7394.0 
379.117188 25266.0 
387.123596 5960.0 
391.117859 17522.0 
405.139404 4856.0 
406.146393 3733.0 
407.108154 6391.0 
419.22168 4388.0 
443.188202 4548.0 
447.178009 63075.0 
459.179871 3949.0 
462.204742 15323.0 
474.202789 6050.0 
487.174774 124251.0 
487.251801 5585.0 
505.182739 12947.0 
509.232941 24167.0 
527.241821 107315.0 
530.265747 13857.0 
543.239319 5477.0 
545.252991 147919.0 
561.246399 26089.0 
573.247803 739499.0 
583.304321 5713.0 
601.314514 54979.0 
629.30957 268859.0 
END IONS

BEGIN IONS
PRECURSOR_MZ=400.112
INCHI=InChI=1S/C17H19N3O7/c1-19-12(8-14(21)20(2)17(19)24)16(23)18-11-7-10(5-6-13(11)25-3)27-9-15(22)26-4/h5-8H,9H2,1-4H3,(H,18,23)
SMILES=COC(=O)COc1ccc(OC)c(N=C(O)c2cc(=O)n(C)c(=O)n2C)c1
SCANS=20848
IONMODE=positive
COMPOUND_NAME=methyl 2-{3-[(1,3-dimethyl-2,6-dioxo(1,3-dihydropyrimidin-4-yl))carbonylamino] -4-methoxyphenoxy}acetate M+Na
SPECTRUM_ID=CCMSLIB00006706189
56.165699 2135.0 
77.356689 2455.0 
90.628708 2445.0 
105.234444 2601.0 
203.930435 2522.0 
293.105499 2516.0 
323.918671 3008.0 
400.11084 1018387.0 
END IONS

BEGIN IONS
PRECURSOR_MZ=496.128
INCHI=InChI=1S/C25H24ClN3O6/c1-15-23(25(31)35-12-11-34-2)19-14-22(30)17-5-3-4-6-18(17)24(19)28(15)10-9-27-21-8-7-16(29(32)33)13-20(21)26/h3-8,13-14,27,30H,9-12H2,1-2H3
SMILES=COCCOC(=O)c1c(C)n(CCNc2ccc([N+](=O)[O-])cc2Cl)c2c1cc(O)c1ccccc12
SCANS=22207
IONMODE=negative
COMPOUND_NAME=2-methoxyethyl 1-{2-[(2-chloro-4-nitrophenyl)amino]ethyl}-5-hydroxy-2-methylbe nzo[g]indole-3-carboxylate M-H
SPECTRUM_ID=CCMSLIB00006707548
65.051071 3376.0 
74.698738 2298.0 
85.173271 2509.0 
92.395058 4232.0 
99.358429 2731.0 
104.301689 3762.0 
113.823151 3125.0 
117.978127 2694.0 
135.020065 4606.0 
166.066528 4753.0 
167.049805 10991.0 
168.046112 3150.0 
170.996582 40491.0 
171.128937 2685.0 
172.040482 13134.0 
181.05336 3787.0 
184.077393 4262.0 
185.42482 3264.0 
192.046371 4301.0 
194.061142 184610.0 
195.068787 37085.0 
196.076767 146900.0 
208.078156 3771.0 
210.056534 16890.0 
212.071869 17605.0 
222.056076 309710.0 
224.070969 12717.0 
238.051025 18883.0 
239.058578 5875.0 
240.066422 21152.0 
266.081787 3611.0 
269.986664 2738.0 
297.100311 59044.0 
298.108337 682148.0 
338.989929 2707.0 
384.095184 3911.0 
387.990723 2891.0 
496.128082 259824.0 
508.249329 3030.0 
END IONS

BEGIN IONS
PRECURSOR_MZ=429.077
INCHI=InChI=1S/C23H18O5S/c1-15-7-11-17(12-8-15)22-23(21(24)19-5-3-4-6-20(19)27-22)28-29(25,26)18-13-9-16(2)10-14-18/h3-14H,1-2H3
SMILES=Cc1ccc(-c2oc3ccccc3c(=O)c2OS(=O)(=O)c2ccc(C)cc2)cc1
SCANS=2741
IONMODE=positive
COMPOUND_NAME=2-(4-methylphenyl)-4-oxochromen-3-yl 4-methylbenzenesulfonate M+Na
SPECTRUM_ID=CCMSLIB00006688082
59.909649 2515.0 
61.640621 2731.0 
86.385323 2712.0 
92.385559 3677.0 
99.757797 2764.0 
144.080551 5131.0 
157.988464 3558.0 
162.091248 23943.0 
201.172852 3231.0 
222.024719 2940.0 
224.460754 2922.0 
234.471832 3124.0 
246.343262 3043.0 
268.944519 3841.0 
274.059357 2257097.0 
279.959717 3566.0 
292.069855 5954.0 
315.086731 26585.0 
321.96933 24947.0 
429.075989 1857483.0 
END IONS

BEGIN IONS
PRECURSOR_MZ=150.058
INCHI=InChI=1S/C5H11NO2S/c1-9-3-2-4(6)5(7)8/h4H,2-3,6H2,1H3,(H,7,8)/t4-/m0/s1
SMILES=CSCC[C@H](N)C(=O)O
SCANS=451
IONMODE=positive
COMPOUND_NAME=L-methionine M+H
SPECTRUM_ID=CCMSLIB00006685792
56.050201 7533580.0 
61.011299 3205460.0 
61.0186 40136.300781 
73.969299 40576.5 
74.0243 375030.0 
74.060699 691187.0 
74.990601 48817.199219 
75.026604 34627.898438 
84.044998 220231.0 
85.028801 263583.0 
87.026703 957369.0 
93.429802 36626.199219 
102.055 2263440.0 
104.053001 8863510.0 
104.306 45007.199219 
105.000999 46592.699219 
105.037003 137860.0 
110.561996 34255.199219 
123.338997 35126.898438 
133.031998 5541930.0 
136.240005 48822.601562 
150.057999 861272.0 
END IONS

BEGIN IONS
PRECURSOR_MZ=320.069
INCHI=InChI=1S/C16H16ClNO4/c1-2-22-16(21)13-9-5-3-4-8(9)12-10(15(19)20)6-7-11(17)14(12)18-13/h3-4,6-9,13,18H,2,5H2,1H3,(H,19,20)
SMILES=CCOC(=O)C1Nc2c(Cl)ccc(C(=O)O)c2C2C=CCC12
SCANS=16106
IONMODE=negative
COMPOUND_NAME=(4S)-6-chloro-4-(ethoxycarbonyl)-3,4,5,3a,9b-pentahydrocyclopenta[1,2-c]quinol ine-9-carboxylic acid M-H
SPECTRUM_ID=CCMSLIB00006701447
73.594482 2307.0 
89.973747 2321.0 
91.553093 2089.0 
95.695282 2200.0 
104.330498 2255.0 
136.243637 2381.0 
158.032593 2674.0 
166.066116 45895.0 
176.026382 4192.0 
187.019485 2755.0 
194.059998 2926.0 
200.027161 296905.0 
202.042892 177634.0 
204.057755 3113.0 
215.015366 3237.0 
216.022217 22547.0 
218.037598 21181.0 
230.037827 37514.0 
234.033875 3574.0 
234.834137 2980.0 
244.016663 22929.0 
248.048294 241244.0 
254.083344 4214.0 
262.02713 3461.0 
274.063904 17405.0 
276.07901 37179.0 
290.057983 8976.0 
320.069244 527810.0 
END IONS

BEGIN IONS
PRECURSOR_MZ=305.078
INCHI=InChI=1S/C17H14O4/c1-19-15-5-3-2-4-12(15)6-8-14(18)13-7-9-16-17(10-13)21-11-20-16/h2-10H,11H2,1H3/b8-6+
SMILES=COc1ccccc1C=CC(=O)c1ccc2c(c1)OCO2
SCANS=2422
IONMODE=positive
COMPOUND_NAME=(2E)-1-(2H-benzo[3,4-d]1,3-dioxolan-5-yl)-3-(2-methoxyphenyl)prop-2-en-1-one M+Na
SPECTRUM_ID=CCMSLIB00006687763
53.551628 2195.0 
59.852299 2349.0 
71.782272 2277.0 
87.837021 2337.0 
90.97641 5386.0 
92.378777 2802.0 
103.666199 2309.0 
155.093643 2142.0 
209.708481 3917.0 
264.652893 2456.0 
305.077942 336242.0 
305.166962 10444.0 
305.209534 5411.0 
END IONS

BEGIN IONS
PRECURSOR_MZ=269.046
INCHI=InChI=1S/C15H10O5/c16-10-4-2-1-3-8(10)13-7-12(18)9-5-6-11(17)14(19)15(9)20-13/h1-7,16-17,19H
SMILES=O=c1cc(-c2ccccc2O)oc2c(O)c(O)ccc12
SCANS=4826
IONMODE=negative
COMPOUND_NAME=7,8,2'-Trihydroxyflavone M-H
SPECTRUM_ID=CCMSLIB00006690167
55.17572 24992.0 
89.780586 24848.0 
92.406067 32195.0 
95.013779 158427.0 
101.51963 23854.0 
104.31002 28391.0 
104.318367 32910.0 
107.013809 262730.0 
117.034554 370422.0 
119.049583 41602.0 
123.008751 292110.0 
133.029251 56066.0 
143.050659 107881.0 
145.02916 63357.0 
149.024078 40241.0 
151.003662 1592162.0 
157.065186 144908.0 
167.050385 102387.0 
169.013718 286634.0 
169.065979 1133909.0 
171.045609 126082.0 
180.057922 177458.0 
181.065918 185974.0 
182.037048 60643.0 
183.044373 179031.0 
185.060547 777658.0 
187.076462 48621.0 
195.045624 436880.0 
196.053223 301772.0 
197.060898 1965451.0 
198.031952 37528.0 
199.040451 249097.0 
210.031754 255348.0 
212.047318 121824.0 
213.056046 1247961.0 
223.040558 451801.0 
224.047546 545037.0 
225.055817 2201267.0 
239.035812 46802.0 
240.042725 160062.0 
241.050583 2603692.0 
251.035385 139715.0 
252.042267 180953.0 
267.030334 65118.0 
268.038818 361631.0 
269.045502 161330928.0 
END IONS

BEGIN IONS
PRECURSOR_MZ=225.139
INCHI=InChI=1S/C15H18N2O/c1-17-9-12-7-6-11-4-2-3-5-14(11)15(12,18)13(8-16)10-17/h2-5,12-13,18H,6-7,9-10H2,1H3
SMILES=CN1CC(C#N)C2(O)c3ccccc3CCC2C1
SCANS=2507
IONMODE=positive
COMPOUND_NAME=10b-hydroxy-3-methyl-5,6,10b,4a-tetrahydronaphtho[2,1-c]piperidinecarbonitrile M+H-H2O
SPECTRUM_ID=CCMSLIB00006687848
55.60368 2841.0 
56.04977 3180.0 
57.057819 41539.0 
58.065632 1771140.0 
68.04985 4978.0 
70.065399 38708.0 
70.292427 3311.0 
76.673698 3139.0 
82.065331 14124.0 
83.060753 2619.0 
91.054733 3622.0 
92.398666 4434.0 
92.995277 3081.0 
94.065353 3752.0 
95.060463 193778.0 
96.528313 2795.0 
101.949867 13037.0 
104.307716 4140.0 
105.070061 6205.0 
117.069763 29609.0 
117.684692 2988.0 
119.960663 4193.0 
121.075417 3851.0 
129.069626 36864.0 
131.085724 5469.0 
133.076111 14158.0 
136.244705 3985.0 
139.053192 2709.0 
141.069839 55972.0 
141.081467 3338.0 
143.085571 26819.0 
153.069641 40685.0 
154.064987 27494.0 
154.077896 49815.0 
154.960388 4145.0 
155.085495 179660.0 
156.975632 5762.0 
160.986816 11801.0 
165.069473 36350.0 
166.065765 6625.0 
167.072815 88405.0 
167.086578 7055.0 
172.11203 102369.0 
178.957169 11470.0 
180.080826 35531.0 
181.072006 4582.0 
181.088058 26861.0 
182.096375 560295.0 
183.091721 18623.0 
184.111984 14085.0 
185.119156 4805.0 
194.096207 3997.0 
196.112442 12909.0 
198.127777 18578.0 
200.973679 4113.0 
201.97316 31833.0 
225.138443 8188246.0 
227.039322 11546.0 
END IONS

BEGIN IONS
PRECURSOR_MZ=813.318
INCHI=InChI=1S/C18H25N5O4S/c1-23(2)15-9-3-7-13-12(15)6-4-10-16(13)28(26,27)22-14(17(24)25)8-5-11-21-18(19)20/h3-4,6-7,9-10,14,22H,5,8,11H2,1-2H3,(H,24,25)(H4,19,20,21)
SMILES=CN(C)c1cccc2c(S(=O)(=O)NC(CCCNC(=N)N)C(=O)O)cccc12
SCANS=12770
IONMODE=negative
COMPOUND_NAME=5-(amidinoamino)-2-({[5-(dimethylamino)naphthyl]sulfonyl}amino)pentanoic acid 2M-H
SPECTRUM_ID=CCMSLIB00006698111
60.555481 3307.0 
63.96207 12681.0 
73.452972 3528.0 
73.970451 3368.0 
82.422249 4040.0 
88.850037 3736.0 
94.929817 3013.0 
104.316978 4755.0 
114.055878 14862.0 
132.824341 3192.0 
143.050262 57125.0 
170.085114 20614.0 
171.069229 3893.0 
185.108246 27350.0 
186.093231 29260.0 
200.439453 3968.0 
214.087418 13020.0 
234.059555 131284.0 
234.085159 5823.0 
249.070251 61362.0 
325.49408 3312.0 
364.135895 4429.0 
406.155273 478470.0 
END IONS

BEGIN IONS
PRECURSOR_MZ=432.111
INCHI=InChI=1S/C24H18ClN3O3/c25-20-7-3-1-6-19(20)24(29)27-14-13-18-17-5-2-4-8-21(17)26-22(18)23(27)15-9-11-16(12-10-15)28(30)31/h1-12,23,26H,13-14H2
SMILES=O=C(c1ccccc1Cl)N1CCc2c([nH]c3ccccc23)C1c1ccc([N+](=O)[O-])cc1
SCANS=22473
IONMODE=positive
COMPOUND_NAME=2-chlorophenyl 1-(4-nitrophenyl)(1,2,3,4-tetrahydrobeta-carbolin-2-yl) ketone M+H
SPECTRUM_ID=CCMSLIB00006707814
65.038986 76290.0 
66.042427 17303.0 
67.018257 32116.0 
67.054764 8075.0 
68.997543 139941.0 
69.001602 8196.0 
69.033913 149867.0 
69.037857 7329.0 
70.000893 24046.0 
70.037209 29223.0 
71.013237 50879.0 
71.049843 5544.0 
73.028801 23874.0 
75.023537 24700.0 
77.039017 6033.0 
79.017952 34714.0 
79.054573 595042.0 
80.021698 9196.0 
80.052498 9085.0 
80.057854 212471.0 
81.03376 41044.0 
81.070137 49187.0 
82.037102 9084.0 
82.073486 20359.0 
83.012917 3990.0 
83.049263 5579.0 
86.999817 112555.0 
89.038681 16425.0 
90.042198 5155.0 
91.054367 290136.0 
92.057663 118221.0 
93.033722 31898.0 
94.041527 21089.0 
95.012802 75597.0 
95.049477 42672.0 
96.016281 17316.0 
96.052544 19458.0 
97.02858 20439.0 
103.054314 24219.0 
104.057213 5885.0 
104.280403 5906.0 
105.033783 7313.0 
105.044807 4990.0 
105.070267 32340.0 
106.073608 8605.0 
107.012756 723678.0 
107.04908 116421.0 
108.016037 264656.0 
108.052628 55377.0 
109.028526 54226.0 
109.06488 72832.0 
110.031807 18030.0 
110.06842 28503.0 
110.999573 22174.0 
111.007584 5853.0 
111.044167 60983.0 
112.047272 16825.0 
113.023323 59025.0 
114.026749 19708.0 
115.054047 43949.0 
116.057533 16867.0 
117.069733 17972.0 
118.036819 4918.0 
119.049088 92860.0 
120.052437 57002.0 
121.028961 40267.0 
121.038147 6320.0 
121.064873 8589.0 
122.031837 18696.0 
123.007248 7975.0 
123.043808 25157.0 
124.046944 6388.0 
125.014412 46760.0 
125.024193 43882.0 
126.02639 24122.0 
129.009918 31591.0 
130.064941 6943.0 
131.049011 21873.0 
132.052856 5871.0 
133.02803 5150.0 
133.064682 21733.0 
134.067932 15458.0 
135.044128 157183.0 
135.055573 7418.0 
136.047653 85556.0 
137.023468 232780.0 
137.034302 14660.0 
137.059723 206737.0 
138.026825 96423.0 
138.063019 114710.0 
138.994507 7161688.0 
140.041916 6392.0 
140.991394 16694.0 
143.049698 6312.0 
144.080734 375393.0 
145.063965 4820.0 
147.043854 75380.0 
148.047424 55874.0 
149.023376 79857.0 
149.059296 22533.0 
150.026566 45527.0 
150.06337 17799.0 
151.038528 26648.0 
152.042191 7121.0 
153.018127 98510.0 
153.054581 179006.0 
154.021683 42823.0 
154.057709 103236.0 
156.021957 4959.0 
157.00531 5234.0 
157.075806 17387.0 
159.043564 4080.0 
160.047684 5341.0 
161.023666 28681.0 
161.059692 44031.0 
162.026627 20759.0 
162.063065 40666.0 
163.038422 2683043.0 
163.04982 244457.0 
164.041809 1826605.0 
164.053177 136941.0 
165.018387 98163.0 
165.054611 89979.0 
166.021606 67900.0 
166.058121 60316.0 
168.021088 113445.0 
170.059433 7923.0 
175.038101 6559.0 
177.055634 4766.0 
178.056305 6980.0 
179.03418 31538.0 
180.036835 22420.0 
181.049438 113094.0 
182.052826 74038.0 
187.038345 22803.0 
188.042053 30886.0 
188.420349 4014.0 
189.054581 124531.0 
190.021271 4654.0 
190.057877 135883.0 
191.070038 33816.0 
192.073563 21340.0 
199.038849 6171.0 
200.040573 4413.0 
204.038696 4456.0 
204.079208 18656.0 
205.049149 55685.0 
206.053177 65451.0 
207.064941 96568.0 
208.068283 94265.0 
209.079071 5294.0 
215.06926 5890.0 
216.070648 3955.0 
217.088623 45139.0 
218.096649 68376.0 
219.104248 8166.0 
225.076447 6499.0 
226.078186 4967.0 
227.033035 42153.0 
228.036728 60933.0 
230.096863 87488.0 
231.091766 26028.0 
232.075348 71596.0 
242.055466 5374.0 
246.091522 77170.0 
247.099014 117316.0 
248.094421 5623.0 
251.093689 35684.0 
263.093658 102748.0 
264.057129 45565.0 
265.096649 45823.0 
267.044281 220260.0 
277.096863 409834.0 
282.06778 306070.0 
282.103638 9523.0 
296.068909 16223.0 
300.093201 6818.0 
301.132568 5210.0 
302.10556 6327.0 
326.071625 23066.0 
342.104401 14567.0 
344.117523 20556.0 
345.095612 10023.0 
346.100159 47750.0 
354.101624 6451.0 
369.09436 6824.0 
370.099274 119286.0 
372.117889 33203.0 
386.131897 13434.0 
387.105103 4190.0 
388.110382 96464.0 
389.122345 5988.0 
390.125824 71315.0 
396.112946 17358.0 
414.125824 529273.0 
432.10788 1268129.0 
450.146942 1163217.0 
450.211395 22872.0 
450.257355 19097.0 
452.155151 5539.0 
468.157654 812616.0 
713.215149 4494.0 
854.623718 4934.0 
END IONS

BEGIN IONS
PRECURSOR_MZ=269.081
INCHI=InChI=1S/C16H12O4/c1-19-12-4-2-3-10(7-12)15-9-14(18)13-6-5-11(17)8-16(13)20-15/h2-9,17H,1H3
SMILES=COc1cccc(-c2cc(=O)c3ccc(O)cc3o2)c1
SCANS=2625
IONMODE=positive
COMPOUND_NAME=7-Hydroxy-3'-methoxyflavone M+H
SPECTRUM_ID=CCMSLIB00006687966
51.325001 3244.0 
58.371571 3595.0 
82.398293 3936.0 
92.37484 3970.0 
126.469353 3871.0 
133.064651 8293.0 
137.02301 58659.0 
155.033569 18427.0 
159.043686 25230.0 
169.239868 4911.0 
212.077423 4921.0 
226.062103 800143.0 
238.062027 6893.0 
241.085831 18345.0 
252.073944 5232.0 
254.057022 840523.0 
267.06427 13159.0 
267.928467 5789.0 
268.074738 5787.0 
269.080414 21915338.0 
END IONS

BEGIN IONS
PRECURSOR_MZ=383.137
INCHI=InChI=1S/C22H20N2O3/c1-13-7-8-19-17(11-13)16(14(2)24-19)9-10-23-21(25)18-12-15-5-3-4-6-20(15)27-22(18)26/h3-8,11-12,24H,9-10H2,1-2H3,(H,23,25)
SMILES=Cc1ccc2[nH]c(C)c(CCN=C(O)c3cc4ccccc4oc3=O)c2c1
SCANS=15428
IONMODE=positive
COMPOUND_NAME=N-[2-(2,5-dimethylindol-3-yl)ethyl](2-oxochromen-3-yl)carboxamide M+Na
SPECTRUM_ID=CCMSLIB00006700769
50.283989 2388.0 
54.614731 2400.0 
57.778221 2763.0 
67.615898 2585.0 
80.552856 2437.0 
81.088768 2788.0 
83.0429 2419.0 
84.96003 3745.0 
96.85804 2845.0 
172.111816 5294.0 
185.186676 3528.0 
209.430145 4799.0 
383.136353 4018096.0 
END IONS

BEGIN IONS
PRECURSOR_MZ=476.15
INCHI=InChI=1S/C22H27N3O7S/c1-15(26)23-17-5-7-18(8-6-17)33(28,29)25-11-9-24(10-12-25)22(27)16-13-19(30-2)21(32-4)20(14-16)31-3/h5-8,13-14H,9-12H2,1-4H3,(H-,23,26,28,29)/p+1
SMILES=COc1cc(C(=O)N2CCN([S+](=O)([O-])c3ccc([NH+]=C(C)O)cc3)CC2)cc(OC)c1OC
SCANS=9800
IONMODE=negative
COMPOUND_NAME=NDL-3000-ST079100 M-2H
SPECTRUM_ID=CCMSLIB00006695141
54.499241 2771.0 
67.526497 2973.0 
79.957222 23901.0 
92.050369 6402.0 
94.029823 34190.0 
101.3255 2821.0 
102.42865 3076.0 
102.570137 2605.0 
104.293869 3407.0 
120.0457 3595.0 
122.024529 65395.0 
123.856789 2826.0 
125.796989 2610.0 
134.024841 7244.0 
134.060944 56673.0 
136.040161 17652.0 
136.222183 3931.0 
138.246017 2871.0 
148.177887 3170.0 
149.048111 198338.0 
149.061829 6940.0 
150.02002 3427.0 
164.036163 3938.0 
168.012436 297267.0 
176.875214 3066.0 
185.402054 3234.0 
192.030334 17132.0 
192.839951 2923.0 
198.022995 153680.0 
212.038422 34807.0 
227.049622 17741.0 
235.072189 17606.0 
240.695511 3194.0 
247.072647 22564.0 
249.088058 55163.0 
250.096344 19473.0 
251.103745 24993.0 
261.087555 32761.0 
263.10321 17918.0 
281.862518 3020.0 
376.096405 6812.0 
388.096283 3442.0 
390.110657 12745.0 
402.113159 4644.0 
404.092224 138654.0 
418.110199 12092.0 
419.115295 142116.0 
429.102844 4131.0 
434.139099 545724.0 
444.125885 4503.0 
446.103088 149187.0 
460.121521 4929.0 
461.126617 20766.0 
476.149841 2711844.0 
END IONS

BEGIN IONS
PRECURSOR_MZ=341.109
INCHI=InChI=1S/C12H22O11/c13-1-3-5(14)8(17)10(19)12(23-3)21-2-4-6(15)7(16)9(18)11(20)22-4/h3-20H,1-2H2/t3-,4-,5+,6-,7+,8+,9-,10-,11?,12+/m1/s1
SMILES=OC[C@H]1O[C@H](OC[C@H]2OC(O)[C@H](O)[C@@H](O)[C@@H]2O)[C@H](O)[C@@H](O)[C@H]1O
SCANS=388
IONMODE=negative
COMPOUND_NAME=melibiose M-H
SPECTRUM_ID=CCMSLIB00006685729
50.4842 2134.5 
59.013302 9165.730469 
71.013397 12862.099609 
73.9767 3066.51001 
82.322403 2086.449951 
88.842003 2179.01001 
89.024101 27710.400391 
92.405899 2692.060059 
101.024002 16306.200195 
104.317001 2378.280029 
113.025002 7265.660156 
119.035004 9132.620117 
122.652 2441.159912 
158.024994 2481.040039 
161.044998 4431.25 
178.654007 2116.469971 
179.056 24266.099609 
221.067001 23385.400391 
END IONS

BEGIN IONS
PRECURSOR_MZ=256.108
INCHI=InChI=1S/C14H13N3O2/c1-10-7-13(18)16(2)14(19)17(10)9-12-6-4-3-5-11(12)8-15/h3-7H,9H2,1-2H3
SMILES=Cc1cc(=O)n(C)c(=O)n1Cc1ccccc1C#N
SCANS=3532
IONMODE=positive
COMPOUND_NAME=2-[(3,6-dimethyl-2,4-dioxo-1,3-dihydropyrimidinyl)methyl]benzenecarbonitrile M+H
SPECTRUM_ID=CCMSLIB00006688873
53.255409 26369.0 
58.53318 24025.0 
73.957748 29546.0 
89.03878 219117.0 
96.044502 44451.0 
104.292801 29189.0 
110.023933 48625.0 
116.049431 32052692.0 
127.049622 52453.0 
130.064896 176521.0 
133.075577 191250.0 
134.059952 3035042.0 
139.051331 27119.0 
139.880692 27867.0 
147.092178 48205.0 
153.065552 49561.0 
156.081009 153395.0 
157.075897 820331.0 
157.985458 29599.0 
158.059906 518105.0 
171.091705 118007.0 
176.07103 26117.0 
182.06076 34452.0 
185.403717 29034.0 
197.071457 41508.0 
199.086441 17663648.0 
212.117615 184997.0 
214.344116 27763.0 
215.081436 984965.0 
215.103821 46518.0 
218.973572 25989.0 
225.067078 57934.0 
256.107697 85508216.0 
END IONS

BEGIN IONS
PRECURSOR_MZ=207.066
INCHI=InChI=1S/C11H12O4/c1-14-9-5-3-8(4-6-11(12)13)7-10(9)15-2/h3-7H,1-2H3,(H,12,13)/b6-4+
SMILES=COc1ccc(C=CC(=O)O)cc1OC
SCANS=8499
IONMODE=negative
COMPOUND_NAME=3,4-DIMETHOXYCINNAMIC ACID M-H
SPECTRUM_ID=CCMSLIB00006693840
73.945137 2452.0 
79.956947 2568.0 
85.921463 1958.0 
93.03434 4266.0 
97.872452 2158.0 
103.055367 12839.0 
105.070862 12718.0 
115.05542 13609.0 
118.042664 3689.0 
118.641434 2170.0 
118.992897 15192.0 
119.05027 49085.0 
131.050247 50650.0 
133.066101 69507.0 
139.001343 2798.0 
147.045502 22932.0 
149.061249 15461.0 
156.920334 2786.0 
160.742706 2514.0 
160.948044 3256.0 
162.983185 44454.0 
206.972656 14401.0 
207.066483 161097.0 
207.177612 2179.0 
210.309387 2515.0 
210.329071 3059.0 
END IONS

BEGIN IONS
PRECURSOR_MZ=749.225
INCHI=InChI=1S/C16H17F3N2O5/c1-3-25-11-6-9(4-5-10(11)22)13-12(8(2)20-15(24)21-13)14(23)26-7-16(17,18)19/h4-6,13,22H,3,7H2,1-2H3,(H2,20,21,24)
SMILES=CCOc1cc(C2NC(O)=NC(C)=C2C(=O)OCC(F)(F)F)ccc1O
SCANS=18515
IONMODE=positive
COMPOUND_NAME=2,2,2-trifluoroethyl 6-(3-ethoxy-4-hydroxyphenyl)-4-methyl-2-oxo-1,3,6-trihydr opyrimidine-5-carboxylate 2M+H
SPECTRUM_ID=CCMSLIB00006703856
61.040119 53555.0 
66.738251 5028.0 
76.87188 3722.0 
89.038658 8192.0 
94.028709 16207.0 
96.007874 25821.0 
98.05645 3381.0 
103.05397 21971.0 
107.049026 4531.0 
111.043983 6166.0 
115.054283 8350.0 
117.033363 24550.0 
130.040726 6189.0 
131.049042 21897.0 
135.044357 35002.0 
136.200424 4843.0 
137.034592 203451.0 
138.055008 15402.0 
141.033127 19572.0 
143.04895 41889.0 
145.028244 29973.0 
147.9077 3905.0 
157.815903 4642.0 
157.964066 4311.0 
158.035248 5169.0 
158.060471 14827.0 
159.044281 58190.0 
160.051834 25366.0 
161.059967 8503.0 
162.055038 19922.0 
163.038895 82628.0 
164.033798 27451.0 
166.086258 51703.0 
175.062988 8061.0 
176.046265 15076.0 
176.070908 20039.0 
177.054733 5732.0 
184.056595 4504.0 
186.031006 45210.0 
186.054077 15272.0 
187.038864 1615683.0 
188.046387 22101.0 
189.091385 9421.0 
191.070404 141287.0 
192.06572 61354.0 
203.03363 20761.0 
203.057755 33898.0 
204.041595 216782.0 
204.064972 41109.0 
204.101593 143586.0 
208.667084 14828.0 
213.052124 7495.0 
215.07019 603390.0 
232.072479 55131.0 
232.096878 79631.0 
233.056274 4018.0 
237.048065 253680.0 
241.046844 67257.0 
259.057587 31045.0 
267.045959 9084.0 
269.042023 57480.0 
275.101776 15689.0 
287.052643 52009.0 
287.086517 7348.0 
315.083496 562322.0 
332.109283 8018.0 
375.115967 1273816.0 
393.12735 7714.0 
416.142944 43510.0 
592.351318 5412.0 
END IONS

BEGIN IONS
PRECURSOR_MZ=326.044
INCHI=InChI=1S/C12H11N3O6S/c1-6-9(10(16)14-12(19)13-6)22(20,21)15-8-4-2-3-7(5-8)11(17)18/h2-5,15H,1H3,(H,17,18)(H2,13,14,16,19)
SMILES=Cc1nc(O)nc(O)c1S(=O)(=O)Nc1cccc(C(=O)O)c1
SCANS=22288
IONMODE=positive
COMPOUND_NAME=3-{[(6-methyl-2,4-dioxo-1,3-dihydropyrimidin-5-yl)sulfonyl]amino}benzoic acid M+H
SPECTRUM_ID=CCMSLIB00006707629
65.039032 25486.0 
68.049957 3355.0 
73.940041 3103.0 
79.510071 2309.0 
80.049759 26644.0 
82.02887 12177.0 
84.044479 10254.0 
84.584587 2731.0 
85.039528 3482.0 
88.969498 9613.0 
90.033791 5981.0 
91.041763 27255.0 
92.049507 71939.0 
94.229347 2565.0 
96.044182 4189.0 
104.049606 4424.0 
107.012894 4283.0 
108.044357 73139.0 
109.052071 20319.0 
110.060066 92102.0 
113.034409 9979.0 
118.028107 4442.0 
118.633713 2740.0 
119.036613 51560.0 
120.04438 339024.0 
124.022011 3935.0 
124.0392 26133.0 
127.050117 32409.0 
129.995972 13153.0 
130.065231 4040.0 
132.044907 6710.0 
133.076309 3697.0 
136.039322 116094.0 
136.05101 4742.0 
137.04718 1183604.0 
141.029297 46090.0 
145.07605 5521.0 
146.05986 6133.0 
150.001648 4383.0 
152.034241 50269.0 
153.042435 2911.0 
155.060989 2998.0 
156.044327 17101.0 
157.075775 19508.0 
167.004425 4110.0 
168.010651 14451.0 
173.001358 61677.0 
173.07103 17287.0 
174.022034 2884.0 
181.990585 22505.0 
184.03923 6509.0 
185.070938 104842.0 
186.271637 3081.0 
191.011658 4112.0 
201.065918 61944.0 
207.007004 11371.0 
217.059723 2889.0 
218.01149 93267.0 
222.021469 5610.0 
224.000748 3768.0 
227.045013 4377.0 
244.071259 40858.0 
248.001312 6301.0 
265.028046 13546.0 
308.033112 177715.0 
326.043671 713981.0 
END IONS

BEGIN IONS
PRECURSOR_MZ=206.082
INCHI=InChI=1S/C11H13NO3/c1-8(13)12-10(11(14)15)7-9-5-3-2-4-6-9/h2-6,10H,7H2,1H3,(H,12,13)(H,14,15)/t10-/m0/s1
SMILES=CC(O)=NC(Cc1ccccc1)C(=O)O
SCANS=16300
IONMODE=negative
COMPOUND_NAME=N-Acetyl-L-phenylalanine M-H
SPECTRUM_ID=CCMSLIB00006701641
58.029449 15206183.0 
59.1007 158540.0 
70.029663 5940703.0 
72.009041 3057309.0 
91.055382 2024146.0 
103.056084 211783.0 
104.302544 223854.0 
113.650467 170928.0 
124.460663 205085.0 
134.680099 161716.0 
135.045105 247562.0 
147.045197 19568864.0 
162.092926 369182.0 
164.071823 44229716.0 
176.127975 166219.0 
186.303543 175789.0 
206.08226 23721366.0 
209.250977 415658.0 
END IONS

BEGIN IONS
PRECURSOR_MZ=647.333
INCHI=InChI=1S/C34H54O8.Na/c1-9-25(31-21(6)18-34(11-3,42-31)26-16-17-33(40,10-2)23(8)41-26)30(37)22(7)28(35)19(4)12-14-24-15-13-20(5)29(36)27(24)32(38)39;/h13,15,19,21-23,25-26,28,31,35-36,40H,9-12,14,16-18H2,1-8H3,(H,38,39);/q;+1/p-1/t19-,21+,22+,23+,25+,26?,28+,31?,33-,34+;/m1./s1
SMILES=CCC(C(=O)C(C)C(O)C(C)CCc1ccc(C)c([O-])c1C(=O)O)C1OC(CC)(C2CCC(O)(CC)C(C)O2)CC1C.[Na+]
SCANS=4767
IONMODE=negative
COMPOUND_NAME=CHEMBL1563295 M+Cl
SPECTRUM_ID=CCMSLIB00006690108
60.891071 2769.0 
77.356178 2639.0 
99.081337 3665.0 
118.677383 3116.0 
121.065933 3825.0 
158.003235 3312.0 
173.096725 6043.0 
191.107422 16799.0 
197.727509 3138.0 
235.097473 71494.0 
260.470154 2944.0 
293.057098 3383.0 
571.375122 3485.0 
583.104919 3283.0 
589.375793 117649.0 
647.334717 147748.0 
END IONS

BEGIN IONS
PRECURSOR_MZ=267.077
INCHI=InChI=1S/C10H16N2O3S/c13-8(14)4-2-1-3-7-9-6(5-16-7)11-10(15)12-9/h6-7,9H,1-5H2,(H,13,14)(H2,11,12,15)/t6-,7-,9-/m0/s1
SMILES=O=C(O)CCCC[C@@H]1SC[C@@H]2N=C(O)N[C@H]12
SCANS=24135
IONMODE=positive
COMPOUND_NAME=biotin M+Na
SPECTRUM_ID=CCMSLIB00006709476
79.681198 29639.699219 
83.231102 29062.900391 
92.4105 44805.898438 
98.984596 167213.0 
131.772003 30976.800781 
198.770996 34735.101562 
238.457001 30307.5 
249.675003 39014.199219 
265.953003 33543.898438 
267.076996 50266800.0 
END IONS

BEGIN IONS
PRECURSOR_MZ=488.194
INCHI=InChI=1S/C29H27N3O3/c1-2-20-9-5-7-13-25(20)30-27(33)19-32-26-14-8-6-12-23(26)24(17-28(32)34)29(35)31-16-15-21-10-3-4-11-22(21)18-31/h3-14,17H,2,15-16,18-19H2,1H3,(H,30,33)
SMILES=CCc1ccccc1N=C(O)Cn1c(=O)cc(C(=O)N2CCc3ccccc3C2)c2ccccc21
SCANS=11935
IONMODE=positive
COMPOUND_NAME=N-(2-ethylphenyl)-2-[2-oxo-4-(2-1,2,3,4-tetrahydroisoquinolylcarbonyl)hydroqui nolyl]acetamide M+Na
SPECTRUM_ID=CCMSLIB00006697276
57.920719 2968.0 
58.24308 3282.0 
84.736908 3059.0 
357.120819 134750.0 
470.182983 5701.0 
488.19455 4986133.0 
499.44455 3441.0 
506.212921 3393.0 
END IONS

BEGIN IONS
PRECURSOR_MZ=147.113
INCHI=InChI=1S/C6H14N2O2/c7-4-2-1-3-5(8)6(9)10/h5H,1-4,7-8H2,(H,9,10)
SMILES=NCCCCC(N)C(=O)O
SCANS=24093
IONMODE=positive
COMPOUND_NAME=DL-Lysine M+H
SPECTRUM_ID=CCMSLIB00006709434
56.0504 8912.30957 
66.740898 2360.580078 
67.055099 9284.200195 
74.024597 2857.290039 
82.398804 2324.360107 
84.081497 1555680.0 
85.065598 4569.379883 
92.885696 2284.120117 
94.0783 2166.790039 
102.092003 8607.80957 
102.246002 2361.860107 
112.075996 5197.299805 
123.964996 12438.0 
129.102005 11302.700195 
130.087006 357367.0 
147.113007 25322.5 
END IONS

BEGIN IONS
PRECURSOR_MZ=146.06
INCHI=InChI=1S/C9H9NO2/c11-9(12)8-5-6-3-1-2-4-7(6)10-8/h1-4,8,10H,5H2,(H,11,12)/t8-/m0/s1
SMILES=O=C(O)C1Cc2ccccc2N1
SCANS=23391
IONMODE=positive
COMPOUND_NAME=(2S)indoline-2-carboxylic acid M+H-H2O
SPECTRUM_ID=CCMSLIB00006708732
55.437019 2019.0 
64.612259 2302.0 
73.961273 2293.0 
82.411011 2465.0 
91.054367 76771.0 
100.044167 2145.0 
104.297493 3019.0 
117.057343 23332.0 
118.065109 824749.0 
122.019272 4602.0 
123.022888 4434.0 
146.059967 176256.0 
157.991867 2375.0 
205.692078 2184.0 
END IONS

BEGIN IONS
PRECURSOR_MZ=320.222
INCHI=InChI=1S/C19H29NO3/c1-15(2)11-7-4-5-10-14-17(19(22)23-3)20-18(21)16-12-8-6-9-13-16/h6,8-9,12-13,15,17H,4-5,7,10-11,14H2,1-3H3,(H,20,21)
SMILES=COC(=O)C(CCCCCCC(C)C)N=C(O)c1ccccc1
SCANS=12893
IONMODE=positive
COMPOUND_NAME=methyl 9-methyl-2-(phenylcarbonylamino)decanoate M+H
SPECTRUM_ID=CCMSLIB00006698234
50.015549 813274.0 
51.023319 1043416.0 
53.00275 122054.0 
53.039051 2635879.0 
55.01828 499794.0 
57.806801 92887.0 
64.485359 74838.0 
68.997673 88894.0 
69.070259 151682.0 
77.038643 1554563.0 
81.033707 1908547.0 
83.086029 135641.0 
90.330254 70382.0 
92.395119 79960.0 
95.049171 7355342.0 
98.01577 80413.0 
104.026077 98306.0 
104.754341 111066.0 
105.033417 256549824.0 
105.314529 104140.0 
118.064827 458536.0 
122.059792 108879.0 
134.05928 89957.0 
155.688126 72854.0 
178.626938 81007.0 
213.382355 128002.0 
252.551956 89557.0 
260.200409 67078668.0 
274.216034 159687.0 
288.195038 8359863.0 
302.210205 511572.0 
320.221222 7350954.0 
END IONS

BEGIN IONS
PRECURSOR_MZ=377.147
INCHI=InChI=1S/C20H22N2O4/c1-25-15-11-14(12-16(13-15)26-2)19(23)21-18-8-4-3-7-17(18)20(24)22-9-5-6-10-22/h3-4,7-8,11-13H,5-6,9-10H2,1-2H3,(H,21,23)
SMILES=COc1cc(OC)cc(C(O)=Nc2ccccc2C(=O)N2CCCC2)c1
SCANS=3338
IONMODE=positive
COMPOUND_NAME=(3,5-dimethoxyphenyl)-N-[2-(pyrrolidinylcarbonyl)phenyl]carboxamide M+Na
SPECTRUM_ID=CCMSLIB00006688679
90.931808 2878.0 
104.27346 3760.0 
114.996048 3721.0 
116.991608 21211.0 
148.518417 3129.0 
165.054733 97800.0 
166.042679 4549.0 
166.058075 103207.0 
167.060425 23935.0 
168.062912 6667.0 
178.497787 3964.0 
210.0298 5794.0 
236.030304 26074.0 
237.031952 39799.0 
238.024277 229523.0 
239.027512 286006.0 
253.957611 3575.0 
255.640778 2961.0 
362.123199 6632.0 
377.096588 1596732.0 
377.146912 6605594.0 
418.172058 14238.0 
END IONS

BEGIN IONS
PRECURSOR_MZ=295.075
INCHI=InChI=1S/C13H14N2O4S/c1-17-9-6-8(7-10(18-2)11(9)19-3)12(16)15-13-14-4-5-20-13/h4-7H,1-3H3,(H,14,15,16)
SMILES=COc1cc(C(O)=Nc2nccs2)cc(OC)c1OC
SCANS=1626
IONMODE=positive
COMPOUND_NAME=N-(1,3-thiazol-2-yl)(3,4,5-trimethoxyphenyl)carboxamide M+H
SPECTRUM_ID=CCMSLIB00006686967
73.960892 3799.0 
75.044632 3873.0 
78.389 3201.0 
79.05439 34789.0 
81.03373 7723.0 
81.069992 20046.0 
83.049217 5358.0 
90.9767 17489.0 
92.247147 3397.0 
93.59671 3092.0 
96.056824 4237.0 
96.110641 3218.0 
96.843193 3644.0 
104.29763 4255.0 
109.064621 42463.0 
111.080421 7384.0 
113.023598 23230.0 
113.059486 6280.0 
122.035896 16770.0 
123.042229 3889.0 
124.052002 32555.0 
126.99588 126526.0 
128.04657 41096.0 
139.075211 114464.0 
141.018188 40139.0 
143.070435 6125.0 
151.03804 4092.0 
152.046387 118736.0 
156.041351 74865.0 
158.963913 5327.0 
167.072342 4183.0 
180.040741 6092.0 
184.036407 5852.0 
185.081848 24590.0 
187.407486 3589.0 
195.06485 11236457.0 
211.250137 4107.0 
271.84671 4450.0 
277.063629 46941.0 
295.073975 2712555.0 
END IONS

BEGIN IONS
PRECURSOR_MZ=478.074
INCHI=InChI=1S/C22H22BrN3O3/c1-3-25(4-2)22(29)18-13-21(28)26(19-8-6-5-7-17(18)19)14-20(27)24-16-11-9-15(23)10-12-16/h5-13H,3-4,14H2,1-2H3,(H,24,27)
SMILES=CCN(CC)C(=O)c1cc(=O)n(CC(=O)Nc2ccc(Br)cc2)c2ccccc12
SCANS=22481
IONMODE=positive
COMPOUND_NAME=2-[4-(N,N-diethylcarbamoyl)-2-oxohydroquinolyl]-N-(4-bromophenyl)acetamide M+Na
SPECTRUM_ID=CCMSLIB00006707822
56.965309 3836.0 
60.78553 2604.0 
64.828522 2816.0 
76.990097 2743.0 
83.721001 2537.0 
102.999687 2628.0 
118.651993 3382.0 
120.785439 2639.0 
126.347137 2639.0 
209.848999 4063.0 
243.6772 2993.0 
257.128357 4981.0 
406.997742 19801.0 
477.56604 15188.0 
478.073212 2353877.0 
480.791962 2917.0 
486.571564 15704.0 
498.077576 4736.0 
END IONS

BEGIN IONS
PRECURSOR_MZ=579.172
INCHI=InChI=1S/C27H32O14/c1-10-20(31)22(33)24(35)26(38-10)37-9-18-21(32)23(34)25(36)27(41-18)39-13-6-14(29)19-15(30)8-16(40-17(19)7-13)11-2-4-12(28)5-3-11/h2-7,10,16,18,20-29,31-36H,8-9H2,1H3
SMILES=CC1OC(OCC2OC(Oc3cc(O)c4c(c3)OC(c3ccc(O)cc3)CC4=O)C(O)C(O)C2O)C(O)C(O)C1O
SCANS=10867
IONMODE=negative
COMPOUND_NAME=5-Hydroxy-2-(4-hydroxyphenyl)-4-oxo-3,4-dihydro-2h-chromen-7-yl 6-o-(6-deoxyhexopyranosyl)hexopyranoside M-H
SPECTRUM_ID=CCMSLIB00006696208
54.521358 3712.0 
55.332649 4036.0 
58.111919 3302.0 
63.023891 5948.0 
63.198299 3919.0 
63.826561 4025.0 
63.841759 3279.0 
65.002853 36000.0 
65.511452 4502.0 
66.92408 3472.0 
71.013634 5538.0 
80.590317 3705.0 
83.013649 30747.0 
93.03463 128055.0 
107.005768 4176.0 
107.013947 112608.0 
119.050323 413680.0 
125.024307 37526.0 
135.00914 5624.0 
136.232468 3827.0 
137.023529 5162.0 
139.380051 3967.0 
143.051193 4951.0 
145.029541 30838.0 
149.023788 13926.0 
151.003723 1430603.0 
164.011642 4069.0 
165.019501 82253.0 
169.015015 28193.0 
174.98732 5499.0 
175.003769 125573.0 
177.019318 123632.0 
179.035065 8908.0 
185.060349 6996.0 
187.040329 6322.0 
189.019699 15988.0 
193.01413 68452.0 
203.072876 3741.0 
205.014099 8446.0 
208.41748 8510.0 
208.440323 8103.0 
217.013306 5254.0 
219.027908 4727.0 
227.071487 71002.0 
229.050568 7103.0 
231.029099 4079.0 
241.049728 6084.0 
271.061371 5711345.0 
280.82254 4122.0 
285.076935 19959.0 
295.061218 182969.0 
313.071747 129882.0 
325.073395 15166.0 
337.071625 6108.0 
459.115112 48249.0 
579.172791 3612289.0 
END IONS

BEGIN IONS
PRECURSOR_MZ=631.163
INCHI=InChI=1S/C28H32O15/c1-10-21(32)23(34)25(36)27(40-10)39-9-19-22(33)24(35)26(37)28(43-19)41-12-6-14(30)20-15(31)8-17(42-18(20)7-12)11-3-4-16(38-2)13(29)5-11/h3-8,10,19,21-30,32-37H,9H2,1-2H3/t10?,19?,21-,22+,23-,24+,25-,26-,27?,28?/m0/s1
SMILES=COc1ccc(-c2cc(=O)c3c(O)cc(OC4OC(COC5OC(C)C(O)C(O)C5O)C(O)C(O)C4O)cc3o2)cc1O
SCANS=21100
IONMODE=positive
COMPOUND_NAME=Diosmin, Barosmin, Diosmetin-7-O-rutinoside M+Na
SPECTRUM_ID=CCMSLIB00006706441
73.931686 3202.0 
82.374939 3639.0 
139.814896 3306.0 
147.805252 3263.0 
153.017227 3869.0 
251.402161 3371.0 
301.070251 6944.0 
308.029388 3856.0 
323.052704 64218.0 
331.09964 84733.0 
463.130066 4089.0 
485.107697 6077.0 
631.163025 5703537.0 
END IONS

BEGIN IONS
PRECURSOR_MZ=377.23
INCHI=InChI=1S/C20H34O5/c1-2-3-6-9-15(21)12-13-17-16(18(22)14-19(17)23)10-7-4-5-8-11-20(24)25/h12-13,15-17,19,21,23H,2-11,14H2,1H3,(H,24,25)/b13-12+/t15-,16+,17+,19+/m0/s1
SMILES=CCCCCC(O)C=CC1C(O)CC(=O)C1CCCCCCC(=O)O
SCANS=7541
IONMODE=positive
COMPOUND_NAME=alprostadil M+Na
SPECTRUM_ID=CCMSLIB00006692882
55.03986 2853.0 
59.940319 2673.0 
66.74543 3095.0 
67.054657 5153.0 
76.343826 2891.0 
86.120293 2864.0 
104.292801 3364.0 
110.164749 2977.0 
118.208397 2975.0 
174.961533 3126.0 
301.218842 5656.0 
319.224945 5934.0 
356.210602 26147.0 
356.712189 27593.0 
359.218201 56523.0 
375.183868 11437.0 
377.229553 7692191.0 
379.122894 3609.0 
393.196136 23974.0 
395.226288 6897.0 
END IONS

BEGIN IONS
PRECURSOR_MZ=383.114
INCHI=InChI=1S/C14H20N6O5S/c15-6(14(23)24)1-2-26-3-7-9(21)10(22)13(25-7)20-5-19-8-11(16)17-4-18-12(8)20/h4-7,9-10,13,21-22H,1-3,15H2,(H,23,24)(H2,16,17,18)/t6-,7+,9+,10+,13+/m0/s1
SMILES=Nc1ncnc2c1ncn2[C@@H]1O[C@H](CSCC[C@H](N)C(=O)O)[C@@H](O)[C@H]1O
SCANS=52
IONMODE=negative
COMPOUND_NAME=S-adenosyl-L-homocysteine M-H
SPECTRUM_ID=CCMSLIB00006685393
53.751801 83207.296875 
62.1036 76707.703125 
71.013397 350189.0 
73.705299 87439.898438 
74.990601 539601.0 
86.990799 535378.0 
134.046997 16805100.0 
137.317001 87858.703125 
147.011002 105266.0 
158.011993 114930.0 
176.037994 179126.0 
181.492004 87814.296875 
188.039001 961070.0 
218.065002 99903.898438 
248.059998 747976.0 
256.415009 87108.898438 
256.609009 86653.5 
289.609009 89898.796875 
383.11499 10278800.0 
END IONS

BEGIN IONS
PRECURSOR_MZ=498.202
INCHI=InChI=1S/C29H27N3O5/c1-36-21-11-12-26(37-2)24(15-21)30-27(33)18-32-25-10-6-5-9-22(25)23(16-28(32)34)29(35)31-14-13-19-7-3-4-8-20(19)17-31/h3-12,15-16H,13-14,17-18H2,1-2H3,(H,30,33)
SMILES=COc1ccc(OC)c(N=C(O)Cn2c(=O)cc(C(=O)N3CCc4ccccc4C3)c3ccccc32)c1
SCANS=11867
IONMODE=positive
COMPOUND_NAME=N-(2,5-dimethoxyphenyl)-2-[2-oxo-4-(2-1,2,3,4-tetrahydroisoquinolylcarbonyl)hy droquinolyl]acetamide M+H
SPECTRUM_ID=CCMSLIB00006697208
53.856209 2527.0 
55.94194 2688.0 
58.543991 2707.0 
73.967812 2752.0 
77.661682 2376.0 
90.129837 2582.0 
95.76825 2655.0 
101.455627 2451.0 
104.308098 3030.0 
106.732674 2967.0 
130.064743 5138.0 
132.080704 20232.0 
138.054596 3843.0 
138.622589 2514.0 
146.096451 5910.0 
153.078247 28998.0 
154.081879 13698.0 
158.008804 2417.0 
158.059601 24534.0 
160.076096 3952.0 
161.460281 2882.0 
181.505646 3026.0 
186.054642 17058.0 
305.127289 26443.0 
317.128021 84498.0 
318.129333 4036.0 
345.122803 394385.0 
346.126099 16262.0 
353.433411 2508.0 
498.196625 11119.0 
END IONS

BEGIN IONS
PRECURSOR_MZ=229.086
INCHI=InChI=1S/C14H12O3/c1-7-4-12(15)17-14-9(3)13-10(6-11(7)14)5-8(2)16-13/h4-6H,1-3H3
SMILES=Cc1cc2cc3c(C)cc(=O)oc3c(C)c2o1
SCANS=8149
IONMODE=positive
COMPOUND_NAME=trioxsalen M+H
SPECTRUM_ID=CCMSLIB00006693490
82.082687 2898.0 
104.281326 3163.0 
105.653877 2518.0 
106.444771 2624.0 
109.102348 2475.0 
129.069855 35899.0 
141.070023 3972.0 
142.077637 106709.0 
145.064453 5445.0 
145.10144 4494.0 
155.085571 4085.0 
157.10112 46864.0 
167.085678 4253.0 
170.072388 31007.0 
173.079391 5258.0 
173.096069 111141.0 
183.079895 4535.0 
185.096161 32876.0 
186.067764 3045.0 
201.091034 57574.0 
214.062607 4262.0 
228.18895 3477.0 
229.0858 3497563.0 
229.988586 3090.0 
END IONS

BEGIN IONS
PRECURSOR_MZ=291.063
INCHI=InChI=1S/C16H12O4/c1-19-12-5-2-10(3-6-12)14-9-20-15-8-11(17)4-7-13(15)16(14)18/h2-9,17H,1H3
SMILES=COc1ccc(-c2coc3cc(O)ccc3c2=O)cc1
SCANS=13857
IONMODE=positive
COMPOUND_NAME=formononetin M+Na
SPECTRUM_ID=CCMSLIB00006699198
82.396156 1962.0 
89.151871 2378.0 
104.288017 3105.0 
104.433617 2398.0 
136.211639 2645.0 
148.031555 2565.0 
246.678787 2266.0 
291.062134 1184651.0 
309.07193 4524.0 
END IONS

BEGIN IONS
PRECURSOR_MZ=282.077
INCHI=InChI=1S/C11H17NO4S/c1-15-10-5-4-9(8-11(10)16-2)6-7-12-17(3,13)14/h4-5,8,12H,6-7H2,1-3H3
SMILES=COc1ccc(CCNS(C)(=O)=O)cc1OC
SCANS=10818
IONMODE=positive
COMPOUND_NAME=[2-(3,4-dimethoxyphenyl)ethyl](methylsulfonyl)amine M+Na
SPECTRUM_ID=CCMSLIB00006696159
53.849499 2610.0 
54.352798 2901.0 
69.526718 2461.0 
99.798553 2401.0 
136.22818 2867.0 
138.47168 2832.0 
165.08989 2866.0 
267.054413 3785.0 
282.076385 3666509.0 
300.088501 4645.0 
END IONS

BEGIN IONS
PRECURSOR_MZ=316.05
INCHI=InChI=1S/C17H13ClO4/c1-20-14-5-3-10(7-15(14)21-2)8-16-17(19)12-9-11(18)4-6-13(12)22-16/h3-9H,1-2H3/b16-8-
SMILES=COc1ccc(C=C2Oc3ccc(Cl)cc3C2=O)cc1OC
SCANS=3617
IONMODE=positive
COMPOUND_NAME=2-[(3,4-dimethoxyphenyl)methylene]-5-chlorobenzo[b]furan-3-one M-e
SPECTRUM_ID=CCMSLIB00006688958
73.954369 2909.0 
92.299843 2460.0 
92.377281 3060.0 
119.049103 4603.0 
133.99794 2660.0 
154.989365 76315.0 
157.976944 2985.0 
162.066864 3649.0 
182.072357 3716.0 
182.71109 2613.0 
217.041107 11776.0 
227.026474 10229.0 
245.036636 11669.0 
255.02005 15431.0 
258.009766 4267.0 
270.006958 12876.0 
271.015869 12658.0 
273.030884 124803.0 
273.063843 5183.0 
285.031097 282065.0 
299.599792 2877.0 
300.985626 5283.0 
301.025818 285981.0 
315.041382 146364.0 
316.049377 1741293.0 
317.058807 19972.0 
627.924255 3188.0 
END IONS

BEGIN IONS
PRECURSOR_MZ=486.022
INCHI=InChI=1S/C20H20Cl3N3O3S/c1-11-12(13-5-4-6-15(21)19(13)25-11)7-8-24-20(27)14-9-18(17(23)10-16(14)22)30(28,29)26(2)3/h4-6,9-10,25H,7-8H2,1-3H3,(H,24,27)
SMILES=Cc1[nH]c2c(Cl)cccc2c1CCN=C(O)c1cc(S(=O)(=O)N(C)C)c(Cl)cc1Cl
SCANS=20715
IONMODE=negative
COMPOUND_NAME={5-[(dimethylamino)sulfonyl]-2,4-dichlorophenyl}-N-[2-(7-chloro-2-methylindol- 3-yl)ethyl]carboxamide M-H
SPECTRUM_ID=CCMSLIB00006706056
63.962002 5016.0 
64.969749 4804.0 
73.708397 2504.0 
73.968742 2923.0 
77.615662 2900.0 
84.705757 2865.0 
99.364677 3019.0 
115.970734 3174.0 
144.961243 28798.0 
146.96077 5348.0 
157.997253 2499.0 
164.026917 4621.0 
208.878998 11269.0 
208.923706 37477.0 
233.04834 498055.0 
234.001419 3667.0 
247.905869 2806.0 
251.96553 184503.0 
295.954987 43578.0 
450.042358 21740.0 
486.02179 497830.0 
END IONS

BEGIN IONS
PRECURSOR_MZ=483.118
INCHI=InChI=1S/C28H21FN2O3S/c1-33-26-13-10-20(14-27(26)34-2)25(32)17-35-28-23(16-30)22(18-8-11-21(29)12-9-18)15-24(31-28)19-6-4-3-5-7-19/h3-15H,17H2,1-2H3
SMILES=COc1ccc(C(=O)CSc2nc(-c3ccccc3)cc(-c3ccc(F)cc3)c2C#N)cc1OC
SCANS=19655
IONMODE=negative
COMPOUND_NAME=2-[2-(3,4-dimethoxyphenyl)-2-oxoethylthio]-4-(4-fluorophenyl)-6-phenylpyridine -3-carbonitrile M-H
SPECTRUM_ID=CCMSLIB00006704996
108.248756 2654.0 
118.031487 2583.0 
123.009109 4144.0 
125.574677 2388.0 
129.423798 2613.0 
194.011063 2543.0 
209.832535 3935.0 
209.851913 6018.0 
228.558487 2969.0 
266.989105 2892.0 
317.055847 13603.0 
318.062775 27915.0 
356.974945 2951.0 
442.974487 3143.0 
452.063232 3019.0 
462.983948 2975.0 
482.986481 16313.0 
483.116577 49637.0 
544.977783 2539.0 
599.328491 2583.0 
END IONS

BEGIN IONS
PRECURSOR_MZ=457.078
INCHI=InChI=1S/C22H18O11/c23-10-5-12(24)11-7-18(33-22(31)9-3-15(27)20(30)16(28)4-9)21(32-17(11)6-10)8-1-13(25)19(29)14(26)2-8/h1-6,18,21,23-30H,7H2/t18-,21-/m1/s1
SMILES=O=C(OC1Cc2c(O)cc(O)cc2OC1c1cc(O)c(O)c(O)c1)c1cc(O)c(O)c(O)c1
SCANS=22519
IONMODE=negative
COMPOUND_NAME=EGCG M-H
SPECTRUM_ID=CCMSLIB00006707860
57.0341 37416.0 
67.018341 4114.0 
69.034241 17598.0 
73.950577 2922.0 
81.034286 5017.0 
83.013779 2774.0 
89.679787 2423.0 
92.375992 4046.0 
94.819504 2552.0 
95.013847 11451.0 
97.029404 16768.0 
104.281853 2988.0 
105.034622 12059.0 
107.013947 12616.0 
109.029533 13958.0 
121.218803 2555.0 
123.008797 11019.0 
124.016861 4895.0 
125.024513 830397.0 
131.916641 2733.0 
137.024384 22394.0 
139.040253 11430.0 
146.961288 3392.0 
149.025269 4229.0 
161.024643 47720.0 
165.019287 12078.0 
167.035294 14307.0 
169.014435 868729.0 
177.055634 10225.0 
193.013855 21196.0 
215.176498 2846.0 
219.065781 4626.0 
232.144333 2744.0 
269.045593 10249.0 
287.055969 6438.0 
305.067047 65288.0 
324.097137 2982.0 
331.046173 21546.0 
343.855164 2843.0 
457.075775 13383.0 
END IONS

BEGIN IONS
PRECURSOR_MZ=255.065
INCHI=InChI=1S/C15H10O4/c16-10-6-7-11-12(8-10)19-15(14(18)13(11)17)9-4-2-1-3-5-9/h1-8,16,18H
SMILES=O=c1c(O)c(-c2ccccc2)oc2cc(O)ccc12
SCANS=6101
IONMODE=positive
COMPOUND_NAME=3,7-dihydroxyflavone M+H
SPECTRUM_ID=CCMSLIB00006691442
54.92207 2074.0 
62.846481 2188.0 
66.773338 2412.0 
67.345787 2264.0 
69.546341 2391.0 
73.670158 2199.0 
83.651016 3036.0 
104.332291 3142.0 
105.033409 10943.0 
137.023315 14715.0 
149.023178 12286.0 
153.573746 1969.0 
181.064789 4530.0 
199.074799 3902.0 
255.064651 2359645.0 
END IONS

BEGIN IONS
PRECURSOR_MZ=153.055
INCHI=InChI=1S/C8H8O3/c1-11-8-4-6(5-9)2-3-7(8)10/h2-5,10H,1H3
SMILES=COc1cc(C=O)ccc1O
SCANS=8908
IONMODE=positive
COMPOUND_NAME=vanillin M+H
SPECTRUM_ID=CCMSLIB00006694249
65.039101 1574123.0 
70.94239 90022.0 
70.958183 19244.0 
85.623703 20109.0 
89.01368 17373.0 
93.033783 6109882.0 
97.065292 40380.0 
107.049004 37923.0 
110.0364 698455.0 
111.044228 7101209.0 
111.968338 209026.0 
118.659851 18644.0 
125.059937 9423419.0 
126.923401 18899.0 
129.978561 28428.0 
134.060257 649262.0 
153.054871 4894133.0 
174.830475 18575.0 
END IONS

BEGIN IONS
PRECURSOR_MZ=304.094
INCHI=InChI=1S/C17H15NO3/c19-16(18-15-9-5-2-6-10-15)13-21-17(20)12-11-14-7-3-1-4-8-14/h1-12H,13H2,(H,18,19)/b12-11+
SMILES=O=C(C=Cc1ccccc1)OCC(O)=Nc1ccccc1
SCANS=10447
IONMODE=positive
COMPOUND_NAME=(N-phenylcarbamoyl)methyl (2E)-3-phenylprop-2-enoate M+Na
SPECTRUM_ID=CCMSLIB00006695788
80.773071 2449.0 
90.976692 4035.0 
95.542068 2339.0 
174.877335 2578.0 
224.107666 2512.0 
226.894089 3172.0 
280.8685 2512.0 
289.63562 2188.0 
304.093903 1918167.0 
END IONS

BEGIN IONS
PRECURSOR_MZ=393.218
INCHI=InChI=1S/C24H30N2O3/c1-2-29-22(27)21(10-18-14-25-20-6-4-3-5-19(18)20)26-23(28)24-11-15-7-16(12-24)9-17(8-15)13-24/h3-6,14-17,21,25H,2,7-13H2,1H3,(H,26,28)
SMILES=CCOC(=O)C(Cc1c[nH]c2ccccc12)N=C(O)C12CC3CC(CC(C3)C1)C2
SCANS=7766
IONMODE=negative
COMPOUND_NAME=ethyl 2-(adamantanylcarbonylamino)-3-indol-3-ylpropanoate M-H
SPECTRUM_ID=CCMSLIB00006693107
55.70734 2503.0 
82.39975 2553.0 
85.341858 2599.0 
92.38192 3804.0 
116.050453 3975.0 
118.659492 3643.0 
168.990295 2792.0 
192.989197 35230.0 
193.861603 2346.0 
207.96875 9682.0 
207.989014 5306.0 
218.118698 602109.0 
236.129822 16231.0 
242.985474 18734.0 
254.98703 5304.0 
264.160492 278912.0 
306.979523 3970.0 
323.981171 12936.0 
342.980286 10478.0 
372.978149 11232.0 
374.969147 2572.0 
392.977295 271078.0 
393.218536 905700.0 
395.254791 2581.0 
467.638397 3147.0 
END IONS

BEGIN IONS
PRECURSOR_MZ=523.128
INCHI=InChI=1S/C27H24N2O7/c1-33-19-14-17(27(32)36-4)22(25(35-3)24(19)34-2)29-26(31)23(30)20-16-12-8-9-13-18(16)28-21(20)15-10-6-5-7-11-15/h5-14,28H,1-4H3,(H,29,31)
SMILES=COC(=O)c1cc(OC)c(OC)c(OC)c1NC(=O)C(=O)c1c(-c2ccccc2)[nH]c2ccccc12
SCANS=18590
IONMODE=negative
COMPOUND_NAME=methyl 3,4,5-trimethoxy-2-[2-oxo-2-(2-phenylindol-3-yl)acetylamino]benzoate M+Cl
SPECTRUM_ID=CCMSLIB00006703931
68.207977 2477.0 
86.842644 2584.0 
92.373779 2868.0 
112.985657 4156.0 
118.647659 2913.0 
132.030823 2596.0 
136.938232 2900.0 
160.334793 2587.0 
192.082275 42945.0 
378.983063 3075.0 
461.424957 2612.0 
487.150238 5599.0 
END IONS

BEGIN IONS
PRECURSOR_MZ=454.174
INCHI=InChI=1S/C25H25N3O4/c1-5-28-20-9-7-6-8-18(20)19-12-16(10-11-21(19)28)15-26-27-25(29)17-13-22(30-2)24(32-4)23(14-17)31-3/h6-15H,5H2,1-4H3,(H,27,29)/b26-15+
SMILES=CCn1c2ccccc2c2cc(C=NN=C(O)c3cc(OC)c(OC)c(OC)c3)ccc21
SCANS=16025
IONMODE=positive
COMPOUND_NAME=N-[(1E)-2-(9-ethylcarbazol-3-yl)-1-azavinyl](3,4,5-trimethoxyphenyl)carboxamid e M+Na
SPECTRUM_ID=CCMSLIB00006701366
59.944969 2738.0 
60.54034 2933.0 
61.831791 2719.0 
73.955879 3730.0 
104.287903 4775.0 
145.934586 3639.0 
198.091187 12846.0 
203.031097 18288.0 
211.063034 22108.0 
221.10611 25094.0 
223.259354 2989.0 
253.988571 3012.0 
303.179474 7273.0 
397.643646 3378.0 
431.66803 3784.0 
439.151733 16300.0 
451.672272 3397.0 
454.172821 6163363.0 
472.182556 20133.0 
END IONS

BEGIN IONS
PRECURSOR_MZ=296.082
INCHI=InChI=1S/C11H15N5O3S/c1-20-2-5-7(17)8(18)11(19-5)16-4-15-6-9(12)13-3-14-10(6)16/h3-5,7-8,11,17-18H,2H2,1H3,(H2,12,13,14)/t5-,7-,8-,11-/m1/s1
SMILES=CSCC1OC(n2cnc3c(N)ncnc32)C(O)C1O
SCANS=5882
IONMODE=negative
COMPOUND_NAME=Methylthioadenosine M-H
SPECTRUM_ID=CCMSLIB00006691223
60.543789 2933.0 
82.406326 2741.0 
92.025063 4226.0 
107.036201 16875.0 
113.024292 3985.0 
114.076149 2455.0 
134.047089 2741520.0 
146.121887 2380.0 
148.061447 3036.0 
158.04364 2477.0 
203.171478 2718.0 
277.003662 3023.0 
296.082306 488119.0 
299.854279 2902.0 
END IONS

BEGIN IONS
PRECURSOR_MZ=300.208
INCHI=InChI=1S/C20H28O2/c1-15(8-6-9-16(2)14-19(21)22)11-12-18-17(3)10-7-13-20(18,4)5/h6,8-9,11-12,14H,7,10,13H2,1-5H3,(H,21,22)/b9-6+,12-11+,15-8+,16-14+
SMILES=CC(C=CC1=C(C)CCCC1(C)C)=CC=CC(C)=CC(=O)O
SCANS=22843
IONMODE=positive
COMPOUND_NAME=Retinoic acid M-e
SPECTRUM_ID=CCMSLIB00006708184
51.093811 3508.0 
53.039322 3616.0 
55.054939 15973.0 
57.07066 3722.0 
65.039627 2939.0 
67.055023 24302.0 
69.07058 50136.0 
79.054878 37698.0 
81.070374 43038.0 
83.08567 5171.0 
91.054771 51884.0 
92.062798 4751.0 
93.070412 54156.0 
94.077812 5526.0 
95.086067 37579.0 
104.304672 3334.0 
105.070267 112321.0 
107.085953 88499.0 
109.10128 20527.0 
111.044518 31513.0 
117.070007 32515.0 
118.078033 4099.0 
119.085823 83624.0 
120.093048 14074.0 
121.101547 29501.0 
122.108978 3946.0 
123.116966 11999.0 
128.062164 15147.0 
129.070251 27505.0 
130.077728 6025.0 
131.08577 63606.0 
132.093857 4478.0 
133.101364 61059.0 
135.080276 4496.0 
135.117386 4264.0 
137.132812 7215.0 
141.070374 3599.0 
142.077789 27537.0 
143.085648 79474.0 
144.093033 17171.0 
145.101166 89349.0 
146.108917 5610.0 
147.117371 30182.0 
149.05928 6521.0 
149.131943 5101.0 
151.075302 6895.0 
155.085541 24266.0 
156.093414 39676.0 
157.101273 98407.0 
158.108429 20048.0 
159.116821 53874.0 
160.123993 12384.0 
161.132645 60024.0 
163.075684 23551.0 
164.08342 43941.0 
168.093842 7013.0 
169.10112 35034.0 
170.108627 21654.0 
171.081116 4385.0 
171.116913 72434.0 
172.124222 3575.0 
173.132599 35923.0 
175.147552 24385.0 
176.08287 16383.0 
176.156082 25176.0 
177.163651 18832.0 
182.10817 13174.0 
183.117096 39666.0 
184.124374 4911.0 
185.096146 4187.0 
185.132217 69611.0 
186.140442 5221.0 
187.147476 11097.0 
189.091278 12680.0 
196.121994 3417.0 
197.095947 13142.0 
197.131729 26314.0 
199.147644 28842.0 
201.091141 5529.0 
201.163345 19216.0 
203.106003 13145.0 
204.113861 5228.0 
211.112564 25415.0 
211.147293 7237.0 
213.125946 3718.0 
213.164795 5978.0 
214.171036 11866.0 
215.106339 19926.0 
215.177277 3386.0 
216.115082 5593.0 
218.12999 17104.0 
225.164352 7329.0 
229.12178 28426.0 
230.12973 26648.0 
231.137711 18425.0 
239.179276 6206.0 
241.195602 5582.0 
243.137329 15911.0 
244.144394 15466.0 
255.210831 73484.0 
257.152985 16263.0 
267.173431 5986.0 
282.194153 3715.0 
285.184692 86998.0 
300.207855 138082.0 
END IONS

BEGIN IONS
PRECURSOR_MZ=129.055
INCHI=InChI=1S/C6H10O4/c7-5(8)3-1-2-4-6(9)10/h1-4H2,(H,7,8)(H,9,10)
SMILES=O=C(O)CCCCC(=O)O
SCANS=21592
IONMODE=positive
COMPOUND_NAME=adipic acid M+H-H2O
SPECTRUM_ID=CCMSLIB00006706933
55.051971 5268.0 
55.054798 97779.0 
55.934959 189895.0 
57.134602 2766.0 
59.049629 23659.0 
62.056049 2866.0 
65.711166 2636.0 
67.574471 2737.0 
69.934357 16512.0 
70.942146 6814.0 
70.958153 14791.0 
75.026527 30389.0 
75.030457 3371.0 
82.178169 2761.0 
83.049622 41607.0 
87.944817 17999.0 
88.968819 21972.0 
93.036903 26978.0 
95.72937 2972.0 
95.7453 3102.0 
101.059753 16145.0 
105.955116 12522.0 
107.950401 3595.0 
111.044441 6705.0 
112.417168 2802.0 
123.965538 4442.0 
128.950974 123817.0 
128.960831 4446.0 
128.970749 3326.0 
129.072845 16282.0 
129.104904 6151.0 
146.961472 78892.0 
146.981766 14042.0 
149.954041 3609.0 
169.977402 18861.0 
191.048965 3631.0 
214.252136 3949.0 
END IONS

BEGIN IONS
PRECURSOR_MZ=483.285
INCHI=InChI=1S/C28H38N2O5/c1-18-9-10-19(2)22(14-18)29-25(31)17-30-13-12-28(32)11-7-6-8-21(28)26(30)20-15-23(33-3)27(35-5)24(16-20)34-4/h9-10,14-16,21,26,32H,6-8,11-13,17H2,1-5H3,(H,29,31)
SMILES=COc1cc(C2C3CCCCC3(O)CCN2CC(O)=Nc2cc(C)ccc2C)cc(OC)c1OC
SCANS=16197
IONMODE=positive
COMPOUND_NAME=N-(2,5-dimethylphenyl)-2-[6-hydroxy-2-(3,4,5-trimethoxyphenyl)-3-azabicyclo[4. 4.0]dec-3-yl]acetamide M+H
SPECTRUM_ID=CCMSLIB00006701538
56.04998 574148.0 
58.065498 5580.0 
65.038971 14011.0 
66.751083 3972.0 
67.054642 215493.0 
68.049713 5722.0 
69.070633 4061.0 
74.096947 3806.0 
79.054329 50687.0 
80.541199 3625.0 
81.070107 49684.0 
81.404259 3280.0 
84.044609 36102.0 
89.883057 3374.0 
91.054314 75904.0 
93.069817 17007.0 
103.053879 4745.0 
105.069946 31997.0 
106.077957 7417.0 
107.048897 5539.0 
107.072746 43068.0 
107.08532 51175.0 
108.844803 3430.0 
109.100952 48432.0 
110.060028 28870.0 
110.096313 4163.0 
117.06974 4535.0 
118.666878 3593.0 
119.072746 6785.0 
119.085388 73068.0 
121.06459 4110.0 
122.096413 1035096.0 
123.043251 5956.0 
123.080322 8309.0 
132.080521 6813.0 
133.088058 7749.0 
134.096405 3678343.0 
135.103333 3393.0 
136.051559 19193.0 
136.112183 5385.0 
137.059769 18911.0 
138.067291 22607.0 
147.067581 4496.0 
148.05191 80265.0 
148.075363 4118.0 
148.111984 238195.0 
151.038986 6957.0 
151.075516 18575.0 
154.062744 32007.0 
160.113327 4419.0 
162.055435 44854.0 
162.091232 51371.0 
165.055466 4209.0 
166.062363 152994.0 
167.070419 19767.0 
169.085846 16030.0 
170.260574 3585.0 
173.108521 7652.0 
176.083832 32417.0 
177.078217 213120.0 
177.095169 7928.0 
178.049423 8118.0 
179.117752 263154.0 
180.078308 14009.0 
181.085846 987790.0 
188.082336 5341.0 
189.055481 5470.0 
189.090591 5370.0 
191.117752 699313.0 
192.07843 16027.0 
193.073029 4262.0 
195.101257 13001.0 
201.091354 17121.0 
202.099442 26341.0 
204.07843 7620.0 
205.13356 791971.0 
207.101028 46453.0 
208.096771 36073.0 
213.090393 4275.0 
213.126999 7691.0 
215.106277 7464.0 
219.101273 19557.0 
221.116653 4082.0 
228.113342 17378.0 
229.122452 37102.0 
230.129791 19447.0 
231.101196 4532.0 
233.117233 25118.0 
241.122375 15323.0 
243.128235 3986.0 
244.145859 46541.0 
245.117966 4564.0 
256.13739 25789.0 
258.149628 4613.0 
261.148682 30510.0 
270.14743 26310.0 
272.136993 4046.0 
273.147644 4277.0 
274.143219 16322.0 
275.163788 95979.0 
279.159729 7075.0 
284.16449 51677.0 
285.171814 19574.0 
286.143311 25933.0 
287.164276 122784.0 
288.160156 22161.0 
293.174835 5175.0 
300.158813 13358.0 
302.174957 19957.0 
316.190704 67233.0 
334.200836 53635.0 
357.179901 30214.0 
465.274261 1097105.0 
483.28479 1336179.0 
END IONS

BEGIN IONS
PRECURSOR_MZ=747.504
INCHI=InChI=1S/C43H72O11/c1-12-30(35(46)27(8)34(45)28(9)36-23(4)21-24(5)37(51-36)31(13-2)39(47)48)38-25(6)22-26(7)42(52-38)18-15-32(44)43(54-42)20-19-40(11,53-43)33-16-17-41(49,14-3)29(10)50-33/h15,18,23-34,36-38,44-45,49H,12-14,16-17,19-22H2,1-11H3,(H,47,48)/t23-,24-,25-,26+,27-,28-,29-,30-,31+,32+,33+,34+,36+,37?,38-,40-,41+,42-,43-/m0/s1
SMILES=CCC(C(=O)O)C1OC(C(C)C(O)C(C)C(=O)C(CC)C2OC3(C=CC(O)C4(CCC(C)(C5CCC(O)(CC)C(C)O5)O4)O3)C(C)CC2C)C(C)CC1C
SCANS=7762
IONMODE=positive
COMPOUND_NAME=CCG-208483 M+H-H2O
SPECTRUM_ID=CCMSLIB00006693103
55.05479 7462.0 
57.033989 16373.0 
57.07032 4842.0 
65.133553 3942.0 
67.05455 6954.0 
69.03376 42212.0 
69.070267 40760.0 
71.049469 17271.0 
73.958168 3388.0 
81.052002 7750.0 
81.070084 40235.0 
83.085762 8004.0 
85.065109 6059.0 
92.382538 4677.0 
93.070007 21114.0 
95.049217 22132.0 
95.085449 73704.0 
97.064827 50867.0 
97.101387 5933.0 
99.044167 8890.0 
99.080116 30535.0 
101.059799 8636.0 
105.070068 17382.0 
105.909698 4036.0 
107.085167 63365.0 
109.065079 20427.0 
109.101112 49725.0 
111.080292 54397.0 
113.059799 5584.0 
113.096413 15415.0 
119.085663 24418.0 
121.064949 6805.0 
121.100929 37788.0 
123.080307 26988.0 
123.116631 52955.0 
125.09623 14917.0 
127.075409 19030.0 
133.101212 19094.0 
135.079941 12581.0 
135.116608 63408.0 
137.095856 17732.0 
137.132385 103652.0 
139.075211 29415.0 
139.112167 22750.0 
141.091095 4172.0 
141.127609 36891.0 
145.100464 6357.0 
147.081055 6210.0 
147.116745 61797.0 
149.05986 22973.0 
149.096237 22329.0 
149.132309 6706.0 
151.07515 14465.0 
151.111588 59079.0 
153.127304 31877.0 
161.096313 4662.0 
161.132919 25943.0 
163.111526 43774.0 
163.148743 5384.0 
165.090454 4131.0 
165.127289 159029.0 
167.106812 6855.0 
169.122437 31767.0 
171.116348 8749.0 
173.132812 4317.0 
175.111603 6450.0 
175.147888 28861.0 
177.091949 4691.0 
179.142242 32692.0 
181.122345 61884.0 
181.158936 16799.0 
183.137772 78797.0 
185.117004 8545.0 
189.126984 40343.0 
191.106552 15688.0 
191.14299 18381.0 
193.159058 30219.0 
197.153931 4372.0 
199.131546 36617.0 
203.106506 17218.0 
203.14386 16839.0 
205.086014 17098.0 
207.137512 67925.0 
209.152603 7093.0 
215.106308 41641.0 
217.121964 47545.0 
220.670074 4056.0 
221.117081 20368.0 
221.153015 50040.0 
225.14798 71803.0 
233.26062 4373.0 
239.163986 56790.0 
241.159119 8222.0 
245.153122 8435.0 
249.153183 5016.0 
249.184692 19647.0 
251.199661 33658.0 
257.150726 4454.0 
259.169617 20131.0 
264.815002 3773.0 
269.151764 44995.0 
277.143372 9332.0 
283.169708 16762.0 
287.164032 47016.0 
301.179871 44690.0 
303.19516 7328.0 
303.23114 6070.0 
313.215942 8599.0 
321.240967 57994.0 
337.213654 6727.0 
339.252441 50974.0 
355.225769 94084.0 
357.264587 19198.0 
369.24054 7491.0 
373.236359 348033.0 
381.277985 4945.0 
391.246979 353722.0 
399.288025 44345.0 
417.299103 7295.0 
425.265839 8345.0 
437.30188 5313.0 
443.27832 29862.0 
455.315491 83023.0 
461.292206 7019.0 
473.325745 83763.0 
491.335388 71379.0 
648.859314 4327.0 
693.471313 17993.0 
711.480713 58282.0 
729.492249 280280.0 
747.502808 1537094.0 
END IONS

BEGIN IONS
PRECURSOR_MZ=289.007
INCHI=InChI=1S/C15H8ClFO3/c16-9-3-6-11-12(7-9)20-15(14(19)13(11)18)8-1-4-10(17)5-2-8/h1-7,19H
SMILES=O=c1c(O)c(-c2ccc(F)cc2)oc2cc(Cl)ccc12
SCANS=7600
IONMODE=negative
COMPOUND_NAME=7-chloro-2-(4-fluorophenyl)-3-hydroxychromen-4-one M-H
SPECTRUM_ID=CCMSLIB00006692941
60.08556 2222.0 
63.28661 2195.0 
92.385277 2488.0 
95.790977 2343.0 
104.301613 2747.0 
112.985382 13857.0 
115.789207 2129.0 
197.040802 16447.0 
204.990463 3193.0 
208.010101 13043.0 
232.009369 76251.0 
233.017441 82247.0 
245.017731 3693.0 
260.004486 22796.0 
261.012421 77863.0 
268.986603 3155.0 
289.007568 730526.0 
END IONS

BEGIN IONS
PRECURSOR_MZ=355.13
INCHI=InChI=1S/C19H20N2O5/c1-24-15-9-12(10-16(25-2)17(15)26-3)18(22)21-14-8-11-6-4-5-7-13(11)20-19(14)23/h4-7,9-10,14H,8H2,1-3H3,(H,20,23)(H,21,22)
SMILES=COc1cc(C(O)=NC2Cc3ccccc3N=C2O)cc(OC)c1OC
SCANS=8257
IONMODE=negative
COMPOUND_NAME=N-(2-oxo(3-1,3,4-trihydroquinolyl))(3,4,5-trimethoxyphenyl)carboxamide M-H
SPECTRUM_ID=CCMSLIB00006693598
52.521679 2228.0 
61.541241 2069.0 
63.50684 2147.0 
82.416878 3345.0 
92.399208 2745.0 
102.035011 36953.0 
117.483269 2386.0 
132.045227 5233.0 
144.045715 80899.0 
146.024429 3168.0 
153.019501 9633.0 
159.055862 5611.0 
175.574005 2614.0 
177.489426 2816.0 
185.444839 2690.0 
195.054077 14055.0 
204.990646 3858.0 
210.076614 3998.0 
242.985977 3058.0 
248.019058 2271.0 
270.9823 5276.0 
292.353241 2289.0 
325.083954 14331.0 
340.105927 10817.0 
354.982269 10734.0 
355.130005 494388.0 
END IONS

BEGIN IONS
PRECURSOR_MZ=181.072
INCHI=InChI=1S/C4H10O4/c5-1-3(7)4(8)2-6/h3-8H,1-2H2/t3-,4+
SMILES=OC[C@H](O)[C@H](O)CO
SCANS=123
IONMODE=negative
COMPOUND_NAME=meso-Erythritol M+acetate
SPECTRUM_ID=CCMSLIB00006685464
51.093201 14716.5 
54.249699 13186.099609 
55.9617 14199.599609 
59.013599 99941.898438 
66.772003 18152.400391 
82.434303 16403.5 
92.977303 64148.199219 
99.987396 14884.299805 
101.927002 11963.799805 
104.330002 16569.400391 
112.103996 13180.200195 
112.931 14072.400391 
116.929001 110261.0 
118.703003 16552.099609 
124.372002 12901.599609 
136.966995 27989.800781 
154.216995 15217.200195 
161.320007 15627.700195 
181.037003 22042.099609 
END IONS

BEGIN IONS
PRECURSOR_MZ=356.194
INCHI=InChI=1S/C15H27N5O5/c1-8(2)7-9(20-13(22)10-11(25-10)14(23)24)12(21)18-5-3-4-6-19-15(16)17/h8-11H,3-7H2,1-2H3,(H,18,21)(H,20,22)(H,23,24)(H4,16,17,19)/t9-,10-,11-/m0/s1
SMILES=CC(C)CC(N=C(O)C1OC1C(=O)O)C(O)=NCCCCNC(=N)N
SCANS=12130
IONMODE=negative
COMPOUND_NAME=e-64 M-H
SPECTRUM_ID=CCMSLIB00006697471
53.59145 2079.0 
54.59626 2220.0 
75.882843 2320.0 
82.399307 2776.0 
87.008636 48736.0 
104.285797 3334.0 
114.092484 3666.0 
122.799728 2500.0 
132.642899 2389.0 
185.16597 34226.0 
214.19281 3929.0 
226.19194 17201.0 
227.187729 33876.0 
251.188065 2799.0 
266.198425 3564.0 
266.970306 2522.0 
268.18219 6720.0 
268.21402 18471.0 
284.20871 12563.0 
294.193787 13328.0 
310.914734 2606.0 
312.204346 31181.0 
327.75589 2412.0 
338.185577 8453.0 
350.535461 2889.0 
356.194122 79387.0 
END IONS

BEGIN IONS
PRECURSOR_MZ=382.176
INCHI=InChI=1S/C21H23N3O4/c1-3-28-17-11-15(9-10-16(17)25)19-18(13(2)23-21(27)24-19)20(26)22-12-14-7-5-4-6-8-14/h4-11,19,25H,3,12H2,1-2H3,(H,22,26)(H2,23,24,27)
SMILES=CCOc1cc(C2NC(O)=NC(C)=C2C(O)=NCc2ccccc2)ccc1O
SCANS=8972
IONMODE=positive
COMPOUND_NAME=[6-(3-ethoxy-4-hydroxyphenyl)-4-methyl-2-oxo(1,3,6-trihydropyrimidin-5-yl)]-N- benzylcarboxamide M+H
SPECTRUM_ID=CCMSLIB00006694313
53.113461 2532.0 
57.199242 3296.0 
82.40316 2944.0 
84.044601 21560.0 
91.054459 344511.0 
92.380081 2912.0 
94.029198 2579.0 
96.008133 4890.0 
96.044609 12703.0 
99.68512 2883.0 
100.255112 2743.0 
104.291321 3467.0 
106.065277 28092.0 
108.080872 195360.0 
112.021339 2738.0 
130.161514 3212.0 
134.393616 2695.0 
136.485001 3020.0 
136.664932 2714.0 
137.034668 475519.0 
139.050369 84817.0 
161.059601 4744.0 
163.038727 3267.0 
166.08696 20601.0 
184.076263 3927.0 
186.055573 4658.0 
189.091461 23306.0 
191.070099 44577.0 
191.117905 3999.0 
204.101883 54943.0 
212.993515 2906.0 
215.069427 24259.0 
217.085312 19557.0 
227.081482 16372.0 
232.096909 79604.0 
234.112946 22621.0 
244.108063 1743208.0 
245.332153 2726.0 
249.120697 3383.0 
256.13327 159725.0 
271.386749 2838.0 
275.103302 6218.0 
293.116882 4832.0 
322.143524 147779.0 
339.170288 241744.0 
365.149597 15573.0 
382.028503 13042.0 
382.172394 50363.0 
END IONS

BEGIN IONS
PRECURSOR_MZ=359.173
INCHI=InChI=1S/C21H24N2O2/c1-4-15-8-7-10-17-16(14(2)23-20(15)17)12-13-22-21(24)18-9-5-6-11-19(18)25-3/h5-11,23H,4,12-13H2,1-3H3,(H,22,24)
SMILES=CCc1cccc2c(CCN=C(O)c3ccccc3OC)c(C)[nH]c12
SCANS=14725
IONMODE=positive
COMPOUND_NAME=N-[2-(7-ethyl-2-methylindol-3-yl)ethyl](2-methoxyphenyl)carboxamide M+Na
SPECTRUM_ID=CCMSLIB00006700066
50.46051 2516.0 
60.711418 2902.0 
68.315567 2616.0 
79.991753 2761.0 
96.857986 2445.0 
104.29351 3619.0 
137.424362 2803.0 
188.804718 2883.0 
189.353561 3039.0 
213.933121 3162.0 
359.172241 4781747.0 
END IONS

