BEGIN IONS
NAME=quinic acid CollisionEnergy:102040 2M-2H+Na
PRECURSOR_MZ=405.101
INCHI="InChI=1S/C7H12O6/c8-3-1-7(13,6(11)12)2-4(9)5(3)10/h3-5,8-10,13H,1-2H2,(H,11,12)/t3-,4-,5?,7?/m1/s1"
SMILES=C1[C@H](C([C@@H](CC1(C(=O)O)O)O)O)O
SPECTRUMID=CCMSLIB00010102414
63.781349 37678.25 
66.794624 59982.015625 
79.524162 38708.644531 
80.695747 36678.09375 
84.157585 38012.382812 
84.994537 36222.949219 
85.029274 257183.734375 
87.008377 45357.089844 
93.034393 51939.746094 
104.36499 44283.214844 
111.045029 40997.375 
127.040138 109742.046875 
153.270554 35824.289062 
155.615402 38798.667969 
173.045822 74337.007812 
191.056259 16453627.0 
216.535751 44155.582031 
239.42128 43503.828125 
273.057983 62537.148438 
329.757416 40033.492188 
336.651825 45328.085938 
387.087616 56022.082031 
405.10144 20669612.0 
406.102753 74409.539062 
END IONS

BEGIN IONS
NAME="6-methyl-1-[(3-nitrophenyl)amino]furano[2,3-h]chromen-8-one CollisionEnergy:102040" M+H
PRECURSOR_MZ=337.082
INCHI="InChI=1S/C18H12N2O5/c1-10-7-16(21)25-18-13(10)5-6-15-17(18)14(9-24-15)19-11-3-2-4-12(8-11)20(22)23/h2-9,19H,1H3"
SMILES=Cc1cc(=O)oc2c1ccc1occ(Nc3cccc([N+](=O)[O-])c3)c12
SPECTRUMID=CCMSLIB00010110728
54.141449 2730.0 
92.382637 3973.0 
104.289917 4251.0 
131.048874 3108.0 
132.056458 2770.0 
142.518387 2802.0 
149.03421 3390.0 
160.051575 7319.0 
161.059692 17884.0 
171.04361 3255.0 
172.051926 6805.0 
187.039658 6780.0 
189.054749 210275.0 
199.038925 26397.0 
200.047333 6913.0 
206.095581 5451.0 
207.101715 3444.0 
220.07547 7199.0 
232.456238 2855.0 
233.083405 16807.0 
234.091492 71082.0 
235.099747 17600.0 
244.073959 3310.0 
246.090027 15948.0 
248.071198 14728.0 
250.085861 5554.0 
251.094513 6720.0 
259.513702 3117.0 
262.086182 175241.0 
263.066681 5675.0 
263.094421 109149.0 
266.081177 4035.0 
267.089233 5071.0 
273.079498 3792.0 
274.074524 6381.0 
275.057007 6002.0 
277.074524 39951.0 
278.080811 14418.0 
279.08963 5798.0 
281.092346 4326.0 
289.073242 18602.0 
290.081268 499104.0 
291.088989 209595.0 
292.08432 5937.0 
294.074707 44484.0 
295.08551 23283.0 
303.076538 13427.0 
307.084045 14569.0 
308.090759 3714.0 
309.087341 43435.0 
320.079071 236319.0 
322.071167 75365.0 
323.035034 4573.0 
323.078644 229955.0 
337.081879 4566086.0 
339.070312 4475.0 
END IONS

BEGIN IONS
NAME="{4,5-dimethoxy-3-[(3,4,5-trimethoxyphenyl)carbonylamino]phenyl}-N,N-diethylcar boxamide CollisionEnergy:102040" M-H
PRECURSOR_MZ=445.198
INCHI="InChI=1S/C23H30N2O7/c1-8-25(9-2)23(27)15-10-16(20(31-6)17(13-15)28-3)24-22(26)14-11-18(29-4)21(32-7)19(12-14)30-5/h10-13H,8-9H2,1-7H3,(H,24,26)"
SMILES=CCN(CC)C(=O)c1cc(N=C(O)c2cc(OC)c(OC)c(OC)c2)c(OC)c(OC)c1
SPECTRUMID=CCMSLIB00010105281
66.804932 2445.0 
83.8825 2585.0 
92.385109 2663.0 
104.302299 2107.0 
104.954247 2876.0 
106.502876 2201.0 
115.635468 2590.0 
136.219467 2747.0 
155.95401 2561.0 
240.931107 3114.0 
255.269882 2609.0 
263.103577 33869.0 
308.911682 3154.0 
323.142273 3606.0 
380.980286 2920.0 
383.125977 3399.0 
384.135101 5557.0 
387.15686 4223.0 
397.141449 10753.0 
399.157928 24643.0 
415.15271 12527.0 
430.176178 13858.0 
444.981995 16458.0 
445.19931 176502.0 
END IONS

BEGIN IONS
NAME="methyl 7-(4-chlorophenyl)-2-methyl-5-oxo-4-(3,4,5-trimethoxyphenyl)-1,4,6,7,8- pentahydroquinoline-3-carboxylate CollisionEnergy:102040" M+H
PRECURSOR_MZ=498.168
INCHI="InChI=1S/C27H28ClNO6/c1-14-23(27(31)35-5)24(17-12-21(32-2)26(34-4)22(13-17)33-3)25-19(29-14)10-16(11-20(25)30)15-6-8-18(28)9-7-15/h6-9,12-13,16,24,29H,10-11H2,1-5H3"
SMILES=COC(=O)C1=C(C)NC2=C(C(=O)CC(c3ccc(Cl)cc3)C2)C1c1cc(OC)c(OC)c(OC)c1
SPECTRUMID=CCMSLIB00010109604
60.13345 3233.0 
82.429543 2809.0 
103.265701 2742.0 
136.881714 2941.0 
137.801071 3067.0 
149.047974 2707.0 
151.880051 2681.0 
160.039062 11595.0 
164.070312 12405.0 
190.086685 2759.0 
192.065338 144911.0 
198.040848 2740.0 
209.625427 6443.0 
218.081573 10884.0 
257.293427 2870.0 
268.371826 3223.0 
270.067505 12278.0 
292.350677 3244.0 
296.129028 37700.0 
298.062256 57436.0 
315.218048 3391.0 
325.088104 3078.0 
330.088806 2233320.0 
408.950653 3149.0 
466.141357 30555.0 
498.158844 17980.0 
522.945557 2663.0 
END IONS

BEGIN IONS
NAME=l-isoleucine CollisionEnergy:102040 M-H
PRECURSOR_MZ=130.087
INCHI="InChI=1S/C6H13NO2/c1-3-4(2)5(7)6(8)9/h4-5H,3,7H2,1-2H3,(H,8,9)/t4-,5-/m0/s1"
SMILES=CCC(C)C(N)C(=O)O
SPECTRUMID=CCMSLIB00010109482
57.75724 2826.0 
61.987881 10795.0 
64.120399 2393.0 
66.745888 3298.0 
73.95681 2943.0 
82.402069 3196.0 
92.38147 2673.0 
104.290337 3585.0 
125.653427 3143.0 
130.087296 546846.0 
136.215179 3152.0 
END IONS

BEGIN IONS
NAME=N-(2-{N-[2-(2-methylindol-3-yl)ethyl]carbamoyl}phenyl)-2-thienylcarboxamide CollisionEnergy:102040 M+H
PRECURSOR_MZ=404.143
INCHI="InChI=1S/C23H21N3O2S/c1-15-16(17-7-2-4-9-19(17)25-15)12-13-24-22(27)18-8-3-5-10-20(18)26-23(28)21-11-6-14-29-21/h2-11,14,25H,12-13H2,1H3,(H,24,27)(H,26,28)"
SMILES=Cc1[nH]c2ccccc2c1CCN=C(O)c1ccccc1NC(=O)c1cccs1
SPECTRUMID=CCMSLIB00010109965
60.4384 3369.0 
65.289177 3352.0 
90.033867 3852.0 
90.388519 3587.0 
91.054222 4099.0 
110.989723 105123.0 
110.997871 5988.0 
140.473984 3353.0 
143.073196 20732.0 
146.023712 606828.0 
157.089172 25427.0 
158.096497 7782573.0 
162.091049 18353.0 
173.107483 13465.0 
174.091873 37145.0 
175.123001 3012209.0 
186.128647 4779.0 
190.086609 19098.0 
199.099258 18469.0 
202.086441 7250.0 
204.101929 22305.0 
215.118011 17661.0 
216.101624 5949.0 
217.107346 15273.0 
230.026978 3248208.0 
242.063889 5086.0 
257.128052 7380.0 
344.132263 24209.0 
357.988281 15086.0 
361.132812 4110.0 
373.175507 6313.0 
386.144135 31303.0 
389.129211 5728.0 
403.146362 5380.0 
404.142853 222308.0 
630.69165 4526.0 
END IONS

BEGIN IONS
NAME="N-(2H-benzo[3,4-d]1,3-dioxolan-5-ylmethyl)-2-(4-hydroxyquinazolin-2-ylthio)ace tamide CollisionEnergy:102040" M-H
PRECURSOR_MZ=368.071
INCHI="InChI=1S/C18H15N3O4S/c22-16(19-8-11-5-6-14-15(7-11)25-10-24-14)9-26-18-20-13-4-2-1-3-12(13)17(23)21-18/h1-7H,8-10H2,(H,19,22)(H,20,21,23)"
SMILES=OC(CSc1nc(O)c2ccccc2n1)=NCc1ccc2c(c1)OCO2
SPECTRUMID=CCMSLIB00010111646
53.21566 2431.0 
71.994637 2938.0 
82.390663 3141.0 
92.367447 4017.0 
107.258591 2400.0 
109.137749 2733.0 
130.050003 3191.0 
136.197647 2674.0 
145.040558 40189.0 
150.056 2523.0 
157.952484 2903.0 
160.05191 30946.0 
161.036011 19793.0 
162.680771 2886.0 
172.051285 4242.0 
177.012985 40527.0 
189.012909 13247.0 
191.028503 120293.0 
217.008484 34425.0 
249.067139 2642.0 
266.090637 2605.0 
273.452545 2639.0 
294.088562 1678355.0 
334.083374 16059.0 
359.028778 2825.0 
366.830444 2567.0 
368.070862 728150.0 
END IONS

BEGIN IONS
NAME=ethyl 2-(adamantanylcarbonylamino)-3-indol-3-ylpropanoate CollisionEnergy:205060 M+H
PRECURSOR_MZ=395.233
INCHI="InChI=1S/C24H30N2O3/c1-2-29-22(27)21(10-18-14-25-20-6-4-3-5-19(18)20)26-23(28)24-11-15-7-16(12-24)9-17(8-15)13-24/h3-6,14-17,21,25H,2,7-13H2,1H3,(H,26,28)"
SMILES=CCOC(=O)C(Cc1c[nH]c2ccccc12)N=C(O)C12CC3CC(CC(C3)C1)C2
SPECTRUMID=CCMSLIB00010121539
53.039059 5748.0 
55.05484 2813.0 
67.054741 31258.0 
69.07 3050.0 
70.392487 2811.0 
77.038406 3111.0 
79.054466 84233.0 
80.626839 2969.0 
81.070084 20233.0 
82.397797 3133.0 
91.05426 6987.0 
93.063583 5399.0 
93.069939 132758.0 
105.033257 48866.0 
107.085518 106532.0 
118.06588 5337.0 
118.652603 3219.0 
130.065155 47278.0 
135.116714 4350163.0 
143.072678 12274.0 
144.080795 13425.0 
146.059555 31313.0 
170.059998 29300.0 
174.090988 4707.0 
176.143555 6849.0 
179.962143 3097.0 
180.137695 5434.0 
188.070297 58599.0 
216.10144 40692.0 
220.132553 33764.0 
251.075806 3123.0 
293.200439 3748.0 
321.195496 433555.0 
331.180847 7526.0 
349.190186 332396.0 
350.208832 6557.0 
367.236389 5379.0 
377.222656 22234.0 
395.232025 586567.0 
END IONS

BEGIN IONS
NAME=3-({4-[(7-methyl-2-oxochromen-4-yl)methyl]piperazinyl}methyl)benzenecarbonitri le CollisionEnergy:205060 M+H
PRECURSOR_MZ=374.186
INCHI="InChI=1S/C23H23N3O2/c1-17-5-6-21-20(13-23(27)28-22(21)11-17)16-26-9-7-25(8-10-26)15-19-4-2-3-18(12-19)14-24/h2-6,11-13H,7-10,15-16H2,1H3"
SMILES=Cc1ccc2c(CN3CCN(Cc4cccc(C#N)c4)CC3)cc(=O)oc2c1
SPECTRUMID=CCMSLIB00010120992
51.877399 3163.0 
56.049992 206533.0 
56.971951 3267.0 
57.057781 38715.0 
58.065578 56699.0 
63.023449 5104.0 
68.049843 75572.0 
69.045219 27319.0 
70.065498 113363.0 
71.060867 38981.0 
71.073227 19963.0 
72.081169 7704.0 
79.054817 5701.0 
80.049606 8145.0 
81.057838 5815.0 
82.052773 7739.0 
82.065262 5492.0 
83.060631 494633.0 
84.068367 122917.0 
85.076263 277263.0 
89.038712 204090.0 
89.044991 7369.0 
91.054398 88015.0 
97.076103 1691271.0 
98.083931 35851.0 
99.091743 42083.0 
103.054321 15717.0 
105.070038 37310.0 
107.04879 7680.0 
115.054153 73174.0 
116.049477 3413145.0 
117.069778 150411.0 
117.079117 5916.0 
119.085617 47298.0 
121.064713 19403.0 
122.072899 27571.0 
128.061981 33012.0 
129.057373 47832.0 
129.069733 74239.0 
130.065475 56504.0 
131.085556 146194.0 
132.056595 15258.0 
133.064575 19957.0 
134.059875 20084.0 
141.068909 4188.0 
142.065048 16763.0 
143.060776 56557.0 
143.085617 19747.0 
144.056885 6281.0 
144.068497 6328.0 
144.080658 6116.0 
145.064774 1484015.0 
145.075851 96795.0 
146.072144 62048.0 
146.08374 6511.0 
147.080368 191433.0 
154.064178 5083.0 
155.06041 16549.0 
156.068008 17292.0 
157.06424 54340.0 
157.076096 111968.0 
157.089935 7989.0 
158.072464 20974.0 
158.096664 7674.0 
159.0802 264393.0 
159.092072 2099514.0 
160.052048 75758.0 
160.075836 23816.0 
160.112045 24758.0 
161.059692 238135.0 
162.091415 38870.0 
163.09906 176325.0 
169.075806 16118.0 
170.09668 17279.0 
171.092422 126810.0 
172.051453 24960.0 
172.087418 17906.0 
172.112427 15754.0 
173.059601 158916.0 
173.082825 55850.0 
173.108307 4865.0 
174.067459 128938.0 
174.091202 79699.0 
175.075287 122119.0 
184.112061 6600.0 
185.059677 6461.0 
186.053253 16678.0 
186.06929 10976.0 
186.089432 32876.0 
187.075211 47858.0 
187.098724 17027.0 
188.071869 34050.0 
188.106857 631670.0 
198.103683 66578.0 
199.077957 4877.0 
199.110321 54219.0 
200.07196 31044.0 
200.118668 134860.0 
201.07811 44922.0 
201.126129 28765.0 
202.085785 63737.0 
202.131744 12653.0 
203.093964 98868.0 
204.10257 4622.0 
212.070877 5868.0 
212.118256 9482.0 
213.07724 5046.0 
214.086105 99821.0 
214.134842 14976.0 
215.093826 17238.0 
215.117203 5990.0 
216.101791 2445767.0 
217.109512 4582.0 
226.084732 4822.0 
228.102173 31210.0 
229.133194 39038.0 
230.116425 17265.0 
230.139969 5822.0 
257.127625 30813.0 
258.135986 360197.0 
268.479584 4570.0 
346.190857 152547.0 
374.185791 6907839.0 
END IONS

BEGIN IONS
NAME=12-Deoxyphorbol-13-acetate CollisionEnergy:205060 M+H-H2O
PRECURSOR_MZ=373.201
INCHI="InChI=1S/C22H30O6/c1-11-6-16-20(26,18(11)25)9-14(10-23)7-15-17-19(4,5)21(17,28-13(3)24)8-12(2)22(15,16)27/h6-7,12,15-17,23,26-27H,8-10H2,1-5H3/t12-,15+,16-,17-,20-,21+,22-/m1/s1"
SMILES=CC(=O)OC12CC(C)C3(O)C(C=C(CO)CC4(O)C(=O)C(C)=CC43)C1C2(C)C
SPECTRUMID=CCMSLIB00010124934
55.054741 3540.0 
65.241623 2210.0 
67.054527 3800.0 
69.033829 5240.0 
69.070267 5675.0 
79.054733 3629.0 
82.069923 2383.0 
91.054703 3681.0 
92.368843 3698.0 
105.069878 15050.0 
118.031036 2315.0 
119.085426 3762.0 
129.069977 3331.0 
131.085007 4542.0 
141.070602 3366.0 
143.085968 11313.0 
145.064896 10493.0 
145.101364 2652.0 
153.070068 3605.0 
155.085892 19064.0 
156.093338 4393.0 
157.101593 9581.0 
159.0802 3662.0 
161.060226 3239.0 
165.069901 11264.0 
166.077774 3973.0 
167.085358 8454.0 
168.093704 3778.0 
169.101669 9078.0 
170.109619 3111.0 
171.080811 3080.0 
171.116562 4658.0 
173.095764 3743.0 
179.085953 13928.0 
180.094009 4659.0 
181.06662 2762.0 
181.101089 16203.0 
182.072647 2962.0 
182.108749 3969.0 
183.080353 3341.0 
183.116928 11281.0 
185.095703 3956.0 
185.133286 4516.0 
191.086914 2685.0 
192.093521 12913.0 
193.101303 14375.0 
194.109314 3653.0 
195.080246 13574.0 
195.116455 11278.0 
196.088806 11446.0 
197.096375 10298.0 
197.13266 9991.0 
199.111938 3043.0 
205.100372 4796.0 
206.10907 3677.0 
207.115906 18396.0 
208.088593 3234.0 
209.096619 14633.0 
209.131973 12905.0 
210.103439 10073.0 
211.111572 11173.0 
213.127625 3070.0 
219.117889 11182.0 
220.088669 2994.0 
221.095215 5275.0 
222.103943 3502.0 
223.111542 11167.0 
225.091064 5354.0 
225.127411 15400.0 
234.138947 4370.0 
235.111725 5493.0 
237.127014 4232.0 
237.163528 4111.0 
239.107544 4100.0 
239.179871 5371.0 
247.112091 11557.0 
249.163544 4443.0 
253.12175 2649.0 
255.174469 2862.0 
265.158417 13345.0 
267.173981 33862.0 
277.158844 14954.0 
285.184448 5159.0 
295.169006 199971.0 
296.728149 2412.0 
313.179138 15406.0 
332.152618 2856.0 
373.149719 10660.0 
END IONS

BEGIN IONS
NAME=beta-Zearalanol CollisionEnergy:102040 2M-H
PRECURSOR_MZ=643.349
INCHI="InChI=1S/C18H26O5/c1-12-6-5-9-14(19)8-4-2-3-7-13-10-15(20)11-16(21)17(13)18(22)23-12/h10-12,14,19-21H,2-9H2,1H3/t12-,14-/m0/s1"
SMILES=CC1CCCC(O)CCCCCc2cc(O)cc(O)c2C(=O)O1
SPECTRUMID=CCMSLIB00010110015
92.951027 3206.0 
96.93985 2949.0 
98.24913 2897.0 
107.313393 3096.0 
129.731674 3024.0 
182.823395 2778.0 
220.679398 3374.0 
236.986588 3026.0 
239.645111 3135.0 
276.930847 2868.0 
277.180786 5872.0 
303.160797 3728.0 
321.170685 155284.0 
372.5737 3192.0 
END IONS

BEGIN IONS
NAME=N-[(1E)-2-(2-ethoxynaphthyl)-1-azavinyl]-2-[5-methyl-2-(methylethyl)phenoxy]ac etamide CollisionEnergy:102040 M+Na
PRECURSOR_MZ=427.199
INCHI="InChI=1S/C25H28N2O3/c1-5-29-23-13-11-19-8-6-7-9-21(19)22(23)15-26-27-25(28)16-30-24-14-18(4)10-12-20(24)17(2)3/h6-15,17H,5,16H2,1-4H3,(H,27,28)/b26-15+"
SMILES=CCOc1ccc2ccccc2c1C=NN=C(O)COc1cc(C)ccc1C(C)C
SPECTRUMID=CCMSLIB00010112068
54.950588 2294.0 
57.548111 2510.0 
60.534309 2686.0 
70.065536 3206.0 
73.947319 2653.0 
85.80307 2628.0 
104.279091 2929.0 
137.511017 2360.0 
182.368668 2968.0 
191.057526 12918.0 
208.060318 15063.0 
221.772903 2677.0 
236.091858 12615.0 
237.099182 15691.0 
250.072021 5133.0 
278.102417 6512.0 
279.10498 3590.0 
310.090851 10242.0 
384.079041 4003.0 
385.150543 18578.0 
398.159058 47662.0 
427.198425 2937111.0 
END IONS

BEGIN IONS
NAME="3,6,2',4'-Tetrahydroxyflavone CollisionEnergy:102040" M+H
PRECURSOR_MZ=287.055
INCHI="InChI=1S/C15H10O6/c16-7-2-4-12-10(5-7)13(19)14(20)15(21-12)9-3-1-8(17)6-11(9)18/h1-6,16-18,20H"
SMILES=O=c1c(O)c(-c2ccc(O)cc2O)oc2ccc(O)cc12
SPECTRUMID=CCMSLIB00010109012
55.01841 7395.0 
65.039268 7252.0 
68.99762 22581.0 
70.485771 4228.0 
81.033913 7794.0 
90.587311 4461.0 
94.562683 3823.0 
95.013069 16498.0 
101.002937 4181.0 
104.265556 4897.0 
105.034279 5656.0 
109.028709 19565.0 
111.044151 20104.0 
121.028397 594689.0 
123.044121 35715.0 
133.064911 6681.0 
135.044617 6631.0 
135.07962 4378.0 
137.0233 950271.0 
145.06424 7604.0 
147.044098 18208.0 
149.023315 968657.0 
151.038269 4946.0 
154.293686 5065.0 
157.06459 9596.0 
161.059708 27590.0 
163.038849 31027.0 
167.033829 157421.0 
169.066727 4737.0 
171.043091 9457.0 
175.039291 15733.0 
175.076157 19962.0 
177.017639 63714.0 
185.059708 84651.0 
189.054184 140321.0 
191.033539 9892.0 
197.059296 101452.0 
199.039001 25779.0 
201.053543 8001.0 
203.034927 45631.0 
203.070129 83860.0 
213.030411 8341.0 
213.054321 455959.0 
217.049332 532374.0 
219.065598 39300.0 
225.054428 25998.0 
227.034149 23628.0 
231.064835 482382.0 
241.049194 1031687.0 
245.04425 216826.0 
245.931625 19430.0 
251.035828 7586.0 
258.052307 95900.0 
259.059509 31017.0 
263.941467 26991.0 
269.043823 258346.0 
270.051819 6649.0 
285.799011 21321.0 
286.045898 18694.0 
287.054596 25332422.0 
288.318939 23006.0 
305.03241 39461.0 
END IONS

BEGIN IONS
NAME=2-methoxyethyl 5-hydroxy-2-methyl-1-(3-methylphenyl)benzo[g]indole-3-carboxyla te CollisionEnergy:102040 M+H
PRECURSOR_MZ=390.17
INCHI="InChI=1S/C24H23NO4/c1-15-7-6-8-17(13-15)25-16(2)22(24(27)29-12-11-28-3)20-14-21(26)18-9-4-5-10-19(18)23(20)25/h4-10,13-14,26H,11-12H2,1-3H3"
SMILES=COCCOC(=O)c1c(C)n(-c2cccc(C)c2)c2c1cc(O)c1ccccc12
SPECTRUMID=CCMSLIB00010109532
53.215611 2967.0 
80.727028 2702.0 
84.787743 2638.0 
105.912781 2831.0 
120.729683 2814.0 
130.081055 2759.0 
144.228622 2503.0 
157.992828 3695.0 
196.273651 2693.0 
202.54631 3042.0 
227.919586 2784.0 
271.098969 11061.0 
286.12262 30485.0 
299.093323 34970.0 
313.106659 2975.0 
314.116821 3389362.0 
332.123444 5291.0 
349.07782 3456.0 
358.140991 5581.0 
379.799194 3534.0 
390.166168 60602.0 
END IONS

BEGIN IONS
NAME=naringenin CollisionEnergy:102040 M+H
PRECURSOR_MZ=273.076
INCHI="InChI=1S/C15H12O5/c16-9-3-1-8(2-4-9)13-7-12(19)15-11(18)5-10(17)6-14(15)20-13/h1-6,13,16-18H,7H2"
SMILES=O=C1CC(c2ccc(O)cc2)Oc2cc(O)cc(O)c21
SPECTRUMID=CCMSLIB00010105221
53.291962 2928.0 
57.992069 3221.0 
67.018471 7204.0 
71.524498 3148.0 
74.336067 2980.0 
82.395157 3258.0 
91.054527 18335.0 
95.049179 7558.0 
104.279716 6064.0 
107.04911 67002.0 
111.007591 7847.0 
116.74752 3418.0 
119.049156 193930.0 
121.028481 14819.0 
121.064827 16958.0 
123.043999 144523.0 
123.475227 3284.0 
137.038437 4453.0 
147.044083 2409578.0 
151.039337 47377.0 
153.01825 3754082.0 
155.033691 4412.0 
161.059341 3495.0 
163.074936 5899.0 
171.028732 121890.0 
175.094589 3714.0 
179.033508 55132.0 
189.055084 51410.0 
207.065369 20715.0 
213.056213 3832.0 
231.064774 41011.0 
238.449005 5895.0 
255.064407 31190.0 
273.075439 10351600.0 
274.244568 5601.0 
290.899261 4655.0 
END IONS

BEGIN IONS
NAME=2-deoxyglucose CollisionEnergy:102040 M+acetate
PRECURSOR_MZ=223.082
INCHI="InChI=1S/C6H12O5/c7-2-4-6(10)3(8)1-5(9)11-4/h3-10H,1-2H2/t3-,4-,5?,6+/m1/s1"
SMILES=OC[C@H]1OC(O)C[C@@H](O)[C@@H]1O
SPECTRUMID=CCMSLIB00010102635
58.0294 23018.099609 
59.013302 5174.529785 
73.975998 5310.950195 
85.029198 3649.280029 
101.207001 3687.949951 
118.682999 4783.799805 
120.045998 60647.398438 
121.611 3888.949951 
158.016006 4225.959961 
161.072998 6462.839844 
179.082993 340987.0 
223.029007 5578.430176 
223.072998 88738.703125 
END IONS

BEGIN IONS
NAME=xanthosine CollisionEnergy:102040 M+K
PRECURSOR_MZ=323.039
INCHI="InChI=1S/C10H12N4O6/c15-1-3-5(16)6(17)9(20-3)14-2-11-4-7(14)12-10(19)13-8(4)18/h2-3,5-6,9,15-17H,1H2,(H2,12,13,18,19)/t3-,5-,6-,9-/m1/s1"
SMILES=OC[C@H]1O[C@@H](n2cnc3c(O)nc(O)nc32)[C@H](O)[C@@H]1O
SPECTRUMID=CCMSLIB00010103042
60.6759 2503.070068 
77.572403 2375.570068 
82.417702 2348.060059 
113.706001 2303.530029 
186.742004 2413.070068 
190.996002 8993.910156 
228.681 2294.649902 
323.006012 10768.599609 
323.037994 274346.0 
END IONS

BEGIN IONS
NAME=prednisolone acetate CollisionEnergy:205060 M+H-H2O
PRECURSOR_MZ=385.201
INCHI="InChI=1S/C23H30O6/c1-13(24)29-12-19(27)23(28)9-7-17-16-5-4-14-10-15(25)6-8-21(14,2)20(16)18(26)11-22(17,23)3/h6,8,10,16-18,20,26,28H,4-5,7,9,11-12H2,1-3H3/t16-,17-,18-,20+,21-,22-,23-/m0/s1"
SMILES=CC(=O)OCC(=O)C1(O)CCC2C3CCC4=CC(=O)C=CC4(C)C3C(O)CC21C
SPECTRUMID=CCMSLIB00010120584
53.039131 6344.0 
55.01841 24083.0 
55.054779 22715.0 
57.070511 4808.0 
59.04961 3051.0 
61.028931 46926.0 
65.038986 14982.0 
67.054764 63329.0 
69.033913 38824.0 
69.070229 28960.0 
71.049637 26929.0 
73.028687 3452.0 
73.944832 4333.0 
77.039032 4953.0 
79.054497 117807.0 
81.033913 20044.0 
81.070183 114555.0 
83.049263 45340.0 
85.028969 3961.0 
85.064957 24664.0 
91.054352 278243.0 
92.36837 5130.0 
93.070007 160759.0 
93.599472 3566.0 
95.049294 29118.0 
95.085587 61189.0 
97.064743 58633.0 
99.044258 32378.0 
99.080368 8529.0 
101.023293 169164.0 
101.059753 31998.0 
103.03907 25956.0 
103.054123 32249.0 
105.069923 249368.0 
107.048988 50079.0 
107.08548 165588.0 
109.064873 52856.0 
109.10128 14940.0 
111.043991 20539.0 
111.080276 20896.0 
115.039589 5194.0 
115.054207 63560.0 
117.069801 113963.0 
119.049156 6758.0 
119.085564 304848.0 
121.064796 826540.0 
121.101463 28637.0 
123.080368 50080.0 
125.05954 37257.0 
127.075607 4873.0 
128.06189 65717.0 
129.069763 87808.0 
130.077698 23568.0 
131.049423 5893.0 
131.075027 7501.0 
131.085526 145234.0 
132.056778 60832.0 
133.064987 91009.0 
133.101349 61081.0 
135.080429 335327.0 
135.11763 4314.0 
137.059814 23862.0 
137.096176 18242.0 
139.075516 71326.0 
141.069992 31968.0 
142.077881 37507.0 
143.085541 137482.0 
144.05603 13794.0 
144.093628 5464.0 
145.06488 155254.0 
145.101105 172858.0 
146.072647 25565.0 
147.080475 1836781.0 
149.095734 37426.0 
151.075775 32177.0 
152.062164 6356.0 
153.069458 35522.0 
153.090744 4727.0 
154.077744 16312.0 
155.085556 105714.0 
156.093002 15770.0 
157.064667 23465.0 
157.101074 77095.0 
158.072662 137158.0 
159.08049 208448.0 
159.116867 22961.0 
160.089676 4772.0 
161.096085 177870.0 
161.111267 6594.0 
162.104095 4776.0 
163.075409 57306.0 
163.111984 17636.0 
165.069977 36245.0 
165.090561 55346.0 
166.077972 21768.0 
167.045532 3781.0 
167.085266 50082.0 
168.093216 5544.0 
169.064941 24444.0 
169.100739 50717.0 
170.072784 19679.0 
171.080429 795561.0 
172.08783 21888.0 
173.096115 631922.0 
175.111542 38389.0 
177.091339 21112.0 
178.077667 20356.0 
179.085663 73488.0 
179.104477 7150.0 
180.093353 40825.0 
181.064713 17218.0 
181.084763 10425.0 
181.101028 59953.0 
182.072327 30604.0 
182.108795 8356.0 
183.079865 43962.0 
183.117126 24114.0 
184.088333 21559.0 
185.096024 135745.0 
186.102982 5033.0 
187.074615 19487.0 
187.111893 66383.0 
189.070084 5901.0 
189.090378 18460.0 
189.126846 5208.0 
190.078156 43293.0 
190.097046 6595.0 
191.085693 22052.0 
191.106339 31020.0 
192.093048 29083.0 
193.101654 58938.0 
194.072708 20766.0 
194.108932 26390.0 
195.080734 94898.0 
195.116226 58485.0 
196.088211 68635.0 
197.075516 7742.0 
197.0961 178179.0 
197.130661 7233.0 
198.103577 21389.0 
199.111847 123073.0 
201.127228 8694.0 
202.077408 7856.0 
203.085739 16897.0 
203.104904 10091.0 
204.093552 28931.0 
205.101913 69248.0 
205.122559 7756.0 
206.108444 29740.0 
207.08049 20519.0 
207.099152 7837.0 
207.117157 24809.0 
208.088272 135746.0 
209.0961 196475.0 
209.132843 22603.0 
210.103836 99583.0 
210.190918 5758.0 
211.111862 151703.0 
211.147827 14304.0 
212.120148 8337.0 
213.090591 14875.0 
213.127472 69665.0 
215.084961 7326.0 
215.106659 7057.0 
216.093002 8395.0 
217.100693 21373.0 
217.122696 28867.0 
218.108521 6029.0 
219.079117 14212.0 
219.117096 42049.0 
220.088593 8854.0 
221.095779 110020.0 
221.132904 35070.0 
222.104065 150251.0 
223.111588 429123.0 
224.119476 92638.0 
225.090759 5300.0 
225.127258 97829.0 
226.13501 28613.0 
227.107803 7281.0 
227.14299 30115.0 
229.099655 6357.0 
230.109879 5483.0 
231.080292 8334.0 
231.117188 20752.0 
232.088364 23985.0 
232.124725 4424.0 
233.09613 31380.0 
233.133301 4691.0 
234.103973 52959.0 
235.111221 73901.0 
236.11969 32805.0 
237.092239 16247.0 
237.127151 307449.0 
238.133865 7685.0 
239.142685 247266.0 
241.098831 6369.0 
241.158295 15769.0 
243.116241 14970.0 
245.096191 41177.0 
245.131393 7502.0 
246.103836 29767.0 
246.139877 6072.0 
247.111679 60126.0 
247.143021 10088.0 
247.148605 8987.0 
248.11972 37799.0 
249.127213 90776.0 
249.163284 36877.0 
250.135086 20127.0 
251.10759 18624.0 
251.142883 171393.0 
253.12326 6525.0 
255.13829 24625.0 
256.124695 16585.0 
259.111938 75227.0 
260.119751 34480.0 
261.12735 59038.0 
261.163147 20472.0 
263.142944 109201.0 
264.117157 5728.0 
264.150879 30869.0 
265.122925 20972.0 
265.158264 227675.0 
266.165955 55944.0 
267.143097 6838.0 
267.173126 38451.0 
271.148224 7040.0 
273.126831 37809.0 
274.134735 76692.0 
275.143097 7442.0 
276.152527 6087.0 
277.127472 4742.0 
277.157867 30015.0 
279.138245 49351.0 
279.174286 218446.0 
281.152649 4716.0 
283.168396 28022.0 
285.184753 66486.0 
289.158386 441884.0 
295.169525 15568.0 
297.18338 39169.0 
307.168945 605779.0 
325.179474 346767.0 
343.189056 69827.0 
349.179138 70747.0 
362.203979 4129.0 
367.190094 145437.0 
385.200562 1414410.0 
END IONS

BEGIN IONS
NAME=2-methoxyethyl 5-hydroxy-2-methyl-1-[2-(4-methylphenoxy)ethyl]benzo[g]indole-3 -carboxylate CollisionEnergy:102040 M+Na
PRECURSOR_MZ=456.178
INCHI="InChI=1S/C26H27NO5/c1-17-8-10-19(11-9-17)31-13-12-27-18(2)24(26(29)32-15-14-30-3)22-16-23(28)20-6-4-5-7-21(20)25(22)27/h4-11,16,28H,12-15H2,1-3H3"
SMILES=COCCOC(=O)c1c(C)n(CCOc2ccc(C)cc2)c2c1cc(O)c1ccccc12
SPECTRUMID=CCMSLIB00010111392
58.13414 2747.0 
63.419941 2969.0 
69.288002 2856.0 
71.445023 2921.0 
73.950111 3020.0 
76.041153 2813.0 
78.412033 2787.0 
83.163528 2812.0 
94.085114 2927.0 
104.278862 4190.0 
253.458115 3158.0 
277.639404 3202.0 
456.17749 3855578.0 
END IONS

BEGIN IONS
NAME=Quinoline-4-carboxylic acid CollisionEnergy:102040 M+H
PRECURSOR_MZ=174.055
INCHI="InChI=1S/C10H7NO2/c12-10(13)8-5-6-11-9-4-2-1-3-7(8)9/h1-6H,(H,12,13)"
SMILES=O=C(O)c1ccnc2ccccc12
SPECTRUMID=CCMSLIB00010107431
55.693352 184840.0 
61.01165 174175.0 
63.03516 199046.0 
66.723137 214087.0 
72.531883 174127.0 
104.254738 228298.0 
121.738739 175964.0 
130.065048 1474691.0 
131.066956 196889.0 
136.173721 253685.0 
146.060181 2933387.0 
174.055161 179724512.0 
185.849762 192439.0 
END IONS

BEGIN IONS
NAME=6-Hydroxy-4'-methoxyflavone CollisionEnergy:102040 M+Na
PRECURSOR_MZ=291.063
INCHI="InChI=1S/C16H12O4/c1-19-12-5-2-10(3-6-12)16-9-14(18)13-8-11(17)4-7-15(13)20-16/h2-9,17H,1H3"
SMILES=COc1ccc(-c2cc(=O)c3cc(O)ccc3o2)cc1
SPECTRUMID=CCMSLIB00010104378
55.15707 2494.0 
65.454468 2231.0 
72.64315 2446.0 
105.646797 1983.0 
151.152496 2342.0 
176.658798 2942.0 
189.298172 2171.0 
201.475143 2402.0 
215.200134 2392.0 
218.723877 2509.0 
268.060516 3152.0 
291.0625 776229.0 
291.156769 24403.0 
291.192627 10493.0 
309.072937 39440.0 
END IONS

BEGIN IONS
NAME=(2E)-2-benzoxazol-2-yl-1-(4-ethoxyphenyl)-3-(4-methoxyphenyl)prop-2-en-1-one CollisionEnergy:205060 M+Na
PRECURSOR_MZ=422.136
INCHI="InChI=1S/C25H21NO4/c1-3-29-20-14-10-18(11-15-20)24(27)21(16-17-8-12-19(28-2)13-9-17)25-26-22-6-4-5-7-23(22)30-25/h4-16H,3H2,1-2H3/b21-16-"
SMILES=CCOc1ccc(C(=O)C(=Cc2ccc(OC)cc2)c2nc3ccccc3o2)cc1
SPECTRUMID=CCMSLIB00010125953
71.085663 3010.0 
83.554993 2608.0 
84.081093 17973.0 
85.101288 3612.0 
95.085648 3810.0 
102.091309 63411.0 
108.789337 2768.0 
134.943481 2264.0 
136.197281 3561.0 
145.801376 2948.0 
146.981445 14619.0 
165.712662 2955.0 
241.992905 2650.0 
260.181122 2528.0 
283.26297 63422.0 
322.147217 4028.0 
340.320496 81256.0 
346.821747 2422.0 
369.188354 2442.0 
422.135895 561435.0 
422.233429 203289.0 
422.397339 30737.0 
463.162872 3866.0 
634.409546 2527.0 
END IONS

BEGIN IONS
NAME=cotinine CollisionEnergy:102040 M+H
PRECURSOR_MZ=177.102
INCHI="InChI=1S/C10H12N2O/c1-12-9(4-5-10(12)13)8-3-2-6-11-7-8/h2-3,6-7,9H,4-5H2,1H3/t9-/m0/s1"
SMILES=CN1C(=O)CCC1c1cccnc1
SPECTRUMID=CCMSLIB00010112196
51.701962 3501.0 
55.93047 3172.0 
55.93491 5260.0 
56.965099 3393.0 
61.01112 23555.0 
70.065422 16179.0 
70.942009 11811.0 
72.937393 7578.0 
76.998543 5641.0 
79.021439 13417.0 
80.049721 1690724.0 
86.00367 25037.0 
87.001923 4529.0 
87.944603 21740.0 
88.952477 16273.0 
88.96888 4203.0 
90.483101 4316.0 
90.947617 13509.0 
92.365936 3597.0 
94.064743 4371.0 
97.994537 13181.0 
98.060013 766359.0 
98.975166 18947.0 
98.984673 3112.0 
98.992554 13862.0 
99.488197 23843.0 
100.485779 12616.0 
104.269493 3583.0 
105.954964 8241.0 
106.065269 6631.0 
106.999863 242741.0 
107.501404 39020.0 
107.997551 185259.0 
108.493111 66233.0 
108.994957 7466.0 
109.491371 66792.0 
116.00518 537860.0 
116.506393 87617.0 
116.947113 7631.0 
116.986641 17845.0 
117.002907 473158.0 
117.505051 13177.0 
118.065071 51931.0 
118.49707 4236.0 
118.641579 3913.0 
119.072746 4910.0 
120.081467 31054.0 
123.96611 7334.0 
125.010551 48028.0 
125.51226 6929.0 
126.008034 43453.0 
127.513077 15521.0 
128.511398 7014.0 
128.950668 16241.0 
129.489334 6431.0 
130.487991 6724.0 
132.96077 15676.0 
132.994614 5531.0 
134.996841 6103.0 
135.945007 5917.0 
137.001694 17483.0 
137.502533 6293.0 
137.999603 68299.0 
139.492554 27422.0 
146.007355 25477.0 
146.059967 286364.0 
146.508102 13899.0 
146.961182 14977.0 
147.00499 54287.0 
148.075928 7245.0 
148.955551 29239.0 
148.988846 4009.0 
149.011292 7311.0 
149.070999 56585.0 
149.106232 3204.0 
150.970703 13335.0 
153.956223 4058.0 
159.0914 19016.0 
166.966827 6877.0 
176.49498 4688.0 
176.981537 122981.0 
177.102158 13912042.0 
177.712631 4271.0 
185.946747 4709.0 
194.989807 25848.0 
END IONS

BEGIN IONS
NAME="3-(2,2-dimethyl(2H-3,4,5,6-tetrahydropyran-4-yl))-4-phenylbutanoic acid CollisionEnergy:205060" M+formate
PRECURSOR_MZ=321.171
INCHI="InChI=1S/C17H24O3/c1-17(2)12-14(8-9-20-17)15(11-16(18)19)10-13-6-4-3-5-7-13/h3-7,14-15H,8-12H2,1-2H3,(H,18,19)"
SMILES=CC1(C)CC(C(CC(=O)O)Cc2ccccc2)CCO1
SPECTRUMID=CCMSLIB00010124636
58.813301 2611.0 
68.553123 2150.0 
74.204727 2493.0 
82.413933 2286.0 
92.995972 14836.0 
111.618393 2308.0 
116.928543 8907.0 
121.60466 2662.0 
135.165909 2176.0 
156.143661 2354.0 
204.989914 9207.0 
254.986023 25477.0 
275.165497 25244.0 
320.976196 34628.0 
END IONS

BEGIN IONS
NAME=2203-97-6 CollisionEnergy:102040 2M-H
PRECURSOR_MZ=923.443
INCHI="InChI=1S/C25H34O8/c1-23-9-7-15(26)11-14(23)3-4-16-17-8-10-25(32,24(17,2)12-18(27)22(16)23)19(28)13-33-21(31)6-5-20(29)30/h11,16-18,22,27,32H,3-10,12-13H2,1-2H3,(H,29,30)/t16-,17-,18-,22+,23-,24-,25-/m0/s1"
SMILES=CC12CCC(=O)C=C1CCC1C2C(O)CC2(C)C1CCC2(O)C(=O)COC(=O)CCC(=O)O
SPECTRUMID=CCMSLIB00010110531
66.747879 4720.0 
96.810898 5007.0 
117.018829 10275.0 
118.662987 7622.0 
123.044609 31758.0 
125.060463 67210.0 
130.350647 5395.0 
156.968063 4782.0 
189.09198 121262.0 
282.126068 94740.0 
283.170959 19287.0 
297.149445 562381.0 
301.180725 553314.0 
311.131317 8488.0 
313.180603 25646.0 
315.160187 236732.0 
315.201172 8877.0 
319.192505 16323.0 
329.175934 2705634.0 
330.17746 17902.0 
331.191254 1185181.0 
343.190948 53834.0 
345.169342 23885.0 
361.202179 748131.0 
363.181702 337881.0 
363.234222 8759.0 
399.216675 7795.0 
461.218292 2554998.0 
462.220642 6248.0 
758.236084 5854.0 
855.034424 6655.0 
923.446655 205218.0 
END IONS

BEGIN IONS
NAME=indole-3-acetic acid CollisionEnergy:205060 M+H
PRECURSOR_MZ=176.071
INCHI="InChI=1S/C10H9NO2/c12-10(13)5-7-6-11-9-4-2-1-3-8(7)9/h1-4,6,11H,5H2,(H,12,13)"
SMILES=O=C(O)Cc1c[nH]c2ccccc12
SPECTRUMID=CCMSLIB00010123004
59.646721 22540.0 
80.093353 25524.0 
82.398087 24916.0 
98.448647 21532.0 
103.05452 394358.0 
117.0578 24865.0 
128.04985 22142.0 
130.065201 20200994.0 
176.014542 22186.0 
176.070496 1397840.0 
END IONS

BEGIN IONS
NAME=7-Hydroxy-3-Methylflavone CollisionEnergy:102040 M+Na
PRECURSOR_MZ=275.068
INCHI="InChI=1S/C16H12O3/c1-10-15(18)13-8-7-12(17)9-14(13)19-16(10)11-5-3-2-4-6-11/h2-9,17H,1H3"
SMILES=Cc1c(-c2ccccc2)oc2cc(O)ccc2c1=O
SPECTRUMID=CCMSLIB00010103837
57.79303 2082.0 
62.707211 1881.0 
74.600449 2111.0 
84.959579 2599.0 
92.370483 3097.0 
104.278542 2130.0 
118.83532 2269.0 
125.12796 2324.0 
150.969101 2670.0 
159.064697 2932.0 
275.067688 594235.0 
275.160583 16048.0 
275.278595 4832.0 
293.078369 25958.0 
END IONS

BEGIN IONS
NAME=MEGLUTOL CollisionEnergy:102040 M+Na
PRECURSOR_MZ=185.042
INCHI="InChI=1S/C6H10O5/c1-6(11,2-4(7)8)3-5(9)10/h11H,2-3H2,1H3,(H,7,8)(H,9,10)"
SMILES=CC(O)(CC(=O)O)CC(=O)O
SPECTRUMID=CCMSLIB00010113494
53.313431 11445.0 
68.598213 12634.0 
73.932083 14135.0 
82.377197 17598.0 
114.947853 13854.0 
114.956383 121481.0 
115.964012 57708.0 
116.972061 19463.0 
132.966492 56255.0 
161.969727 20818.0 
171.243011 13111.0 
174.984894 25510.0 
184.969452 255531.0 
185.041916 1323947.0 
185.115204 14630.0 
204.703918 13528.0 
END IONS

BEGIN IONS
NAME="4-Hydroxy-2',4',6'-trimethoxychalcone CollisionEnergy:102040" M+Na
PRECURSOR_MZ=337.105
INCHI="InChI=1S/C18H18O5/c1-21-14-10-16(22-2)18(17(11-14)23-3)15(20)9-6-12-4-7-13(19)8-5-12/h4-11,19H,1-3H3/b9-6+"
SMILES=COc1cc(OC)c(C(=O)C=Cc2ccc(O)cc2)c(OC)c1
SPECTRUMID=CCMSLIB00010104436
58.92701 2285.0 
60.54282 3077.0 
65.233223 2309.0 
76.411392 2393.0 
81.534668 2455.0 
82.513557 2582.0 
157.98555 3332.0 
159.772278 2578.0 
162.511017 2712.0 
184.46315 2438.0 
184.964508 2841.0 
188.96843 2742.0 
281.796906 3003.0 
290.017853 3166.0 
322.081482 3586.0 
337.104431 2921462.0 
355.115509 13860.0 
END IONS

BEGIN IONS
NAME=D-pantothenic acid CollisionEnergy:102040 M+H
PRECURSOR_MZ=220.118
INCHI="InChI=1S/C9H17NO5/c1-9(2,5-11)7(14)8(15)10-4-3-6(12)13/h7,11,14H,3-5H2,1-2H3,(H,10,15)(H,12,13)"
SMILES=CC(C)(CO)C(O)C(O)=NCCC(=O)O
SPECTRUMID=CCMSLIB00010126536
55.018902 124162.0 
55.055401 85607.601562 
57.070702 2490400.0 
57.073799 107709.0 
59.049999 2268950.0 
59.0532 134997.0 
61.029202 92462.296875 
63.088402 80611.898438 
67.055 1911020.0 
69.070702 4063330.0 
70.029404 1706440.0 
72.045197 9631970.0 
73.029198 2213560.0 
74.024498 495006.0 
83.049896 869513.0 
85.065498 7541540.0 
86.097099 1570740.0 
87.0811 2731950.0 
87.753601 69796.296875 
90.055603 117551000.0 
92.386902 95846.296875 
95.049797 3872030.0 
96.081299 301928.0 
98.0242 9670090.0 
100.040001 2163010.0 
103.075996 8907260.0 
103.694 64741.601562 
108.057999 67172.101562 
112.075996 162667.0 
113.059998 2260700.0 
116.035004 17278300.0 
118.050003 159359.0 
118.678001 111819.0 
124.075996 10604900.0 
130.087006 316414.0 
131.070007 1092410.0 
132.102005 176960.0 
142.085999 7052650.0 
152.654007 79906.398438 
156.102005 1432220.0 
160.097 2736790.0 
166.085999 3093760.0 
166.102005 132365.0 
172.097 376809.0 
174.113007 3630820.0 
179.460007 76783.203125 
184.097 32406000.0 
202.108002 50036300.0 
220.117996 61951100.0 
END IONS

BEGIN IONS
NAME=OLEANOLIC ACID CollisionEnergy:102040 M-H
PRECURSOR_MZ=455.353
INCHI="InChI=1S/C30H48O3/c1-25(2)14-16-30(24(32)33)17-15-28(6)19(20(30)18-25)8-9-22-27(5)12-11-23(31)26(3,4)21(27)10-13-29(22,28)7/h8,20-23,31H,9-18H2,1-7H3,(H,32,33)/t20-,21-,22+,23-,27-,28+,29+,30-/m0/s1"
SMILES=CC1(C)CCC2(C(=O)O)CCC3(C)C(=CCC4C5(C)CCC(O)C(C)(C)C5CCC43C)C2C1
SPECTRUMID=CCMSLIB00010113748
55.3899 2306.0 
83.168083 2197.0 
109.787529 2414.0 
110.34433 2488.0 
111.388206 2270.0 
259.991058 2476.0 
284.427643 3038.0 
296.560425 3112.0 
349.394989 2433.0 
370.538055 2475.0 
383.989502 2453.0 
405.825775 2884.0 
455.35257 176485.0 
END IONS

BEGIN IONS
NAME=Purine CollisionEnergy:205060 M+H
PRECURSOR_MZ=121.051
INCHI="InChI=1S/C5H4N4/c1-4-5(8-2-6-1)9-3-7-4/h1-3H,(H,6,7,8,9)"
SMILES=c1ncc2nc[nH]c2n1
SPECTRUMID=CCMSLIB00010117921
52.018799 18974.0 
55.221951 2722.0 
67.029472 119560.0 
67.897842 3003.0 
73.94194 2897.0 
77.013657 2852.0 
79.485519 2726.0 
94.040123 1159354.0 
100.504677 6402.0 
112.050262 4906.0 
120.708702 3465.0 
121.050926 11139260.0 
121.394073 4126.0 
121.401772 3339.0 
END IONS

BEGIN IONS
NAME="5-amino-6-bromo-2,2-dimethyl-4-hydro-3H-1,3-thiazolidino[3,2-a]pyrimidin-7-one CollisionEnergy:205060" M+H
PRECURSOR_MZ=275.98
INCHI="InChI=1S/C8H10BrN3OS/c1-8(2)3-12-5(10)4(9)6(13)11-7(12)14-8/h3,10H2,1-2H3"
SMILES=CC1(C)Cn2c(nc(=O)c(Br)c2N)S1
SPECTRUMID=CCMSLIB00010116802
53.039139 26662.0 
55.054741 314614.0 
57.229141 2787.0 
57.73605 2849.0 
60.28474 2889.0 
70.065491 43543.0 
71.583656 2960.0 
72.081146 236697.0 
72.937523 25906.0 
77.016983 24335.0 
81.057663 6244.0 
87.02639 6872.0 
89.041969 24506.0 
90.948143 4637.0 
92.388481 3389.0 
95.073318 3965.0 
96.068001 4288.0 
97.07618 11737.0 
98.060127 14857.0 
104.298019 3122.0 
108.279243 2927.0 
109.076141 21418.0 
110.083893 164948.0 
114.03717 34507.0 
119.944351 57016.0 
121.052544 6378.0 
131.063522 66152.0 
134.344345 3056.0 
137.070648 26471.0 
138.078644 94840.0 
139.086517 4620.0 
142.007339 5627.0 
145.923325 97605.0 
147.939484 28164.0 
151.966904 3497.0 
162.950012 233341.0 
163.074692 3271.0 
164.08165 34999.0 
168.059433 3973.0 
169.067703 6086.0 
171.976349 5238.0 
174.950638 14802.0 
174.98645 3726.0 
175.203384 3162.0 
178.926498 28102.0 
179.027328 3956.0 
179.911087 67108.0 
180.035065 4374.0 
180.059448 4540.0 
180.887772 51043.0 
182.038101 259707.0 
187.944901 50307.0 
189.00209 82759.0 
192.930176 15741.0 
196.053772 31846.0 
197.061554 139279.0 
197.890884 52193.0 
198.986328 3632.0 
199.970001 41327.0 
204.906189 57860.0 
208.88266 88526.0 
214.065079 6159.0 
215.901199 23558.0 
216.906204 4307.0 
216.996902 301766.0 
220.924973 40256.0 
221.932968 1147264.0 
226.893143 121822.0 
233.933731 47124.0 
241.992508 17841.0 
252.87294 123255.0 
258.953217 34278.0 
259.949677 4588.0 
270.885529 4286.0 
274.796936 11484.0 
275.979767 7137605.0 
277.1716 6696.0 
436.009308 3267.0 
520.125366 3442.0 
END IONS

BEGIN IONS
NAME="2-{4-[(6-chloro(2H-benzo[d]1,3-dioxolan-5-yl))methylene]-2,5-dioxo(1,3-diazoli dinyl)}-N-(3-methylphenyl)acetamide CollisionEnergy:102040" 2M-H
PRECURSOR_MZ=825.148
INCHI="InChI=1S/C20H16ClN3O5/c1-11-3-2-4-13(5-11)22-18(25)9-24-19(26)15(23-20(24)27)6-12-7-16-17(8-14(12)21)29-10-28-16/h2-8H,9-10H2,1H3,(H,22,25)(H,23,27)/b15-6-"
SMILES=Cc1cccc(N=C(O)CN2C(=O)C(=Cc3cc4c(cc3Cl)OCO4)N=C2O)c1
SPECTRUMID=CCMSLIB00010110212
62.566891 3565.0 
73.959846 3047.0 
92.384377 3911.0 
96.699417 4137.0 
104.296127 4243.0 
115.488457 3169.0 
132.044983 4372.0 
136.640106 3724.0 
158.024689 7342.0 
189.067078 15456.0 
190.197647 4069.0 
211.202332 6404.0 
215.046463 7352.0 
243.040665 4121.0 
247.562622 3664.0 
261.99173 8125.0 
279.019623 4450.0 
304.994293 5425.0 
348.099457 8662.0 
374.440521 3903.0 
383.068207 5416.0 
384.076721 7526.0 
406.39032 4017.0 
412.070007 786907.0 
817.246399 3989.0 
END IONS

BEGIN IONS
NAME="3-[3-(2-chlorophenyl)-1-oxo(2,3,4-trihydro-5H,10H,11H-benzo[b]benzo[2,1-f]1,4- diazepin-11-yl)]-6-methylchromen-4-one CollisionEnergy:102040" M+Na
PRECURSOR_MZ=505.129
INCHI="InChI=1S/C29H23ClN2O3/c1-16-10-11-26-19(12-16)29(34)20(15-35-26)28-27-24(31-22-8-4-5-9-23(22)32-28)13-17(14-25(27)33)18-6-2-3-7-21(18)30/h2-12,15,17,28,31-32H,13-14H2,1H3"
SMILES=Cc1ccc2occ(C3Nc4ccccc4NC4=C3C(=O)CC(c3ccccc3Cl)C4)c(=O)c2c1
SPECTRUMID=CCMSLIB00010105637
63.870399 2606.0 
82.398773 3301.0 
88.848083 2758.0 
95.992477 3049.0 
180.127884 2884.0 
373.059174 95571.0 
373.109467 4947.0 
437.191406 11066.0 
446.203552 3158.0 
450.662354 3116.0 
450.752777 3097.0 
464.158112 4192.0 
505.127777 3116071.0 
END IONS

BEGIN IONS
NAME=scopoletin CollisionEnergy:102040 M+Na
PRECURSOR_MZ=215.031
INCHI="InChI=1S/C10H8O4/c1-13-9-4-6-2-3-10(12)14-8(6)5-7(9)11/h2-5,11H,1H3"
SMILES=COc1cc2ccc(=O)oc2cc1O
SPECTRUMID=CCMSLIB00010108240
74.096687 13805.0 
84.960098 4643.0 
92.382607 2040.0 
155.591888 2065.0 
158.927872 2732.0 
204.932312 3907.0 
215.031296 71538.0 
215.124695 14058.0 
232.928528 4061.0 
END IONS

BEGIN IONS
NAME=Untitled CollisionEnergy:205060 M+H
PRECURSOR_MZ=269.081
INCHI="InChI=1S/C16H12O4/c1-19-13-3-2-4-14-16(13)12(18)9-15(20-14)10-5-7-11(17)8-6-10/h2-9,17H,1H3"
SMILES=COc1cccc2oc(-c3ccc(O)cc3)cc(=O)c12
SPECTRUMID=CCMSLIB00010116032
65.349907 7528.0 
65.353371 4560.0 
68.997414 5514.0 
76.755783 4443.0 
79.054573 4986.0 
91.054024 8809.0 
95.04908 17678.0 
108.020302 232233.0 
118.041069 172604.0 
119.049004 184310.0 
121.028236 177098.0 
121.200859 4338.0 
123.044006 14813.0 
133.064682 7513.0 
136.015335 446431.0 
137.023087 503637.0 
145.028076 77532.0 
151.038498 97271.0 
154.025742 636260.0 
169.049957 69704.0 
169.064484 10459.0 
170.072693 15929.0 
197.059174 28830.0 
198.067841 19456.0 
226.061951 1265675.0 
236.044952 8264.0 
237.054108 427358.0 
239.067215 6380.0 
253.049042 1707082.0 
254.056732 14684301.0 
255.106689 9893.0 
268.038483 7120.0 
269.080109 12758226.0 
270.224304 10039.0 
END IONS

BEGIN IONS
NAME=5-(2-methoxyphenyl)-4-azabicyclo[4.4.0]decan-1-ol CollisionEnergy:205060 M+H
PRECURSOR_MZ=262.18
INCHI="InChI=1S/C16H23NO2/c1-19-14-8-3-2-6-12(14)15-13-7-4-5-9-16(13,18)10-11-17-15/h2-3,6,8,13,15,17-18H,4-5,7,9-11H2,1H3"
SMILES=COc1ccccc1C1NCCC2(O)CCCCC12
SPECTRUMID=CCMSLIB00010116429
55.054749 6319.0 
56.05003 3345.0 
65.039062 38079.0 
67.054649 1309584.0 
69.070236 40202.0 
77.039169 3628.0 
79.054619 35234.0 
81.070137 224314.0 
82.065002 5187.0 
82.390259 4153.0 
83.085716 6437.0 
84.959747 7519.0 
91.054337 122617.0 
93.07003 108363.0 
95.085663 4205.0 
97.303612 3192.0 
104.277077 3239.0 
106.041153 27280.0 
107.049042 81015.0 
107.085548 61563.0 
108.0812 3447.0 
109.06488 44240.0 
109.101212 671326.0 
110.683273 2929.0 
111.080643 35742.0 
117.057442 4311.0 
119.050171 3954.0 
119.059799 8734.0 
119.08564 7071.0 
121.064789 1695267.0 
122.096169 15073.0 
124.051773 18935.0 
131.049332 7452.0 
132.056717 3139.0 
133.051926 14783.0 
133.064407 11356.0 
134.060013 15222.0 
135.080124 41362.0 
136.075745 566464.0 
136.111877 42105.0 
137.05957 71285.0 
144.056793 14852.0 
145.064484 14098.0 
147.067596 6860.0 
147.080383 147087.0 
147.093491 5625.0 
148.075592 267887.0 
158.072601 16340.0 
159.080429 213774.0 
159.092224 3157.0 
160.087921 6582.0 
161.09613 12124.0 
162.091263 24972.0 
171.079803 10862.0 
173.095856 124394.0 
183.11795 3884.0 
184.087616 5053.0 
185.096542 3741.0 
187.112366 4854.0 
199.111267 10899.0 
200.107224 17359.0 
201.127457 88307.0 
212.143372 5968.0 
215.14296 198712.0 
216.138168 49758.0 
219.137466 35887.0 
227.143112 5755.0 
228.138718 29710.0 
229.145432 17519.0 
244.169418 2927498.0 
262.179932 2156538.0 
269.870514 3041.0 
END IONS

BEGIN IONS
NAME=N-(2-ethoxyphenyl)-2-[9-(4-methylphenyl)-6-oxohydropurin-8-ylthio]acetamide CollisionEnergy:205060 M-H
PRECURSOR_MZ=434.129
INCHI="InChI=1S/C22H21N5O3S/c1-3-30-17-7-5-4-6-16(17)25-18(28)12-31-22-26-19-20(23-13-24-21(19)29)27(22)15-10-8-14(2)9-11-15/h4-11,13H,3,12H2,1-2H3,(H,25,28)(H,23,24,29)"
SMILES=CCOc1ccccc1N=C(O)CSc1nc2c(O)ncnc2n1-c1ccc(C)cc1
SPECTRUMID=CCMSLIB00010122128
65.014122 143407.0 
65.994118 3532.0 
65.998123 99720.0 
66.739777 2737.0 
68.013649 14909.0 
74.692078 2791.0 
81.323952 3095.0 
89.591873 2848.0 
91.895363 3025.0 
92.025208 106259.0 
93.009064 13910.0 
105.779739 2589.0 
108.046028 3546.0 
118.652206 3375.0 
123.027267 3023.0 
127.021141 2873.0 
133.787582 3082.0 
135.030777 3693.0 
142.334991 3112.0 
146.024094 3778.0 
155.061234 1024974.0 
156.056519 4642.0 
179.003922 16894.0 
180.011383 4244.0 
182.072052 33856.0 
187.033127 19072.0 
197.058945 65061.0 
198.066681 31947.0 
208.043823 48188.0 
218.516296 3240.0 
225.07785 888156.0 
228.02356 6851.0 
228.059952 3934.0 
230.039352 3437.0 
236.069504 10989.0 
237.077316 4554.0 
238.086273 2935.0 
241.072388 17516.0 
255.009293 3468.0 
255.03421 196031.0 
256.042084 460647.0 
257.049866 188171.0 
269.050781 34672.0 
271.065887 51860.0 
285.081238 94722.0 
297.043976 35697.0 
297.899475 4017.0 
314.104065 15425.0 
330.097595 4135.0 
331.107666 55460.0 
332.117218 5532.0 
360.14624 182124.0 
388.738159 3071.0 
396.109863 4561.0 
398.112427 4271.0 
434.128906 411729.0 
496.321106 2839.0 
END IONS

BEGIN IONS
NAME=N-Acetyl-L-leucine CollisionEnergy:102040 M+H
PRECURSOR_MZ=174.112
INCHI="InChI=1S/C8H15NO3/c1-5(2)4-7(8(11)12)9-6(3)10/h5,7H,4H2,1-3H3,(H,9,10)(H,11,12)/t7-/m0/s1"
SMILES=CC(O)=N[C@@H](CC(C)C)C(=O)O
SPECTRUMID=CCMSLIB00010102980
51.235298 25184.800781 
59.5788 27098.699219 
66.254601 22908.900391 
66.763603 39211.601562 
67.578697 26836.400391 
67.665497 26784.400391 
71.659599 22540.099609 
86.096901 7679460.0 
96.9039 29228.300781 
112.555 23759.699219 
118.348999 33332.601562 
128.106995 1491510.0 
132.102005 2105820.0 
139.604996 26023.400391 
139.731995 28083.199219 
146.059006 30126.800781 
174.054993 426640.0 
174.128006 95199.203125 
END IONS

BEGIN IONS
NAME=N-(4-bromophenyl)-2-(9-methyl-6-oxohydropurin-8-ylthio)acetamide CollisionEnergy:205060 M+H
PRECURSOR_MZ=393.997
INCHI="InChI=1S/C14H12BrN5O2S/c1-20-12-11(13(22)17-7-16-12)19-14(20)23-6-10(21)18-9-4-2-8(15)3-5-9/h2-5,7H,6H2,1H3,(H,18,21)(H,16,17,22)"
SMILES=Cn1c(SCC(=O)Nc2ccc(Br)cc2)nc2c(O)ncnc21
SPECTRUMID=CCMSLIB00010125241
60.53133 2773.0 
64.957764 3488.0 
80.528091 3075.0 
84.985451 7455.0 
96.278831 3377.0 
104.049477 12194.0 
105.057358 32672.0 
107.02388 4940.0 
108.055687 4639.0 
123.067429 4200.0 
124.051064 4134.0 
133.052109 69246.0 
137.045792 44096.0 
139.991562 13488.0 
149.045486 54547.0 
150.053345 73273.0 
150.996704 26303.0 
151.061371 179318.0 
152.027283 6567.0 
153.022812 4884.0 
154.006409 3418.0 
161.045868 11924.0 
162.053711 37122.0 
163.061264 84395.0 
167.784988 3055.0 
168.022217 43497.0 
170.038788 3489.0 
170.966965 3099.0 
177.022018 4464.0 
179.056366 5969.0 
181.0177 755836.0 
181.959656 3645.0 
182.024689 3759.0 
183.033737 12420.0 
183.975418 22699.0 
186.033005 4085.0 
194.333481 3578.0 
195.033417 2303142.0 
213.043655 23172.0 
222.045135 15159.0 
222.386917 3386.0 
223.028214 2604954.0 
236.059082 23385.0 
276.00528 3189.0 
284.512085 3153.0 
375.985626 14612.0 
393.995819 140579.0 
END IONS

BEGIN IONS
NAME="N-[2-(2,5-dimethylindol-3-yl)ethyl](2-chloro-4,5-difluorophenyl)carboxamide CollisionEnergy:102040" M+Na
PRECURSOR_MZ=385.089
INCHI="InChI=1S/C19H17ClF2N2O/c1-10-3-4-18-13(7-10)12(11(2)24-18)5-6-23-19(25)14-8-16(21)17(22)9-15(14)20/h3-4,7-9,24H,5-6H2,1-2H3,(H,23,25)"
SMILES=Cc1ccc2[nH]c(C)c(CCN=C(O)c3cc(F)c(F)cc3Cl)c2c1
SPECTRUMID=CCMSLIB00010105700
60.246811 3039.0 
73.949013 2622.0 
79.155823 3023.0 
84.720337 2819.0 
92.376099 4008.0 
115.26123 3287.0 
134.50856 3242.0 
149.225693 3189.0 
157.088028 5680.0 
172.112213 53465.0 
173.11525 22700.0 
364.096985 3433.0 
383.091949 4155.0 
383.144196 12794.0 
384.579498 90187.0 
385.088562 6777392.0 
387.049896 10988.0 
END IONS

BEGIN IONS
NAME=cytidine CollisionEnergy:102040 M-H
PRECURSOR_MZ=242.078
INCHI="InChI=1S/C9H13N3O5/c10-5-1-2-12(9(16)11-5)8-7(15)6(14)4(3-13)17-8/h1-2,4,6-8,13-15H,3H2,(H2,10,11,16)/t4-,6-,7-,8-/m1/s1"
SMILES=N=c1ccn([C@@H]2O[C@H](CO)[C@@H](O)[C@H]2O)c(O)n1
SPECTRUMID=CCMSLIB00010126178
57.551498 225847.0 
59.8424 212459.0 
65.492302 212804.0 
67.0298 1655980.0 
73.972099 299320.0 
81.0457 3075070.0 
82.4216 281256.0 
89.016502 215669.0 
91.0299 1327060.0 
95.024399 250077.0 
104.316002 325143.0 
109.041 29459600.0 
110.036003 2195560.0 
112.439003 214093.0 
118.683998 224228.0 
152.046005 3931980.0 
158.013 263772.0 
242.078995 6339210.0 
END IONS

BEGIN IONS
NAME=adenine CollisionEnergy:102040 M+H
PRECURSOR_MZ=136.062
INCHI="InChI=1S/C5H5N5/c6-4-3-5(9-1-7-3)10-2-8-4/h1-2H,(H3,6,7,8,9,10)"
SMILES=Nc1nc[nH]c2ncnc1-2
SPECTRUMID=CCMSLIB00010103285
51.394699 1870.099976 
91.054802 3051.110107 
94.040398 13543.200195 
119.035004 28284.0 
136.022003 55585.300781 
136.061996 1607820.0 
136.112 17469.599609 
137.046005 43758.800781 
END IONS

BEGIN IONS
NAME="(3,4-dimethoxyphenyl)-N-(???methyl)carboxamide CollisionEnergy:102040" M+H
PRECURSOR_MZ=254.114
INCHI="InChI=1S/C11H15N3O4/c1-17-8-4-3-7(5-9(8)18-2)11(16)13-6-10(15)14-12/h3-5H,6,12H2,1-2H3,(H,13,16)(H,14,15)"
SMILES=COc1ccc(C(O)=NCC(O)=NN)cc1OC
SPECTRUMID=CCMSLIB00010112190
72.090408 2285.0 
79.053909 3568.0 
85.268349 2781.0 
87.607643 2401.0 
104.261269 3093.0 
118.813179 2733.0 
122.036217 3643.0 
126.030907 4722.0 
133.035156 2626.0 
155.070282 11079.0 
165.054611 3051156.0 
171.608261 3045.0 
185.353363 2960.0 
194.081543 2777.0 
197.092422 12484.0 
222.075928 756540.0 
254.112793 6194.0 
269.304382 2429.0 
END IONS

BEGIN IONS
NAME="2-(3,4-dimethoxyphenyl)-N-(2,4-dimethoxyphenyl)acetamide CollisionEnergy:205060" M+Na
PRECURSOR_MZ=354.131
INCHI="InChI=1S/C18H21NO5/c1-21-13-6-7-14(16(11-13)23-3)19-18(20)10-12-5-8-15(22-2)17(9-12)24-4/h5-9,11H,10H2,1-4H3,(H,19,20)"
SMILES=COc1ccc(N=C(O)Cc2ccc(OC)c(OC)c2)c(OC)c1
SPECTRUMID=CCMSLIB00010117282
50.950211 2337.0 
58.28352 2351.0 
73.783913 2790.0 
92.369507 3676.0 
118.644478 3334.0 
126.432442 2567.0 
130.554214 2343.0 
140.878967 2338.0 
157.958786 2765.0 
215.051224 2461.0 
224.764648 2360.0 
339.106079 3478.0 
354.130493 1903090.0 
372.141479 27262.0 
END IONS

BEGIN IONS
NAME=CHROMONE CollisionEnergy:205060 M+H
PRECURSOR_MZ=147.044
INCHI=InChI=1S/C9H6O2/c10-8-5-6-11-9-4-2-1-3-7(8)9/h1-6H
SMILES=O=c1ccoc2ccccc12
SPECTRUMID=CCMSLIB00010123433
50.01569 13518.0 
51.023338 33117.0 
52.241482 2885.0 
53.00264 33271.0 
53.039021 150972.0 
55.018391 6102.0 
57.007401 2892.0 
57.914379 2362.0 
64.927612 17416.0 
65.039078 10823.0 
68.997353 12944.0 
77.038643 28747.0 
77.994003 2656.0 
81.033783 39138.0 
91.054298 742805.0 
95.049133 170932.0 
97.007187 11841.0 
103.054138 149901.0 
105.044601 44507.0 
119.048767 25673.0 
123.964531 26710.0 
124.014603 60609.0 
146.584351 3671.0 
147.043808 7844557.0 
147.505814 3674.0 
END IONS

BEGIN IONS
NAME="2-(3,4-dimethoxyphenyl)-3-hydroxy-5,7-dimethoxychroman-4-one CollisionEnergy:102040" M+H
PRECURSOR_MZ=361.128
INCHI="InChI=1S/C19H20O7/c1-22-11-8-14(25-4)16-15(9-11)26-19(18(21)17(16)20)10-5-6-12(23-2)13(7-10)24-3/h5-9,18-19,21H,1-4H3"
SMILES=COc1cc(OC)c2c(c1)OC(c1ccc(OC)c(OC)c1)C(O)C2=O
SPECTRUMID=CCMSLIB00010106570
59.856251 3007.0 
65.457428 2670.0 
68.394363 3233.0 
75.136131 2809.0 
91.054108 4757.0 
92.392036 5812.0 
104.30014 4495.0 
107.049057 7484.0 
108.05687 13555.0 
121.064079 11963.0 
123.079689 3773.0 
136.05162 42100.0 
137.059372 24788.0 
139.074966 16299.0 
147.043701 4617.0 
148.052292 2907.0 
151.075104 2752316.0 
155.069916 98459.0 
160.919846 3906.0 
163.038788 5352.0 
164.0466 82344.0 
165.054077 14321.0 
167.069748 33149.0 
176.046509 21178.0 
179.069855 240594.0 
180.040848 17675.0 
181.049118 757209.0 
192.041672 25119.0 
195.06485 55949.0 
199.059174 23313.0 
207.064743 715089.0 
223.059555 85873.0 
241.082581 3608.0 
243.103043 3188.0 
269.079834 21553.0 
272.102478 4482.0 
284.103241 142968.0 
285.075836 21668.0 
287.127045 617839.0 
299.089996 19649.0 
300.098358 112070.0 
301.10672 41709.0 
311.090515 5065.0 
314.113708 58403.0 
315.121765 1423938.0 
327.085358 5138.0 
328.093414 11585.0 
343.116669 711128.0 
361.127075 1531740.0 
363.605255 3377.0 
END IONS

BEGIN IONS
NAME=Oxytetracycline hydrochloride///oxytetracycline///Oxytetracycline CollisionEnergy:102040 M+H
PRECURSOR_MZ=461.155
INCHI="InChI=1S/C22H24N2O9/c1-21(32)7-5-4-6-8(25)9(7)15(26)10-12(21)17(28)13-14(24(2)3)16(27)11(20(23)31)19(30)22(13,33)18(10)29/h4-6,12-14,17,25,27-29,32-33H,1-3H3,(H2,23,31)/t12-,13-,14+,17+,21-,22+/m1/s1"
SMILES=CN(C)C1C(O)=C(C(=N)O)C(=O)C2(O)C(O)=C3C(=O)c4c(O)cccc4C(C)(O)C3C(O)C12
SPECTRUMID=CCMSLIB00010111416
56.43816 7618.0 
58.06551 180168.0 
64.242523 6842.0 
70.065407 34372.0 
72.044403 12693.0 
74.06044 12108.0 
83.01281 40391.0 
84.044533 15590.0 
86.060089 196844.0 
92.452263 8259.0 
98.059967 589533.0 
101.642181 7631.0 
104.272682 7795.0 
109.280083 7029.0 
124.075256 7930.0 
125.023453 30778.0 
126.054893 217385.0 
128.070572 12235.0 
135.006897 10828.0 
136.197968 9806.0 
137.022797 12680.0 
140.069794 9902.0 
141.017426 7127.0 
144.065231 10492.0 
151.002411 11189.0 
152.034561 15616.0 
152.069962 15448.0 
153.017822 55308.0 
154.049622 837772.0 
156.063965 8015.0 
156.373795 8403.0 
166.997284 15302.0 
169.012955 7668.0 
170.044342 49967.0 
172.060196 126831.0 
173.059357 26782.0 
174.067139 28883.0 
175.075058 14060.0 
178.997116 31340.0 
180.065079 113675.0 
181.012878 18422.0 
187.075165 56462.0 
191.139847 8079.0 
196.060211 48977.0 
198.05632 12216.0 
198.075745 178079.0 
201.05426 1654191.0 
202.591492 6636.0 
203.06955 8798.0 
208.060089 309089.0 
211.075424 54856.0 
211.93808 8271.0 
213.054306 267813.0 
214.062302 15118.0 
223.074371 12203.0 
224.054337 17177.0 
226.070496 601800.0 
229.049088 11760.0 
231.064224 9052.0 
239.07016 172556.0 
241.048538 38580.0 
242.057114 8374.0 
243.096573 43845.0 
249.053802 8211.0 
251.069122 43247.0 
253.046921 10073.0 
255.063965 37927.0 
256.073792 8899.0 
257.043701 128141.0 
257.079681 54992.0 
258.051392 14033.0 
259.059662 15390.0 
263.069794 75683.0 
265.050354 12849.0 
265.089478 7734.0 
267.064453 276400.0 
268.036285 45920.0 
269.07959 36883.0 
270.055511 14294.0 
273.075989 123027.0 
277.046082 7991.0 
279.063873 170540.0 
281.042267 39670.0 
281.07959 28889.0 
283.059418 840992.0 
285.074371 132826.0 
291.06485 120217.0 
293.080353 28177.0 
294.050171 15438.0 
295.058075 53842.0 
297.073944 44274.0 
297.105347 12304.0 
301.070618 73963.0 
302.55426 7647.0 
307.058838 278512.0 
308.066559 9484.0 
309.074432 91904.0 
312.121704 154932.0 
317.043335 44449.0 
319.058807 90877.0 
322.046387 84292.0 
325.070923 70978.0 
335.053986 345963.0 
335.098633 14151.0 
337.069702 1469936.0 
348.022675 10711.0 
350.04129 403693.0 
353.065277 134303.0 
362.101257 33613.0 
363.048981 253846.0 
364.117523 17162.0 
365.064667 1214685.0 
375.072632 18490.0 
376.08136 14238.0 
380.117737 53721.0 
381.059509 751978.0 
390.097748 52530.0 
391.104065 17454.0 
393.084106 40465.0 
398.085876 261481.0 
399.068329 32276.0 
407.120239 29813.0 
408.10672 556686.0 
423.851532 12209.0 
425.132996 38184.0 
426.117279 12486151.0 
443.143921 6447232.0 
444.127808 3006911.0 
461.154449 8641792.0 
462.137787 51282.0 
486.171417 8390.0 
END IONS

BEGIN IONS
NAME=Prostaglandin E2 CollisionEnergy:102040 M-H
PRECURSOR_MZ=351.218
INCHI="InChI=1S/C20H32O5/c1-2-3-6-9-15(21)12-13-17-16(18(22)14-19(17)23)10-7-4-5-8-11-20(24)25/h4,7,12-13,15-17,19,21,23H,2-3,5-6,8-11,14H2,1H3,(H,24,25)/b7-4-,13-12+/t15-,16+,17+,19+/m0/s1"
SMILES=CCCCCC(O)C=CC1C(O)CC(=O)C1CC=CCCCC(=O)O
SPECTRUMID=CCMSLIB00010110091
59.013359 3697.0 
66.740593 2424.0 
95.04969 3863.0 
104.980011 2222.0 
109.065742 14584.0 
113.097092 17641.0 
135.081558 4951.0 
136.209412 2837.0 
137.097153 2283.0 
155.431122 2300.0 
161.097412 3468.0 
163.113373 3335.0 
174.105255 3635.0 
175.11235 26228.0 
187.112625 3413.0 
189.128174 119744.0 
191.144211 4452.0 
203.14325 3547.0 
207.102524 8755.0 
217.160339 11235.0 
233.118088 56919.0 
235.133896 16246.0 
260.451233 2401.0 
269.188446 2911.0 
271.206573 310822.0 
289.21756 4453.0 
315.196625 303721.0 
323.18338 2774.0 
325.952728 2594.0 
333.207214 228901.0 
351.21817 35151.0 
599.092957 3275.0 
END IONS

BEGIN IONS
NAME="N-(2H,3H-benzo[3,4-e]1,4-dioxan-6-yl)-2-{1-[(4-chlorophenyl)carbonyl]-5-methox y-2-methylindol-3-yl}acetamide CollisionEnergy:205060" M+formate
PRECURSOR_MZ=535.128
INCHI="InChI=1S/C27H23ClN2O5/c1-16-21(15-26(31)29-19-7-10-24-25(13-19)35-12-11-34-24)22-14-20(33-2)8-9-23(22)30(16)27(32)17-3-5-18(28)6-4-17/h3-10,13-14H,11-12,15H2,1-2H3,(H,29,31)"
SMILES=COc1ccc2c(c1)c(CC(O)=Nc1ccc3c(c1)OCCO3)c(C)n2C(=O)c1ccc(Cl)cc1
SPECTRUMID=CCMSLIB00010122849
51.38298 2421.0 
51.495441 2335.0 
53.70826 2734.0 
58.732079 2302.0 
60.548721 2639.0 
64.609619 2189.0 
111.000977 3488.0 
113.823822 3562.0 
150.019653 3348.0 
154.990005 5184.0 
157.053253 4313.0 
158.060944 65695.0 
254.038864 4065.0 
255.045166 18842.0 
269.060699 21419.0 
282.032898 51030.0 
296.045349 5871.0 
297.055847 34317.0 
310.927124 3019.0 
312.07962 59863.0 
351.133728 3274.0 
434.104065 2925.0 
489.122284 157806.0 
END IONS

BEGIN IONS
NAME="1,2,6,6,10,17,20-heptamethyl-17-(N-naphthylcarbamoyl)-12-oxopentacyclo[12.8.0. 0<2,11>.0<5,10>.0<15,20>]docos-13-en-7-yl acetate CollisionEnergy:205060" M+Na
PRECURSOR_MZ=660.402
INCHI="InChI=1S/C42H55NO4/c1-26(44)47-34-17-18-40(6)33(37(34,2)3)16-19-42(8)35(40)32(45)24-29-30-25-39(5,21-20-38(30,4)22-23-41(29,42)7)36(46)43-31-15-11-13-27-12-9-10-14-28(27)31/h9-15,24,30,33-35H,16-23,25H2,1-8H3,(H,43,46)"
SMILES=CC(=O)OC1CCC2(C)C(CCC3(C)C2C(=O)C=C2C4CC(C)(C(O)=Nc5cccc6ccccc56)CCC4(C)CCC23C)C1(C)C
SPECTRUMID=CCMSLIB00010123708
55.054909 4361.0 
67.054581 15882.0 
67.184837 3473.0 
69.070168 21720.0 
73.49958 3256.0 
77.240562 3504.0 
79.054367 7728.0 
81.070137 46234.0 
82.392754 4036.0 
83.010727 4565.0 
83.085716 5986.0 
85.410133 3110.0 
91.054253 6575.0 
92.371529 4227.0 
93.069992 32602.0 
95.085587 78224.0 
99.596733 3091.0 
104.279503 5152.0 
105.069733 21587.0 
107.048599 3386.0 
107.08535 59632.0 
107.741158 3448.0 
109.064621 3483.0 
109.101257 22376.0 
118.647942 3542.0 
119.049278 4106.0 
119.085251 56482.0 
121.065277 6014.0 
121.101059 48020.0 
123.080498 4569.0 
123.117058 24469.0 
131.08551 5279.0 
132.007935 3354.0 
133.064651 4093.0 
133.101425 29343.0 
135.079697 6268.0 
135.116852 26771.0 
136.204178 4654.0 
144.0811 15791.0 
145.101273 7352.0 
147.07988 4723.0 
147.116669 21212.0 
149.095932 4668.0 
149.132187 14158.0 
157.101028 7587.0 
159.116928 8399.0 
161.096573 3329.0 
161.132568 7823.0 
163.147385 4175.0 
173.132446 14163.0 
175.148209 21075.0 
184.889618 4546.0 
187.147964 4911.0 
189.127121 5030.0 
189.162811 23467.0 
199.148636 8307.0 
201.1633 4504.0 
209.338776 3288.0 
211.615036 3760.0 
217.157898 6851.0 
221.709671 3328.0 
227.180878 5027.0 
300.665833 3403.0 
310.978119 3854.0 
323.115387 3754.0 
345.340027 3587.0 
600.379089 66209.0 
618.390564 6796.0 
641.408264 5004.0 
660.401794 2408370.0 
678.412292 612964.0 
END IONS

BEGIN IONS
NAME="4,2',5'-TRIHYDROXYCHALCONE CollisionEnergy:205060" M+H-H2O
PRECURSOR_MZ=239.07
INCHI="InChI=1S/C15H12O4/c16-11-4-1-10(2-5-11)3-7-14(18)13-9-12(17)6-8-15(13)19/h1-9,16-17,19H/b7-3+"
SMILES=O=C(C=Cc1ccc(O)cc1)c1cc(O)ccc1O
SPECTRUMID=CCMSLIB00010117737
51.336128 2606.0 
55.018349 19137.0 
56.96524 4172.0 
65.038933 18866.0 
68.997459 84268.0 
69.033829 16402.0 
73.94754 2944.0 
79.021423 4336.0 
84.96032 4921.0 
91.054413 4062.0 
95.012863 26223.0 
103.054153 6016.0 
104.279053 4028.0 
104.476707 2591.0 
105.033661 4811.0 
115.054199 24250.0 
118.647713 3955.0 
119.01252 5343.0 
121.027832 5171.0 
128.061996 18240.0 
129.069931 5732.0 
131.048996 40793.0 
141.069794 86806.0 
143.085403 5730.0 
147.043884 30884.0 
152.061874 34906.0 
153.069809 80118.0 
154.077576 10201.0 
155.04863 18567.0 
155.08548 101326.0 
165.069809 318433.0 
166.077606 11925.0 
167.085449 3050.0 
168.056885 29763.0 
169.064606 120822.0 
170.071533 12309.0 
171.0439 196002.0 
171.07991 41217.0 
176.061783 15188.0 
177.070251 20080.0 
181.064911 29535.0 
182.072174 15403.0 
183.080368 167780.0 
193.065155 28013.0 
194.072922 24454.0 
195.079941 4576.0 
197.059616 334560.0 
210.06813 23654.0 
211.075119 121382.0 
215.920105 3308.0 
221.060242 35352.0 
234.650406 3088.0 
238.057983 53898.0 
239.069931 6130338.0 
END IONS

BEGIN IONS
NAME=N-{2-[2-methyl-5-(phenylmethoxy)indol-3-yl]ethyl}(1-methylpyrazol-5-yl)carboxa mide CollisionEnergy:102040 M+H
PRECURSOR_MZ=389.197
INCHI="InChI=1S/C23H24N4O2/c1-16-19(10-12-24-23(28)22-11-13-25-27(22)2)20-14-18(8-9-21(20)26-16)29-15-17-6-4-3-5-7-17/h3-9,11,13-14,26H,10,12,15H2,1-2H3,(H,24,28)"
SMILES=Cc1[nH]c2ccc(OCc3ccccc3)cc2c1CCNC(=O)c1ccnn1C
SPECTRUMID=CCMSLIB00010104692
65.038963 198594.0 
81.584373 22063.0 
83.060654 346347.0 
91.054359 18377388.0 
95.060883 26238.0 
103.054382 79587.0 
109.031891 44014.0 
109.039551 649834.0 
117.069794 2596830.0 
122.059914 28491.0 
123.05452 25773.0 
126.065483 34917.0 
132.080841 39600.0 
138.065979 49674.0 
145.06456 82537.0 
145.088593 102123.0 
146.059708 72805.0 
146.095978 46745.0 
148.075546 308751.0 
150.066132 114733.0 
152.081711 1818278.0 
154.065369 26887.0 
159.067627 121306.0 
160.075546 3250117.0 
162.090927 47033.0 
170.060745 27862.0 
172.075439 1070545.0 
173.083374 6884159.0 
173.107224 1245142.0 
174.091232 8166269.0 
181.075165 36697.0 
182.059555 189139.0 
182.41153 24968.0 
184.062897 232067.0 
186.091156 1839482.0 
199.086533 958876.0 
216.112045 29017.0 
217.096878 401729.0 
234.089569 44761.0 
236.142532 214890.0 
238.121414 178905.0 
242.127991 115334.0 
248.107422 45163.0 
249.114151 248871.0 
250.124039 47549.0 
251.125595 115243.0 
252.138123 49518.0 
264.13797 47450296.0 
265.252441 29599.0 
268.107178 26462.0 
280.106049 27404.0 
290.11853 24847.0 
297.133423 324724.0 
298.141785 282495.0 
307.143158 214911.0 
311.149719 587184.0 
323.058807 21789.0 
354.160675 47235.0 
360.169006 31790.0 
361.205353 26166.0 
368.996185 24189.0 
371.186798 154903.0 
372.170319 486366.0 
389.196533 45093788.0 
END IONS

BEGIN IONS
NAME="1-(2-hydroxy-4,6-dimethoxyphenyl)-2-(4-methoxyphenyl)ethan-1-one CollisionEnergy:102040" M+H
PRECURSOR_MZ=303.123
INCHI="InChI=1S/C17H18O5/c1-20-12-6-4-11(5-7-12)8-14(18)17-15(19)9-13(21-2)10-16(17)22-3/h4-7,9-10,19H,8H2,1-3H3"
SMILES=COc1ccc(CC(=O)c2c(O)cc(OC)cc2OC)cc1
SPECTRUMID=CCMSLIB00010104495
57.339409 3409.0 
66.404427 3222.0 
71.004066 3506.0 
73.127228 3488.0 
77.039177 4443.0 
78.046783 5673.0 
80.606079 3682.0 
82.392776 4125.0 
91.054428 20490.0 
109.064919 64163.0 
116.052933 7510.0 
121.064857 5629353.0 
121.409729 6350.0 
135.044373 16633.0 
136.274918 3782.0 
137.059784 196038.0 
139.07547 19171.0 
149.059799 4868087.0 
155.070282 178801.0 
159.065521 24972.0 
163.039062 18013.0 
165.055023 21753.0 
167.070343 2733106.0 
181.049423 46583.0 
195.065262 1330271.0 
211.073685 3379.0 
225.090576 7671.0 
239.069885 6461.0 
254.093246 50355.0 
255.06514 22872.0 
256.884613 5021.0 
257.117035 1223098.0 
270.088776 86010.0 
285.111847 1369767.0 
288.097382 3565.0 
303.122314 3425404.0 
315.332123 3608.0 
END IONS

BEGIN IONS
NAME=L-glutamic acid CollisionEnergy:102040 M-H+2Na
PRECURSOR_MZ=192.024
INCHI="InChI=1S/C5H9NO4/c6-3(5(9)10)1-2-4(7)8/h3H,1-2,6H2,(H,7,8)(H,9,10)/t3-/m0/s1"
SMILES=N[C@@H](CCC(=O)O)C(=O)O
SPECTRUMID=CCMSLIB00010102991
50.415901 1796.869995 
62.982399 84451.898438 
70.693703 2006.550049 
92.3834 2573.449951 
97.991501 2202.939941 
104.292999 2692.840088 
116.285004 2195.659912 
124.828003 1906.069946 
147.003006 12846.400391 
157.988007 2607.199951 
174.014008 101764.0 
174.664001 2148.5 
174.998001 69224.898438 
192.024002 158543.0 
END IONS

BEGIN IONS
NAME="4-({4-[(2,6-difluorophenyl)carbonyl]piperazinyl}methyl)-6-ethoxychromen-2-one CollisionEnergy:205060" M+H
PRECURSOR_MZ=429.162
INCHI="InChI=1S/C23H22F2N2O4/c1-2-30-16-6-7-20-17(13-16)15(12-21(28)31-20)14-26-8-10-27(11-9-26)23(29)22-18(24)4-3-5-19(22)25/h3-7,12-13H,2,8-11,14H2,1H3"
SMILES=CCOc1ccc2oc(=O)cc(CN3CCN(C(=O)c4c(F)cccc4F)CC3)c2c1
SPECTRUMID=CCMSLIB00010118591
63.023201 11125.0 
64.072739 2898.0 
64.409332 2489.0 
68.049789 14676.0 
72.749924 2896.0 
83.060318 17830.0 
84.068176 31341.0 
91.054062 22220.0 
97.008636 3457.0 
97.076042 6121.0 
98.083603 3650.0 
102.813179 2687.0 
103.054062 4374.0 
105.717857 3146.0 
107.048439 5087.0 
119.048843 46673.0 
121.064758 11848.0 
135.043808 11175.0 
141.014389 1971274.0 
147.043701 226180.0 
147.057129 6562.0 
149.058792 3541.0 
152.050125 3081.0 
159.025574 6696.0 
161.397217 2861.0 
163.038467 26189.0 
163.417358 2617.0 
167.503601 2843.0 
175.038696 22045.0 
175.074936 129933.0 
184.056412 42558.0 
190.065521 5468.0 
191.070007 63693.0 
192.963104 3379.0 
203.069717 30082.0 
210.07164 78761.0 
215.086014 3712.0 
225.082901 10479.0 
227.097794 5129.0 
239.099014 16352.0 
246.11264 11494.0 
259.573639 2736.0 
271.142456 5483.0 
327.063873 6816.0 
386.118622 69003.0 
401.166351 16978.0 
429.160706 1001063.0 
END IONS

BEGIN IONS
NAME=L-phenylalanine CollisionEnergy:102040 M-H
PRECURSOR_MZ=164.072
INCHI="InChI=1S/C9H11NO2/c10-8(9(11)12)6-7-4-2-1-3-5-7/h1-5,8H,6,10H2,(H,11,12)/t8-/m0/s1"
SMILES=N[C@@H](Cc1ccccc1)C(=O)O
SPECTRUMID=CCMSLIB00010102835
68.1063 3868.199951 
72.008797 362637.0 
92.405502 5317.77002 
101.350998 4100.830078 
103.056 5456.140137 
117.334 4111.549805 
118.686996 7159.180176 
119.050003 27500.900391 
147.044998 1148570.0 
149.341995 4003.080078 
151.824997 4260.790039 
163.839996 226232.0 
164.035995 24102.900391 
164.072006 669409.0 
END IONS

BEGIN IONS
NAME=pyridoxine CollisionEnergy:102040 M+H
PRECURSOR_MZ=170.081
INCHI="InChI=1S/C8H11NO3/c1-5-8(12)7(4-11)6(3-10)2-9-5/h2,10-12H,3-4H2,1H3"
SMILES=Cc1ncc(CO)c(CO)c1O
SPECTRUMID=CCMSLIB00010103177
59.427799 1115250.0 
80.050598 1215580.0 
96.081398 1405070.0 
118.690002 1726030.0 
119.462997 1319850.0 
124.075996 16750200.0 
126.017998 1307660.0 
134.059998 190136992.0 
152.070999 838108032.0 
159.184998 1197100.0 
170.080994 166882000.0 
END IONS

BEGIN IONS
NAME=6-ethoxy-4-(piperazinylmethyl)chromen-2-one CollisionEnergy:205060 M+H
PRECURSOR_MZ=289.155
INCHI="InChI=1S/C16H20N2O3/c1-2-20-13-3-4-15-14(10-13)12(9-16(19)21-15)11-18-7-5-17-6-8-18/h3-4,9-10,17H,2,5-8,11H2,1H3"
SMILES=CCOc1ccc2oc(=O)cc(CN3CCNCC3)c2c1
SPECTRUMID=CCMSLIB00010117352
55.018471 5371.0 
56.049931 492174.0 
57.045189 8270.0 
57.057732 133860.0 
58.06554 96279.0 
68.04982 64105.0 
69.044853 3552.0 
70.06543 372013.0 
71.060707 29539.0 
72.081017 17132.0 
73.076332 34476.0 
73.348122 3600.0 
79.054398 13212.0 
80.0495 4080.0 
81.069992 7238.0 
82.0653 23865.0 
83.060539 225806.0 
84.068382 867548.0 
84.959846 16601.0 
85.076172 1986102.0 
86.083946 244705.0 
87.091789 148809.0 
89.912498 4066.0 
90.976486 5626.0 
91.054237 74773.0 
92.37674 3477.0 
93.069687 8148.0 
97.075974 294658.0 
98.083809 74591.0 
99.091621 197297.0 
100.03437 3502.0 
103.054176 27067.0 
105.069817 121854.0 
106.065201 13103.0 
107.04911 72825.0 
108.404007 3748.0 
109.028397 52221.0 
110.059753 5773.0 
110.083603 14991.0 
113.071022 3476.0 
115.054176 6790.0 
117.069527 6637.0 
118.87661 3314.0 
119.049004 189503.0 
119.718033 4415.0 
121.064636 71984.0 
123.043663 18902.0 
123.091293 14526.0 
125.069832 4254.0 
125.106918 7215.0 
131.049057 57060.0 
133.06456 179169.0 
135.043808 123184.0 
135.225342 3417.0 
137.059372 23901.0 
145.064209 28800.0 
146.059845 8508.0 
147.043823 1346219.0 
147.079529 40768.0 
148.075531 3929.0 
149.059509 199884.0 
149.073044 7693.0 
151.075119 12398.0 
159.04393 39576.0 
159.080505 17077.0 
160.051819 3985.0 
160.075165 14854.0 
161.059464 77043.0 
161.095291 5175.0 
162.05452 21572.0 
162.091293 4602.0 
163.038742 183742.0 
163.074814 61792.0 
170.06015 8464.0 
171.042801 6167.0 
171.067291 6866.0 
172.07576 18645.0 
173.059097 14598.0 
174.030563 3788.0 
174.05423 13903.0 
175.03923 203934.0 
175.075134 2010304.0 
176.069763 15559.0 
177.054474 71472.0 
177.090622 50695.0 
186.054382 5579.0 
187.062424 23471.0 
188.070068 41481.0 
188.106079 4295.0 
189.053818 21169.0 
189.091034 254815.0 
190.085587 29037.0 
190.122604 14635.0 
191.069916 941765.0 
198.054596 5536.0 
200.07103 13419.0 
201.090439 14939.0 
202.04866 4124.0 
202.085159 8135.0 
203.070236 280484.0 
204.100815 57054.0 
205.085464 115485.0 
214.085999 6608.0 
216.065384 5856.0 
216.101273 59371.0 
217.066879 3940.0 
217.085892 109655.0 
218.081512 31052.0 
218.117035 73174.0 
228.1008 7349.0 
230.080505 4840.0 
231.087494 7863.0 
232.096161 24036.0 
232.131714 14767.0 
237.908859 5349.0 
242.104248 4938.0 
244.095871 64400.0 
246.111862 303325.0 
246.136276 13745.0 
247.142303 6251.0 
260.127808 47535.0 
261.159058 19006.0 
264.609161 4450.0 
271.143738 27657.0 
272.127197 8608.0 
289.1539 6461517.0 
END IONS

BEGIN IONS
NAME=trehalose CollisionEnergy:102040 M+Cl
PRECURSOR_MZ=377.086
INCHI="InChI=1S/C12H22O11/c13-1-3-5(15)7(17)9(19)11(21-3)23-12-10(20)8(18)6(16)4(2-14)22-12/h3-20H,1-2H2/t3-,4-,5-,6-,7+,8+,9-,10-,11-,12-/m1/s1"
SMILES=OC[C@H]1O[C@H](O[C@H]2O[C@H](CO)[C@@H](O)[C@H](O)[C@H]2O)[C@H](O)[C@@H](O)[C@@H]1O
SPECTRUMID=CCMSLIB00010102772
54.2859 5366.379883 
59.274899 5280.049805 
66.760002 5498.52002 
71.269897 5801.740234 
88.041 4621.439941 
92.402901 6511.109863 
103.179001 4913.77002 
278.751007 4963.390137 
341.109009 11906.900391 
377.085999 257942.0 
END IONS

BEGIN IONS
NAME=amino-N-[2-(2-methylindol-3-yl)ethyl]amide CollisionEnergy:205060 M+Na
PRECURSOR_MZ=240.111
INCHI="InChI=1S/C12H15N3O/c1-8-9(6-7-14-12(13)16)10-4-2-3-5-11(10)15-8/h2-5,15H,6-7H2,1H3,(H3,13,14,16)"
SMILES=Cc1[nH]c2ccccc2c1CCNC(=N)O
SPECTRUMID=CCMSLIB00010118235
51.078049 2499.0 
61.374691 2437.0 
67.539909 2264.0 
123.716988 2576.0 
132.738831 2153.0 
133.313232 2419.0 
240.110153 1686916.0 
246.768509 3413.0 
END IONS

BEGIN IONS
NAME=2-Hydroxyquinoline CollisionEnergy:205060 M+H
PRECURSOR_MZ=146.06
INCHI="InChI=1S/C9H7NO/c11-9-6-5-7-3-1-2-4-8(7)10-9/h1-6H,(H,10,11)"
SMILES=Oc1ccc2ccccc2n1
SPECTRUMID=CCMSLIB00010117984
63.023659 3586.0 
66.74881 4366.0 
75.023071 6705.0 
77.039101 19225.0 
91.054047 16998.0 
92.384857 4849.0 
104.295326 4283.0 
118.065353 13218.0 
123.022331 4875.0 
128.049332 3238041.0 
129.04454 15722.0 
145.052719 8454.0 
145.593018 4644.0 
145.605759 9900.0 
146.059891 19648912.0 
146.51564 15226.0 
148.064178 16380.0 
END IONS

BEGIN IONS
NAME=520-36-5 CollisionEnergy:102040 M-H
PRECURSOR_MZ=269.046
INCHI="InChI=1S/C15H10O5/c16-9-3-1-8(2-4-9)13-7-12(19)15-11(18)5-10(17)6-14(15)20-13/h1-7,16-18H"
SMILES=O=c1cc(-c2ccc(O)cc2)oc2cc(O)cc(O)c12
SPECTRUMID=CCMSLIB00010106132
63.023609 12746.0 
65.002876 69358.0 
68.176651 8008.0 
72.940277 8301.0 
82.402023 11408.0 
83.013527 58057.0 
105.034752 22158.0 
107.013931 254004.0 
117.034439 1023694.0 
118.376556 9304.0 
121.0298 17572.0 
130.160797 9390.0 
149.024368 1236953.0 
151.003677 1453542.0 
159.044937 176299.0 
169.066147 43423.0 
180.057953 40453.0 
181.066284 188577.0 
183.044434 149628.0 
185.024429 54912.0 
185.396347 12086.0 
196.052292 11574.0 
197.061584 117769.0 
200.814529 11085.0 
200.880661 20248.0 
201.055984 347891.0 
213.056656 22880.0 
224.048386 44731.0 
225.055893 914423.0 
226.02861 10224.0 
227.034882 250730.0 
241.050232 51903.0 
251.032364 14767.0 
267.892334 37522.0 
268.039246 50471.0 
268.736053 41181.0 
269.045654 50593224.0 
270.205292 19303.0 
END IONS

BEGIN IONS
NAME="3-(2H-benzo[3,4-d]1,3-dioxolan-5-ylcarbonylamino)-3-(4-propoxyphenyl)propanoic acid CollisionEnergy:205060" M+Na
PRECURSOR_MZ=394.126
INCHI="InChI=1S/C20H21NO6/c1-2-9-25-15-6-3-13(4-7-15)16(11-19(22)23)21-20(24)14-5-8-17-18(10-14)27-12-26-17/h3-8,10,16H,2,9,11-12H2,1H3,(H,21,24)(H,22,23)"
SMILES=CCCOc1ccc(C(CC(=O)O)N=C(O)c2ccc3c(c2)OCO3)cc1
SPECTRUMID=CCMSLIB00010122165
51.418491 2449.0 
54.794819 2058.0 
91.054253 32220.0 
95.109962 2478.0 
104.284142 3214.0 
128.407425 2131.0 
134.095657 2468.0 
138.514236 2490.0 
188.031616 283288.0 
206.042236 5520.0 
212.779968 2881.0 
229.058548 14039.0 
259.016449 4092.0 
376.074829 9045.0 
394.125885 178262.0 
419.631836 2644.0 
END IONS

BEGIN IONS
NAME=4-hydroxy-1-phenyl-3-benzylhydroquinolin-2-one CollisionEnergy:102040 M+Na
PRECURSOR_MZ=350.115
INCHI="InChI=1S/C22H17NO2/c24-21-18-13-7-8-14-20(18)23(17-11-5-2-6-12-17)22(25)19(21)15-16-9-3-1-4-10-16/h1-14,24H,15H2"
SMILES=O=c1c(Cc2ccccc2)c(O)c2ccccc2n1-c1ccccc1
SPECTRUMID=CCMSLIB00010104828
57.944271 2929.0 
92.368187 3647.0 
100.706009 2781.0 
104.277893 3139.0 
104.765167 2471.0 
135.124054 2783.0 
157.387817 3188.0 
157.953995 2863.0 
167.227554 2503.0 
287.276184 3305.0 
349.108429 4810.0 
350.114655 3851245.0 
END IONS

BEGIN IONS
NAME="N-[4-(methylethyl)phenyl]-2-[2-oxo-4-(2-1,2,3,4-tetrahydroisoquinolylcarbonyl) hydroquinolyl]acetamide CollisionEnergy:205060" M-H
PRECURSOR_MZ=478.214
INCHI="InChI=1S/C30H29N3O3/c1-20(2)21-11-13-24(14-12-21)31-28(34)19-33-27-10-6-5-9-25(27)26(17-29(33)35)30(36)32-16-15-22-7-3-4-8-23(22)18-32/h3-14,17,20H,15-16,18-19H2,1-2H3,(H,31,34)"
SMILES=CC(C)c1ccc(NC(=O)Cn2c(=O)cc(C(=O)N3CCc4ccccc4C3)c3ccccc32)cc1
SPECTRUMID=CCMSLIB00010125712
53.282261 2726.0 
56.212471 2455.0 
57.318779 2676.0 
58.98299 2333.0 
59.6847 2979.0 
60.281319 2579.0 
68.010033 2534.0 
73.880569 2610.0 
73.950951 3566.0 
74.10498 2680.0 
76.346542 2709.0 
82.394821 3629.0 
88.318512 2679.0 
104.278809 2952.0 
104.286217 3654.0 
115.05545 2880.0 
116.05072 35539.0 
128.040451 5053.0 
128.050583 91732.0 
130.066086 42171.0 
134.09697 19248.0 
136.210037 2941.0 
138.265732 2804.0 
140.049683 3501.0 
142.066208 41405.0 
142.48259 2714.0 
144.045364 67203.0 
146.060608 5055.0 
156.045441 19446.0 
157.053574 23736.0 
158.061005 139967.0 
167.06218 3753.0 
168.045517 27457.0 
172.040512 29174.0 
176.03392 4124.0 
184.040283 85839.0 
184.519455 2854.0 
186.055908 158365.0 
210.877167 2716.0 
210.896439 2881.0 
269.108337 11095.0 
271.124542 4662.0 
275.117798 18374.0 
292.718323 3343.0 
299.118896 4307.0 
301.101898 2867.0 
303.113678 72037.0 
315.112915 6443.0 
317.128937 89724.0 
319.108093 23938.0 
343.107788 53722.0 
393.980499 4485.0 
396.250366 2785.0 
399.540588 2684.0 
478.213379 327069.0 
END IONS

BEGIN IONS
NAME="2-ethylthioethyl 4-(3-bromo-4-hydroxy-5-methoxyphenyl)-2-methyl-5-oxo-1,4,6,7, 8-pentahydroquinoline-3-carboxylate CollisionEnergy:205060" M-H
PRECURSOR_MZ=494.064
INCHI="InChI=1S/C22H26BrNO5S/c1-4-30-9-8-29-22(27)18-12(2)24-15-6-5-7-16(25)20(15)19(18)13-10-14(23)21(26)17(11-13)28-3/h10-11,19,24,26H,4-9H2,1-3H3"
SMILES=CCSCCOC(=O)C1=C(C)NC2=C(C(=O)CCC2)C1c1cc(Br)c(O)c(OC)c1
SPECTRUMID=CCMSLIB00010122083
52.490742 2717.0 
61.01125 46773.0 
68.597794 2687.0 
78.918602 2539669.0 
89.109238 2952.0 
92.384468 4359.0 
92.391006 3019.0 
130.065933 7617.0 
136.0392 3567.0 
146.061111 14257.0 
148.040253 21887.0 
151.773575 2876.0 
152.770844 3710.0 
158.060959 76413.0 
160.076813 223570.0 
162.055664 16267.0 
174.055817 19615.0 
185.932175 748781.0 
186.055618 4615.0 
188.034805 3233.0 
191.060211 3373.0 
200.955597 303196.0 
203.059326 13244.0 
204.066498 44577.0 
210.004196 4236.0 
210.02269 4569.0 
235.048004 19096.0 
264.065094 4638.0 
265.073456 19495.0 
266.082611 4464.0 
292.06311 4233.0 
292.100708 122300.0 
293.068939 4478.0 
343.437195 3235.0 
346.010254 4076.0 
371.986847 4351.0 
388.018463 38400.0 
406.031586 4390.0 
494.06424 1419560.0 
END IONS

BEGIN IONS
NAME="N-((1E,3E)-4-(2H-benzo[3,4-d]1,3-dioxolan-5-yl)-1-azabuta-1,3-dienyl)-4-pyridy lcarboxamide CollisionEnergy:205060" M+Cl
PRECURSOR_MZ=330.065
INCHI="InChI=1S/C16H13N3O3/c20-16(13-5-8-17-9-6-13)19-18-7-1-2-12-3-4-14-15(10-12)22-11-21-14/h1-10H,11H2,(H,19,20)/b2-1+,18-7+"
SMILES=O=C(NN=CC=Cc1ccc2c(c1)OCO2)c1ccncc1
SPECTRUMID=CCMSLIB00010116745
53.83419 2026.0 
57.126801 2397.0 
99.925507 5022.0 
103.030151 18821.0 
123.546593 2692.0 
130.841446 2472.0 
137.150772 2404.0 
144.045212 12197.0 
155.269012 2150.0 
208.862778 11204.0 
220.699219 2428.0 
261.849915 3484.0 
294.088745 68453.0 
END IONS

BEGIN IONS
NAME="1-[6-(3,3-dimethyl-2-oxobutylthio)purin-9-yl]-3,3-dimethylbutan-2-one CollisionEnergy:205060" M+Na
PRECURSOR_MZ=371.151
INCHI="InChI=1S/C17H24N4O2S/c1-16(2,3)11(22)7-21-10-20-13-14(21)18-9-19-15(13)24-8-12(23)17(4,5)6/h9-10H,7-8H2,1-6H3"
SMILES=CC(C)(C)C(=O)CSc1ncnc2c1ncn2CC(=O)C(C)(C)C
SPECTRUMID=CCMSLIB00010114841
62.60743 2463.0 
66.745956 2951.0 
67.470833 2646.0 
73.94722 2618.0 
81.635223 2910.0 
91.560623 2263.0 
121.494232 2745.0 
127.21769 2769.0 
136.22049 2431.0 
184.796967 2389.0 
185.405533 2742.0 
192.478683 2502.0 
241.105164 20918.0 
286.087006 4692.0 
371.151093 2326475.0 
END IONS

BEGIN IONS
NAME=[2-(5-methoxyindol-3-yl)ethyl](phenylsulfonyl)amine CollisionEnergy:205060 M+Na
PRECURSOR_MZ=353.093
INCHI="InChI=1S/C17H18N2O3S/c1-22-14-7-8-17-16(11-14)13(12-18-17)9-10-19-23(20,21)15-5-3-2-4-6-15/h2-8,11-12,18-19H,9-10H2,1H3"
SMILES=COc1ccc2[nH]cc(CCNS(=O)(=O)c3ccccc3)c2c1
SPECTRUMID=CCMSLIB00010120648
52.319061 2716.0 
64.16539 2990.0 
65.822968 2540.0 
84.959839 2636.0 
104.304413 2500.0 
209.996002 3399.0 
210.014603 4351.0 
334.034119 2968.0 
338.069519 3676.0 
353.092438 3261467.0 
END IONS

BEGIN IONS
NAME=phenylmethyl 1-(2-ethylthioethyl)-5-hydroxy-2-methylbenzo[g]indole-3-carboxyla te CollisionEnergy:205060 M-e
PRECURSOR_MZ=419.155
INCHI="InChI=1S/C25H25NO3S/c1-3-30-14-13-26-17(2)23(25(28)29-16-18-9-5-4-6-10-18)21-15-22(27)19-11-7-8-12-20(19)24(21)26/h4-12,15,27H,3,13-14,16H2,1-2H3"
SMILES=CCSCCn1c(C)c(C(=O)OCc2ccccc2)c2cc(O)c3ccccc3c21
SPECTRUMID=CCMSLIB00010122788
58.995529 11449.0 
61.011101 332677.0 
62.01075 3508.0 
62.014431 3902.0 
65.038857 5523.0 
66.735924 3672.0 
85.010941 4574.0 
87.020378 4838.0 
87.026466 133823.0 
89.042137 1265277.0 
89.387688 3125.0 
90.045807 45588.0 
91.054359 363538.0 
97.932999 2910.0 
106.017509 2913.0 
106.581108 2822.0 
121.508347 2761.0 
136.193909 3011.0 
149.02095 3031.0 
152.608994 2775.0 
160.759399 2572.0 
164.27446 2589.0 
196.077072 4540.0 
196.110733 3586.0 
207.067581 4276.0 
208.076126 2957.0 
209.083649 16002.0 
221.083237 13846.0 
222.09108 18797.0 
223.098618 2812.0 
224.107025 45687.0 
231.37822 3602.0 
240.06572 3622.0 
250.085114 3056.0 
255.071396 6652.0 
261.245422 3226.0 
266.081818 12469.0 
268.09668 3207.0 
284.109924 88018.0 
328.099518 155671.0 
328.143036 6100.0 
344.127441 50404.0 
419.154327 529018.0 
END IONS

BEGIN IONS
NAME=2-(9-ethyl-6-oxohydropurin-8-ylthio)-N-(4-ethylphenyl)acetamide CollisionEnergy:205060 M+Na
PRECURSOR_MZ=380.115
INCHI="InChI=1S/C17H19N5O2S/c1-3-11-5-7-12(8-6-11)20-13(23)9-25-17-21-14-15(22(17)4-2)18-10-19-16(14)24/h5-8,10H,3-4,9H2,1-2H3,(H,20,23)(H,18,19,24)"
SMILES=CCc1ccc(NC(=O)CSc2nc3c(O)ncnc3n2CC)cc1
SPECTRUMID=CCMSLIB00010120148
51.86018 2587.0 
54.422642 2356.0 
58.506321 2436.0 
61.32272 2722.0 
80.075531 2640.0 
89.906158 2730.0 
147.787704 3223.0 
187.059082 11354.0 
216.04808 4599.0 
217.015045 4909.0 
218.022888 101165.0 
227.053207 4569.0 
259.024872 25840.0 
293.02124 3020.0 
380.114624 3266254.0 
END IONS

BEGIN IONS
NAME="ethyl 6-(4-hydroxy-3-methoxyphenyl)-4-phenyl-2-thioxo-1,3,6-trihydropyrimidine -5-carboxylate CollisionEnergy:102040" M+H
PRECURSOR_MZ=385.122
INCHI="InChI=1S/C20H20N2O4S/c1-3-26-19(24)16-17(12-7-5-4-6-8-12)21-20(27)22-18(16)13-9-10-14(23)15(11-13)25-2/h4-11,18,23H,3H2,1-2H3,(H2,21,22,27)"
SMILES=CCOC(=O)C1=C(c2ccccc2)N=C(S)NC1c1ccc(O)c(OC)c1
SPECTRUMID=CCMSLIB00010107928
50.30167 3488.0 
52.605251 2635.0 
54.58952 3328.0 
64.645203 3018.0 
77.017174 24340.0 
82.403053 3130.0 
89.023842 3538.0 
103.054207 3439.0 
104.0495 140809.0 
105.033722 26438.0 
108.672623 3590.0 
111.044342 3329.0 
111.985184 22129.0 
117.033531 7697.0 
125.059769 39657.0 
129.033524 42870.0 
136.209579 3617.0 
145.028549 221786.0 
146.059525 25898.0 
152.070374 34234.0 
153.054855 98366.0 
156.044189 48998.0 
161.193298 3562.0 
164.016449 5449.0 
169.031876 47799.0 
170.023529 5461.0 
171.055664 50715.0 
174.055023 184235.0 
175.075912 3360.0 
177.054764 968257.0 
181.085983 267849.0 
184.075897 13351.0 
186.056 5073.0 
187.032852 18466.0 
188.016373 5296.0 
189.065506 30154.0 
192.046921 14603.0 
194.027374 27783.0 
202.049667 7165.0 
202.086624 13954.0 
215.027435 170021.0 
216.01152 14690.0 
217.097061 91649.0 
222.066605 7096.0 
233.037964 149737.0 
237.091141 226705.0 
244.042755 134398.0 
250.063278 19945.0 
252.101913 724905.0 
261.069244 841951.0 
263.07074 44100.0 
264.079834 3804.0 
265.085968 840412.0 
280.096863 519538.0 
281.081085 5087.0 
282.11438 4249.0 
297.0578 15714.0 
309.112091 1455298.0 
311.086456 4097.0 
322.053864 66011.0 
326.138641 745212.0 
339.079681 61938.0 
368.094971 248099.0 
385.121613 3000196.0 
END IONS

BEGIN IONS
NAME=3-(4-butoxyphenyl)-4-[(2-hydroxy-3-nitrophenyl)methylene]isoxazol-5-one CollisionEnergy:205060 M+Na
PRECURSOR_MZ=405.106
INCHI="InChI=1S/C20H18N2O6/c1-2-3-11-27-15-9-7-13(8-10-15)18-16(20(24)28-21-18)12-14-5-4-6-17(19(14)23)22(25)26/h4-10,12,23H,2-3,11H2,1H3/b16-12-"
SMILES=CCCCOc1ccc(C2=NOC(=O)C2=Cc2cccc([N+](=O)[O-])c2O)cc1
SPECTRUMID=CCMSLIB00010124369
56.833939 2337.0 
59.92918 2233.0 
66.735847 2419.0 
80.947906 4849.0 
92.366226 2681.0 
103.558571 2234.0 
118.644699 3171.0 
121.028137 10704.0 
177.090363 4275.0 
185.379105 2689.0 
210.730057 3039.0 
294.458801 2298.0 
309.529297 2452.0 
405.105438 39928.0 
405.164581 4740.0 
END IONS

BEGIN IONS
NAME="N-phenyl[(9,11,13-trimethyl-8,15-dioxatetracyclo[10.2.2.0<2,7>.0<9,14>]hexadec a-2(7),3,5-trien-12-yl)methoxy]carboxamide CollisionEnergy:102040" M-H
PRECURSOR_MZ=406.202
INCHI="InChI=1S/C25H29NO4/c1-16-13-24(3)21-17(2)25(16,15-29-23(27)26-18-9-5-4-6-10-18)14-28-22(21)19-11-7-8-12-20(19)30-24/h4-12,16-17,21-22H,13-15H2,1-3H3,(H,26,27)"
SMILES=CC1CC2(C)Oc3ccccc3C3OCC1(COC(O)=Nc1ccccc1)C(C)C32
SPECTRUMID=CCMSLIB00010111553
65.127853 2686.0 
93.034554 73001.0 
97.965851 2463.0 
103.617073 3209.0 
121.029633 1702400.0 
122.352203 2891.0 
137.558746 2555.0 
148.764832 2764.0 
182.510788 2792.0 
257.155792 28564.0 
287.165833 708201.0 
305.176361 143763.0 
331.155823 480556.0 
332.15802 4243.0 
349.164917 12200.0 
406.203064 534421.0 
END IONS

BEGIN IONS
NAME="2-(3-methyl-2,6-dioxo-1,3,7-trihydropurin-7-yl)acetic acid CollisionEnergy:102040" M-H
PRECURSOR_MZ=223.047
INCHI="InChI=1S/C8H8N4O4/c1-11-6-5(7(15)10-8(11)16)12(3-9-6)2-4(13)14/h3H,2H2,1H3,(H,13,14)(H,10,15,16)"
SMILES=Cn1c(=O)nc(O)c2c1ncn2CC(=O)O
SPECTRUMID=CCMSLIB00010114473
56.79211 2364.0 
66.758972 3327.0 
69.680603 2603.0 
70.587143 2429.0 
73.972107 2744.0 
76.045563 2239.0 
89.169937 2827.0 
95.02478 3613.0 
96.583504 2684.0 
97.004257 4832.0 
108.056717 4974.0 
109.902893 2558.0 
111.020767 3777.0 
118.682022 2778.0 
122.035942 2644409.0 
122.389877 2950.0 
123.007729 5032.0 
126.030907 5578.0 
136.051636 53370.0 
137.975723 2830.0 
138.030609 55349.0 
154.025665 598494.0 
156.041321 14545.0 
165.04155 557791.0 
179.057266 686144.0 
181.036011 27001.0 
223.047089 375465.0 
END IONS

BEGIN IONS
NAME="(6-bromo(8-hydropyrazolo[1,5-a]pyrimidin-2-yl))-N-(4-methyl-2-oxochromen-7-yl) carboxamide CollisionEnergy:205060" M-H
PRECURSOR_MZ=396.994
INCHI="InChI=1S/C17H11BrN4O3/c1-9-4-16(23)25-14-5-11(2-3-12(9)14)20-17(24)13-6-15-19-7-10(18)8-22(15)21-13/h2-8H,1H3,(H,20,24)"
SMILES=Cc1cc(=O)oc2cc(N=C(O)c3cc4ncc(Br)cn4n3)ccc12
SPECTRUMID=CCMSLIB00010124903
55.638439 2778.0 
59.348179 2928.0 
63.406811 2864.0 
78.918694 2100907.0 
82.422211 3487.0 
90.933517 3364.0 
92.40136 4140.0 
136.103348 2597.0 
150.002335 2556.0 
183.268051 2714.0 
192.92955 3745.0 
195.951462 1158275.0 
208.06105 3004.0 
275.699646 2916.0 
396.993835 876923.0 
END IONS

BEGIN IONS
NAME=1-{[4-(acetylamino)phenyl]sulfonyl}pyrrolidine-2-carboxylic acid CollisionEnergy:205060 M+H
PRECURSOR_MZ=313.085
INCHI="InChI=1S/C13H16N2O5S/c1-9(16)14-10-4-6-11(7-5-10)21(19,20)15-8-2-3-12(15)13(17)18/h4-7,12H,2-3,8H2,1H3,(H,14,16)(H,17,18)"
SMILES=CC(O)=Nc1ccc(S(=O)(=O)N2CCCC2C(=O)O)cc1
SPECTRUMID=CCMSLIB00010122395
61.758228 2393.0 
65.039017 455014.0 
65.395798 2483.0 
68.04998 30843.0 
70.065514 361590.0 
73.949799 2843.0 
79.054626 5243.0 
83.986557 3037.0 
84.960037 15046.0 
91.054237 40953.0 
92.049591 27145.0 
93.03363 305761.0 
93.586967 3168.0 
94.065361 12545.0 
96.044189 5273.0 
106.065193 18178.0 
108.044357 454845.0 
110.059959 16991.0 
111.043793 3477.0 
114.054764 5358.0 
118.642517 2906.0 
124.039131 22725.0 
134.060028 1028441.0 
136.07579 20371.0 
145.779251 2682.0 
149.022934 12938.0 
150.021469 2922.0 
150.054871 55257.0 
152.070724 10709.0 
156.011292 71753.0 
162.066025 75703.0 
173.037491 2625.0 
192.909729 4026.0 
198.021866 491679.0 
216.033401 10488.0 
248.899918 10541.0 
267.079498 1038637.0 
313.084381 44953.0 
END IONS

BEGIN IONS
NAME=(6-bromo-2-oxochromen-3-yl)-N-[(2-iodophenyl)carbonylamino]carboxamide CollisionEnergy:205060 M+Na
PRECURSOR_MZ=534.876
INCHI="InChI=1S/C17H10BrIN2O4/c18-10-5-6-14-9(7-10)8-12(17(24)25-14)16(23)21-20-15(22)11-3-1-2-4-13(11)19/h1-8H,(H,20,22)(H,21,23)"
SMILES=O=c1oc2ccc(Br)cc2cc1C(O)=NN=C(O)c1ccccc1I
SPECTRUMID=CCMSLIB00010123726
56.96526 61850.0 
58.960979 3597.0 
60.958069 17338.0 
62.39267 2676.0 
66.755074 3353.0 
76.031448 3301.0 
81.033546 3488.0 
86.824669 2827.0 
94.041229 28727.0 
97.980331 2830.0 
120.877457 3256.0 
129.787445 2547.0 
166.866562 12974.0 
192.748337 2710.0 
211.436798 3164.0 
230.929413 70564.0 
231.93335 17883.0 
286.942535 52046.0 
289.942657 4611.0 
290.925873 255368.0 
410.336304 3023.0 
496.88501 4788.0 
534.875671 1762033.0 
END IONS

BEGIN IONS
NAME=3-[(4-ethylphenyl)(4-hydroxy-2-oxo-8-phenyl(3-hydroquinolyl))methyl]-4-hydroxy -1-phenylhydroquinolin-2-one CollisionEnergy:102040 M+Na
PRECURSOR_MZ=613.21
INCHI="InChI=1S/C39H30N2O4/c1-2-24-20-22-26(23-21-24)32(33-37(43)30-18-11-17-28(35(30)40-38(33)44)25-12-5-3-6-13-25)34-36(42)29-16-9-10-19-31(29)41(39(34)45)27-14-7-4-8-15-27/h3-23,32,42H,2H2,1H3,(H2,40,43,44)"
SMILES=CCc1ccc(C(c2c(O)nc3c(-c4ccccc4)cccc3c2O)c2c(O)c3ccccc3n(-c3ccccc3)c2=O)cc1
SPECTRUMID=CCMSLIB00010112287
50.19701 3706.0 
55.17979 4073.0 
61.80135 3267.0 
82.653526 4544.0 
83.07708 3603.0 
104.303032 4575.0 
118.675583 5195.0 
121.272453 3617.0 
123.644814 4175.0 
136.237411 4194.0 
212.342361 5850.0 
213.435074 4232.0 
260.067719 6894176.0 
278.078094 53795.0 
301.093872 223138.0 
302.09613 4496.0 
317.598846 4127.0 
339.179382 5024.0 
376.129913 1523289.0 
417.153656 42448.0 
513.265442 4231.0 
612.644958 17102.0 
613.208435 2377847.0 
END IONS

BEGIN IONS
NAME=L-Canavanine CollisionEnergy:102040 M-H2O+H
PRECURSOR_MZ=159.087
INCHI="InChI=1S/C5H12N4O3/c6-3(4(10)11)1-2-12-9-5(7)8/h3H,1-2,6H2,(H,10,11)(H4,7,8,9)/t3-/m0/s1"
SMILES=C(CON=C(N)N)[C@@H](C(=O)O)N
SPECTRUMID=CCMSLIB00010102425
56.049603 9082.212891 
58.039997 6251.791992 
63.188255 3658.999512 
65.423416 3610.882812 
69.775757 3259.129639 
72.044281 53798.605469 
72.080276 3803.001465 
76.050385 762583.5 
83.682755 2843.794678 
92.295418 2863.995361 
92.862297 4233.457031 
99.091759 3295.345215 
100.075516 32902.636719 
101.760658 3116.772705 
114.066109 4435.67627 
117.101967 7380.380859 
118.049469 16636.605469 
120.577248 3079.883789 
131.09259 19888.275391 
153.967911 4196.456055 
158.960403 70976.742188 
159.087097 19256.080078 
159.113556 5099.389648 
160.071442 16199.017578 
176.970627 12452.614258 
END IONS

BEGIN IONS
NAME=2-(4-ethoxyphenyl)-4-oxochromen-3-yl 4-methylbenzenesulfonate CollisionEnergy:205060 M+Na
PRECURSOR_MZ=459.087
INCHI="InChI=1S/C24H20O6S/c1-3-28-18-12-10-17(11-13-18)23-24(22(25)20-6-4-5-7-21(20)29-23)30-31(26,27)19-14-8-16(2)9-15-19/h4-15H,3H2,1-2H3"
SMILES=CCOc1ccc(-c2oc3ccccc3c(=O)c2OS(=O)(=O)c2ccc(C)cc2)cc1
SPECTRUMID=CCMSLIB00010117643
51.068352 2371.0 
57.86528 2175.0 
72.432068 2375.0 
92.358307 3682.0 
197.095444 13675.0 
275.031433 4063.0 
304.069977 874604.0 
320.343964 2577.0 
345.094666 3007.0 
418.047089 3767.0 
436.059814 13807.0 
459.085968 107492.0 
END IONS

BEGIN IONS
NAME=3-[N-(4-methylphenyl)carbamoyl]propanoic acid CollisionEnergy:205060 2M-H
PRECURSOR_MZ=413.172
INCHI="InChI=1S/C11H13NO3/c1-8-2-4-9(5-3-8)12-10(13)6-7-11(14)15/h2-5H,6-7H2,1H3,(H,12,13)(H,14,15)"
SMILES=Cc1ccc(NC(=O)CCC(=O)O)cc1
SPECTRUMID=CCMSLIB00010118375
52.605499 2363.0 
55.018372 21482.0 
71.013489 5372.0 
73.976151 2694.0 
82.424156 3167.0 
84.281197 2282.0 
88.982224 2613.0 
92.406471 3453.0 
96.632423 2640.0 
99.008591 198556.0 
103.102814 2536.0 
104.31707 2961.0 
106.066093 358125.0 
136.248962 3114.0 
157.658997 2927.0 
160.076691 47747.0 
162.092346 390124.0 
188.053925 4379.0 
188.071625 79818.0 
206.082108 590214.0 
END IONS

BEGIN IONS
NAME="4-{[4-(5-chloro-2-methylphenyl)piperazinyl]methyl}-5,7-dimethylchromen-2-one CollisionEnergy:205060" M+Na
PRECURSOR_MZ=419.15
INCHI="InChI=1S/C23H25ClN2O2/c1-15-10-17(3)23-18(12-22(27)28-21(23)11-15)14-25-6-8-26(9-7-25)20-13-19(24)5-4-16(20)2/h4-5,10-13H,6-9,14H2,1-3H3"
SMILES=Cc1cc(C)c2c(CN3CCN(c4cc(Cl)ccc4C)CC3)cc(=O)oc2c1
SPECTRUMID=CCMSLIB00010116592
51.538929 2246.0 
53.838711 2556.0 
55.466331 2268.0 
66.744904 2190.0 
70.490723 2045.0 
74.812332 2115.0 
82.404488 3220.0 
104.290169 3170.0 
105.84388 2464.0 
159.956299 2236.0 
177.018616 3056.0 
274.411041 2316.0 
317.962097 3117.0 
327.600708 2310.0 
356.424011 2865.0 
419.148956 302381.0 
END IONS

BEGIN IONS
NAME=N-(2-indol-3-ylethyl)[(4-nitrophenyl)methoxy]carboxamide CollisionEnergy:205060 M+H
PRECURSOR_MZ=340.129
INCHI="InChI=1S/C18H17N3O4/c22-18(25-12-13-5-7-15(8-6-13)21(23)24)19-10-9-14-11-20-17-4-2-1-3-16(14)17/h1-8,11,20H,9-10,12H2,(H,19,22)"
SMILES=O=[N+]([O-])c1ccc(COC(O)=NCCc2c[nH]c3ccccc23)cc1
SPECTRUMID=CCMSLIB00010122110
50.71207 2792.0 
62.224751 2578.0 
66.04686 7282.0 
66.157806 2703.0 
66.739883 2856.0 
71.475563 2744.0 
78.046761 378523.0 
89.039108 3047.0 
90.046822 3610.0 
91.054337 11342.0 
92.377441 3846.0 
103.054161 24017.0 
106.041389 162552.0 
115.054176 37049.0 
116.062073 23161.0 
117.057114 26708.0 
117.069923 108455.0 
118.065483 11226.0 
128.061829 3149.0 
129.070419 4776.0 
130.065201 453917.0 
131.073181 209886.0 
132.081039 51005.0 
136.039322 132674.0 
142.065399 21845.0 
143.073044 1039100.0 
144.080856 1679605.0 
145.064972 11655.0 
147.067368 3653.0 
154.064438 5475.0 
155.060349 13053.0 
155.073364 5484.0 
156.068604 7001.0 
156.080811 95914.0 
157.088455 3857.0 
158.084061 5783.0 
159.091492 33706.0 
160.09964 3624.0 
168.067871 4602.0 
169.075989 70429.0 
177.066727 6161.0 
180.135544 3637.0 
187.086655 27488.0 
203.081848 18811.0 
204.090027 90910.0 
206.096344 28712.0 
209.112488 6806.0 
215.085052 6064.0 
216.082855 3262.0 
217.088654 72860.0 
218.096573 154542.0 
220.112106 18078.0 
230.096008 13647.0 
231.088562 3189.0 
231.106171 5911.0 
232.112228 174751.0 
233.119324 16263.0 
234.092789 5102.0 
236.106232 5239.0 
243.092361 5420.0 
245.106628 2948.0 
247.086227 6943.0 
248.105499 16993.0 
249.101852 6750.0 
250.110504 19366.0 
260.118073 7089.0 
261.126434 29335.0 
262.109253 30164.0 
263.085205 3257.0 
265.109589 278500.0 
267.112488 139688.0 
278.129364 3123.0 
279.112579 1266849.0 
296.139221 12180.0 
322.118744 25957.0 
340.128601 35517.0 
END IONS

BEGIN IONS
NAME="9-methyl-8-{[5-methyl-2-(3-methylphenyl)(1,3-oxazol-4-yl)]methylthio}hydropuri n-6-one CollisionEnergy:205060" M-H
PRECURSOR_MZ=366.103
INCHI="InChI=1S/C18H17N5O2S/c1-10-5-4-6-12(7-10)17-21-13(11(2)25-17)8-26-18-22-14-15(23(18)3)19-9-20-16(14)24/h4-7,9H,8H2,1-3H3,(H,19,20,24)"
SMILES=Cc1cccc(-c2nc(CSc3nc4c(O)ncnc4n3C)c(C)o2)c1
SPECTRUMID=CCMSLIB00010119664
57.975422 13496.0 
73.968452 2820.0 
76.15612 2263.0 
80.91671 38393.0 
87.925003 3464.0 
103.920578 9139.0 
112.986351 3300.0 
123.946297 3441.0 
127.416901 2233.0 
131.322037 2396.0 
136.222641 2584.0 
138.013123 12499.0 
147.031448 8425.0 
149.045944 3489.0 
174.956284 3964.0 
179.003311 82196.0 
180.011108 317805.0 
181.018845 78128.0 
229.912537 3620.0 
229.964264 18135.0 
271.951263 3269.0 
297.900055 4557.0 
297.953613 6026.0 
323.541382 2577.0 
366.102905 74396.0 
END IONS

BEGIN IONS
NAME=3-butyl-4-hydroxy-1-phenylhydroquinolin-2-one CollisionEnergy:102040 2M-H
PRECURSOR_MZ=585.276
INCHI="InChI=1S/C19H19NO2/c1-2-3-11-16-18(21)15-12-7-8-13-17(15)20(19(16)22)14-9-5-4-6-10-14/h4-10,12-13,21H,2-3,11H2,1H3"
SMILES=CCCCc1c(O)c2ccccc2n(-c2ccccc2)c1=O
SPECTRUMID=CCMSLIB00010103804
54.901001 2547.0 
60.599251 2498.0 
82.313148 2639.0 
82.393356 2556.0 
110.823357 3038.0 
136.200043 3186.0 
185.383636 2866.0 
292.134064 33539.0 
432.102081 2830.0 
463.420166 3148.0 
END IONS

BEGIN IONS
NAME="1-{2-[(3-fluorophenyl)methyl](1,2,3,4-tetrahydrobeta-carbolinyl)}-4-methoxyben zene CollisionEnergy:205060" M-e
PRECURSOR_MZ=386.179
INCHI="InChI=1S/C25H23FN2O/c1-29-20-11-9-18(10-12-20)25-24-22(21-7-2-3-8-23(21)27-24)13-14-28(25)16-17-5-4-6-19(26)15-17/h2-12,15,25,27H,13-14,16H2,1H3"
SMILES=COc1ccc(C2c3[nH]c4ccccc4c3CCN2Cc2cccc(F)c2)cc1
SPECTRUMID=CCMSLIB00010115495
72.972481 2443.0 
88.499969 2081.0 
104.285957 2614.0 
107.181084 2200.0 
109.036667 3896.0 
109.044853 118171.0 
110.048058 33132.0 
121.064407 5600.0 
138.071411 11062.0 
143.072708 11332.0 
144.079605 13554.0 
157.973434 2606.0 
169.075943 3845.0 
174.718506 2484.0 
217.089005 4028.0 
218.095062 12550.0 
233.102661 2797.0 
236.106339 9812.0 
245.106476 4942.0 
246.112854 7674.0 
248.105728 13820.0 
249.109619 16908.0 
250.122269 41679.0 
252.118988 3498.0 
253.120834 11800.0 
260.091736 3773.0 
261.099121 9998.0 
262.103455 2842.0 
264.13739 3822.0 
275.117645 50508.0 
276.121002 148615.0 
276.15567 5049.0 
277.12793 26070.0 
328.217712 2895.0 
370.142822 3286.0 
386.17395 340375.0 
485.012451 2567.0 
655.850098 2808.0 
668.830566 2636.0 
END IONS

BEGIN IONS
NAME=2-(4-Ethoxyphenyl)-4-oxo-4H-chromen-3-yl 4-bromobenzenesulfonate CollisionEnergy:102040 M+Na
PRECURSOR_MZ=522.982
INCHI="InChI=1S/C23H17BrO6S/c1-2-28-17-11-7-15(8-12-17)22-23(21(25)19-5-3-4-6-20(19)29-22)30-31(26,27)18-13-9-16(24)10-14-18/h3-14H,2H2,1H3"
SMILES=CCOc1ccc(-c2oc3ccccc3c(=O)c2OS(=O)(=O)c2ccc(Br)cc2)cc1
SPECTRUMID=CCMSLIB00010105712
73.036087 3488.0 
80.128517 3947.0 
92.365372 5004.0 
97.880608 4556.0 
104.273308 5301.0 
204.779037 4053.0 
210.376938 4353.0 
253.084763 5915.0 
268.415558 4565.0 
275.030914 168285.0 
276.038666 8806.0 
303.060455 5898.0 
304.070129 12446855.0 
322.079773 30399.0 
345.09491 52261.0 
522.981628 7755659.0 
540.989075 6206.0 
564.011414 42765.0 
572.407532 4738.0 
END IONS

BEGIN IONS
NAME="4-({4-[(2,4-dimethoxyphenyl)carbonyl]piperazinyl}methyl)-7-methylchromen-2-one CollisionEnergy:102040" M+Na
PRECURSOR_MZ=445.173
INCHI="InChI=1S/C24H26N2O5/c1-16-4-6-19-17(13-23(27)31-22(19)12-16)15-25-8-10-26(11-9-25)24(28)20-7-5-18(29-2)14-21(20)30-3/h4-7,12-14H,8-11,15H2,1-3H3"
SMILES=COc1ccc(C(=O)N2CCN(Cc3cc(=O)oc4cc(C)ccc34)CC2)c(OC)c1
SPECTRUMID=CCMSLIB00010107486
73.950699 2811.0 
75.823036 3075.0 
84.415047 2911.0 
85.537231 3918.0 
104.29081 3454.0 
218.934494 2829.0 
224.589249 3254.0 
242.405624 2934.0 
271.104919 17130.0 
346.086548 3572.0 
430.152069 5833.0 
442.747345 6369.0 
445.172607 5470067.0 
447.617523 5862.0 
END IONS

BEGIN IONS
NAME=methyl 4-[3-acetyl-4-hydroxy-1-(2-indol-3-ylethyl)-5-oxo-3-pyrrolin-2-yl]benzo ate CollisionEnergy:205060 M-H
PRECURSOR_MZ=417.146
INCHI="InChI=1S/C24H22N2O5/c1-14(27)20-21(15-7-9-16(10-8-15)24(30)31-2)26(23(29)22(20)28)12-11-17-13-25-19-6-4-3-5-18(17)19/h3-10,13,21,25,28H,11-12H2,1-2H3"
SMILES=COC(=O)c1ccc(C2C(C(C)=O)=C(O)C(=O)N2CCc2c[nH]c3ccccc23)cc1
SPECTRUMID=CCMSLIB00010121365
51.04324 10349.0 
58.02932 51398.0 
66.762047 13681.0 
67.710373 9465.0 
73.972458 12003.0 
83.013603 53233.0 
84.008942 15239.0 
86.024498 190773.0 
89.039299 12977.0 
97.549141 10488.0 
98.024307 43140.0 
101.039619 51876.0 
104.315178 12983.0 
105.034393 38472.0 
110.024681 19720.0 
112.49247 9120.0 
116.050461 59416.0 
117.034737 75290.0 
118.683273 8484.0 
119.050018 20418.0 
121.029427 475168.0 
126.020203 10900.0 
129.034409 70048.0 
130.042419 179853.0 
130.066422 12871.0 
131.049698 53564.0 
133.029495 83179.0 
134.037003 15556.0 
135.044983 14562.0 
138.018982 21081.0 
142.06633 16866.0 
143.050323 127266.0 
144.022507 14339.0 
144.057953 135847.0 
145.029633 164412.0 
146.037506 53865.0 
147.045135 1290199.0 
148.051483 10496.0 
149.060883 41576.0 
151.040222 17222.0 
157.029633 49687.0 
157.077087 41629.0 
158.008652 11325.0 
158.038208 19766.0 
158.061066 20782.0 
159.045044 154857.0 
159.093246 40188.0 
160.05304 582702.0 
161.024597 119123.0 
161.060852 3136624.0 
169.076767 70330.0 
171.045563 72276.0 
172.039398 22676.0 
172.053329 41179.0 
173.024384 822476.0 
173.061188 37212.0 
174.015533 20204.0 
174.032303 473918.0 
175.040131 171548.0 
175.076431 437744.0 
177.055618 59871.0 
178.027466 263992.0 
179.034454 13172.0 
183.055923 14542.0 
185.057831 19543.0 
185.073761 16732.0 
186.05603 128945.0 
187.039917 60734.0 
187.076401 25405.0 
188.047974 4219999.0 
189.055786 1962516.0 
190.051727 20773.0 
191.071686 11968.0 
192.042923 72032.0 
200.03537 876148.0 
201.019836 52057.0 
201.056976 72390.0 
201.103073 17077.0 
203.035614 57093.0 
203.071365 630430.0 
204.066376 125041.0 
205.050568 556345.0 
206.022064 306557.0 
212.244766 11705.0 
213.056122 49816.0 
214.050842 295039.0 
215.035141 334674.0 
216.043823 178706.0 
216.065872 19760.0 
217.036362 16342.0 
220.037613 58297.0 
229.050781 15657.0 
229.097458 17657.0 
230.046478 64023.0 
231.066147 748381.0 
232.061523 82642.0 
244.024734 11944.0 
244.060501 16181.0 
245.068604 107634.0 
246.076996 104628.0 
256.061707 17264.0 
257.045135 16329.0 
258.03949 347654.0 
259.05014 15341.0 
272.056122 57884.0 
274.072449 247219.0 
305.053833 73868.0 
358.134705 11953.0 
375.134399 64702.0 
402.122009 394393.0 
402.181396 16249.0 
417.14566 26589702.0 
END IONS

BEGIN IONS
NAME="5-[(4-hydroxy-3,5-dimethoxyphenyl)methylene]-3-phenyl-2-(phenylazamethylene)-1 ,3-thiazolidin-4-one CollisionEnergy:102040" M+H
PRECURSOR_MZ=433.122
INCHI="InChI=1S/C24H20N2O4S/c1-29-19-13-16(14-20(30-2)22(19)27)15-21-23(28)26(18-11-7-4-8-12-18)24(31-21)25-17-9-5-3-6-10-17/h3-15,27H,1-2H3/b21-15-,25-24-"
SMILES=COc1cc(C=C2SC(=Nc3ccccc3)N(c3ccccc3)C2=O)cc(OC)c1O
SPECTRUMID=CCMSLIB00010104592
59.707241 3006.0 
63.106541 2705.0 
77.039192 3047.0 
85.008667 3298.0 
92.049408 32135.0 
92.393997 4682.0 
107.048737 4638.0 
109.010529 3567.0 
111.736923 3138.0 
118.674889 3232.0 
120.044197 18228.0 
123.026154 19111.0 
130.332962 3553.0 
135.999939 3047.0 
151.021011 200260.0 
167.069641 6684.0 
168.023056 3176.0 
177.00032 14720.0 
178.062347 14791.0 
179.015915 241542.0 
195.091446 579417.0 
196.018478 61002.0 
205.050598 3377.0 
206.988144 6619.0 
207.010712 248614.0 
211.042023 320379.0 
227.039139 3244.0 
237.021408 29516.0 
237.076187 4360.0 
238.031418 5329.0 
239.036667 61269.0 
255.0345 3940.0 
270.057739 22681.0 
283.02771 5514.0 
298.053162 27041.0 
330.079681 3653.0 
410.151001 3343.0 
417.089508 50809.0 
418.098389 27513.0 
432.112579 3774.0 
433.120911 3790129.0 
435.4617 4710.0 
END IONS

BEGIN IONS
NAME=2-[(4-adamantanylphenyl)carbonylamino]-3-indol-3-ylpropanoic acid CollisionEnergy:205060 2M-H
PRECURSOR_MZ=883.444
INCHI="InChI=1S/C28H30N2O3/c31-26(30-25(27(32)33)12-21-16-29-24-4-2-1-3-23(21)24)20-5-7-22(8-6-20)28-13-17-9-18(14-28)11-19(10-17)15-28/h1-8,16-19,25,29H,9-15H2,(H,30,31)(H,32,33)"
SMILES=O=C(NC(Cc1c[nH]c2ccccc12)C(=O)O)c1ccc(C23CC4CC(CC(C4)C2)C3)cc1
SPECTRUMID=CCMSLIB00010122340
61.525639 3668.0 
63.63488 3516.0 
64.690857 4170.0 
66.764 3854.0 
73.979233 5385.0 
80.659081 3604.0 
82.424782 4505.0 
83.69368 3584.0 
113.002296 3491.0 
116.050331 128269.0 
118.695374 4024.0 
130.065872 21502.0 
142.065765 23776.0 
203.77092 3999.0 
225.260208 3756.0 
250.159958 22340.0 
254.154785 226662.0 
254.184998 8931.0 
255.138336 40652.0 
266.155731 8282.0 
268.170166 213107.0 
280.170197 9704.0 
294.149506 122844.0 
298.144806 7764.0 
312.160156 130963.0 
379.216766 6781.0 
397.227783 96480.0 
441.217926 2021011.0 
710.305847 3966.0 
END IONS

BEGIN IONS
NAME=beta-alanine CollisionEnergy:102040 M-H
PRECURSOR_MZ=88.0404
INCHI="InChI=1S/C3H7NO2/c4-2-1-3(5)6/h1-2,4H2,(H,5,6)"
SMILES=NCCC(=O)O
SPECTRUMID=CCMSLIB00010102573
59.013302 69527.601562 
59.094601 3588.840088 
60.008598 5827.859863 
65.479698 3481.639893 
66.273102 3759.139893 
71.013496 6109.600098 
88.040199 196776.0 
END IONS

BEGIN IONS
NAME="4-(4-ethoxyphenyl)-2-oxo-6-(3,4,5-trimethoxyphenyl)hydropyridine-3-carbonitril e CollisionEnergy:205060" 2M-H
PRECURSOR_MZ=811.298
INCHI="InChI=1S/C23H22N2O5/c1-5-30-16-8-6-14(7-9-16)17-12-19(25-23(26)18(17)13-24)15-10-20(27-2)22(29-4)21(11-15)28-3/h6-12H,5H2,1-4H3,(H,25,26)"
SMILES=CCOc1ccc(-c2cc(-c3cc(OC)c(OC)c(OC)c3)nc(O)c2C#N)cc1
SPECTRUMID=CCMSLIB00010120855
57.257641 2957.0 
60.760052 3315.0 
69.766731 3284.0 
73.972954 3320.0 
84.623161 3106.0 
111.440582 3270.0 
117.332123 3451.0 
120.575813 3330.0 
132.390396 3867.0 
136.57756 3392.0 
180.126419 3489.0 
303.041748 67393.0 
304.085999 5700.0 
318.064423 7489.0 
328.04953 13860.0 
331.037415 14559.0 
332.081329 37200.0 
344.080902 4708.0 
345.087128 5028.0 
346.057404 26385.0 
347.104553 8004.0 
357.089508 6855.0 
360.076447 22394.0 
361.082672 4528.0 
375.098846 95035.0 
376.107574 3889.0 
389.112915 6072.0 
390.121674 3892.0 
405.145691 309300.0 
END IONS

BEGIN IONS
NAME="8-((1E)-4-dibenzo[b,d]furan-2-yloxy-2-azabut-1-enyl)-2-[8-((1E)-4-dibenzo[b,d] furan-2-yloxy-2-azabut-1-enyl)-1,6,7-trihydroxy-3-methyl-5-(methylethyl)(2-nap hthyl)]-3-methyl-5-(methylethyl)naphthalene-1,6,7-triol CollisionEnergy:102040" M+2H]
PRECURSOR_MZ=469.188
INCHI="InChI=1S/C58H52N2O10/c1-29(2)47-39-23-31(5)49(55(63)51(39)41(53(61)57(47)65)27-59-19-21-67-33-15-17-45-37(25-33)35-11-7-9-13-43(35)69-45)50-32(6)24-40-48(30(3)4)58(66)54(62)42(52(40)56(50)64)28-60-20-22-68-34-16-18-46-38(26-34)36-12-8-10-14-44(36)70-46/h7-18,23-30,61-66H,19-22H2,1-6H3/b59-27+,60-28+"
SMILES=Cc1cc2c(C(C)C)c(O)c(O)c(C=NCCOc3ccc4oc5ccccc5c4c3)c2c(O)c1-c1c(C)cc2c(C(C)C)c(O)c(O)c(C=NCCOc3ccc4oc5ccccc5c4c3)c2c1O
SPECTRUMID=CCMSLIB00010114498
95.773064 2842.0 
104.295319 3472.0 
121.404663 3149.0 
129.987305 3131.0 
134.841919 3394.0 
143.953537 3209.0 
165.069504 3222.0 
175.848587 3352.0 
183.044403 12936.0 
183.080368 48897.0 
184.051743 111777.0 
185.058426 16254.0 
211.075073 84096.0 
212.07843 3870.0 
214.062149 17073.0 
219.091995 4728.0 
227.070023 7288.0 
228.07547 5713.0 
228.101501 130090.0 
229.105225 4059.0 
233.089142 5292.0 
242.093246 52742.0 
242.593597 14064.0 
243.100464 13367.0 
255.617264 16025.0 
256.103943 5252.0 
256.606903 3646.0 
263.61438 19033.0 
265.96283 3149.0 
272.131195 3990.0 
277.138428 7128.0 
347.624084 6758.0 
348.128235 3031.0 
355.640289 81777.0 
356.141754 17650.0 
369.163452 14827.0 
440.780212 3093.0 
441.126617 4503.0 
455.181396 4995.0 
461.675079 16511.0 
465.169708 5519.0 
467.147217 7401.0 
468.161652 18209.0 
468.679596 21660.0 
469.18811 2935996.0 
469.387268 214895.0 
469.689697 851977.0 
473.194305 31588.0 
483.180145 229718.0 
484.181488 39512.0 
498.200378 3456.0 
500.209442 6591.0 
510.227448 13902.0 
526.223328 13327.0 
636.383728 3593.0 
658.269348 3618.0 
700.28772 4319.0 
710.27356 88572.0 
711.279846 25352.0 
856.026306 3176.0 
END IONS

BEGIN IONS
NAME="11-(4-chlorophenyl)-3,3-dimethyl-10-[(phenylamino)thioxomethyl]-2,3,4-trihydro -5H,11H-benzo[b]benzo[2,1-f]1,4-diazepin-1-one CollisionEnergy:205060" M+H
PRECURSOR_MZ=488.156
INCHI="InChI=1S/C28H26ClN3OS/c1-28(2)16-22-25(24(33)17-28)26(18-12-14-19(29)15-13-18)32(23-11-7-6-10-21(23)31-22)27(34)30-20-8-4-3-5-9-20/h3-15,26,31H,16-17H2,1-2H3,(H,30,34)"
SMILES=CC1(C)CC(=O)C2=C(C1)Nc1ccccc1N(C(S)=Nc1ccccc1)C2c1ccc(Cl)cc1
SPECTRUMID=CCMSLIB00010117800
51.023499 9263.0 
53.039089 56340.0 
55.018211 5028.0 
55.054741 126633.0 
59.049759 3996.0 
65.039093 4992.0 
69.070236 4582.0 
70.079567 4232.0 
77.038918 16581.0 
78.046654 17086.0 
79.054237 4016.0 
81.033852 9090.0 
81.070198 16046.0 
83.049393 1330581.0 
85.064972 5205.0 
92.049538 25292.0 
92.377129 5066.0 
93.057297 6632.0 
94.065239 391348.0 
95.049294 30262.0 
105.044533 6955.0 
107.060478 5825.0 
109.010674 129588.0 
109.018944 6134.0 
109.064697 6647.0 
119.060143 24862.0 
124.021111 5001.0 
125.015228 141343.0 
128.061707 6014.0 
130.064774 33165.0 
131.059967 21480.0 
132.067856 25832.0 
133.075912 372010.0 
133.992508 3612.0 
136.021515 715092.0 
137.015396 5665.0 
138.994919 18672.0 
139.031067 8469.0 
139.79425 4418.0 
141.057556 9458.0 
143.085495 7255.0 
144.093765 9640.0 
145.075516 9380.0 
149.015945 7282.0 
150.024368 4732.0 
150.036774 5500.0 
151.031815 80184.0 
152.062347 7979.0 
153.069702 23804.0 
155.059402 5868.0 
156.067993 7137.0 
157.075928 472696.0 
158.08371 16631.0 
159.055252 7337.0 
159.091614 50970.0 
163.030975 17466.0 
165.010025 26787.0 
165.069672 15569.0 
166.077866 7660.0 
167.085663 42581.0 
168.093323 71857.0 
170.058548 5518.0 
170.083588 5867.0 
172.021057 5923.0 
173.070984 5695.0 
173.107162 140122.0 
175.032089 52741.0 
175.086517 7712.0 
179.025284 6954.0 
179.061737 28070.0 
182.109116 8514.0 
183.091141 8208.0 
185.070786 688730.0 
189.010529 19148.0 
192.093292 6293.0 
197.106613 18319.0 
199.032303 397510.0 
199.08606 16084.0 
199.122711 26386.0 
201.046326 6369.0 
203.06282 31955.0 
208.099304 7641.0 
210.104263 35024.0 
211.085449 37391.0 
213.102097 18868.0 
213.139709 7218.0 
215.06459 5189.0 
215.117203 69216.0 
217.042175 30193.0 
217.087662 50168.0 
219.090256 7251.0 
221.072403 53584.0 
223.122528 84693.0 
224.106247 32713.0 
225.101181 15289.0 
226.122406 358728.0 
227.0271 380900.0 
228.12619 7806.0 
231.065384 4800.0 
232.098175 17406.0 
233.106705 22420.0 
234.115326 9949.0 
235.086304 23401.0 
237.04715 4884.0 
237.101715 7375.0 
241.133194 4777895.0 
243.09259 6436.0 
252.056427 34549.0 
253.040405 36308.0 
254.073502 55453.0 
255.05983 107137.0 
257.10495 5895.0 
258.097839 8941.0 
261.102264 6920.0 
265.078735 35035.0 
266.073029 36575.0 
267.061584 9083.0 
268.066467 14356.0 
269.084534 47573.0 
270.070343 4568.0 
271.098816 18566.0 
273.0242 17907.0 
275.062836 16294.0 
278.061127 30337.0 
279.068115 32977.0 
280.052124 6707.0 
283.089478 1353860.0 
292.086792 8231.0 
294.103943 24100.0 
295.062408 5048.0 
295.098602 15327.0 
297.023041 6898.0 
297.078735 55313.0 
305.083801 22485.0 
308.119354 24061.0 
309.113647 15861.0 
311.040314 9193.0 
311.130707 8246.0 
313.05545 26623.0 
314.128815 7974.0 
318.104187 7765.0 
319.097931 30423.0 
320.112732 7748.0 
322.098755 24015.0 
325.145538 4990.0 
326.127197 7432.0 
335.130493 34497.0 
336.114441 76288.0 
337.122894 92830.0 
339.036011 5229.0 
342.159546 54473.0 
347.041443 9872.0 
347.090576 4641.0 
351.125458 14778.0 
353.140961 3457302.0 
359.121765 5328.0 
395.097412 1637142.0 
454.166107 26848.0 
488.154541 340841.0 
END IONS

BEGIN IONS
NAME="3,5-Diiodo-L-thyronine CollisionEnergy:102040" M+Cl
PRECURSOR_MZ=559.863
INCHI="InChI=1S/C15H13I2NO4/c16-11-5-8(7-13(18)15(20)21)6-12(17)14(11)22-10-3-1-9(19)2-4-10/h1-6,13,19H,7,18H2,(H,20,21)/t13-/m0/s1"
SMILES=N[C@@H](Cc1cc(I)c(Oc2ccc(O)cc2)c(I)c1)C(=O)O
SPECTRUMID=CCMSLIB00010102489
50.948399 2268.22998 
66.779404 3168.100098 
77.880302 3152.209961 
79.555801 2818.080078 
87.647301 2692.139893 
107.767998 2527.659912 
113.926003 4642.290039 
126.904999 36020.5 
172.244003 2586.280029 
175.671005 2364.959961 
210.268997 2905.550049 
216.770004 2978.52002 
259.812012 2475.610107 
263.033997 2624.52002 
329.394989 2485.850098 
332.993988 3068.699951 
413.096985 2679.129883 
416.949005 2762.120117 
433.618988 2819.649902 
464.539001 2681.179932 
523.882996 25646.400391 
535.481995 2647.290039 
END IONS

BEGIN IONS
NAME="7,4'-Dihydroxyflavone CollisionEnergy:102040" M+H
PRECURSOR_MZ=255.065
INCHI="InChI=1S/C15H10O4/c16-10-3-1-9(2-4-10)14-8-13(18)12-6-5-11(17)7-15(12)19-14/h1-8,16-17H"
SMILES=O=c1cc(-c2ccc(O)cc2)oc2cc(O)ccc12
SPECTRUMID=CCMSLIB00010105424
61.033829 4395.0 
63.760429 20276.0 
63.770741 22336.0 
68.997429 57146.0 
69.27253 4288.0 
72.459877 4665.0 
77.824959 3824.0 
82.378967 5129.0 
92.356468 4981.0 
95.012833 4657.0 
111.043701 5726.0 
119.040077 7237.0 
119.049042 124289.0 
121.028442 22751.0 
137.023071 302155.0 
145.028275 132515.0 
155.033966 61707.0 
163.038391 21367.0 
168.746353 5036.0 
169.064636 20657.0 
171.079102 6585.0 
181.062302 5385.0 
187.075241 27358.0 
195.001404 5698.0 
199.074844 19212.0 
213.052048 5698.0 
227.06897 37024.0 
238.061996 28129.0 
254.016815 42604.0 
254.055511 32811.0 
255.064636 40705264.0 
256.11908 45006.0 
END IONS

BEGIN IONS
NAME="3-Hydroxy-3',4'-Dimethoxyflavone CollisionEnergy:102040" M+H
PRECURSOR_MZ=299.091
INCHI="InChI=1S/C17H14O5/c1-20-13-8-7-10(9-14(13)21-2)17-16(19)15(18)11-5-3-4-6-12(11)22-17/h3-9,19H,1-2H3"
SMILES=COc1ccc(-c2oc3ccccc3c(=O)c2O)cc1OC
SPECTRUMID=CCMSLIB00010104215
53.96841 3179.0 
60.385029 2757.0 
82.387451 3780.0 
92.371429 2691.0 
105.0336 35647.0 
107.049294 48701.0 
113.180817 2805.0 
113.211182 3243.0 
121.028442 81168.0 
133.029068 20751.0 
137.059875 153008.0 
138.067459 34405.0 
149.023438 7058.0 
162.030441 22576.0 
163.03804 5939.0 
165.054504 33318.0 
177.018509 14727.0 
210.067734 5090.0 
211.075134 7314.0 
237.05455 23619.0 
238.061981 45234.0 
239.069962 60161.0 
240.078125 5294.0 
241.049805 3799.0 
243.102066 24890.0 
249.053391 4424.0 
253.049316 6073.0 
255.064896 116785.0 
256.072845 15713.0 
263.985687 3385.0 
265.049194 33570.0 
266.057281 121740.0 
266.942871 3180.0 
267.065399 86264.0 
268.072266 26049.0 
269.04483 31924.0 
270.051788 21572.0 
270.08667 6778.0 
283.059906 445668.0 
284.030762 3576.0 
284.067474 201339.0 
299.091003 6324054.0 
300.426941 3989.0 
301.056549 3991.0 
END IONS

BEGIN IONS
NAME="(6E,10E)-2-hydroxy-2,6,10-trimethyl-12-(2-oxochromen-7-yloxy)dodeca-6,10-dien- 3-one CollisionEnergy:205060" M+H
PRECURSOR_MZ=399.217
INCHI="InChI=1S/C24H30O5/c1-17(8-12-22(25)24(3,4)27)6-5-7-18(2)14-15-28-20-11-9-19-10-13-23(26)29-21(19)16-20/h6,9-11,13-14,16,27H,5,7-8,12,15H2,1-4H3/b17-6+,18-14+"
SMILES=CC(=CCOc1ccc2ccc(=O)oc2c1)CCC=C(C)CCC(=O)C(C)(C)O
SPECTRUMID=CCMSLIB00010116320
53.039082 6191.0 
55.018471 3167.0 
55.054668 17205.0 
57.070301 4994.0 
58.222401 2661.0 
59.049629 48491.0 
64.977814 5485.0 
65.038834 4068.0 
66.811958 2788.0 
67.054543 37909.0 
69.033768 13465.0 
69.070213 24333.0 
71.049316 17600.0 
79.054588 52278.0 
81.070137 179269.0 
82.403397 3592.0 
83.049294 4919.0 
83.085632 6692.0 
85.064827 12156.0 
91.054337 126790.0 
92.383713 3186.0 
93.06356 3715.0 
93.070053 109536.0 
95.049347 3883.0 
95.085587 57631.0 
95.119301 2814.0 
97.064667 14304.0 
97.100471 4018.0 
99.08036 5273.0 
103.710503 3065.0 
105.069839 92556.0 
107.049011 153594.0 
107.085472 108071.0 
109.064758 18111.0 
109.101082 82765.0 
111.080421 4254.0 
115.053619 2496.0 
117.069527 11894.0 
118.664879 3263.0 
119.04911 148020.0 
119.085419 56043.0 
120.225502 2877.0 
121.101189 38248.0 
123.080406 12197.0 
123.116592 28268.0 
125.096001 43442.0 
126.421852 2664.0 
127.111801 25550.0 
130.077393 4944.0 
131.085419 20467.0 
133.101181 71625.0 
135.043823 17903.0 
135.116577 76294.0 
141.09082 21719.0 
143.085876 3281.0 
143.106766 33444.0 
144.093506 3125.0 
145.10112 63763.0 
147.043549 21615.0 
147.116592 17278.0 
149.132263 27921.0 
151.111267 35557.0 
159.116562 26907.0 
161.132446 49047.0 
162.720474 3354.0 
163.038803 1530668.0 
169.122482 13851.0 
169.745621 3531.0 
173.132248 6881.0 
175.038788 100665.0 
175.148575 9826.0 
179.142563 12163.0 
191.179092 11176.0 
201.163605 32596.0 
219.174393 35986.0 
237.185669 3065.0 
294.822144 2699.0 
381.204498 5555.0 
END IONS

BEGIN IONS
NAME=2-amino-3-(phenylmethoxy)propanoic acid CollisionEnergy:205060 M+Na
PRECURSOR_MZ=218.079
INCHI="InChI=1S/C10H13NO3/c11-9(10(12)13)7-14-6-8-4-2-1-3-5-8/h1-5,9H,6-7,11H2,(H,12,13)"
SMILES=NC(COCc1ccccc1)C(=O)O
SPECTRUMID=CCMSLIB00010117096
55.70039 1989.0 
55.934761 2490.0 
84.40667 2276.0 
90.835854 2049.0 
110.021049 12319.0 
136.340683 2197.0 
142.562302 2086.0 
142.585541 1979.0 
151.417953 2480.0 
218.07872 313052.0 
218.105515 12204.0 
224.320633 2435.0 
END IONS

BEGIN IONS
NAME="{[1,4a-dimethyl-7-(methylethyl)(1,2,3,4,9,10,10a,4a-octahydrophenanthryl)]meth yl}[(4-methoxy-3-methylphenyl)sulfonyl]amine CollisionEnergy:205060" M+Na
PRECURSOR_MZ=492.254
INCHI="InChI=1S/C28H39NO3S/c1-19(2)21-8-11-24-22(17-21)9-13-26-27(4,14-7-15-28(24,26)5)18-29-33(30,31)23-10-12-25(32-6)20(3)16-23/h8,10-12,16-17,19,26,29H,7,9,13-15,18H2,1-6H3"
SMILES=COc1ccc(S(=O)(=O)NCC2(C)CCCC3(C)c4ccc(C(C)C)cc4CCC23)cc1C
SPECTRUMID=CCMSLIB00010123243
104.274643 5505.0 
111.213074 3107.0 
118.639397 3103.0 
119.115082 3470.0 
123.177979 3087.0 
136.348984 3374.0 
262.476868 3666.0 
308.286255 3299.0 
415.368073 3252.0 
477.231262 14610.0 
487.291321 3391.0 
492.253937 6090903.0 
END IONS

BEGIN IONS
NAME="bis[(3,5-dimethoxyphenyl)methyl]amine CollisionEnergy:205060" M+H
PRECURSOR_MZ=318.17
INCHI="InChI=1S/C18H23NO4/c1-20-15-8-13(9-16(10-15)21-2)11-19-12-14-6-5-7-17(22-3)18(14)23-4/h5-10,19H,11-12H2,1-4H3"
SMILES=COc1cc(CNCc2cccc(OC)c2OC)cc(OC)c1
SPECTRUMID=CCMSLIB00010115400
51.023731 7045.0 
52.031429 9076.0 
55.01833 23524.0 
59.049709 47418.0 
65.038971 288715.0 
67.054657 163791.0 
71.04966 6719.0 
71.955757 4878.0 
75.044197 10211.0 
77.039207 21174.0 
78.046448 57103.0 
79.054337 53794.0 
80.062172 8059.0 
81.033669 19580.0 
82.390846 5984.0 
91.054367 2252764.0 
92.370537 4921.0 
93.069977 420689.0 
95.049133 72693.0 
95.079437 6924.0 
95.085617 75827.0 
103.054131 57247.0 
104.277962 5087.0 
105.0336 6685.0 
105.044838 17351.0 
105.069817 67750.0 
106.041443 76122.0 
107.049217 28220.0 
108.056938 85153.0 
109.064873 197890.0 
119.049377 24569.0 
119.060341 83801.0 
120.056923 5915.0 
121.064774 735983.0 
122.072777 7681.0 
123.080391 521970.0 
124.051712 52387.0 
125.060226 8383.0 
135.044052 1656322.0 
135.080566 194889.0 
135.63887 7863.0 
136.051895 22151456.0 
136.194321 5156.0 
136.46524 6862.0 
139.075226 267722.0 
148.052368 6579.0 
149.059387 8060.0 
150.067154 62126.0 
151.075272 8396404.0 
153.090546 29618.0 
165.090942 810662.0 
166.086273 88127.0 
169.085083 63892.0 
179.104904 5617.0 
180.101715 284774.0 
183.080338 9076.0 
194.072693 6054.0 
195.080383 61266.0 
196.089706 4922.0 
201.091019 10216.0 
208.086349 15031.0 
209.095596 23555.0 
210.103485 9886.0 
211.075363 74082.0 
212.083832 5421.0 
213.090546 5478.0 
223.074707 71620.0 
224.082474 16840.0 
225.090683 27215.0 
226.098038 31758.0 
227.105774 20441.0 
238.098343 178989.0 
239.07019 68184.0 
239.104889 71211.0 
241.083603 9222.0 
241.121658 43642.0 
243.101883 6366.0 
253.084885 8125.0 
254.093353 105818.0 
255.099747 42640.0 
266.526581 5431.0 
268.10849 8790.0 
269.11673 301823.0 
270.12439 22416.0 
271.096283 17189.0 
273.146576 5206.0 
285.111725 10100.0 
286.118225 18424.0 
289.142059 18901.0 
301.142883 3076332.0 
318.169281 2219437.0 
END IONS

BEGIN IONS
NAME=4-[(4-chlorophenyl)methyl]-7-hydroxy-3-phenylchromen-2-one CollisionEnergy:102040 M+Na
PRECURSOR_MZ=385.06
INCHI="InChI=1S/C22H15ClO3/c23-16-8-6-14(7-9-16)12-19-18-11-10-17(24)13-20(18)26-22(25)21(19)15-4-2-1-3-5-15/h1-11,13,24H,12H2"
SMILES=O=c1oc2cc(O)ccc2c(Cc2ccc(Cl)cc2)c1-c1ccccc1
SPECTRUMID=CCMSLIB00010110627
63.59684 2185.0 
73.95388 2831.0 
82.394722 3129.0 
92.374397 2588.0 
116.058128 2528.0 
121.380547 2306.0 
124.379753 2437.0 
124.728188 2387.0 
125.015182 45062.0 
127.011879 12268.0 
176.239136 2413.0 
184.679626 2686.0 
208.788818 10809.0 
261.85553 2910.0 
384.991943 45798.0 
385.059296 750097.0 
403.07373 3747.0 
END IONS

BEGIN IONS
NAME="N-(2,3-dichlorophenyl)(4-hydroxy-1-methyl-2-oxo(3-hydroquinolyl))carboxamide CollisionEnergy:102040" M-H
PRECURSOR_MZ=361.015
INCHI="InChI=1S/C17H12Cl2N2O3/c1-21-12-8-3-2-5-9(12)15(22)13(17(21)24)16(23)20-11-7-4-6-10(18)14(11)19/h2-8,22H,1H3,(H,20,23)"
SMILES=Cn1c(=O)c(C(O)=Nc2cccc(Cl)c2Cl)c(O)c2ccccc21
SPECTRUMID=CCMSLIB00010114478
89.58271 2383.0 
92.394974 2472.0 
136.233353 2317.0 
159.972763 226985.0 
174.03981 5277.0 
174.055984 76242.0 
222.262848 2459.0 
325.038391 26123.0 
328.73407 2347.0 
340.984711 4451.0 
361.016113 483263.0 
END IONS

BEGIN IONS
NAME="11-(3-ethoxyphenyl)-3,3-dimethyl-2,3,4-trihydro-5H,10H,11H-benzo[1,2-f]benzo[b ]1,4-diazepin-1-one CollisionEnergy:205060" M+Cl
PRECURSOR_MZ=397.169
INCHI="InChI=1S/C23H26N2O2/c1-4-27-16-9-7-8-15(12-16)22-21-19(13-23(2,3)14-20(21)26)24-17-10-5-6-11-18(17)25-22/h5-12,22,24-25H,4,13-14H2,1-3H3"
SMILES=CCOc1cccc(C2Nc3ccccc3NC3=C2C(=O)CC(C)(C)C3)c1
SPECTRUMID=CCMSLIB00010115192
59.446239 2118.0 
68.995567 15032.0 
90.933678 4088.0 
99.06572 2688.0 
104.308807 2826.0 
112.985947 22046.0 
118.678703 3480.0 
129.622467 2275.0 
131.061829 14386.0 
151.007492 2280.0 
172.635284 2852.0 
208.817856 10079.0 
292.955017 2337.0 
303.259369 2573.0 
316.217102 2701.0 
343.182465 4970.0 
361.193207 51699.0 
383.549927 2434.0 
END IONS

BEGIN IONS
NAME="methyl (2E)-3-(2,3,4-trimethoxyphenyl)prop-2-enoate CollisionEnergy:102040" M+Na
PRECURSOR_MZ=275.089
INCHI="InChI=1S/C13H16O5/c1-15-10-7-5-9(6-8-11(14)16-2)12(17-3)13(10)18-4/h5-8H,1-4H3/b8-6+"
SMILES=COC(=O)C=Cc1ccc(OC)c(OC)c1OC
SPECTRUMID=CCMSLIB00010111114
71.282204 2444.0 
73.959084 2739.0 
84.959824 2514.0 
118.663063 4078.0 
174.86293 2168.0 
210.950516 12695.0 
228.962723 3262.0 
275.088684 1301052.0 
END IONS

BEGIN IONS
NAME=4-[(4-hydroxyphenyl)methylene]-3-phenylisoxazol-5-one CollisionEnergy:102040 M-H
PRECURSOR_MZ=264.067
INCHI="InChI=1S/C16H11NO3/c18-13-8-6-11(7-9-13)10-14-15(17-20-16(14)19)12-4-2-1-3-5-12/h1-10,18H/b14-10-"
SMILES=O=C1ON=C(c2ccccc2)C1=Cc1ccc(O)cc1
SPECTRUMID=CCMSLIB00010112231
54.2243 2351.0 
70.982452 2422.0 
82.40873 2634.0 
102.612862 2579.0 
104.297127 3125.0 
108.594582 2146.0 
117.034691 14149.0 
121.029121 2708.0 
131.037735 395095.0 
136.222961 3621.0 
159.03273 74296.0 
186.019913 3958.0 
192.081863 10667.0 
220.077194 73522.0 
236.071899 102190.0 
264.066895 1255353.0 
271.243073 2853.0 
END IONS

BEGIN IONS
NAME=1946-82-3 CollisionEnergy:102040 M+H
PRECURSOR_MZ=189.123
INCHI="InChI=1S/C8H16N2O3/c1-6(11)10-7(8(12)13)4-2-3-5-9/h7H,2-5,9H2,1H3,(H,10,11)(H,12,13)/t7-/m0/s1"
SMILES=CC(O)=N[C@@H](CCCCN)C(=O)O
SPECTRUMID=CCMSLIB00010126626
60.045101 1014700.0 
61.997799 183121.0 
68.056602 185714.0 
71.302597 202689.0 
73.965599 198478.0 
84.0812 42852400.0 
85.065201 1440190.0 
92.392197 264250.0 
99.860001 191369.0 
101.107002 1823970.0 
102.091003 290177.0 
104.302002 302242.0 
105.092003 203927.0 
105.329002 232957.0 
112.075996 1049220.0 
126.091003 6286360.0 
129.102005 46240500.0 
130.085999 20179500.0 
147.113007 8655290.0 
153.102005 3199270.0 
154.085999 343251.0 
171.113007 3038180.0 
172.082993 204654.0 
172.097 3355760.0 
189.123001 18456000.0 
END IONS

BEGIN IONS
NAME="2',4,4',6'-Tetramethoxychalcone CollisionEnergy:205060" M+Na
PRECURSOR_MZ=351.12
INCHI="InChI=1S/C19H20O5/c1-21-14-8-5-13(6-9-14)7-10-16(20)19-17(23-3)11-15(22-2)12-18(19)24-4/h5-12H,1-4H3/b10-7+"
SMILES=COc1ccc(C=CC(=O)c2c(OC)cc(OC)cc2OC)cc1
SPECTRUMID=CCMSLIB00010125886
54.54488 2511.0 
56.96521 2606.0 
62.262779 2394.0 
64.105148 2317.0 
68.649338 2246.0 
77.46804 2229.0 
81.439827 2155.0 
86.738869 2594.0 
96.475548 2562.0 
125.344566 2319.0 
145.841446 2121.0 
161.595734 2152.0 
207.456345 13554.0 
222.213562 2373.0 
243.923218 2691.0 
263.160034 3611.0 
328.027435 3210.0 
350.986969 11195.0 
351.119781 620601.0 
351.214569 18646.0 
369.124939 2949.0 
END IONS

BEGIN IONS
NAME="Arbutin, 98+% CollisionEnergy:102040" M-H
PRECURSOR_MZ=271.082
INCHI="InChI=1S/C12H16O7/c13-5-8-9(15)10(16)11(17)12(19-8)18-7-3-1-6(14)2-4-7/h1-4,8-17H,5H2/t8?,9-,10-,11?,12-/m1/s1"
SMILES=OCC1OC(Oc2ccc(O)cc2)C(O)C(O)C1O
SPECTRUMID=CCMSLIB00010114515
50.465462 2175.0 
59.01339 2194.0 
68.997688 2675.0 
69.03434 2897.0 
71.009293 3196.0 
71.013496 63659.0 
73.029167 21706.0 
73.951302 2084.0 
83.013313 3436.0 
85.029297 38887.0 
95.013863 23264.0 
97.514801 2410.0 
99.008423 5442.0 
101.02446 39994.0 
104.281723 2702.0 
108.021683 362275.0 
109.029411 34931.0 
113.024307 46885.0 
121.029251 4989.0 
123.009033 15715.0 
123.044807 3371.0 
127.83905 2110.0 
133.029984 3431.0 
143.034592 2744.0 
144.278976 2271.0 
146.859009 2658.0 
151.039993 42738.0 
159.0298 13933.0 
161.045456 83073.0 
162.362274 2284.0 
163.039764 15132.0 
271.081726 13988.0 
END IONS

BEGIN IONS
NAME="N-(3,5-dimethoxyphenyl)-2-(9-methyl-6-oxohydropurin-8-ylthio)acetamide CollisionEnergy:205060" 2M-H
PRECURSOR_MZ=749.193
INCHI="InChI=1S/C16H17N5O4S/c1-21-14-13(15(23)18-8-17-14)20-16(21)26-7-12(22)19-9-4-10(24-2)6-11(5-9)25-3/h4-6,8H,7H2,1-3H3,(H,19,22)(H,17,18,23)"
SMILES=COc1cc(N=C(O)CSc2nc3c(O)ncnc3n2C)cc(OC)c1
SPECTRUMID=CCMSLIB00010121610
57.975052 5122.0 
64.614182 2970.0 
66.191643 3119.0 
66.756187 3045.0 
79.029823 16003.0 
104.30703 3383.0 
134.023331 12917.0 
138.013153 13010.0 
147.031815 4998.0 
149.046768 115714.0 
152.02861 3998.0 
179.004013 35431.0 
180.011169 206173.0 
181.018921 82130.0 
193.018051 10621.0 
193.992523 5316.0 
195.034103 13403.0 
221.014313 8065.0 
224.039261 5420.0 
264.332031 3662.0 
284.079834 6336.0 
300.109924 12728.0 
374.092682 280527.0 
724.391968 4177.0 
END IONS

BEGIN IONS
NAME="4-({2-[4-(tert-butyl)phenyl]quinazolin-4-yl}amino)benzoic acid, chloride CollisionEnergy:205060" M+H
PRECURSOR_MZ=398.186
INCHI="InChI=1S/C25H23N3O2/c1-25(2,3)18-12-8-16(9-13-18)22-27-21-7-5-4-6-20(21)23(28-22)26-19-14-10-17(11-15-19)24(29)30/h4-15H,1-3H3,(H,29,30)(H,26,27,28)"
SMILES=CC(C)(C)c1ccc(-c2nc(Nc3ccc(C(=O)O)cc3)c3ccccc3n2)cc1
SPECTRUMID=CCMSLIB00010115123
57.070309 324175.0 
63.593559 3013.0 
118.65062 4584.0 
158.970795 3530.0 
180.080612 29114.0 
183.697922 3363.0 
205.075653 439201.0 
208.666794 6132.0 
208.686462 4690.0 
220.085846 14970.0 
220.640579 3703.0 
224.070282 13322.0 
231.091751 36127.0 
245.107025 45918.0 
246.114044 52431.0 
261.137939 125917.0 
264.07605 20667.0 
296.117523 36728.0 
297.125305 13318.0 
298.133118 202584.0 
324.110229 14056.0 
324.147827 35313.0 
329.114136 5587.0 
338.164154 91471.0 
339.172363 22000.0 
340.107635 3927.0 
341.114288 3826.0 
342.122864 1211689.0 
352.179718 6510.0 
354.196594 47545.0 
355.129944 64006.0 
368.138397 1204267.0 
373.105042 162088.0 
382.154083 2659654.0 
383.161896 649820.0 
398.185455 5251386.0 
END IONS

BEGIN IONS
NAME="N-[(1E)-2-(4-{(1E)-2-[(3,5-dihydroxyphenyl)carbonylamino]-2-azavinyl}phenyl)-1 -azavinyl](3,5-dihydroxyphenyl)carboxamide CollisionEnergy:205060" M+Na
PRECURSOR_MZ=457.112
INCHI="InChI=1S/C22H18N4O6/c27-17-5-15(6-18(28)9-17)21(31)25-23-11-13-1-2-14(4-3-13)12-24-26-22(32)16-7-19(29)10-20(30)8-16/h1-12,27-30H,(H,25,31)(H,26,32)/b23-11+,24-12+"
SMILES=OC(=NN=Cc1ccc(C=NN=C(O)c2cc(O)cc(O)c2)cc1)c1cc(O)cc(O)c1
SPECTRUMID=CCMSLIB00010125052
51.49815 2324.0 
56.589619 2418.0 
68.089699 2674.0 
82.39566 3033.0 
92.376259 3377.0 
137.02301 4147.0 
169.00351 2979.0 
211.374237 2863.0 
333.200012 2664.0 
352.032501 2341.0 
409.862579 2532.0 
457.111237 276545.0 
END IONS

BEGIN IONS
NAME="9-{2-[(2-chlorophenyl)methoxy]phenyl}-3,3,6,6-tetramethyl-2,3,4,5,6,7,9,10-oct ahydroacridine-1,8-dione CollisionEnergy:205060" M+formate
PRECURSOR_MZ=534.205
INCHI="InChI=1S/C30H32ClNO3/c1-29(2)13-21-27(23(33)15-29)26(28-22(32-21)14-30(3,4)16-24(28)34)19-10-6-8-12-25(19)35-17-18-9-5-7-11-20(18)31/h5-12,26,32H,13-17H2,1-4H3"
SMILES=CC1(C)CC(=O)C2=C(C1)NC1=C(C(=O)CC(C)(C)C1)C2c1ccccc1OCc1ccccc1Cl
SPECTRUMID=CCMSLIB00010117807
55.453869 2538.0 
62.414059 2348.0 
73.953911 3501.0 
84.530701 3204.0 
84.831841 2354.0 
93.870552 2526.0 
103.615173 2461.0 
112.92939 2498.0 
127.551826 2642.0 
138.145264 2635.0 
170.720947 2499.0 
179.065979 3024.0 
488.199371 36019.0 
END IONS

BEGIN IONS
NAME=CHLOROGENIC ACID CollisionEnergy:205060 M-H
PRECURSOR_MZ=353.088
INCHI="InChI=1S/C16H18O9/c17-9-3-1-8(5-10(9)18)2-4-13(20)25-12-7-16(24,15(22)23)6-11(19)14(12)21/h1-5,11-12,14,17-19,21,24H,6-7H2,(H,22,23)/b4-2+/t11-,12-,14-,16+/m1/s1"
SMILES=O=C(C=Cc1ccc(O)c(O)c1)OC1CC(O)(C(=O)O)CC(O)C1O
SPECTRUMID=CCMSLIB00010124973
57.034031 5580.0 
59.013279 27440.0 
67.01844 18026.0 
68.237457 2690.0 
68.434036 2784.0 
69.033997 4631.0 
71.013458 38204.0 
72.6819 2604.0 
73.029068 14008.0 
73.954071 5032.0 
81.034241 19044.0 
82.396652 3116.0 
83.049828 13969.0 
85.029228 441373.0 
87.008476 96271.0 
92.379387 4452.0 
93.034401 170946.0 
94.775169 3013.0 
99.045181 24693.0 
101.024048 4397.0 
108.021812 2993.0 
109.029266 38914.0 
111.036812 4356.0 
111.045128 60601.0 
112.095497 2696.0 
113.024269 3930.0 
125.024696 3410.0 
127.040024 126461.0 
133.029526 39703.0 
135.045105 61497.0 
136.208282 3850.0 
137.02446 11497.0 
145.385834 3162.0 
153.019547 4617.0 
155.034515 12285.0 
161.024353 99309.0 
166.042313 3169.0 
171.03006 36806.0 
173.045593 67226.0 
179.034943 42229.0 
191.056076 4779453.0 
216.922592 6093.0 
270.617218 3440.0 
281.054749 3397.0 
353.087524 80998.0 
END IONS

BEGIN IONS
NAME=N6-isopentyl adenosine CollisionEnergy:205060 M+H
PRECURSOR_MZ=336.167
INCHI="InChI=1S/C15H21N5O4/c1-8(2)3-4-16-13-10-14(18-6-17-13)20(7-19-10)15-12(23)11(22)9(5-21)24-15/h3,6-7,9,11-12,15,21-23H,4-5H2,1-2H3,(H,16,17,18)/t9-,11-,12-,15-/m1/s1"
SMILES=CC(=CCNC1=C2C(=NC=N1)N(C=N2)[C@H]3[C@@H]([C@@H]([C@H](O3)CO)O)O)C
SPECTRUMID=CCMSLIB00010101996
55.018085 1097916.625 
57.033707 2131702.25 
61.028606 250500.90625 
64.164886 217699.890625 
69.033539 975404.6875 
69.066025 386156.25 
69.069984 4940502.0 
71.01284 889629.375 
73.028511 1003280.375 
73.430397 168154.921875 
85.028473 1125200.0 
92.308685 175617.8125 
97.028526 489069.53125 
113.024368 166385.796875 
115.038849 249279.359375 
119.03511 774885.9375 
133.049728 226278.78125 
136.061844 87113504.0 
137.046432 308345.15625 
148.061768 9073581.0 
178.072083 286711.1875 
182.749954 190136.484375 
204.124252 38857452.0 
224.1539 183873.21875 
268.060242 193060.453125 
269.731689 193631.796875 
336.163483 37570760.0 
END IONS

BEGIN IONS
NAME=(S)-(+)-Ketoprofen CollisionEnergy:102040 2M-H
PRECURSOR_MZ=507.181
INCHI="InChI=1S/C16H14O3/c1-11(16(18)19)13-8-5-9-14(10-13)15(17)12-6-3-2-4-7-12/h2-11H,1H3,(H,18,19)/t11-/m0/s1"
SMILES=CC(C(=O)O)c1cccc(C(=O)c2ccccc2)c1
SPECTRUMID=CCMSLIB00010108985
60.432529 2386.0 
70.622673 2333.0 
88.049362 3195.0 
92.372887 2812.0 
102.733948 2374.0 
167.427917 2468.0 
184.949448 5250.0 
197.060806 76118.0 
215.123245 3707.0 
245.161728 2594.0 
253.086792 27282.0 
397.35965 2564.0 
439.042908 4101.0 
END IONS

BEGIN IONS
NAME="N-[4-(2-thienylcarbonyl)phenyl](3,4,5-trimethoxyphenyl)carboxamide CollisionEnergy:205060" M+Na
PRECURSOR_MZ=420.088
INCHI="InChI=1S/C21H19NO5S/c1-25-16-11-14(12-17(26-2)20(16)27-3)21(24)22-15-8-6-13(7-9-15)19(23)18-5-4-10-28-18/h4-12H,1-3H3,(H,22,24)"
SMILES=COc1cc(C(=O)Nc2ccc(C(=O)c3cccs3)cc2)cc(OC)c1OC
SPECTRUMID=CCMSLIB00010120357
59.025372 2858.0 
64.221542 2263.0 
94.473938 2324.0 
118.710007 2087.0 
123.237808 2762.0 
195.06485 2869.0 
319.588989 2432.0 
376.249451 2238.0 
419.57605 5011.0 
420.086395 402004.0 
438.096436 3387.0 
END IONS

BEGIN IONS
NAME="2-{2-oxo-4-[N-benzylcarbamoyl]hydroquinolyl}-N-(2,4,6-trimethylphenyl)acetamid e CollisionEnergy:205060" M+H
PRECURSOR_MZ=454.213
INCHI="InChI=1S/C28H27N3O3/c1-18-13-19(2)27(20(3)14-18)30-25(32)17-31-24-12-8-7-11-22(24)23(15-26(31)33)28(34)29-16-21-9-5-4-6-10-21/h4-15H,16-17H2,1-3H3,(H,29,34)(H,30,32)"
SMILES=Cc1cc(C)c(N=C(O)Cn2c(=O)cc(C(O)=NCc3ccccc3)c3ccccc32)c(C)c1
SPECTRUMID=CCMSLIB00010122241
59.155499 3050.0 
65.039017 48269.0 
78.693497 2911.0 
82.028877 33725.0 
82.394981 3566.0 
91.054337 2860712.0 
118.644943 2982.0 
128.049103 28640.0 
130.065613 14371.0 
130.738937 3109.0 
132.445648 2691.0 
146.060471 14066.0 
155.224014 3201.0 
156.044281 4743.0 
158.060654 12201.0 
180.080734 113286.0 
192.081116 11897.0 
199.050522 19193.0 
204.080887 37279.0 
205.087906 3701.0 
206.059738 24536.0 
214.424988 3036.0 
216.080948 5732.0 
217.088776 60952.0 
218.096191 401000.0 
221.187042 3122.0 
232.076096 45232.0 
233.107086 75080.0 
235.086472 11757.0 
261.10199 56923.0 
279.111542 27700.0 
291.112457 203427.0 
319.107117 1735020.0 
332.138519 31638.0 
375.231262 3235.0 
END IONS

BEGIN IONS
NAME=(3-methoxyphenyl)-N-[2-(2-methylindol-3-yl)ethyl]carboxamide CollisionEnergy:205060 M-H
PRECURSOR_MZ=307.145
INCHI="InChI=1S/C19H20N2O2/c1-13-16(17-8-3-4-9-18(17)21-13)10-11-20-19(22)14-6-5-7-15(12-14)23-2/h3-9,12,21H,10-11H2,1-2H3,(H,20,22)"
SMILES=COc1cccc(C(O)=NCCc2c(C)[nH]c3ccccc23)c1
SPECTRUMID=CCMSLIB00010116669
57.583351 2519.0 
66.746407 2656.0 
68.9953 2987.0 
73.954643 2601.0 
81.618134 2514.0 
92.995697 9265.0 
93.685677 2922.0 
95.157944 2505.0 
102.956917 23540.0 
104.292397 2601.0 
116.996078 2664.0 
118.657372 2440.0 
120.401451 2458.0 
130.066452 16336.0 
130.992798 2695.0 
144.082748 8535.0 
148.040497 4580.0 
150.056229 608344.0 
154.992783 4693.0 
156.081192 3373.0 
159.492798 2658.0 
175.371582 2314.0 
192.989716 3580.0 
209.907791 9614.0 
216.989746 17322.0 
220.984909 4757.0 
242.986572 47216.0 
266.986572 43959.0 
286.991547 16493.0 
306.986053 11725.0 
307.145477 1304653.0 
END IONS

BEGIN IONS
NAME="2-(5-{[(1E)-2-(3-methoxyphenyl)-1-azaprop-1-enyl]amino}(4H-1,2,4-triazol-3-ylt hio))-1-(2H-benzo[3,4-d]1,3-dioxolan-5-yl)ethan-1-one CollisionEnergy:205060" M+H
PRECURSOR_MZ=426.123
INCHI="InChI=1S/C20H19N5O4S/c1-12(13-4-3-5-15(8-13)27-2)22-23-19-21-20(25-24-19)30-10-16(26)14-6-7-17-18(9-14)29-11-28-17/h3-9H,10-11H2,1-2H3,(H2,21,23,24,25)/b22-12+"
SMILES=COc1cccc(C(C)=NNc2nc(SCC(=O)c3ccc4c(c3)OCO4)n[nH]2)c1
SPECTRUMID=CCMSLIB00010116864
50.015751 35665.0 
51.02346 24482.0 
52.110828 16286.0 
52.940639 15515.0 
53.002708 33475.0 
53.039101 71066.0 
55.018429 90966.0 
55.02956 33016.0 
55.235649 17250.0 
57.975121 280084.0 
59.990742 41979.0 
63.023491 69097.0 
65.03904 513686.0 
66.047043 24339.0 
66.751869 20567.0 
67.018211 29694.0 
67.029541 33056.0 
68.026047 102856.0 
68.997528 287478.0 
70.040421 37225.0 
71.013229 21285.0 
71.621147 15893.0 
71.990868 25795.0 
74.58429 15738.0 
77.038971 74260.0 
78.046577 20147.0 
79.018333 35422.0 
79.054611 439675.0 
81.033913 79831.0 
81.070229 95496.0 
84.985771 12928735.0 
85.050957 29301.0 
87.985413 577272.0 
87.991577 29592.0 
89.038742 764031.0 
90.033913 26218.0 
91.05439 423069.0 
92.025887 324803.0 
92.049477 74888.0 
92.388512 19458.0 
93.033813 39875.0 
94.041512 731143.0 
95.013039 254575.0 
95.049347 306276.0 
99.001411 104626.0 
102.000618 35955.0 
103.054512 41063.0 
104.049652 73866.0 
105.033363 66223.0 
105.044777 38834.0 
105.057549 98305.0 
105.070122 68580.0 
107.049141 228095.0 
107.072937 208544.0 
109.028648 19538.0 
109.064827 2304039.0 
111.044312 63614.0 
111.996834 24094.0 
117.011963 20723.0 
117.023773 24032.0 
117.033546 326328.0 
117.043137 30350.0 
117.048958 17588.0 
117.057251 192359.0 
118.028267 121131.0 
118.04174 161111.0 
118.065041 141612.0 
119.0494 410280.0 
119.060059 66138.0 
120.045013 125665.0 
120.068268 101316.0 
120.08078 231995.0 
121.010834 353291.0 
121.028183 201724.0 
121.064751 110693.0 
122.036346 468341.0 
122.059624 17490.0 
122.072189 38867.0 
123.044144 93337.0 
125.023567 78135.0 
125.059723 735040.0 
126.996017 87250.0 
129.022949 816489.0 
130.064972 67593.0 
131.060654 22090.0 
132.044464 225982.0 
132.068085 163337.0 
133.028687 187322.0 
133.0401 29769.0 
133.052353 577224.0 
133.06485 898353.0 
134.035904 17885.0 
134.060043 462240.0 
135.044113 2353496.0 
135.054977 154957.0 
135.066681 268486.0 
136.07576 353139.0 
137.005493 95025.0 
139.03923 40439.0 
144.033401 35747.0 
145.039642 334142.0 
145.051529 24477.0 
146.006195 24765.0 
146.036285 29956.0 
146.047913 31180.0 
146.05986 313085.0 
147.044083 3141095.0 
147.054886 229057.0 
147.065857 741490.0 
148.02803 34044.0 
148.039444 1399639.0 
148.063065 483983.0 
148.075531 3559396.0 
149.006638 632505.0 
149.023331 10136259.0 
149.083344 217570.0 
150.091339 17247514.0 
151.062546 412650.0 
153.000961 61379.0 
156.010178 17661.0 
157.017548 100371.0 
158.047821 30913.0 
158.059601 187680.0 
160.039581 38398.0 
160.063095 68360.0 
160.076355 39805.0 
161.018051 23538.0 
161.047119 90191.0 
161.070831 463318.0 
162.031296 67884.0 
162.078323 24214.0 
163.038452 932407.0 
163.086258 602281.0 
164.046722 1890550.0 
165.000687 162370.0 
165.05455 909807.0 
167.016739 131664.0 
172.062744 247078.0 
173.057526 22163.0 
173.071198 387502.0 
175.050217 2542868.0 
175.086502 78795.0 
176.034195 18740.0 
177.001328 21566.0 
178.008301 72574.0 
179.015823 346612.0 
186.066132 31478.0 
187.073059 29381.0 
188.082047 320720.0 
189.011658 77472.0 
189.089371 69491.0 
190.032013 30234.0 
190.096634 40506.0 
191.081573 36225.0 
191.932877 23411.0 
195.009979 35683.0 
197.026886 76547.0 
200.06723 160134.0 
202.096527 19821.0 
204.035202 65019.0 
205.108246 153672.0 
207.01062 131972.0 
213.077301 34516.0 
214.030289 86086.0 
214.084869 91040.0 
215.093491 338883.0 
216.06395 24753.0 
217.0457 29229.0 
217.071548 36229.0 
222.02182 39226.0 
230.103271 326539.0 
231.030853 20226.0 
231.047958 29039.0 
231.111938 41713.0 
235.064606 25099.0 
239.047562 176568.0 
244.041046 38111.0 
245.048431 238466.0 
246.056702 288872.0 
249.032669 197584.0 
250.051514 24254.0 
259.064758 487429.0 
262.0755 165466.0 
278.046387 360249.0 
279.05426 134627.0 
287.059418 227598.0 
304.08606 500130.0 
394.070282 28633.0 
409.096191 578866.0 
426.122589 22844806.0 
431.57373 18459.0 
END IONS

BEGIN IONS
NAME=N-(2-methylphenyl)-2-[2-oxo-4-(N-propylcarbamoyl)hydroquinolyl]acetamide CollisionEnergy:205060 M-H
PRECURSOR_MZ=376.167
INCHI="InChI=1S/C22H23N3O3/c1-3-12-23-22(28)17-13-21(27)25(19-11-7-5-9-16(17)19)14-20(26)24-18-10-6-4-8-15(18)2/h4-11,13H,3,12,14H2,1-2H3,(H,23,28)(H,24,26)"
SMILES=CCCN=C(O)c1cc(=O)n(CC(O)=Nc2ccccc2C)c2ccccc12
SPECTRUMID=CCMSLIB00010125231
51.086479 2762.0 
59.013302 14901.0 
67.891899 3025.0 
78.992447 3207.0 
80.050377 4828.0 
86.060997 4714.0 
92.050453 25477.0 
95.813202 3007.0 
100.076683 16546.0 
106.06601 54101.0 
115.054993 23883.0 
116.050331 148286.0 
116.941299 2723.0 
118.029022 3819.0 
128.050369 668123.0 
130.065964 539632.0 
132.045319 36673.0 
142.029617 4469.0 
142.06601 28459.0 
143.06131 7035.0 
144.045212 451529.0 
144.081345 19338.0 
146.024536 12254.0 
146.060776 25103.0 
156.045563 31358.0 
156.068665 45996.0 
157.053391 16590.0 
157.076889 47847.0 
158.048157 195027.0 
158.061218 404820.0 
160.040192 207932.0 
160.076157 3700.0 
167.061142 6004.0 
169.076797 7077.0 
172.040176 128077.0 
172.057159 4424.0 
174.055893 49705.0 
176.071396 112687.0 
182.048691 15930.0 
183.054947 3749.0 
183.093048 16385.0 
183.913162 3559.0 
184.04007 79204.0 
195.093018 17127.0 
197.108231 62733.0 
199.123825 282391.0 
200.108078 3845.0 
201.103119 164701.0 
202.051102 48732.0 
210.405533 5504.0 
210.425659 3850.0 
213.10318 210851.0 
215.118561 49341.0 
225.104111 4170.0 
229.097992 279210.0 
231.113647 14412.0 
243.113846 134882.0 
245.092972 167802.0 
269.092682 77256.0 
275.069641 6026.0 
275.103729 176258.0 
275.193604 3231.0 
287.102081 4587.0 
291.114044 654635.0 
335.105835 5354.0 
375.124573 2896.0 
376.166809 679804.0 
END IONS

BEGIN IONS
NAME="1-(4-bromophenyl)-6,7-diethoxy-1,2,3,4-tetrahydroisoquinoline CollisionEnergy:205060" M-e
PRECURSOR_MZ=375.083
INCHI="InChI=1S/C19H22BrNO2/c1-3-22-17-11-14-9-10-21-19(13-5-7-15(20)8-6-13)16(14)12-18(17)23-4-2/h5-8,11-12,19,21H,3-4,9-10H2,1-2H3"
SMILES=CCOc1cc2c(cc1OCC)C(c1ccc(Br)cc1)NCC2
SPECTRUMID=CCMSLIB00010117055
64.706146 2394.0 
69.149323 2790.0 
71.174507 2195.0 
73.084473 2011.0 
73.984772 2594.0 
73.989487 2752.0 
75.513008 2325.0 
82.436577 3344.0 
88.51181 2333.0 
92.422661 3877.0 
107.399643 2488.0 
109.009918 2347.0 
118.71035 2872.0 
136.280228 2491.0 
162.055313 3620.0 
249.388199 2588.0 
289.007263 3921.0 
290.015137 16112.0 
291.019806 13273.0 
317.002502 26357.0 
318.008118 94976.0 
319.015717 92494.0 
319.055298 5175.0 
331.015778 30329.0 
345.029663 4723.0 
346.043732 16161.0 
347.046875 76620.0 
375.078186 273442.0 
399.8862 2380.0 
436.169373 2403.0 
739.463196 2545.0 
END IONS

BEGIN IONS
NAME=(2E)-1-(4-chlorophenyl)-3-(4-ethoxyphenyl)prop-2-en-1-one CollisionEnergy:102040 M+H
PRECURSOR_MZ=287.083
INCHI="InChI=1S/C17H15ClO2/c1-2-20-16-10-3-13(4-11-16)5-12-17(19)14-6-8-15(18)9-7-14/h3-12H,2H2,1H3/b12-5+"
SMILES=CCOc1ccc(C=CC(=O)c2ccc(Cl)cc2)cc1
SPECTRUMID=CCMSLIB00010104262
51.02367 4649.0 
58.045448 4200.0 
59.138321 3433.0 
65.480492 3279.0 
66.010551 3277.0 
86.999847 29912.0 
91.054283 16068.0 
94.041321 17989.0 
95.049248 30809.0 
107.049088 51582.0 
110.999657 7331.0 
119.049103 139420.0 
122.072647 21015.0 
123.044228 46395.0 
123.081017 7344.0 
129.010025 14958.0 
137.01532 46257.0 
138.994507 4515384.0 
147.043976 1217693.0 
147.079605 8541.0 
151.075363 32648.0 
159.479279 3875.0 
165.010056 524390.0 
174.131683 5561.0 
175.075256 825453.0 
178.076492 7586.0 
195.080185 17605.0 
196.089447 5762.0 
199.028702 3822.0 
206.071732 26426.0 
213.046295 212945.0 
217.040482 4896.0 
223.074829 72811.0 
224.083328 77575.0 
231.056961 35787.0 
240.905441 4944.0 
241.041092 214373.0 
245.071533 7966.0 
251.106812 36373.0 
252.113953 82923.0 
258.042999 16530.0 
259.051758 895085.0 
265.033905 4591.0 
269.072052 118206.0 
287.082825 13377890.0 
288.343475 5927.0 
END IONS

BEGIN IONS
NAME="ethyl 2-[(2H,3H-benzo[3,4-e]1,4-dioxin-6-ylsulfonyl)amino]-3-indol-3-ylpropano ate CollisionEnergy:205060" M+formate
PRECURSOR_MZ=475.118
INCHI="InChI=1S/C21H22N2O6S/c1-2-27-21(24)18(11-14-13-22-17-6-4-3-5-16(14)17)23-30(25,26)15-7-8-19-20(12-15)29-10-9-28-19/h3-8,12-13,18,22-23H,2,9-11H2,1H3"
SMILES=CCOC(=O)C(Cc1c[nH]c2ccccc12)NS(=O)(=O)c1ccc2c(c1)OCCO2
SPECTRUMID=CCMSLIB00010120316
63.173988 2526.0 
63.962029 45684.0 
73.274803 2637.0 
90.951302 2483.0 
92.907066 2431.0 
122.02475 16903.0 
123.008926 20066.0 
135.045242 137132.0 
150.032516 2668.0 
199.00737 713887.0 
214.018356 40888.0 
236.071732 9443.0 
355.07608 5726.0 
381.726532 2762.0 
429.112915 283304.0 
474.984894 2941.0 
END IONS

BEGIN IONS
NAME=N-[2-(7-ethyl-2-methylindol-3-yl)ethyl](2-methoxyphenyl)carboxamide CollisionEnergy:102040 M+formate
PRECURSOR_MZ=381.182
INCHI="InChI=1S/C21H24N2O2/c1-4-15-8-7-10-17-16(14(2)23-20(15)17)12-13-22-21(24)18-9-5-6-11-19(18)25-3/h5-11,23H,4,12-13H2,1-3H3,(H,22,24)"
SMILES=CCc1cccc2c(CCN=C(O)c3ccccc3OC)c(C)[nH]c12
SPECTRUMID=CCMSLIB00010105821
57.754379 2213.0 
62.307259 2319.0 
65.170647 2929.0 
89.349823 2401.0 
92.399498 3152.0 
104.313316 3542.0 
113.510117 2634.0 
118.992622 13121.0 
147.618713 2554.0 
150.055878 57989.0 
168.989349 35768.0 
180.989532 25164.0 
211.038101 3643.0 
211.057373 2809.0 
230.986298 14206.0 
266.98407 6436.0 
294.980713 9662.0 
332.976379 4439.0 
335.176575 826640.0 
340.982513 12997.0 
360.972382 21751.0 
380.976593 265532.0 
END IONS

BEGIN IONS
NAME=2'-Methoxy-.alpha.-naphthoflavone CollisionEnergy:102040 M+Na
PRECURSOR_MZ=325.083
INCHI="InChI=1S/C20H14O3/c1-22-18-9-5-4-8-16(18)19-12-17(21)15-11-10-13-6-2-3-7-14(13)20(15)23-19/h2-12H,1H3"
SMILES=COc1ccccc1-c1cc(=O)c2ccc3ccccc3c2o1
SPECTRUMID=CCMSLIB00010114163
54.526661 2172.0 
61.52002 2301.0 
73.941971 2100.0 
79.321617 2941.0 
84.487877 2311.0 
92.364037 3137.0 
104.267151 3206.0 
104.274261 2771.0 
105.451241 2333.0 
130.035858 2366.0 
136.186234 2323.0 
162.180084 2343.0 
183.828705 2589.0 
279.73468 2340.0 
297.542175 2984.0 
323.012939 3032.0 
325.083008 699427.0 
325.177032 14591.0 
330.699127 2555.0 
343.093109 29596.0 
END IONS

BEGIN IONS
NAME="2H-benzo[3,4-d]1,3-dioxolen-5-yl-N-(3-methoxyphenyl)carboxamide CollisionEnergy:102040" M+Na
PRECURSOR_MZ=294.074
INCHI="InChI=1S/C15H13NO4/c1-18-12-4-2-3-11(8-12)16-15(17)10-5-6-13-14(7-10)20-9-19-13/h2-8H,9H2,1H3,(H,16,17)"
SMILES=COc1cccc(N=C(O)c2ccc3c(c2)OCO3)c1
SPECTRUMID=CCMSLIB00010104874
69.540337 1960.0 
89.999527 2156.0 
92.366859 2641.0 
104.274696 2926.0 
107.349678 2346.0 
119.118019 2273.0 
184.154175 2602.0 
211.761826 2793.0 
294.073029 1517701.0 
312.081879 20082.0 
END IONS

BEGIN IONS
NAME="4-chlorophenylthio 3,4,5-trimethoxyphenyl ketone CollisionEnergy:205060" M+H
PRECURSOR_MZ=339.045
INCHI="InChI=1S/C16H15ClO4S/c1-19-13-8-10(9-14(20-2)15(13)21-3)16(18)22-12-6-4-11(17)5-7-12/h4-9H,1-3H3"
SMILES=COc1cc(C(=O)Sc2ccc(Cl)cc2)cc(OC)c1OC
SPECTRUMID=CCMSLIB00010125486
53.039101 20891.0 
56.583111 2608.0 
65.038948 10766.0 
79.054527 54967.0 
81.03373 28963.0 
81.070183 26980.0 
82.944771 3481.0 
91.05468 2395.0 
92.387749 2998.0 
93.03347 4791.0 
94.041573 5959.0 
95.049057 12549.0 
96.057114 27063.0 
98.999641 11454.0 
101.646744 2843.0 
106.279503 2517.0 
107.049057 3935.0 
108.002777 108648.0 
108.05687 13638.0 
109.028427 6062.0 
109.064682 44193.0 
111.043953 5813.0 
111.080406 14009.0 
113.023354 3189.0 
113.060066 5969.0 
121.028976 3380.0 
122.036163 37340.0 
123.044228 3890.0 
124.051857 66986.0 
128.046692 16059.0 
137.023529 14795.0 
139.075317 95218.0 
140.870224 2651.0 
141.018341 10741.0 
142.97171 1154108.0 
143.070541 3350.0 
151.039093 16370.0 
152.046692 138840.0 
153.054672 30923.0 
156.04187 23732.0 
160.981628 3126.0 
168.078079 88591.0 
170.966583 133395.0 
183.997971 19084.0 
184.036072 9952.0 
195.06517 842761.0 
199.042725 20024.0 
311.049957 16982.0 
339.045197 72091.0 
END IONS

BEGIN IONS
NAME="methyl 4-hydroxy-2-methyl-3-(2-1,2,3,4-tetrahydroisoquinolylmethyl)quinoline-6 -carboxylate CollisionEnergy:102040" M-H
PRECURSOR_MZ=361.156
INCHI="InChI=1S/C22H22N2O3/c1-14-19(13-24-10-9-15-5-3-4-6-17(15)12-24)21(25)18-11-16(22(26)27-2)7-8-20(18)23-14/h3-8,11H,9-10,12-13H2,1-2H3,(H,23,25)"
SMILES=COC(=O)c1ccc2[nH]c(C)c(CN3CCc4ccccc4C3)c(=O)c2c1
SPECTRUMID=CCMSLIB00010103522
50.476742 3420.0 
62.735249 3597.0 
67.128258 4408.0 
72.53965 3312.0 
76.263062 5322.0 
89.314728 3306.0 
92.395088 4174.0 
116.048378 3635.0 
132.08165 23154.0 
155.47403 4220.0 
158.060913 8218.0 
165.98851 4047.0 
170.061981 21179.0 
173.049835 6066.0 
174.055969 21121.0 
188.033585 5013.0 
188.071609 21252.0 
200.073288 5552.0 
214.0513 247658.0 
216.066299 76492.0 
228.066956 93134.0 
229.074554 1025353.0 
230.082397 621195.0 
241.061859 70587.0 
243.052307 25511.0 
243.078064 35997.0 
244.061111 4713.0 
257.093231 226234.0 
261.064636 3059641.0 
263.068756 13923.0 
302.14325 15954.0 
359.140808 14882.0 
360.151154 5127.0 
361.156403 14161877.0 
362.962921 5504.0 
END IONS

BEGIN IONS
NAME=2-Hydroxycinnamic acid CollisionEnergy:102040 M-H
PRECURSOR_MZ=163.04
INCHI="InChI=1S/C9H8O3/c10-8-4-2-1-3-7(8)5-6-9(11)12/h1-6,10H,(H,11,12)/b6-5+"
SMILES=O=C(O)/C=C/c1ccccc1O
SPECTRUMID=CCMSLIB00010126068
60.5602 35390.398438 
61.632801 37129.601562 
62.6068 41407.898438 
69.639099 47750.0 
74.463203 42587.601562 
81.026604 45226.699219 
91.055496 338863.0 
92.732399 47742.300781 
93.0345 329653.0 
117.035004 1033780.0 
118.042 74456.601562 
118.709 95287.601562 
118.717003 68367.101562 
118.960999 168871.0 
119.050003 202420992.0 
119.385002 50551.898438 
119.392998 70416.601562 
136.255005 57258.101562 
163.039993 5628280.0 
END IONS

BEGIN IONS
NAME=6160-80-1 CollisionEnergy:205060 M-H
PRECURSOR_MZ=351.072
INCHI="InChI=1S/C16H16O9/c1-6-4-10(17)24-9-5-7(2-3-8(6)9)23-16-13(20)11(18)12(19)14(25-16)15(21)22/h2-5,11-14,16,18-20H,1H3,(H,21,22)/t11-,12-,13+,14-,16+/m0/s1"
SMILES=Cc1cc(=O)oc2cc(OC3OC(C(=O)O)C(O)C(O)C3O)ccc12
SPECTRUMID=CCMSLIB00010123354
51.547401 2977.0 
55.018501 4637.0 
57.0341 41802.0 
58.0056 17665.0 
59.013378 90583.0 
59.21907 2573.0 
59.963772 2756.0 
67.018539 17615.0 
68.99791 6134.0 
71.013603 201698.0 
72.992783 49544.0 
73.029488 12535.0 
73.970047 3891.0 
75.008522 95314.0 
82.416229 3265.0 
83.013748 12190.0 
84.021553 13595.0 
85.029427 364660.0 
87.008713 82487.0 
89.024406 36792.0 
95.007133 4355.0 
95.013863 110775.0 
99.008827 149216.0 
101.02475 3920.0 
103.003822 56829.0 
104.307747 4213.0 
110.189217 3019.0 
111.008926 6433.0 
112.016487 4697.0 
113.024567 713645.0 
115.00367 29399.0 
117.019524 45470.0 
119.050163 6570.0 
123.045021 5877.0 
129.019409 29412.0 
131.050217 86419.0 
133.029556 71365.0 
139.003952 4961.0 
147.04509 54208.0 
157.01413 13935.0 
159.044632 4737.0 
175.025131 191818.0 
175.040131 2277127.0 
189.056305 3772.0 
214.927322 15522.0 
282.91095 3090.0 
329.129578 2774.0 
337.261108 2786.0 
351.072449 86491.0 
END IONS

BEGIN IONS
NAME=3(2'-Chlorophenyl)-7-hydroxy-4-phenylcoumarin CollisionEnergy:102040 2M-H
PRECURSOR_MZ=695.103
INCHI="InChI=1S/C21H13ClO3/c22-17-9-5-4-8-15(17)20-19(13-6-2-1-3-7-13)16-11-10-14(23)12-18(16)25-21(20)24/h1-12,23H"
SMILES=O=c1oc2cc(O)ccc2c(-c2ccccc2)c1-c1ccccc1Cl
SPECTRUMID=CCMSLIB00010105676
57.237591 2599.0 
62.168968 2665.0 
66.597 2628.0 
73.944168 3832.0 
82.388771 4056.0 
153.893616 3236.0 
157.950195 3776.0 
185.374115 3894.0 
265.177612 2955.0 
347.048126 360171.0 
471.319427 3275.0 
573.15155 3136.0 
END IONS

BEGIN IONS
NAME="7-hydroxy-6-methoxy-8-[3,4,5-trihydroxy-6-(hydroxymethyl)(2H-3,4,5,6-tetrahydr opyran-2-yl)oxy]chromen-2-one CollisionEnergy:102040" M+NH4
PRECURSOR_MZ=388.124
INCHI="InChI=1S/C16H18O10/c1-23-7-4-6-2-3-9(18)25-14(6)15(11(7)20)26-16-13(22)12(21)10(19)8(5-17)24-16/h2-4,8,10,12-13,16-17,19-22H,5H2,1H3"
SMILES=COc1cc2ccc(=O)oc2c(OC2OC(CO)C(O)C(O)C2O)c1O
SPECTRUMID=CCMSLIB00010110437
50.63343 2542.0 
66.637428 1992.0 
70.731644 2263.0 
71.538002 2212.0 
77.194733 2218.0 
82.400208 2549.0 
114.043793 2613.0 
136.207901 2741.0 
149.023376 3946.0 
167.617554 2315.0 
194.020065 2954.0 
209.044205 943723.0 
213.642639 2836.0 
230.508209 2680.0 
240.160782 2771.0 
299.240051 2725.0 
END IONS

BEGIN IONS
NAME=(2E)-3-(5-bromo-2-methoxyphenyl)prop-2-enoic acid CollisionEnergy:102040 M+H-H2O
PRECURSOR_MZ=238.97
INCHI="InChI=1S/C10H9BrO3/c1-14-9-4-3-8(11)6-7(9)2-5-10(12)13/h2-6H,1H3,(H,12,13)/b5-2+"
SMILES=COc1ccc(Br)cc1C=CC(=O)O
SPECTRUMID=CCMSLIB00010114501
53.234669 2463.0 
54.121868 2386.0 
58.058361 3379.0 
65.446877 2347.0 
81.754639 2477.0 
91.054161 11839.0 
97.6371 2625.0 
104.061958 28262.0 
116.062172 10034.0 
131.049011 117610.0 
132.056824 292363.0 
151.801254 2405.0 
160.051636 146069.0 
162.326431 2454.0 
182.980606 5848.0 
192.564774 2852.0 
195.951538 235918.0 
210.974274 10149.0 
223.946335 542578.0 
238.969742 2306533.0 
END IONS

BEGIN IONS
NAME="2-(4-oxo-1,2,3,5-tetrahydrocyclopenta[1,2-c]quinolin-5-yl)acetic acid CollisionEnergy:205060" M+H
PRECURSOR_MZ=244.097
INCHI="InChI=1S/C14H13NO3/c16-13(17)8-15-12-7-2-1-4-10(12)9-5-3-6-11(9)14(15)18/h1-2,4,7H,3,5-6,8H2,(H,16,17)"
SMILES=O=C(O)Cn1c(=O)c2c(c3ccccc31)CCC2
SPECTRUMID=CCMSLIB00010118755
53.94178 3134.0 
73.96418 4634.0 
115.054802 4954.0 
119.147057 3416.0 
128.062393 6088.0 
129.069778 3617.0 
136.233261 3419.0 
140.050156 7750.0 
141.069458 22253.0 
143.085663 26665.0 
153.057053 11198.0 
153.069946 13906.0 
154.06517 15363.0 
155.072647 46348.0 
167.072708 34158.0 
168.080734 434758.0 
169.088669 29729.0 
170.096344 3100343.0 
186.091232 2727140.0 
188.096252 6140.0 
188.866791 4029.0 
198.091202 2339801.0 
209.106567 17230.0 
212.34053 4125.0 
226.086014 1069303.0 
239.117462 60166.0 
244.096573 2539319.0 
END IONS

BEGIN IONS
NAME=EMETINE CollisionEnergy:205060 M+2H]
PRECURSOR_MZ=241.157
INCHI="InChI=1S/C29H40N2O4/c1-6-18-17-31-10-8-20-14-27(33-3)29(35-5)16-23(20)25(31)12-21(18)11-24-22-15-28(34-4)26(32-2)13-19(22)7-9-30-24/h13-16,18,21,24-25,30H,6-12,17H2,1-5H3/t18-,21-,24+,25-/m0/s1"
SMILES=CCC1CN2CCc3cc(OC)c(OC)cc3C2CC1CC1NCCc2cc(OC)c(OC)cc21
SPECTRUMID=CCMSLIB00010119927
53.039188 3831.0 
55.0546 14934.0 
55.164391 2885.0 
56.0499 35756.0 
61.280991 2957.0 
67.054451 5756.0 
68.049767 17718.0 
73.953194 2851.0 
79.054413 49757.0 
80.049423 5218.0 
82.065269 19145.0 
83.085617 14863.0 
84.080849 62753.0 
91.054283 39718.0 
92.378578 3812.0 
93.069847 25444.0 
94.065041 14105.0 
95.073112 3392.0 
96.080566 3278.0 
103.05426 39436.0 
104.06205 3081.0 
104.286919 3095.0 
105.069839 110970.0 
106.065086 3334.0 
107.048958 38416.0 
107.085167 5372.0 
108.080643 32178.0 
109.064377 3149.0 
109.088402 3777.0 
110.096336 374559.0 
111.099693 13569.0 
112.111969 5266.0 
115.054321 17323.0 
117.069687 14256.0 
118.041451 17565.0 
119.048843 17206.0 
119.085358 22202.0 
120.05661 14096.0 
120.080582 3421.0 
121.064781 43245.0 
122.072723 5773.0 
122.095947 12679.0 
124.111992 12608.0 
128.061935 6525.0 
129.069885 19698.0 
131.04895 14636.0 
131.074783 2951.0 
131.085526 17854.0 
132.044449 4074.0 
132.05661 12585.0 
133.064606 91686.0 
134.072617 65458.0 
134.096512 4412.0 
135.043884 51583.0 
135.080353 42513.0 
136.112167 14172.0 
141.069931 6315.0 
142.078079 3321.0 
143.049225 7156.0 
143.085373 6644.0 
144.056595 4883.0 
145.064606 16004.0 
146.060242 4962.0 
146.072403 13251.0 
147.067642 16945.0 
147.080368 75424.0 
148.075562 14433.0 
149.059586 20236.0 
149.594482 2725.0 
150.067398 386586.0 
151.075165 61478.0 
152.08223 5012.0 
154.62439 3279.0 
155.085464 4034.0 
157.064865 18335.0 
158.071381 4044.0 
159.065979 11188.0 
159.080276 51550.0 
160.052032 3776.0 
160.075989 22831.0 
160.087997 28638.0 
161.05925 30710.0 
161.082718 4281.0 
161.096191 3683.0 
162.066574 6536.0 
162.09111 14451.0 
163.075104 55750.0 
163.098724 3237.0 
164.069443 4781.0 
164.083084 24712.0 
165.090851 1059790.0 
166.093994 49221.0 
169.063751 21990.0 
170.072372 19434.0 
171.080292 66207.0 
172.086838 14415.0 
173.059967 24817.0 
173.096268 5901.0 
174.067825 4583.0 
174.090775 5204.0 
175.075226 148218.0 
176.083496 206431.0 
177.077591 12138.0 
177.091705 71382.0 
178.099289 5269.0 
179.108429 8202.0 
181.04686 29400.0 
183.080322 4442.0 
185.09671 10782.0 
186.104507 3807.0 
187.075287 28045.0 
188.082764 16115.0 
189.07428 4430.0 
189.09256 30063.0 
190.099976 198833.0 
191.108124 54128.0 
192.101517 463084.0 
193.105209 27533.0 
194.118164 21353.0 
199.111877 12058.0 
201.090485 58016.0 
202.10083 23588.0 
203.090729 4535.0 
203.106979 13361.0 
204.100189 5090.0 
205.108643 39992.0 
206.1147 3897.0 
206.470215 2959.0 
209.563263 5132.0 
214.100266 8806.0 
214.121353 4135.0 
215.107407 11442.0 
216.629593 11513.0 
217.617172 4038.0 
217.637863 4957.0 
218.11702 18355.0 
219.635345 13232.0 
220.132355 20322.0 
224.62648 19400.0 
225.131226 786068.0 
225.633011 97432.0 
226.643616 16334.0 
228.10173 5799.0 
229.122101 6293.0 
230.118851 20651.0 
230.151657 3018.0 
231.12587 5079.0 
232.136246 13407.0 
232.643021 1245737.0 
233.144699 166303.0 
233.646576 4001.0 
241.068069 43223.0 
241.156235 221637.0 
241.657654 34798.0 
242.117813 5754.0 
244.132828 17010.0 
245.154831 4550.0 
246.14827 183351.0 
247.151382 15899.0 
256.13324 30956.0 
258.147552 13823.0 
268.169708 6355.0 
270.147308 29986.0 
272.164673 18763.0 
274.179596 142282.0 
275.184418 12950.0 
284.163361 25636.0 
285.169983 29895.0 
286.178741 14922.0 
288.196594 5144.0 
300.195862 34686.0 
317.222382 25289.0 
406.238434 5488.0 
434.231598 20173.0 
436.246429 21118.0 
450.266479 5422.0 
452.27887 145491.0 
453.281769 18171.0 
END IONS

BEGIN IONS
NAME=2-{[(2-fluorophenyl)methyl]amino}-3-indol-3-ylpropanoic acid CollisionEnergy:102040 M+formate
PRECURSOR_MZ=357.126
INCHI="InChI=1S/C18H17FN2O2/c19-15-7-3-1-5-12(15)10-21-17(18(22)23)9-13-11-20-16-8-4-2-6-14(13)16/h1-8,11,17,20-21H,9-10H2,(H,22,23)"
SMILES=O=C(O)C(Cc1c[nH]c2ccccc12)NCc1ccccc1F
SPECTRUMID=CCMSLIB00010105519
60.114441 1914.0 
63.42635 2124.0 
64.600563 2095.0 
72.008888 9411.0 
74.408546 1998.0 
92.390709 3212.0 
95.229782 2165.0 
113.561058 2369.0 
116.050636 2662.0 
131.113632 2205.0 
184.737427 1987.0 
204.630478 2779.0 
311.120422 70844.0 
312.843048 3365.0 
END IONS

BEGIN IONS
NAME="(2,4-dimethoxyphenyl){2-[4-(4-phenyl(1,3-thiazol-2-yl))piperazinyl]quinazolin- 4-yl}amine CollisionEnergy:102040" M+2H]
PRECURSOR_MZ=263.107
INCHI="InChI=1S/C29H28N6O2S/c1-36-21-12-13-24(26(18-21)37-2)30-27-22-10-6-7-11-23(22)31-28(33-27)34-14-16-35(17-15-34)29-32-25(19-38-29)20-8-4-3-5-9-20/h3-13,18-19H,14-17H2,1-2H3,(H,30,31,33)"
SMILES=COc1ccc(N=c2[nH]c(N3CCN(c4nc(-c5ccccc5)cs4)CC3)nc3ccccc23)c(OC)c1
SPECTRUMID=CCMSLIB00010103584
65.68058 3363.0 
70.065369 34042.0 
73.952377 4177.0 
74.096649 4269.0 
91.054237 117842.0 
95.04921 5069.0 
102.046211 47021.0 
104.048843 6944.0 
104.2798 3927.0 
104.337769 3689.0 
104.829063 4409.0 
115.053627 3812.0 
118.064972 4355.0 
122.059334 4989.0 
124.075531 27453.0 
125.059212 3937.0 
134.018555 6986.0 
135.026062 266760.0 
136.028976 4674.0 
137.060013 7345.0 
138.054581 113456.0 
138.0672 112087.0 
145.076889 3953.0 
146.065155 19439.0 
147.055435 14301.0 
150.036301 33115.0 
152.070221 23447.0 
153.078094 293342.0 
154.082962 6924.0 
154.566345 19392.0 
157.063828 5446.0 
159.073288 16588.0 
160.02063 9179.0 
162.037201 17232.0 
162.078537 17445.0 
167.574631 24749.0 
170.070984 34216.0 
172.087021 24658.0 
173.081711 44182.0 
174.036896 4252.0 
174.069077 70046.0 
174.08577 6327.0 
174.571426 6012.0 
175.045059 92559.0 
175.086334 21617.0 
175.51503 3891.0 
176.016174 14833.0 
176.039627 253528.0 
177.047379 118814.0 
184.087158 17035.0 
185.081802 21162.0 
186.566971 14515.0 
187.068527 4464.0 
187.097443 14762.0 
188.052002 5684.0 
189.047501 740114.0 
190.050583 34441.0 
201.04776 115446.0 
202.055496 121938.0 
203.063248 258401.0 
204.069275 20602.0 
207.883011 24307.0 
215.064056 49989.0 
216.071274 6332.0 
217.078079 7674.0 
220.087097 22488.0 
229.077774 23238.0 
230.07518 5723.0 
234.086227 140974.0 
234.586441 19602.0 
235.073837 4909.0 
236.081863 5147.0 
239.104385 5119.0 
239.581207 5792.0 
240.086105 53066.0 
240.587997 4698.0 
241.096329 20193.0 
241.584747 48063.0 
244.089142 23742.0 
245.087173 6646.0 
246.105194 250683.0 
247.092834 301437.0 
247.550537 4292.0 
247.595901 63955.0 
248.082916 163873.0 
248.584671 24700.0 
249.089523 17137.0 
250.064316 4829.0 
250.09697 31784.0 
255.090256 175571.0 
255.594238 350877.0 
256.096405 45427.0 
262.005798 24932.0 
262.099701 27610.0 
262.601196 54832.0 
263.106262 16816386.0 
263.607666 2763928.0 
264.213867 20846.0 
265.083282 20428.0 
265.110779 12162.0 
266.090515 56406.0 
271.09729 30930.0 
277.104797 5652.0 
279.124359 34438.0 
280.106903 136416.0 
281.130249 11671.0 
282.108582 8633.0 
283.618652 18968.0 
289.108002 16278.0 
291.124237 50415.0 
293.139465 7987.0 
294.12027 8245.0 
295.11792 61741.0 
296.122894 8256.0 
297.131226 5578.0 
305.140228 34933.0 
307.118195 288415.0 
308.122803 38945.0 
309.133942 109904.0 
310.1409 17286.0 
321.133789 154471.0 
322.140839 80923.0 
323.148163 86752.0 
334.141968 7655.0 
335.149017 30393.0 
349.165894 34229.0 
350.160583 55581.0 
354.133087 26775.0 
359.162384 28290.0 
391.186829 207282.0 
392.192017 28763.0 
456.146942 6985.0 
525.200928 7744.0 
END IONS

BEGIN IONS
NAME="1-(1H-1,2,3,4-tetraazol-5-yl)-4-[(4-hydroxy-3-methoxyphenyl)methylene]-3-methy l-1,2-diazolin-5-one CollisionEnergy:102040" M+H
PRECURSOR_MZ=301.104
INCHI="InChI=1S/C13H12N6O3/c1-7-9(5-8-3-4-10(20)11(6-8)22-2)12(21)19(16-7)13-14-17-18-15-13/h3-6,20H,1-2H3,(H,14,15,17,18)/b9-5+"
SMILES=COc1cc(C=C2C(=O)N(c3nn[nH]n3)N=C2C)ccc1O
SPECTRUMID=CCMSLIB00010113326
53.082661 2577.0 
73.97731 2807.0 
82.42466 2716.0 
98.690063 2306.0 
115.054283 102442.0 
132.057343 4350.0 
134.192184 2741.0 
143.049286 102011.0 
149.059647 4788.0 
152.056732 2577.0 
158.026443 3199.0 
160.052078 48634.0 
171.044235 41924.0 
175.075424 2562001.0 
231.076767 27255.0 
273.098053 316447.0 
301.066498 4558.0 
301.103851 81174.0 
301.139343 6880.0 
END IONS

BEGIN IONS
NAME=Phlorizin CollisionEnergy:205060 M-H
PRECURSOR_MZ=435.13
INCHI="InChI=1S/C21H24O10/c22-9-16-18(27)19(28)20(29)21(31-16)30-15-8-12(24)7-14(26)17(15)13(25)6-3-10-1-4-11(23)5-2-10/h1-2,4-5,7-8,16,18-24,26-29H,3,6,9H2/t16-,18-,19+,20-,21-/m1/s1"
SMILES=O=C(CCc1ccc(O)cc1)c1c(O)cc(O)cc1OC1OC(CO)C(O)C(O)C1O
SPECTRUMID=CCMSLIB00010121639
55.77293 2359.0 
57.0341 17486.0 
59.013199 2621.0 
59.76749 2329.0 
59.97747 2297.0 
65.002876 5638.0 
81.034286 124143.0 
82.408508 3802.0 
83.013557 48021.0 
92.388359 3088.0 
93.034363 85268.0 
95.013451 2853.0 
95.04998 3790.0 
99.045547 2905.0 
107.013634 11835.0 
119.050217 122710.0 
122.25988 2554.0 
122.827789 2462.0 
123.045151 392556.0 
124.585678 3163.0 
125.024422 146063.0 
135.045197 18502.0 
146.961319 5850.0 
149.024582 19448.0 
151.003647 42454.0 
153.579163 2752.0 
157.992554 3169.0 
166.026917 3458.0 
167.034973 633382.0 
174.955429 3735.0 
179.034729 79407.0 
187.077133 6267.0 
189.055389 22250.0 
211.075409 5008.0 
255.065414 11222.0 
273.076752 821717.0 
304.914795 3179.0 
315.086151 3115.0 
350.207733 3423.0 
435.130493 14885.0 
END IONS

BEGIN IONS
NAME=Phorbol 12-myristate 13-acetate CollisionEnergy:102040 M+Cl
PRECURSOR_MZ=651.367
INCHI="InChI=1S/C36H56O8/c1-7-8-9-10-11-12-13-14-15-16-17-18-29(39)43-32-24(3)35(42)27(30-33(5,6)36(30,32)44-25(4)38)20-26(22-37)21-34(41)28(35)19-23(2)31(34)40/h19-20,24,27-28,30,32,37,41-42H,7-18,21-22H2,1-6H3/t24-,27+,28-,30-,32-,34-,35-,36-/m1/s1"
SMILES=CCCCCCCCCCCCCC(=O)OC1C(C)C2(O)C(C=C(CO)CC3(O)C(=O)C(C)=CC32)C2C(C)(C)C12OC(C)=O
SPECTRUMID=CCMSLIB00010114248
96.07045 2949.0 
118.674377 3284.0 
234.385376 3217.0 
651.365479 59694.0 
END IONS

BEGIN IONS
NAME="5,7-Dihydroxy-4'-methoxyflavanone CollisionEnergy:102040" M+H
PRECURSOR_MZ=287.091
INCHI="InChI=1S/C16H14O5/c1-20-11-4-2-9(3-5-11)14-8-13(19)16-12(18)6-10(17)7-15(16)21-14/h2-7,14,17-18H,8H2,1H3"
SMILES=COc1ccc(C2CC(=O)c3c(O)cc(O)cc3O2)cc1
SPECTRUMID=CCMSLIB00010105695
63.374142 3033.0 
67.018272 5854.0 
68.997627 3324.0 
73.342163 3362.0 
73.935677 3647.0 
74.264343 3107.0 
77.512367 3319.0 
79.054916 3678.0 
84.959908 3863.0 
85.067879 3899.0 
92.354027 3832.0 
105.069809 4071.0 
109.064903 14034.0 
111.00753 3567.0 
118.628983 4325.0 
121.064598 54946.0 
123.043503 3548.0 
129.980347 3533.0 
133.064743 194355.0 
135.043945 7757.0 
135.080368 64092.0 
137.059784 79950.0 
151.038986 23173.0 
153.018219 3091333.0 
161.059677 2259826.0 
171.02858 147029.0 
175.075745 6843.0 
177.0923 6097.0 
179.033737 61448.0 
203.070633 42173.0 
211.263687 5354.0 
221.081451 7131.0 
244.235474 3055.0 
245.079453 22662.0 
245.931259 6194.0 
263.938599 5119.0 
269.079651 30430.0 
272.065826 4094.0 
287.091064 7288127.0 
288.363342 4055.0 
END IONS

BEGIN IONS
NAME=6-bromo-3-{1-[(4-methylphenyl)carbonyl]-5-phenyl(2-pyrazolin-3-yl)}-4-phenylhy droquinolin-2-one CollisionEnergy:102040 M+H
PRECURSOR_MZ=562.112
INCHI="InChI=1S/C32H24BrN3O2/c1-20-12-14-23(15-13-20)32(38)36-28(21-8-4-2-5-9-21)19-27(35-36)30-29(22-10-6-3-7-11-22)25-18-24(33)16-17-26(25)34-31(30)37/h2-18,28H,19H2,1H3,(H,34,37)"
SMILES=Cc1ccc(C(=O)N2N=C(c3c(O)nc4ccc(Br)cc4c3-c3ccccc3)CC2c2ccccc2)cc1
SPECTRUMID=CCMSLIB00010112877
53.002491 4523.0 
55.01836 6630.0 
55.627171 4704.0 
65.038948 189433.0 
67.054611 62837.0 
82.435257 5553.0 
91.054337 456288.0 
93.607521 4176.0 
95.049187 27791.0 
102.071083 4875.0 
103.054199 100432.0 
106.065681 4900.0 
109.064934 113141.0 
115.054314 23505.0 
117.056671 4602.0 
118.064667 7198.0 
119.049141 8735283.0 
119.387993 5174.0 
130.06514 18209.0 
132.04451 41442.0 
133.075836 85034.0 
173.050156 4192.0 
205.883072 5254.0 
217.087921 6490.0 
220.111572 5260.0 
244.065201 5879.0 
262.073761 6088.0 
263.117554 29653.0 
271.085693 6342.0 
300.001434 40535.0 
304.110809 8453.0 
309.944427 8504.0 
309.985352 251091.0 
310.993073 20443.0 
311.989868 49001.0 
319.123596 35554.0 
321.102386 29326.0 
324.000824 48093.0 
324.996368 259387.0 
329.107178 38446.0 
330.114807 22498.0 
333.112305 7642.0 
335.00824 5136.0 
338.004059 10368.0 
339.014893 44701.0 
340.98999 17281.0 
347.116943 79503.0 
348.126953 40996.0 
348.996704 10183.0 
369.03006 4478.0 
382.022797 26798.0 
383.019165 6505.0 
384.033051 6648.0 
399.056396 30311.0 
400.030975 16569.0 
401.029083 24483.0 
408.025635 7414.0 
409.031311 44323.0 
410.021057 8277.0 
412.029663 542022.0 
414.049835 6980.0 
415.042389 44292.0 
425.030762 18949.0 
426.059998 298258.0 
427.043396 1125958.0 
428.030365 6372.0 
442.053711 54141.0 
458.05014 96850.0 
470.048981 128042.0 
516.090332 6488.0 
544.102905 94731.0 
561.096863 6540.0 
562.112061 11243297.0 
END IONS

BEGIN IONS
NAME="N-(2H,3H-benzo[3,4-e]1,4-dioxin-6-yl)-2-(4-hydroxyquinazolin-2-ylthio)acetamid e CollisionEnergy:102040" M+H
PRECURSOR_MZ=370.086
INCHI="InChI=1S/C18H15N3O4S/c22-16(19-11-5-6-14-15(9-11)25-8-7-24-14)10-26-18-20-13-4-2-1-3-12(13)17(23)21-18/h1-6,9H,7-8,10H2,(H,19,22)(H,20,21,23)"
SMILES=OC(CSc1nc(O)c2ccccc2n1)=Nc1ccc2c(c1)OCCO2
SPECTRUMID=CCMSLIB00010110576
51.07571 3070.0 
57.777851 3021.0 
65.124657 2676.0 
66.730667 3252.0 
67.690697 3116.0 
70.533363 3126.0 
92.364738 4973.0 
127.311333 3167.0 
132.044342 643027.0 
136.038986 4988.0 
137.059586 7179.0 
149.059937 4240.0 
150.054825 123013.0 
152.070496 778746.0 
164.070358 110487.0 
191.027191 602299.0 
192.065353 33405.0 
193.042633 6318.0 
207.699585 3153.0 
218.18663 4384.0 
219.022064 5650296.0 
219.862946 3500.0 
237.043304 13108.0 
242.523727 3381.0 
288.243713 3093.0 
352.073792 4634.0 
353.275177 3488.0 
370.084961 766085.0 
END IONS

BEGIN IONS
NAME="N-[4-(5-chloro-3-methylpyrazolyl)phenyl](3,4,5-trimethoxyphenyl)carboxamide CollisionEnergy:205060" M+H
PRECURSOR_MZ=402.122
INCHI="InChI=1S/C20H20ClN3O4/c1-12-9-18(21)24(23-12)15-7-5-14(6-8-15)22-20(25)13-10-16(26-2)19(28-4)17(11-13)27-3/h5-11H,1-4H3,(H,22,25)"
SMILES=COc1cc(C(=O)Nc2ccc(-n3nc(C)cc3Cl)cc2)cc(OC)c1OC
SPECTRUMID=CCMSLIB00010117198
53.039051 58744.0 
55.01825 5083.0 
55.05463 5016.0 
56.0499 4978.0 
58.508148 3156.0 
65.038963 43140.0 
66.046623 13527.0 
66.737534 3583.0 
67.018173 4749.0 
67.054489 16824.0 
68.026016 3630.0 
68.067673 3099.0 
68.99765 3114.0 
69.033768 14349.0 
70.753677 3359.0 
71.049232 4339.0 
75.044197 7634.0 
78.046417 5692.0 
78.280533 3384.0 
79.054466 188278.0 
81.033684 102579.0 
81.070068 89564.0 
81.692322 3018.0 
82.041367 5514.0 
83.049149 7055.0 
85.028328 7226.0 
91.054268 12950.0 
92.025787 5148.0 
93.033371 22608.0 
94.041527 27524.0 
95.04921 35703.0 
96.056992 68199.0 
97.028282 4180.0 
97.064697 4258.0 
105.033089 3748.0 
105.045174 4515.0 
106.040771 4097.0 
107.012383 3301.0 
107.048813 20115.0 
108.056648 30496.0 
109.028267 17822.0 
109.064636 145047.0 
110.036018 4960.0 
111.044037 7532.0 
111.080177 37257.0 
113.023216 25066.0 
113.059769 25913.0 
121.028183 27291.0 
122.036003 116347.0 
123.0438 12428.0 
124.051781 193344.0 
125.022827 5005.0 
125.059753 14098.0 
127.037827 4475.0 
128.04657 47161.0 
134.035599 2900.0 
135.044006 47713.0 
137.022888 49584.0 
138.031067 4011.0 
138.067291 32105.0 
139.039062 61984.0 
139.075165 322096.0 
141.017944 56790.0 
142.025528 3513.0 
143.06987 11607.0 
145.075531 16752.0 
151.039017 54916.0 
152.046616 443329.0 
153.055435 4158.0 
154.062225 307423.0 
156.041489 97503.0 
157.062897 5834.0 
163.038422 43165.0 
165.019028 6552.0 
166.02803 5469.0 
167.06987 5187.0 
169.085724 85380.0 
171.064545 18671.0 
171.079315 4062.0 
172.086929 34197.0 
179.034744 17840.0 
180.043274 4276.0 
181.049271 203123.0 
184.036209 37060.0 
185.080048 26474.0 
194.01033 3816.0 
195.064957 1829569.0 
198.066238 6349.0 
206.047684 70571.0 
207.055359 78790.0 
209.047943 3774.0 
212.353622 3476.0 
227.651016 3294.0 
234.042542 76018.0 
276.112701 7498.0 
336.098114 4216.0 
344.07724 4632.0 
356.080902 5034.0 
366.14566 5730.0 
368.077393 6280.0 
372.074158 15253.0 
386.091217 16545.0 
387.098419 13950.0 
402.120636 2121556.0 
END IONS

BEGIN IONS
NAME=(2E)-3-{4-methoxy-3-[(4-nitrophenoxy)methyl]phenyl}-1-phenylprop-2-en-1-one CollisionEnergy:205060 M+H
PRECURSOR_MZ=390.134
INCHI="InChI=1S/C23H19NO5/c1-28-23-14-8-17(7-13-22(25)18-5-3-2-4-6-18)15-19(23)16-29-21-11-9-20(10-12-21)24(26)27/h2-15H,16H2,1H3/b13-7+"
SMILES=COc1ccc(C=CC(=O)c2ccccc2)cc1COc1ccc([N+](=O)[O-])cc1
SPECTRUMID=CCMSLIB00010122190
51.023548 5696.0 
53.039139 38851.0 
55.01828 40352.0 
60.16547 3790.0 
63.436958 3002.0 
65.03907 4653.0 
73.958427 3969.0 
74.090919 2977.0 
76.403488 3413.0 
77.039124 7549.0 
78.046913 7425.0 
79.018013 3740.0 
79.054626 20202.0 
81.033836 14846.0 
84.175003 3377.0 
91.054314 242945.0 
92.026314 3763.0 
92.384697 3669.0 
95.04921 38924.0 
96.854446 3718.0 
103.054291 20079.0 
105.03344 1565684.0 
107.048897 8597.0 
115.054108 296961.0 
116.061951 4000.0 
117.069763 71350.0 
119.048576 24708.0 
119.085297 55360.0 
121.065048 14349.0 
128.061874 33263.0 
129.069992 7279.0 
131.049057 47490.0 
141.070084 19319.0 
143.049408 24307.0 
144.057327 17288.0 
145.064728 143990.0 
147.080322 33327.0 
149.059677 5974.0 
152.03447 20299.0 
152.061691 33685.0 
153.069748 34201.0 
157.065613 3646.0 
165.069656 342608.0 
166.077255 28747.0 
167.085358 47173.0 
173.059494 31462.0 
176.062378 16379.0 
177.069855 61329.0 
178.077545 2428061.0 
179.085312 725892.0 
180.093323 59858.0 
181.064636 42618.0 
181.100586 4990.0 
182.072678 4301.0 
189.070145 15917.0 
190.077103 66869.0 
191.085358 216270.0 
192.09314 116900.0 
192.108292 3386.0 
193.065811 21015.0 
193.100937 387065.0 
194.072586 26108.0 
195.080017 64777.0 
195.116776 21377.0 
197.095886 7008.0 
202.077469 259163.0 
203.085236 491085.0 
204.093536 28807.0 
205.064011 34659.0 
205.100113 44720.0 
206.072464 104752.0 
207.080978 36774.0 
208.087997 111167.0 
209.096146 16394.0 
212.273361 4031.0 
218.072433 35708.0 
219.080414 50064.0 
220.087784 105355.0 
221.09581 1147592.0 
222.1026 5258.0 
223.111359 122068.0 
233.095718 104123.0 
234.104233 7962.0 
235.075638 8056.0 
236.082397 54564.0 
238.063461 4161.0 
239.106339 6834.0 
249.102539 24349.0 
251.106262 5049755.0 
390.132599 8448.0 
END IONS

BEGIN IONS
NAME="(+)-(4,6-O-Benzylidene)methyl-alpha-D-glucopyranoside CollisionEnergy:102040" M+Na
PRECURSOR_MZ=305.1
INCHI="InChI=1S/C14H18O6/c1-17-14-11(16)10(15)12-9(19-14)7-18-13(20-12)8-5-3-2-4-6-8/h2-6,9-16H,7H2,1H3"
SMILES=COC1OC2COC(c3ccccc3)OC2C(O)C1O
SPECTRUMID=CCMSLIB00010112404
51.48373 2391.0 
82.382301 2870.0 
88.040573 2572.0 
89.688232 2390.0 
90.976883 3145.0 
92.361687 2813.0 
263.902832 3438.0 
305.099426 2769212.0 
323.109772 38844.0 
END IONS

BEGIN IONS
NAME="9-(4-methylphenyl)-8-[(5-methyl-2-phenyl(1,3-oxazol-4-yl))methylthio]hydropuri n-6-one CollisionEnergy:102040" M+H
PRECURSOR_MZ=430.133
INCHI="InChI=1S/C23H19N5O2S/c1-14-8-10-17(11-9-14)28-20-19(21(29)25-13-24-20)27-23(28)31-12-18-15(2)30-22(26-18)16-6-4-3-5-7-16/h3-11,13H,12H2,1-2H3,(H,24,25,29)"
SMILES=Cc1ccc(-n2c(SCc3nc(-c4ccccc4)oc3C)nc3c(O)ncnc32)cc1
SPECTRUMID=CCMSLIB00010106246
58.661659 3274.0 
58.949509 3028.0 
63.133171 3003.0 
69.033943 47539.0 
104.049431 495678.0 
105.033417 6442.0 
150.124695 3270.0 
157.966599 3694.0 
167.001495 5990.0 
172.075577 5137624.0 
213.102097 15122.0 
221.815002 3559.0 
222.142853 3185.0 
259.064514 751040.0 
271.606201 4052.0 
276.378235 3809.0 
304.451447 3218.0 
426.537628 3430.0 
430.132629 3349220.0 
END IONS

BEGIN IONS
NAME="4-hydroxy-2-methoxy-6-phenyl-2H-3,4,5,6,7,8,4a,8a-octahydro-5,7-dioxachromen-3 -yl 4-methylbenzenesulfonate CollisionEnergy:205060" M+Cl
PRECURSOR_MZ=471.089
INCHI="InChI=1S/C21H24O8S/c1-13-8-10-15(11-9-13)30(23,24)29-19-17(22)18-16(27-21(19)25-2)12-26-20(28-18)14-6-4-3-5-7-14/h3-11,16-22H,12H2,1-2H3"
SMILES=COC1OC2COC(c3ccccc3)OC2C(O)C1OS(=O)(=O)c1ccc(C)cc1
SPECTRUMID=CCMSLIB00010123946
92.385422 2579.0 
129.996109 2298.0 
138.49971 2417.0 
154.896744 2518.0 
198.168427 2389.0 
316.98407 3361.0 
366.980865 2541.0 
END IONS

BEGIN IONS
NAME=xanthurenic acid CollisionEnergy:102040 M+H-H2O
PRECURSOR_MZ=188.034
INCHI="InChI=1S/C10H7NO4/c12-7-3-1-2-5-8(13)4-6(10(14)15)11-9(5)7/h1-4,12H,(H,11,13)(H,14,15)"
SMILES=O=C(O)c1cc(O)c2cccc(O)c2n1
SPECTRUMID=CCMSLIB00010126916
51.023899 4583.839844 
68.9981 3984.540039 
82.416 3466.090088 
88.021797 14287.299805 
92.395599 3033.540039 
104.050003 49688.601562 
105.033997 7150.439941 
107.036003 6320.919922 
110.059998 21166.0 
132.044006 3435740.0 
136.039001 11706.700195 
150.054993 6434.97998 
160.039001 70601.0 
164.983994 17326.199219 
177.042007 4065.169922 
177.436005 14109.5 
178.050003 11947700.0 
178.666 15036.599609 
179.054001 5059.919922 
180.054001 32245.699219 
188.126999 4483.02002 
END IONS

BEGIN IONS
NAME=N-(2-chlorophenyl)-2-[2-oxo-4-(N-propylcarbamoyl)hydroquinolyl]acetamide CollisionEnergy:205060 M+Na
PRECURSOR_MZ=420.109
INCHI="InChI=1S/C21H20ClN3O3/c1-2-11-23-21(28)15-12-20(27)25(18-10-6-3-7-14(15)18)13-19(26)24-17-9-5-4-8-16(17)22/h3-10,12H,2,11,13H2,1H3,(H,23,28)(H,24,26)"
SMILES=CCCN=C(O)c1cc(=O)n(CC(O)=Nc2ccccc2Cl)c2ccccc12
SPECTRUMID=CCMSLIB00010123248
55.163551 3441.0 
74.023697 2647.0 
82.406601 3156.0 
84.486893 3108.0 
92.386436 3519.0 
104.294037 3567.0 
130.064941 13757.0 
167.885101 3032.0 
176.137405 3924.0 
210.996765 5484.0 
231.114639 3835.0 
243.112823 7222.0 
261.488953 3689.0 
261.883759 3031.0 
271.107574 15583.0 
298.086548 3564.0 
307.103699 20855.0 
334.048431 3458.0 
380.118683 3133.0 
402.097778 37663.0 
420.108185 4766006.0 
422.340088 2994.0 
438.120819 4688.0 
END IONS

BEGIN IONS
NAME=ethyl (2E)-3-(3-nitrophenyl)prop-2-enoate CollisionEnergy:205060 M+H
PRECURSOR_MZ=222.076
INCHI="InChI=1S/C11H11NO4/c1-2-16-11(13)7-6-9-4-3-5-10(8-9)12(14)15/h3-8H,2H2,1H3/b7-6+"
SMILES=CCOC(=O)C=Cc1cccc([N+](=O)[O-])c1
SPECTRUMID=CCMSLIB00010126018
50.562489 2248.0 
50.86887 1923.0 
51.02346 2724.0 
53.039242 2582.0 
53.214771 2048.0 
56.95549 2074.0 
70.447418 2151.0 
77.038681 19210.0 
78.046562 2828.0 
91.054207 3363.0 
95.049118 2572.0 
102.046181 24932.0 
104.087578 2098.0 
105.033539 21648.0 
111.830353 2240.0 
117.50972 2168.0 
118.041161 95194.0 
118.658188 2400.0 
127.473717 2324.0 
129.033127 42120.0 
129.04248 2917.0 
130.041245 60569.0 
146.036026 31579.0 
147.044067 42482.0 
148.039322 30505.0 
153.980835 3540.0 
157.039871 13871.0 
159.031525 3197.0 
162.030472 8955.0 
176.034058 247252.0 
194.044708 101755.0 
198.978195 2192.0 
222.075348 9394.0 
235.070175 4808.0 
END IONS

BEGIN IONS
NAME="methyl 11-(2H-benzo[3,4-d]1,3-dioxolen-5-ylcarbonyl)-10,10,13,14-tetramethyl-5 ,7,8-tris(methoxycarbonyl)spiro[1,3-dithiolene-2,1'-5,6-dihydrothiino[2,3-c]qu inoline]-4-carboxylate CollisionEnergy:205060" M+H
PRECURSOR_MZ=726.113
INCHI="InChI=1S/C34H31NO11S3/c1-15-11-18-19(12-16(15)2)35(28(36)17-9-10-20-21(13-17)46-14-45-20)33(3,4)27-22(18)34(23(29(37)41-5)24(47-27)30(38)42-6)48-25(31(39)43-7)26(49-34)32(40)44-8/h9-13H,14H2,1-8H3"
SMILES=COC(=O)C1=C(C(=O)OC)SC2(S1)C(C(=O)OC)=C(C(=O)OC)SC1=C2c2cc(C)c(C)cc2N(C(=O)c2ccc3c(c2)OCO3)C1(C)C
SPECTRUMID=CCMSLIB00010121574
51.023331 26680.0 
51.709389 4284.0 
52.99995 5744.0 
53.002701 127219.0 
55.01836 102118.0 
58.995399 23909.0 
62.927979 4287.0 
63.02317 7048.0 
65.039009 663292.0 
67.01825 43481.0 
68.99752 358917.0 
69.03363 20102.0 
71.012833 21694.0 
76.639153 4562.0 
78.877899 3716.0 
95.012871 305633.0 
109.028427 32521.0 
121.02832 8277.0 
125.023239 91517.0 
137.022842 26789.0 
139.038696 77015.0 
149.0233 8082402.0 
150.026764 17966.0 
165.000381 38198.0 
206.095108 6927.0 
224.052414 9191.0 
234.091049 65638.0 
237.060364 172963.0 
238.068466 37051.0 
239.05188 4918.0 
239.076294 16832.0 
240.047134 6530.0 
240.074738 5061.0 
249.115997 7967.0 
251.075806 7101.0 
252.047501 124128.0 
252.083588 50210.0 
254.099319 6934.0 
264.960907 38571.0 
265.055481 30641.0 
266.063263 44586.0 
267.070892 1499010.0 
271.06546 6848.0 
276.982422 21375.0 
280.042877 20700.0 
280.078888 62007.0 
282.09433 595328.0 
295.065521 21370.0 
310.088867 272397.0 
312.050598 20575.0 
316.117676 5019.0 
316.168854 5090.0 
322.054718 9936.0 
323.022125 87961.0 
323.060883 10231.0 
338.083923 425633.0 
360.067627 4701.0 
370.110199 1111668.0 
374.606781 4817.0 
426.027954 39977.0 
468.055328 18110.0 
484.086609 51020.0 
486.103119 31175.0 
500.064606 20713.0 
518.125183 117599.0 
562.064392 6074.0 
633.873474 4536.0 
634.064819 69663.0 
656.417908 5770.0 
662.057678 38732.0 
666.091675 2262611.0 
694.08905 7561.0 
741.649292 4976.0 
END IONS

BEGIN IONS
NAME=Chelidonine CollisionEnergy:102040 M+H
PRECURSOR_MZ=354.134
INCHI="InChI=1S/C20H19NO5/c1-21-7-13-11(2-3-15-20(13)26-9-23-15)18-14(22)4-10-5-16-17(25-8-24-16)6-12(10)19(18)21/h2-3,5-6,14,18-19,22H,4,7-9H2,1H3"
SMILES=CN1Cc2c(ccc3c2OCO3)C2C(O)Cc3cc4c(cc3C21)OCO4
SPECTRUMID=CCMSLIB00010104358
52.602032 6374.0 
76.982964 5844.0 
77.713799 14534.0 
77.717918 8520.0 
85.687767 7257.0 
118.656052 10683.0 
121.378448 7060.0 
131.049225 25946.0 
133.029297 22301.0 
135.043884 1504948.0 
136.211075 7740.0 
143.048996 112858.0 
148.050797 10437.0 
149.022858 79898.0 
149.059586 65792.0 
151.03833 47115.0 
159.043777 115391.0 
161.059586 547416.0 
163.038742 942387.0 
173.059464 276447.0 
175.038361 54008.0 
176.070282 235626.0 
187.039291 90566.0 
187.05571 12258.0 
188.070297 439122.0 
189.069244 79157.0 
201.053619 15837.0 
207.081497 49346.0 
217.064255 203277.0 
219.079483 26788.0 
235.075027 184642.0 
237.054916 13032.0 
237.090073 254811.0 
245.059372 254181.0 
246.068695 9514.0 
247.074936 3671355.0 
249.09201 52046.0 
251.069275 27445.0 
263.070129 113161.0 
265.085114 696252.0 
267.064667 46012.0 
275.069702 14905938.0 
277.08252 59366.0 
279.067352 27087.0 
281.082153 16196.0 
293.079956 546277.0 
295.095703 1237658.0 
305.080139 4679742.0 
307.096039 84276.0 
323.090759 4593325.0 
334.104156 34620.0 
336.122406 1229690.0 
352.418549 11189.0 
354.132935 38722892.0 
355.861816 9502.0 
END IONS

BEGIN IONS
NAME=N-methylanthranilic acid CollisionEnergy:205060 M-H2O+H
PRECURSOR_MZ=134.059
INCHI="InChI=1S/C8H9NO2/c1-9-7-5-3-2-4-6(7)8(10)11/h2-5,9H,1H3,(H,10,11)"
SMILES=CNC1=CC=CC=C1C(=O)O
SPECTRUMID=CCMSLIB00010102253
51.023499 40478.160156 
52.243149 43083.0625 
53.03894 764793.1875 
64.447144 43641.792969 
65.038857 197234.71875 
74.474709 42123.507812 
76.221062 41109.027344 
78.046806 215529.984375 
79.05439 1892464.75 
89.038567 252122.078125 
91.054428 2396435.5 
95.049149 288015.65625 
104.049873 86471.140625 
105.033768 258578.796875 
105.044716 100620.335938 
106.041389 105316.09375 
106.065338 2629848.25 
107.04911 105663.585938 
109.064949 74909.390625 
116.04969 1968319.0 
126.352585 44172.09375 
132.04454 202858.421875 
134.060272 2700702.5 
END IONS

BEGIN IONS
NAME="N-(2,4-difluorophenyl)-2-[9-(4-methylphenyl)-6-oxohydropurin-8-ylthio]acetamid e CollisionEnergy:102040" M+Na
PRECURSOR_MZ=450.081
INCHI="InChI=1S/C20H15F2N5O2S/c1-11-2-5-13(6-3-11)27-18-17(19(29)24-10-23-18)26-20(27)30-9-16(28)25-15-7-4-12(21)8-14(15)22/h2-8,10H,9H2,1H3,(H,25,28)(H,23,24,29)"
SMILES=Cc1ccc(-n2c(SCC(O)=Nc3ccc(F)cc3F)nc3c(O)ncnc32)cc1
SPECTRUMID=CCMSLIB00010113531
73.940727 2953.0 
92.362839 3953.0 
198.526978 2705.0 
221.491058 3954.0 
249.073578 29229.0 
279.029938 68782.0 
280.038696 79707.0 
317.059998 3699.0 
321.040497 12980.0 
433.26947 3518.0 
444.348114 3213.0 
450.079742 5186829.0 
END IONS

BEGIN IONS
NAME=L-proline CollisionEnergy:102040 M+H
PRECURSOR_MZ=116.071
INCHI="InChI=1S/C5H9NO2/c7-5(8)4-2-1-3-6-4/h4,6H,1-3H2,(H,7,8)/t4-/m0/s1"
SMILES=O=C(O)[C@@H]1CCCN1
SPECTRUMID=CCMSLIB00010126498
50.645699 78607.796875 
57.259102 81162.398438 
58.933102 79574.796875 
61.914501 92001.203125 
70.065697 58755700.0 
71.927498 112871.0 
78.278801 74807.203125 
82.4207 93941.601562 
116.070999 10022300.0 
END IONS

BEGIN IONS
NAME="5-[(4-hydroxy-3-methoxyphenyl)methylene]-2-(phenylamino)-1,3-thiazolin-4-one CollisionEnergy:102040" M+Na
PRECURSOR_MZ=349.062
INCHI="InChI=1S/C17H14N2O3S/c1-22-14-9-11(7-8-13(14)20)10-15-16(21)19-17(23-15)18-12-5-3-2-4-6-12/h2-10,20H,1H3,(H,18,19,21)/b15-10-"
SMILES=COc1cc(C=C2SC(=Nc3ccccc3)N=C2O)ccc1O
SPECTRUMID=CCMSLIB00010104974
50.918411 2405.0 
55.211769 2091.0 
71.815712 2165.0 
74.035492 2242.0 
75.257362 2703.0 
96.43251 3066.0 
297.966003 2509.0 
309.188477 2359.0 
349.061005 1448381.0 
367.072479 4884.0 
END IONS

BEGIN IONS
NAME="2-(5-{[(1E)-2-(3-methoxyphenyl)-1-azaprop-1-enyl]amino}(4H-1,2,4-triazol-3-ylt hio))-1-(2H-benzo[3,4-d]1,3-dioxolan-5-yl)ethan-1-one CollisionEnergy:102040" M+formate
PRECURSOR_MZ=470.114
INCHI="InChI=1S/C20H19N5O4S/c1-12(13-4-3-5-15(8-13)27-2)22-23-19-21-20(25-24-19)30-10-16(26)14-6-7-17-18(9-14)29-11-28-17/h3-9H,10-11H2,1-2H3,(H2,21,23,24,25)/b22-12+"
SMILES=COc1cccc(C(C)=NNc2nc(SCC(=O)c3ccc4c(c3)OCO4)n[nH]2)c1
SPECTRUMID=CCMSLIB00010105528
57.975231 23823.0 
82.423569 3095.0 
92.405861 2639.0 
96.469933 2539.0 
112.992928 10638.0 
165.80986 2642.0 
209.67067 10930.0 
261.070099 3397.0 
276.032745 4456.0 
297.904572 3154.0 
424.108978 51527.0 
END IONS

BEGIN IONS
NAME=L-Pyroglutamic acid CollisionEnergy:102040 M-H+2Na
PRECURSOR_MZ=174.014
INCHI="InChI=1S/C5H7NO3/c7-4-2-1-3(6-4)5(8)9/h3H,1-2H2,(H,6,7)(H,8,9)/t3-/m0/s1"
SMILES=O=C(O)[C@@H]1CCC(O)=N1
SPECTRUMID=CCMSLIB00010126754
58.487999 1909.069946 
67.359802 1988.02002 
72.938301 2340.070068 
90.5298 1891.339966 
91.264702 1919.72998 
96.703499 2219.27002 
104.305 2674.719971 
132.080002 2453.800049 
132.959 4003.48999 
150.968994 8841.030273 
174.014008 98339.398438 
174.128006 30287.300781 
END IONS

BEGIN IONS
NAME="6-amino-4-(7-methoxy(2H-benzo[d]1,3-dioxolan-5-yl))-3-propyl-4H-pyrano[2,3-c]p yrazole-5-carbonitrile CollisionEnergy:102040" M+H
PRECURSOR_MZ=355.14
INCHI="InChI=1S/C18H18N4O4/c1-3-4-11-15-14(10(7-19)17(20)26-18(15)22-21-11)9-5-12(23-2)16-13(6-9)24-8-25-16/h5-6,14H,3-4,8,20H2,1-2H3,(H,21,22)"
SMILES=CCCc1[nH]nc2c1C(c1cc(OC)c3c(c1)OCO3)C(C#N)=C(N)O2
SPECTRUMID=CCMSLIB00010110686
53.451031 3296.0 
62.727982 2947.0 
69.271561 3095.0 
70.065109 3039.0 
77.215927 3684.0 
82.395432 3147.0 
85.076149 3441.0 
87.445778 3559.0 
94.203239 3274.0 
109.075974 5710.0 
127.086243 41857.0 
135.681702 3250.0 
136.050186 4228.0 
137.070816 64791.0 
139.086304 5784.0 
151.039352 11281.0 
152.047073 18742.0 
152.081436 6377.0 
153.054733 7819.0 
161.045471 21404.0 
165.054443 5370.0 
174.054184 17585.0 
175.061203 5537.0 
175.086426 4380.0 
178.049652 14942.0 
178.097015 58253.0 
179.069977 18758.0 
199.049988 4425.0 
202.33905 3169.0 
203.092407 487239.0 
204.065063 6451.0 
204.096313 4393.0 
214.036438 31237.0 
217.0737 3827.0 
220.059448 28502.0 
229.060425 425956.0 
230.044266 5595.0 
230.068481 4618.0 
231.112549 18596.0 
232.109039 7619.0 
242.079987 37798.0 
244.060486 16380.0 
245.105835 4041.0 
246.111069 13905.0 
247.070816 93711.0 
255.078369 3378.0 
258.073608 4893.0 
259.107147 70873.0 
263.0784 4014.0 
269.055023 29708.0 
271.107117 3869.0 
272.091431 61424.0 
274.093658 6134.0 
275.101654 14255.0 
283.107819 6447.0 
286.080566 12014.0 
289.117706 3293746.0 
290.125885 116887.0 
290.156067 3460.0 
293.088928 4248.0 
296.066864 7759.0 
300.097778 20621.0 
308.898315 7628.0 
309.074829 5002.0 
310.081116 33140.0 
310.116058 5997.0 
313.106049 39783.0 
314.112701 4237.0 
315.120605 60246.0 
323.089233 4237.0 
325.128632 5157.0 
328.128357 567180.0 
331.916779 11676.0 
338.113037 90820.0 
355.139404 4963738.0 
END IONS

BEGIN IONS
NAME="(6aS)-1,2,9,10-tetramethoxy-6-methyl-5,6,6a,7-tetrahydro-4H-dibenzo[de,g]quinoline-3-carbaldehyde CollisionEnergy:102040" M+H
PRECURSOR_MZ=384.181
INCHI="InChI=1S/C22H25NO5/c1-23-7-6-13-15(11-24)21(27-4)22(28-5)20-14-10-18(26-3)17(25-2)9-12(14)8-16(23)19(13)20/h9-11,16H,6-8H2,1-5H3/t16-/m0/s1"
SMILES=COc1cc2c(cc1OC)-c1c(OC)c(OC)c(C=O)c3c1C(C2)N(C)CC3
SPECTRUMID=CCMSLIB00010105029
53.784641 4445.0 
68.589211 3976.0 
73.942963 4685.0 
75.043999 7696.0 
82.386307 4142.0 
86.06002 9181.0 
123.081734 4156.0 
125.319656 4888.0 
129.413269 4394.0 
136.185608 4491.0 
141.737579 4304.0 
181.556473 3512.0 
215.140793 4132.0 
219.081696 5318.0 
223.075623 5569.0 
235.075272 17721.0 
236.084564 5438.0 
237.090408 6679.0 
239.105545 16684.0 
247.075668 19348.0 
249.0923 15407.0 
250.098541 16405.0 
251.078125 4934.0 
251.105453 49351.0 
255.099243 7553.0 
262.098724 57952.0 
263.069611 19133.0 
263.106781 40406.0 
264.113678 27387.0 
265.085419 17465.0 
265.119934 8120.0 
266.092377 16733.0 
267.100494 77377.0 
268.108917 17034.0 
277.082794 47524.0 
278.092682 85514.0 
279.100677 290202.0 
280.077881 6675.0 
280.108307 32839.0 
281.081848 21195.0 
281.116028 150946.0 
282.124329 422927.0 
283.097229 61534.0 
283.129822 6800.0 
289.086395 43212.0 
291.099945 9952.0 
292.107727 25855.0 
292.137543 8797.0 
293.083618 11734.0 
293.11618 475955.0 
294.124207 1129878.0 
295.096466 415534.0 
295.132233 86218.0 
296.10199 52803.0 
297.110718 7913.0 
298.119263 246421.0 
304.104004 6711.0 
305.078674 27458.0 
307.095673 666254.0 
308.103149 179878.0 
308.136932 53526.0 
309.109894 62823.0 
310.084534 32370.0 
310.11908 744464.0 
311.09079 139323.0 
311.12793 20302.0 
313.142639 311846.0 
318.113037 18979.0 
319.120239 9017.0 
320.133118 119947.0 
321.109711 30628.0 
322.115295 79765.0 
323.090576 845817.0 
323.126343 57359.0 
324.122681 6779.0 
324.160004 143024.0 
325.142731 628228.0 
326.111938 193938.0 
332.128052 25331.0 
334.104614 62066.0 
334.143311 258109.0 
335.107727 35451.0 
335.153198 132261.0 
336.122192 1276862.0 
337.10495 49538.0 
338.114044 421459.0 
339.157166 7952.0 
341.13736 533359.0 
348.121643 5920.0 
350.13739 303376.0 
351.14563 169524.0 
352.15329 85814.0 
353.137451 4317785.0 
354.132721 69661.0 
356.184235 141809.0 
356.231049 8838.0 
364.15564 30027.0 
366.169189 4017840.0 
368.146698 53141.0 
369.154236 36145.0 
382.240967 6876.0 
384.179688 10133008.0 
END IONS

BEGIN IONS
NAME="(15S,17S,2R,14R)-17-hydroxy-14-(2-hydroxyacetyl)-2,15-dimethyl-5-oxotetracyclo [8.7.0.0<2,7>.0<11,15>]heptadec-6-en-14-yl acetate CollisionEnergy:102040" M+H
PRECURSOR_MZ=405.227
INCHI="InChI=1S/C23H32O6/c1-13(25)29-23(19(28)12-24)9-7-17-16-5-4-14-10-15(26)6-8-21(14,2)20(16)18(27)11-22(17,23)3/h10,16-18,20,24,27H,4-9,11-12H2,1-3H3/t16?,17?,18-,20?,21-,22-,23-/m0/s1"
SMILES=CC(=O)OC1(C(=O)CO)CCC2C3CCC4=CC(=O)CCC4(C)C3C(O)CC21C
SPECTRUMID=CCMSLIB00010109395
61.028831 4542.0 
67.054604 8542.0 
79.05439 15644.0 
81.070068 31228.0 
83.049332 34915.0 
91.04834 5433.0 
91.054337 97413.0 
93.07003 46906.0 
95.085564 43604.0 
97.064827 120902.0 
99.04409 5184.0 
105.069893 40476.0 
107.085442 41574.0 
109.039421 20650.0 
109.064758 52243.0 
109.100998 7582.0 
111.08033 15914.0 
117.06987 16729.0 
118.709908 3117.0 
119.085533 56753.0 
119.273399 3363.0 
119.657356 3320.0 
121.064728 1190916.0 
121.101051 22059.0 
123.080353 121459.0 
129.069427 26178.0 
131.085388 52661.0 
133.064163 13966.0 
133.100998 38694.0 
135.080185 81950.0 
135.116379 21108.0 
137.095398 27183.0 
141.069687 48108.0 
143.085358 107202.0 
145.06456 7739.0 
145.100998 103641.0 
146.109589 4531.0 
147.080383 54714.0 
147.116623 141854.0 
149.095917 27188.0 
149.132309 29851.0 
150.065704 4562.0 
151.0755 6657.0 
151.111374 4146.0 
155.085312 55693.0 
157.064392 3802.0 
157.101028 86821.0 
159.080093 41651.0 
159.116608 60609.0 
161.095963 50096.0 
161.132065 24751.0 
163.111374 64177.0 
165.089813 3902.0 
167.084976 37353.0 
169.100937 81306.0 
171.080017 49202.0 
171.116898 39743.0 
172.124527 6526.0 
173.095566 87258.0 
173.132462 32504.0 
175.111526 48112.0 
177.127213 12307.0 
179.085754 6104.0 
181.101334 33788.0 
183.116867 50454.0 
185.095947 50557.0 
185.113724 3821.0 
185.116974 3849.0 
185.132217 44767.0 
187.111572 76756.0 
187.147812 7645.0 
189.126968 27303.0 
193.101089 25739.0 
193.120483 6079.0 
195.116425 34968.0 
197.096054 21671.0 
197.13208 28922.0 
199.087158 6357.0 
199.111343 23531.0 
199.147644 16258.0 
201.127228 25848.0 
203.106384 5097.0 
205.102524 5186.0 
205.12265 15396.0 
207.116623 48461.0 
207.138016 20615.0 
209.132248 113988.0 
210.141037 3871.0 
211.111435 13108.0 
211.148514 31662.0 
213.127365 31741.0 
215.143188 20395.0 
219.116501 6642.0 
221.132874 27200.0 
223.11055 17172.0 
223.147919 27109.0 
225.126785 51708.0 
225.163773 19528.0 
227.141678 30362.0 
231.137939 21450.0 
233.131958 14366.0 
235.148514 15318.0 
236.153381 4578.0 
237.127136 15764.0 
237.162216 5762.0 
239.142853 55223.0 
239.179382 12109.0 
241.158112 19758.0 
243.137436 13349.0 
243.17392 13973.0 
245.154999 4469.0 
247.148682 28436.0 
248.121719 3891.0 
249.131668 11285.0 
249.16304 101757.0 
250.12645 3150.0 
250.1707 4661.0 
251.142822 71185.0 
251.178864 54904.0 
253.157913 55689.0 
253.72467 3868.0 
261.163513 17788.0 
262.122253 42134.0 
263.14328 14212.0 
263.179504 21024.0 
265.158081 32609.0 
266.167725 3613.0 
267.173737 292237.0 
268.181824 119836.0 
269.15448 23103.0 
269.189209 222237.0 
269.222473 4452.0 
273.16333 22622.0 
279.174225 113409.0 
280.132721 4573.0 
281.153748 27184.0 
281.190063 71444.0 
283.16803 4861.0 
285.184326 18579.0 
286.192749 5423.0 
287.200012 77277.0 
291.173981 111594.0 
294.162537 4892.0 
296.126068 37908.0 
297.184296 275804.0 
299.164612 11740.0 
299.199005 6447.0 
309.142517 6473.0 
309.184204 311676.0 
315.194397 36325.0 
327.194946 544371.0 
329.211121 16341.0 
345.205505 596743.0 
387.176788 120524.0 
387.232574 4820.0 
405.22702 3245790.0 
END IONS

BEGIN IONS
NAME=Isosakuranetin CollisionEnergy:102040 M-H
PRECURSOR_MZ=285.077
INCHI="InChI=1S/C16H14O5/c1-20-11-4-2-9(3-5-11)14-8-13(19)16-12(18)6-10(17)7-15(16)21-14/h2-7,14,17-18H,8H2,1H3/t14-/m0/s1"
SMILES=COc1ccc(C2CC(=O)c3c(O)cc(O)cc3O2)cc1
SPECTRUMID=CCMSLIB00010106307
60.88512 2817.0 
65.002899 4781.0 
69.544571 2238.0 
78.958649 2341.0 
80.170578 2442.0 
83.013771 4802.0 
88.128067 2179.0 
88.314217 2535.0 
104.291397 2444.0 
107.013496 20665.0 
148.956238 2680.0 
151.003586 121272.0 
164.01178 26169.0 
175.076324 12663.0 
182.531723 2434.0 
184.054214 2947.0 
186.032471 3656.0 
187.040573 4270.0 
196.001266 69930.0 
198.068909 12253.0 
199.07634 5028.0 
201.055771 23473.0 
217.087112 4610.0 
226.063095 12766.0 
241.056595 3331.0 
241.087341 35620.0 
243.067047 11382.0 
269.043915 3953.0 
270.053558 102349.0 
285.076904 1135288.0 
END IONS

BEGIN IONS
NAME=N-(4-bromophenyl)-2-[2-oxo-4-(piperidylcarbonyl)hydroquinolyl]acetamide CollisionEnergy:205060 M+formate
PRECURSOR_MZ=512.083
INCHI="InChI=1S/C23H22BrN3O3/c24-16-8-10-17(11-9-16)25-21(28)15-27-20-7-3-2-6-18(20)19(14-22(27)29)23(30)26-12-4-1-5-13-26/h2-3,6-11,14H,1,4-5,12-13,15H2,(H,25,28)"
SMILES=O=C(Cn1c(=O)cc(C(=O)N2CCCCC2)c2ccccc21)Nc1ccc(Br)cc1
SPECTRUMID=CCMSLIB00010125788
51.50922 2357.0 
53.50375 2598.0 
78.91893 3114.0 
118.67527 3874.0 
128.050659 9861.0 
132.889755 2412.0 
157.998108 3052.0 
184.040848 4988.0 
194.303223 2747.0 
255.113983 5160.0 
448.037659 2700.0 
466.076874 31015.0 
517.287537 2429.0 
END IONS

BEGIN IONS
NAME=8-isopentenylnaringenin CollisionEnergy:102040 M-H
PRECURSOR_MZ=339.124
INCHI="InChI=1S/C20H20O5/c1-11(2)3-8-14-15(22)9-16(23)19-17(24)10-18(25-20(14)19)12-4-6-13(21)7-5-12/h3-7,9,18,21-23H,8,10H2,1-2H3"
SMILES=CC(C)=CCc1c(O)cc(O)c2c1OC(c1ccc(O)cc1)CC2=O
SPECTRUMID=CCMSLIB00010104552
58.84343 3124.0 
59.07798 3466.0 
63.023651 6599.0 
65.00293 31100.0 
65.278152 3114.0 
68.99794 4622.0 
82.40403 3949.0 
83.013763 6020.0 
93.034607 130308.0 
104.295052 3194.0 
107.014107 3494.0 
109.065933 16298.0 
110.764313 3624.0 
119.050323 963495.0 
129.071045 3197.0 
131.086899 31753.0 
133.065979 253540.0 
137.024414 20760.0 
145.029526 27432.0 
147.081848 14619.0 
149.061005 19206.0 
149.24675 2982.0 
149.995468 4395.0 
151.076462 148399.0 
163.003693 5560.0 
164.011276 6289.0 
173.694672 3093.0 
175.076508 186924.0 
176.011444 109572.0 
177.018951 23264.0 
177.055893 4088.0 
181.416489 3499.0 
187.039795 12878.0 
189.091858 4150.0 
190.026871 3557.0 
191.071686 47029.0 
193.087479 35270.0 
205.086853 3962.0 
210.165802 5629.0 
210.185226 3482.0 
218.541641 3340.0 
219.06636 1415347.0 
222.016891 13346.0 
233.082092 99406.0 
237.076782 31788.0 
245.081863 115323.0 
253.124344 3822.0 
295.133728 12869.0 
297.114075 12350.0 
321.112549 3636.0 
339.123901 5460097.0 
END IONS

BEGIN IONS
NAME=Magnolol CollisionEnergy:205060 M+H
PRECURSOR_MZ=267.138
INCHI="InChI=1S/C18H18O2/c1-3-5-13-7-9-17(19)15(11-13)16-12-14(6-4-2)8-10-18(16)20/h3-4,7-12,19-20H,1-2,5-6H2"
SMILES=C=CCc1ccc(O)c(-c2cc(CC=C)ccc2O)c1
SPECTRUMID=CCMSLIB00010118280
51.72224 2443.0 
55.018261 2542.0 
59.839401 2243.0 
69.070107 2734.0 
75.628967 2009.0 
76.928307 2498.0 
97.904373 2342.0 
98.983879 4942.0 
107.048828 3258.0 
133.064102 4207.0 
141.069916 3686.0 
145.063248 2533.0 
153.069901 4058.0 
155.085037 3534.0 
161.62439 2009.0 
165.069702 19834.0 
166.076813 2768.0 
167.085251 2505.0 
169.065552 3954.0 
171.078323 2456.0 
172.422852 2521.0 
178.077301 5431.0 
179.085281 17039.0 
180.090561 2861.0 
181.064072 13197.0 
182.072174 14118.0 
183.080078 30626.0 
184.050171 2576.0 
193.064316 14140.0 
193.100922 9771.0 
195.080338 5257.0 
196.089005 8504.0 
197.059464 156261.0 
197.095383 14822.0 
198.067261 12648.0 
198.103516 2639.0 
199.075317 4770.0 
207.080109 28941.0 
208.087082 3809.0 
209.095917 4535.0 
210.067352 50635.0 
211.074951 125306.0 
211.110046 3823.0 
216.093216 5029.0 
219.079636 15063.0 
220.086517 4953.0 
221.095642 11535.0 
223.074478 25022.0 
224.082733 12064.0 
225.09053 49580.0 
226.098557 104933.0 
232.087662 3169.0 
234.103806 3660.0 
237.089508 3867.0 
238.098236 23231.0 
238.125168 2372.0 
239.106064 79471.0 
249.125946 8202.0 
267.13739 285784.0 
END IONS

BEGIN IONS
NAME=D-Galactosamine CollisionEnergy:102040 M+H-H2O
PRECURSOR_MZ=162.076
INCHI="InChI=1S/C6H13NO5/c7-3-5(10)4(9)2(1-8)12-6(3)11/h2-6,8-11H,1,7H2/t2-,3-,4+,5-,6?/m1/s1"
SMILES=N[C@H]1C(O)O[C@H](CO)[C@H](O)[C@@H]1O
SPECTRUMID=CCMSLIB00010103170
56.050201 22286.5 
58.0294 4470.390137 
60.044998 82484.796875 
63.764999 4516.709961 
66.397301 4390.569824 
68.049896 18641.0 
69.034103 45540.898438 
70.065697 35939.398438 
72.044998 1690790.0 
80.049896 42334.5 
81.033897 11188.900391 
84.044899 131948.0 
85.028801 79002.296875 
86.060501 7342.299805 
92.398201 5864.959961 
95.6894 5039.370117 
96.0448 303925.0 
97.028801 42066.101562 
98.060402 121144.0 
102.055 19937.0 
104.305 5711.740234 
108.044998 22876.5 
114.055 21625.400391 
120.964996 16787.199219 
126.044998 8622.240234 
126.055 171070.0 
127.039001 32690.699219 
138.992004 11220.200195 
144.065002 138853.0 
148.649002 4450.089844 
162.076004 316982.0 
END IONS

BEGIN IONS
NAME=L-Lactic acid CollisionEnergy:102040 M-H
PRECURSOR_MZ=89.0244
INCHI="InChI=1S/C3H6O3/c1-2(4)3(5)6/h2,4H,1H3,(H,5,6)/t2-/m0/s1"
SMILES=C[C@H](O)C(=O)O
SPECTRUMID=CCMSLIB00010126335
56.5019 44514.601562 
57.0695 44065.898438 
57.106899 44936.5 
57.557499 47447.101562 
59.244301 50814.5 
71.013496 324898.0 
73.956299 48494.398438 
87.008598 82809.203125 
89.0243 5573130.0 
END IONS

BEGIN IONS
NAME=DL-Lysine CollisionEnergy:102040 M+H
PRECURSOR_MZ=147.113
INCHI="InChI=1S/C6H14N2O2/c7-4-2-1-3-5(8)6(9)10/h5H,1-4,7-8H2,(H,9,10)"
SMILES=NCCCCC(N)C(=O)O
SPECTRUMID=CCMSLIB00010102914
56.0504 8912.30957 
66.740898 2360.580078 
67.055099 9284.200195 
74.024597 2857.290039 
82.398804 2324.360107 
84.081497 1555680.0 
85.065598 4569.379883 
92.885696 2284.120117 
94.0783 2166.790039 
102.092003 8607.80957 
102.246002 2361.860107 
112.075996 5197.299805 
123.964996 12438.0 
129.102005 11302.700195 
130.087006 357367.0 
147.113007 25322.5 
END IONS

BEGIN IONS
NAME=methyl (2Z)-3-(4-acetyloxy-3-methoxyphenyl)-2-cyanoprop-2-enoate CollisionEnergy:205060 M+K
PRECURSOR_MZ=314.043
INCHI="InChI=1S/C14H13NO5/c1-9(16)20-12-5-4-10(7-13(12)18-2)6-11(8-15)14(17)19-3/h4-7H,1-3H3/b11-6-"
SMILES=COC(=O)C(C#N)=Cc1ccc(OC(C)=O)c(OC)c1
SPECTRUMID=CCMSLIB00010118369
53.039028 23834.0 
53.18259 14269.0 
55.01833 177571.0 
60.546711 14372.0 
61.758739 14731.0 
62.628479 14332.0 
65.038963 176036.0 
66.034264 17378.0 
66.04644 16832.0 
67.018143 32810.0 
68.049591 24212.0 
68.997414 89252.0 
69.033699 36465.0 
72.575607 13009.0 
72.984444 147619.0 
77.038116 15620.0 
78.033592 20443.0 
79.017738 23088.0 
79.054207 87022.0 
80.049561 29719.0 
81.033531 79468.0 
82.403679 15802.0 
83.012894 37626.0 
84.020271 16759.0 
85.028633 14806.0 
85.991798 32889.0 
86.249451 17961.0 
86.963287 75513.0 
86.999893 120586.0 
88.978943 19405.0 
90.033836 19502.0 
91.042 16915.0 
91.054237 31015.0 
92.049522 35025.0 
92.997231 23324.0 
93.033333 23037.0 
94.028442 16459.0 
94.040993 35006.0 
95.048973 82264.0 
96.044456 23107.0 
97.02832 28542.0 
98.036041 25765.0 
98.999519 629610.0 
100.006477 17227.0 
100.978561 82613.0 
101.003418 17435.0 
101.015022 16927.0 
104.049187 103993.0 
105.033302 79795.0 
106.02784 20618.0 
106.064888 30280.0 
107.012253 16804.0 
107.048737 33102.0 
108.044159 23309.0 
108.057198 55330.0 
109.027908 62656.0 
110.036339 25102.0 
112.978523 28044.0 
113.015106 245652.0 
113.986366 62759.0 
114.010513 292874.0 
114.994209 169801.0 
115.989037 14774.0 
116.001907 19880.0 
116.049026 25087.0 
119.035744 18932.0 
120.04393 111706.0 
121.029053 15154.0 
122.99807 17111.0 
123.043694 27982.0 
123.994492 15733.0 
124.039719 20519.0 
124.051231 16084.0 
125.014977 23334.0 
126.010063 103140.0 
126.994347 141411.0 
127.017998 18891.0 
127.990868 14064.0 
128.003036 18192.0 
128.025726 29497.0 
128.973724 27034.0 
128.998047 27701.0 
129.009781 280895.0 
130.004318 23100.0 
130.989166 18200.0 
131.025467 18747.0 
132.044144 135522.0 
133.028107 31478.0 
133.051834 73959.0 
134.023499 15695.0 
134.035614 22926.0 
134.059601 66423.0 
136.038803 59804.0 
136.455139 14702.0 
137.058731 34230.0 
138.05632 19301.0 
138.067078 157034.0 
138.994049 35629.0 
139.018585 14473.0 
139.965012 22295.0 
139.989548 62147.0 
140.00116 26015.0 
140.972565 32603.0 
140.997452 54407.0 
141.009842 242707.0 
141.982773 21724.0 
142.005219 656852.0 
142.017609 34499.0 
142.989227 351992.0 
143.013504 25753.0 
143.025436 81609.0 
144.020615 165563.0 
144.99353 15837.0 
145.004913 97161.0 
145.999802 28933.0 
146.023178 67529.0 
146.05957 23039.0 
148.038879 118647.0 
149.046677 36660.0 
150.054459 26734.0 
151.038712 64326.0 
152.997147 32978.0 
154.005066 276868.0 
154.988968 122662.0 
155.012924 23304.0 
155.983551 33118.0 
156.02092 75136.0 
156.968765 33340.0 
157.004211 160430.0 
157.976746 27428.0 
157.999634 24892.0 
158.013138 59789.0 
159.020096 28179.0 
160.039062 161022.0 
161.046661 27312.0 
162.055267 114511.0 
163.038605 19322.0 
164.033508 56807.0 
165.041519 17927.0 
166.005264 65377.0 
166.049744 21249.0 
166.989227 104286.0 
167.012589 33237.0 
167.057755 64314.0 
167.984329 63302.0 
167.997665 19085.0 
168.020508 83827.0 
168.990799 126059.0 
169.0065 130994.0 
169.977188 18441.0 
169.98262 18144.0 
169.999954 340747.0 
170.983841 367569.0 
171.006226 24748.0 
171.020813 141318.0 
171.991196 72915.0 
172.016586 18547.0 
172.039566 16494.0 
172.985336 18468.0 
173.000107 150560.0 
173.036148 75547.0 
175.039139 62281.0 
176.033081 108357.0 
177.041183 70781.0 
178.050049 127001.0 
179.01387 28237.0 
179.057159 26342.0 
179.985291 17921.0 
180.041382 34310.0 
181.999817 368129.0 
182.983902 61877.0 
183.007431 139977.0 
183.992661 63749.0 
184.015793 73957.0 
184.962814 16901.0 
185.000671 187546.0 
185.994308 154067.0 
186.011124 142082.0 
186.979248 69496.0 
187.000641 22680.0 
188.034164 75879.0 
188.995178 65790.0 
189.041794 70227.0 
190.049454 98668.0 
191.057709 60267.0 
191.98494 19577.0 
192.026016 31151.0 
192.043411 34029.0 
192.06575 62804.0 
194.000412 88082.0 
194.044479 85111.0 
195.007812 129927.0 
195.066452 109384.0 
195.97876 243450.0 
196.014633 158887.0 
196.983459 43122.0 
196.999802 115821.0 
197.973663 24077.0 
197.994354 477380.0 
198.029434 22407.0 
198.978622 213164.0 
199.002335 203845.0 
199.017807 78342.0 
199.986862 892432.0 
200.008255 66354.0 
200.99498 852207.0 
201.014557 31546.0 
201.030838 20106.0 
201.988968 317970.0 
202.006027 18161.0 
202.025085 18889.0 
203.056656 17962.0 
204.029129 35618.0 
205.036591 93219.0 
206.043289 185476.0 
207.007401 69612.0 
207.052048 98937.0 
207.979553 104889.0 
208.014725 32170.0 
208.985291 23730.0 
209.994919 551785.0 
210.029449 47827.0 
210.075195 18324.0 
210.978989 1015378.0 
211.002716 532331.0 
211.722748 19688.0 
211.972641 159868.0 
212.009781 185533.0 
212.98111 146363.0 
212.996033 132953.0 
213.01857 89894.0 
214.002304 1108602.0 
214.026108 306077.0 
215.010788 279064.0 
216.003876 294525.0 
216.018646 443807.0 
217.01297 64581.0 
217.034836 45280.0 
218.044205 231302.0 
219.052383 31948.0 
220.024017 27290.0 
220.060242 252432.0 
221.067657 60669.0 
221.994736 974806.0 
222.039078 107923.0 
222.979645 30291.0 
223.002457 330327.0 
223.972061 23708.0 
223.986679 20233.0 
224.01033 603526.0 
224.981033 430727.0 
225.019547 66324.0 
225.989487 3192715.0 
226.973267 64714.0 
226.996201 533145.0 
228.003586 436089.0 
229.013336 285388.0 
229.026306 217715.0 
230.021225 21390.0 
230.044327 64161.0 
231.029251 128893.0 
232.036591 22589.0 
233.031372 28033.0 
234.039398 75857.0 
235.047577 32604.0 
236.010742 191028.0 
236.053818 145278.0 
237.018021 432312.0 
237.061066 27295.0 
237.989288 685416.0 
238.025787 71319.0 
238.995377 118057.0 
240.005173 3296278.0 
241.013062 7887077.0 
241.984894 80470.0 
242.02121 107496.0 
242.9935 78704.0 
244.037033 150920.0 
246.039062 96492.0 
247.046249 87665.0 
248.055969 116405.0 
249.988922 210824.0 
250.997513 76587.0 
252.005234 371289.0 
252.976929 3521122.0 
253.01265 1068104.0 
253.988495 53738.0 
254.02034 296255.0 
255.029099 222045.0 
256.000549 224196.0 
256.036652 756151.0 
257.005615 54410.0 
259.036713 33538.0 
264.006012 21858.0 
264.049591 124350.0 
265.012634 294231.0 
265.990967 34581.0 
268.000183 10440479.0 
270.015717 141186.0 
278.064331 154489.0 
279.073395 319993.0 
280.001282 20088.0 
281.008087 443568.0 
283.023102 128429.0 
283.995117 151525.0 
284.031769 229545.0 
296.030548 26817.0 
298.012115 24372.0 
299.01825 2528940.0 
314.041718 21004336.0 
END IONS

BEGIN IONS
NAME=2-[6-hydroxy-2-(4-hydroxy-3-methoxyphenyl)-3-azabicyclo[4.4.0]dec-3-yl]-N-(4-m ethylphenyl)acetamide CollisionEnergy:205060 M+H
PRECURSOR_MZ=425.243
INCHI="InChI=1S/C25H32N2O4/c1-17-6-9-19(10-7-17)26-23(29)16-27-14-13-25(30)12-4-3-5-20(25)24(27)18-8-11-21(28)22(15-18)31-2/h6-11,15,20,24,28,30H,3-5,12-14,16H2,1-2H3,(H,26,29)"
SMILES=COc1cc(C2C3CCCCC3(O)CCN2CC(=O)Nc2ccc(C)cc2)ccc1O
SPECTRUMID=CCMSLIB00010118444
55.05497 4464.0 
56.05003 729821.0 
65.039093 23448.0 
67.054703 332727.0 
69.070236 5643.0 
70.065483 3938.0 
70.566399 3312.0 
79.054512 45141.0 
80.04966 5308.0 
81.070251 72689.0 
82.065292 5083.0 
82.405228 4189.0 
84.044693 70187.0 
84.598602 3289.0 
85.033028 3194.0 
91.054489 90663.0 
93.057579 29882.0 
93.063087 3535.0 
93.070084 25488.0 
94.041206 15485.0 
95.048988 4758.0 
95.085548 5521.0 
103.054688 29132.0 
103.280151 3736.0 
104.049301 23054.0 
105.069511 4772.0 
107.049004 7050.0 
107.085541 34619.0 
107.802544 3908.0 
108.080849 1182604.0 
109.065033 50656.0 
109.101257 96343.0 
110.060059 7829.0 
111.04493 4670.0 
115.054443 5009.0 
117.069748 7340.0 
118.065262 19982.0 
119.073608 3688.0 
119.07531 4508.0 
119.085457 55744.0 
120.080887 4557891.0 
122.036568 32236.0 
122.096451 7463.0 
125.059357 3983.0 
129.069809 59398.0 
131.049316 76703.0 
132.044449 19269.0 
132.081619 4465.0 
133.064209 3746.0 
134.096497 339377.0 
135.10463 4067.0 
136.112289 112298.0 
137.059814 1111873.0 
141.070297 5297.0 
142.26825 3443.0 
143.049057 16279.0 
143.085251 7083.0 
145.064758 15187.0 
146.060471 3706.0 
146.096481 5024.0 
147.092392 5042.0 
148.052322 16647.0 
148.075836 45946.0 
148.112 8771.0 
151.075729 26376.0 
153.054276 16295.0 
155.08609 4255.0 
157.064865 67008.0 
157.101883 15134.0 
159.091751 22733.0 
160.052246 5280.0 
161.059631 8053.0 
163.061523 6426.0 
163.075439 91356.0 
164.070557 124037.0 
165.102325 404469.0 
169.065659 4691.0 
171.080475 8732.0 
171.116882 51716.0 
175.074158 33450.0 
177.102341 959794.0 
181.101044 4611.0 
183.116974 8524.0 
185.096481 29886.0 
187.075333 24664.0 
189.091095 66169.0 
191.117935 1032711.0 
192.065857 4285.0 
199.112411 46189.0 
211.11145 16219.0 
229.121384 5811.0 
230.117752 23443.0 
231.138016 98883.0 
240.137482 16097.0 
241.14743 5912.0 
242.116302 6506.0 
243.137817 73645.0 
243.217148 3915.0 
244.133286 19386.0 
248.167053 4012.0 
257.140503 41322.0 
258.14801 31117.0 
259.15564 4437.0 
271.180969 56495.0 
272.164398 131802.0 
290.175201 35996.0 
290.441956 3447.0 
299.138092 50648.0 
367.088501 3774.0 
394.68042 3431.0 
407.232758 1376266.0 
425.243164 1999594.0 
END IONS

BEGIN IONS
NAME="(3,5-dimethoxyphenyl)-N-(2-methyl-3-oxo(2H,4H-benzo[3,4-e]1,4-oxazin-6-yl))car boxamide CollisionEnergy:102040" M+H
PRECURSOR_MZ=343.129
INCHI="InChI=1S/C18H18N2O5/c1-10-17(21)20-15-8-12(4-5-16(15)25-10)19-18(22)11-6-13(23-2)9-14(7-11)24-3/h4-10H,1-3H3,(H,19,22)(H,20,21)"
SMILES=COc1cc(OC)cc(C(O)=Nc2ccc3c(c2)N=C(O)C(C)O3)c1
SPECTRUMID=CCMSLIB00010111352
53.039089 6033.0 
55.018311 5115.0 
59.157982 3819.0 
66.733879 3469.0 
68.025932 7079.0 
73.792503 3702.0 
79.018257 4533.0 
79.054428 17475.0 
81.033867 4806.0 
92.025909 4789.0 
94.041077 8180.0 
95.04908 6244.0 
107.048927 16762.0 
108.057114 5859.0 
109.064697 26305.0 
118.327698 3215.0 
122.036087 133184.0 
122.059807 4546.0 
123.054916 17756.0 
124.051773 608208.0 
125.059647 63064.0 
134.024124 28214.0 
134.059723 32901.0 
135.055099 16793.0 
136.192535 4634.0 
137.059753 46337.0 
139.075226 1343788.0 
149.071442 27699.0 
152.070572 5922.0 
155.070084 1105736.0 
158.444427 4104.0 
162.05423 37789.0 
163.050491 8321.0 
164.070786 7793.0 
164.506439 4229.0 
165.054489 6349335.0 
165.603989 4139.0 
166.058075 14931.0 
177.065659 504318.0 
178.085999 9732.0 
180.06488 32824.0 
182.08136 6594.0 
187.050003 24434.0 
205.060516 270721.0 
210.911636 4535.0 
297.120026 4918.0 
298.108276 31773.0 
311.102478 9075.0 
315.133057 716592.0 
325.117126 127972.0 
326.10022 19063.0 
327.101135 6316.0 
328.104614 26443.0 
341.115479 5966.0 
341.48822 7274.0 
343.128174 13454639.0 
344.782074 6012.0 
END IONS

BEGIN IONS
NAME=Citreoviridin CollisionEnergy:102040 M+H
PRECURSOR_MZ=403.212
INCHI="InChI=1S/C23H30O6/c1-15(14-22(4)21(25)23(5,26)17(3)29-22)11-9-7-8-10-12-18-16(2)19(27-6)13-20(24)28-18/h7-14,17,21,25-26H,1-6H3/b8-7+,11-9+,12-10+,15-14+"
SMILES=COc1cc(=O)oc(C=CC=CC=CC(C)=CC2(C)OC(C)C(C)(O)C2O)c1C
SPECTRUMID=CCMSLIB00010111601
51.00198 2547.0 
67.05442 12665.0 
68.198219 3150.0 
71.049454 121739.0 
73.064758 6128.0 
78.492607 2825.0 
79.054199 18661.0 
81.070007 29796.0 
83.043861 5048.0 
83.049294 131021.0 
85.064949 33481.0 
89.059837 200359.0 
91.054169 24587.0 
93.069656 19151.0 
95.085571 50556.0 
97.064857 32735.0 
99.080307 6699.0 
101.059212 3361.0 
105.069687 44525.0 
107.085342 37233.0 
109.028099 5446.0 
109.064796 62974.0 
111.044006 6075.0 
111.080269 4918.0 
113.059288 3790.0 
115.053917 6210.0 
117.069618 14306.0 
119.049004 13952.0 
119.085228 44469.0 
121.064507 7235.0 
121.100891 4372.0 
121.318237 2744.0 
123.080292 32056.0 
125.059303 25699.0 
125.094742 4802.0 
127.038513 4067.0 
127.075287 37387.0 
128.06192 15576.0 
129.069458 17038.0 
131.08548 57694.0 
133.065216 7066.0 
133.100815 40301.0 
135.080582 22533.0 
137.096191 38413.0 
139.038879 496706.0 
141.054657 12336.0 
141.069016 3463.0 
142.077118 3098.0 
143.085403 169398.0 
144.092987 13401.0 
145.065582 6677.0 
145.085922 70217.0 
145.100525 13731.0 
147.079971 12205.0 
149.096832 12580.0 
151.075317 52088.0 
153.053864 4958.0 
154.062286 7004.0 
155.069794 13729.0 
157.101212 37773.0 
159.080582 16629.0 
161.060165 6367.0 
161.095825 62802.0 
163.074875 12241.0 
165.054199 11832.0 
165.09079 43103.0 
167.070129 107256.0 
167.085434 11426.0 
169.101288 4511.0 
173.059097 3379.0 
173.095093 6497.0 
174.067291 13037.0 
175.074997 13559.0 
175.11171 13783.0 
177.053711 5414.0 
177.090958 12291.0 
179.070114 52391.0 
179.0858 9845.0 
181.085754 11221.0 
181.101471 7164.0 
183.081299 3408.0 
185.096542 24836.0 
187.110535 3226.0 
189.089981 3767.0 
191.070007 80467.0 
192.076981 3499.0 
193.08551 95843.0 
193.102112 6586.0 
194.108749 13950.0 
195.081223 3470.0 
195.116562 16703.0 
199.111511 5450.0 
203.070282 4654.0 
203.106094 14253.0 
204.094925 3273.0 
205.085587 41342.0 
205.104736 4882.0 
206.090393 7481.0 
206.108704 16119.0 
207.116211 4305.0 
209.079788 12514.0 
209.131851 20439.0 
211.111221 5868.0 
212.08139 4101.0 
213.127228 6482.0 
217.085297 25030.0 
219.100449 16733.0 
219.117599 16628.0 
221.079987 51680.0 
221.132263 23185.0 
222.102539 5765.0 
223.111633 6796.0 
225.126663 3474.0 
226.132996 4458.0 
227.106506 5312.0 
229.12207 4330.0 
231.137238 3285.0 
235.09407 3929.0 
237.12677 24396.0 
237.199799 3933.0 
238.135513 22161.0 
239.10611 4462.0 
239.14209 4199.0 
241.158203 3680.0 
243.101913 5607.0 
245.116837 4995.0 
247.112122 5606.0 
251.142014 15641.0 
253.159073 6569.0 
254.130295 3678.0 
255.101501 16015.0 
255.137573 4553.0 
257.117249 16058.0 
259.132111 97673.0 
263.646545 3646.0 
264.113739 6608.0 
265.122375 23478.0 
269.11853 4305.0 
269.151337 22322.0 
271.133301 4050.0 
279.13678 14774.0 
283.132111 5520.0 
285.111511 6480.0 
285.147949 250573.0 
287.165161 25142.0 
297.147827 378676.0 
299.16571 5658.0 
313.141266 19576.0 
315.158356 274168.0 
341.173706 12890.0 
403.210785 2760324.0 
END IONS

BEGIN IONS
NAME=4-hydroxy-7-methoxy-3-nitrochromen-2-one CollisionEnergy:205060 M-H
PRECURSOR_MZ=236.02
INCHI="InChI=1S/C10H7NO6/c1-16-5-2-3-6-7(4-5)17-10(13)8(9(6)12)11(14)15/h2-4,12H,1H3"
SMILES=COc1ccc2c(O)c([N+](=O)[O-])c(=O)oc2c1
SPECTRUMID=CCMSLIB00010119964
74.81395 2275.0 
87.925209 99213.0 
99.925972 3464.0 
102.948936 82594.0 
103.920349 228899.0 
104.928146 16711.0 
105.936111 20187.0 
106.943527 4202.0 
115.272614 2672.0 
119.915047 10005.0 
123.165192 2389.0 
123.946701 37096.0 
136.215225 2699.0 
146.598999 2484.0 
146.938782 62778.0 
157.973846 3174.0 
190.928329 13491.0 
236.02034 417810.0 
259.859039 2558.0 
END IONS

BEGIN IONS
NAME=Bilobalide CollisionEnergy:205060 M+H
PRECURSOR_MZ=327.107
INCHI="InChI=1S/C15H18O8/c1-12(2,3)14(20)4-6-13(5-7(16)21-6)10(19)23-11-15(13,14)8(17)9(18)22-11/h6,8,11,17,20H,4-5H2,1-3H3/t6-,8-,11-,13-,14+,15+/m0/s1"
SMILES=CC(C)(C)C1(O)CC2OC(=O)CC23C(=O)OC2OC(=O)C(O)C231
SPECTRUMID=CCMSLIB00010122039
52.109119 2468.0 
53.03912 5386.0 
54.392399 2309.0 
57.070381 159775.0 
57.75631 2621.0 
59.049671 15238.0 
67.05468 3222.0 
69.033913 5240.0 
69.070412 2478.0 
69.562157 2739.0 
70.503227 2711.0 
74.156754 2644.0 
77.093948 2430.0 
79.054527 22492.0 
81.033684 5991.0 
83.085663 13608.0 
91.054382 27986.0 
93.070053 39454.0 
95.049141 2786.0 
98.984238 105289.0 
104.277046 2834.0 
105.069946 42215.0 
107.049202 19702.0 
107.085457 17429.0 
109.02787 3167.0 
109.10112 4485.0 
111.08049 85386.0 
117.069817 15926.0 
117.078117 2417.0 
118.647179 3071.0 
119.048241 2853.0 
119.085587 55732.0 
121.064651 36203.0 
121.101151 19763.0 
123.043961 12704.0 
123.080849 2593.0 
125.023483 3742.0 
128.06192 3796.0 
129.07019 4885.0 
129.091064 11122.0 
130.077576 11941.0 
131.048676 4574.0 
131.085587 14338.0 
133.028305 17026.0 
133.064789 17810.0 
133.101105 80973.0 
135.043732 19813.0 
135.08049 3255.0 
135.116882 58945.0 
137.096527 5999.0 
142.07811 4229.0 
143.085068 29110.0 
145.065155 4910.0 
145.101166 57760.0 
147.080139 19901.0 
149.059692 86108.0 
149.072495 4497.0 
149.095856 5086.0 
151.002594 3846.0 
151.039337 17676.0 
151.075195 3575.0 
153.017929 17638.0 
155.08577 12847.0 
157.10083 3871.0 
158.072144 5851.0 
159.080231 5786.0 
161.022552 3665.0 
161.059814 4985.0 
161.096313 47782.0 
163.03862 4004.0 
163.111572 27725.0 
167.070923 5204.0 
171.080276 28277.0 
173.096237 68719.0 
174.992111 15693.0 
175.075104 12513.0 
177.054474 4010.0 
177.091019 3581.0 
179.033752 5984.0 
179.106705 20345.0 
183.08107 3407.0 
189.091156 50089.0 
191.106796 43689.0 
193.713074 2850.0 
195.064697 3725.0 
199.075897 20573.0 
201.091812 18968.0 
203.106537 2850.0 
207.101929 27296.0 
209.117874 3434.0 
217.085556 22575.0 
219.100967 10913.0 
220.631668 3050.0 
225.039169 20108.0 
227.069641 5143.0 
235.095963 46139.0 
237.111115 14446.0 
245.080566 15505.0 
247.096893 4142.0 
251.055328 15727.0 
253.108734 4359.0 
263.09137 16786.0 
265.106476 17156.0 
269.066254 4520.0 
269.097168 3641.0 
273.075073 12592.0 
281.102264 11825.0 
283.118042 17330.0 
291.08609 22855.0 
309.096497 194686.0 
327.10556 107088.0 
327.141754 121442.0 
END IONS

BEGIN IONS
NAME=2'-Hydroxy-.beta.-naphthoflavone CollisionEnergy:102040 2M-H
PRECURSOR_MZ=575.15
INCHI="InChI=1S/C19H12O3/c20-15-8-4-3-7-14(15)18-11-16(21)19-13-6-2-1-5-12(13)9-10-17(19)22-18/h1-11,20H"
SMILES=O=c1cc(-c2ccccc2O)oc2ccc3ccccc3c12
SPECTRUMID=CCMSLIB00010103927
56.182369 2249.0 
58.116779 2490.0 
69.284348 3274.0 
73.956734 2497.0 
84.028183 3007.0 
92.380569 3461.0 
125.879669 2881.0 
136.217896 2874.0 
173.236084 2410.0 
287.072693 11717.0 
END IONS

BEGIN IONS
NAME=Polygris CollisionEnergy:205060 M+H
PRECURSOR_MZ=353.079
INCHI="InChI=1S/C17H17ClO6/c1-8-5-9(19)6-12(23-4)17(8)16(20)13-10(21-2)7-11(22-3)14(18)15(13)24-17/h6-8H,5H2,1-4H3"
SMILES=COC1=CC(=O)CC(C)C12Oc1c(Cl)c(OC)cc(OC)c1C2=O
SPECTRUMID=CCMSLIB00010118944
51.777279 3302.0 
53.00272 21871.0 
53.039089 7631.0 
65.038918 13230.0 
66.50592 2935.0 
68.997498 37799.0 
69.033836 2146539.0 
69.070457 5811.0 
79.054459 52109.0 
81.070213 16161.0 
86.999763 4985.0 
91.0541 6937.0 
94.041389 14197.0 
95.049141 30140.0 
98.999527 16024.0 
99.044037 23689.0 
102.994232 6588.0 
107.012817 4315.0 
107.049004 76268.0 
109.064697 34584.0 
113.251381 3123.0 
114.994461 5175.0 
119.049278 4003.0 
121.063873 3613.0 
122.036118 182577.0 
123.043823 13451.0 
125.059174 23581.0 
126.99453 5671.0 
128.974014 4335.0 
129.009979 17331.0 
135.043961 16182.0 
135.054489 9624.0 
136.209595 3306.0 
137.05954 19602.0 
139.074692 4302.0 
141.981201 14272.0 
142.989136 4702.0 
143.997574 5762.0 
147.712769 3355.0 
150.031097 70414.0 
156.968262 11253.0 
159.02063 12635.0 
161.059402 5422.0 
162.067001 22561.0 
165.05452 1909873.0 
168.041672 54041.0 
169.005219 3926.0 
169.041199 4617.0 
169.976196 6934.0 
170.983627 7370.0 
171.99205 132453.0 
175.015564 11789.0 
182.983536 7352.0 
183.064987 21925.0 
184.999969 5532.0 
187.015579 7170.0 
187.986679 15827.0 
188.994995 16108.0 
190.061325 5070.0 
196.028198 4345.0 
197.037018 30617.0 
199.986816 136696.0 
207.064331 17795.0 
210.009033 4680.0 
211.014816 5689.0 
215.010284 1396483.0 
217.99733 256409.0 
218.021606 7348.0 
221.083252 3634.0 
222.088272 3312.0 
224.023315 147018.0 
225.030899 11459.0 
226.038467 13504.0 
227.009735 14306.0 
229.02594 5172.0 
230.093033 4371.0 
235.01413 7765.0 
241.026093 29625.0 
242.03302 4878.0 
242.057495 21247.0 
243.064377 7279.0 
249.029999 4361.0 
250.038315 12206.0 
252.018219 25770.0 
253.02562 24927.0 
255.005142 12600.0 
255.036163 4471.0 
257.057007 16191.0 
263.009827 6730.0 
264.018188 21298.0 
265.062225 23000.0 
266.979767 3303.0 
269.020081 3541.0 
270.028442 151782.0 
276.017212 4932.0 
277.025543 58538.0 
278.034241 26375.0 
279.041626 23801.0 
281.021484 4910.0 
283.036194 14225.0 
285.051849 693063.0 
293.056641 37183.0 
296.007751 4981.0 
305.02121 3419.0 
306.027405 22404.0 
311.03186 5346.0 
311.067719 38950.0 
321.051544 98760.0 
353.077942 1362068.0 
353.174408 34929.0 
353.227081 19858.0 
END IONS

BEGIN IONS
NAME=N-(3-chloro-2-methylphenyl)-2-(9-methyl-6-oxohydropurin-8-ylthio)acetamide CollisionEnergy:205060 M+H
PRECURSOR_MZ=364.063
INCHI="InChI=1S/C15H14ClN5O2S/c1-8-9(16)4-3-5-10(8)19-11(22)6-24-15-20-12-13(21(15)2)17-7-18-14(12)23/h3-5,7H,6H2,1-2H3,(H,19,22)(H,17,18,23)"
SMILES=Cc1c(Cl)cccc1N=C(O)CSc1nc2c(O)ncnc2n1C
SPECTRUMID=CCMSLIB00010123580
57.045269 31567.0 
58.995461 20170.0 
81.044746 4626.0 
84.985489 58181.0 
86.006073 14452.0 
86.951302 4154.0 
91.054451 24049.0 
92.38459 4280.0 
94.040337 4851.0 
98.005943 6122.0 
104.294983 5877.0 
106.040047 24742.0 
107.024063 28919.0 
108.055733 36794.0 
110.034828 15545.0 
111.042892 19639.0 
113.016167 6442.0 
117.05722 19878.0 
118.065308 46982.0 
119.072731 99721.0 
124.05056 51257.0 
125.015877 35024.0 
126.001717 5012.0 
126.011879 17592.0 
126.021538 4551.0 
127.030937 23705.0 
130.065186 73728.0 
133.050903 33990.0 
134.034805 8327.0 
136.037216 5400.0 
137.045715 253178.0 
137.084518 4024.0 
139.030594 9124.0 
139.991394 121341.0 
140.026718 31318.0 
141.011078 5799.0 
141.03392 15183.0 
142.042145 5271.0 
146.060684 6750.0 
147.029633 5057.0 
147.054291 6384.0 
147.06778 246750.0 
149.045746 303894.0 
150.012466 15932.0 
150.053558 431477.0 
150.996246 105598.0 
151.061401 926698.0 
152.026657 84285.0 
153.011261 5805.0 
153.022873 41241.0 
154.007736 31724.0 
154.041672 349577.0 
161.045853 55180.0 
162.053497 221650.0 
163.061279 344589.0 
164.025787 59391.0 
165.034042 107667.0 
167.013763 5308.0 
168.022491 233200.0 
170.038681 40415.0 
177.022598 31334.0 
179.056366 24902.0 
180.021301 90091.0 
181.017731 2638317.0 
182.024353 38848.0 
183.032974 56038.0 
186.032806 32020.0 
193.016891 5529.0 
195.033417 6824271.0 
195.997849 4410.0 
213.043747 81150.0 
222.043655 38703.0 
223.028229 8123377.0 
236.060181 66158.0 
255.090897 5828.0 
311.083527 6654.0 
346.051056 67342.0 
364.062408 380344.0 
END IONS

BEGIN IONS
NAME=hesperidin CollisionEnergy:205060 M+Cl
PRECURSOR_MZ=645.159
INCHI="InChI=1S/C28H34O15/c1-10-21(32)23(34)25(36)27(40-10)39-9-19-22(33)24(35)26(37)28(43-19)41-12-6-14(30)20-15(31)8-17(42-18(20)7-12)11-3-4-16(38-2)13(29)5-11/h3-7,10,17,19,21-30,32-37H,8-9H2,1-2H3/t10-,17-,19+,21-,22+,23+,24-,25+,26+,27+,28+/m0/s1"
SMILES=COc1ccc(C2CC(=O)c3c(O)cc(OC4OC(COC5OC(C)C(O)C(O)C5O)C(O)C(O)C4O)cc3O2)cc1O
SPECTRUMID=CCMSLIB00010124716
54.083 2674.0 
73.97213 3207.0 
83.013763 3456.0 
92.402313 4313.0 
104.311028 2914.0 
107.013977 5684.0 
125.024193 7160.0 
134.037643 12398.0 
136.016754 4701.0 
146.961578 6053.0 
149.061554 6033.0 
151.003036 35730.0 
158.006638 3378.0 
164.012177 13793.0 
174.032303 6808.0 
174.955597 4255.0 
180.536896 3419.0 
196.000702 41061.0 
199.03981 14169.0 
200.046616 3570.0 
201.019379 14241.0 
214.060394 3110.0 
215.036133 4233.0 
241.050095 4364.0 
242.058472 22091.0 
257.082306 11244.0 
258.054901 4342.0 
268.041718 2852.0 
286.04892 21923.0 
299.057831 3362.0 
301.071259 269438.0 
304.91275 5321.0 
394.535339 2983.0 
473.198975 3090.0 
609.182983 98590.0 
END IONS

BEGIN IONS
NAME=ethyl 1-(2-ethoxyethyl)-5-hydroxy-2-methylbenzo[g]indole-3-carboxylate CollisionEnergy:102040 M-e
PRECURSOR_MZ=341.162
INCHI="InChI=1S/C20H23NO4/c1-4-24-11-10-21-13(3)18(20(23)25-5-2)16-12-17(22)14-8-6-7-9-15(14)19(16)21/h6-9,12,22H,4-5,10-11H2,1-3H3"
SMILES=CCOCCn1c(C)c(C(=O)OCC)c2cc(O)c3ccccc3c21
SPECTRUMID=CCMSLIB00010109437
50.734459 2466.0 
73.064919 6552.0 
82.402267 2750.0 
83.979622 2473.0 
85.216949 2779.0 
101.610443 2639.0 
122.186989 2678.0 
196.075592 84696.0 
196.109344 4635.0 
197.083313 11009.0 
209.005661 5393.0 
209.083282 75814.0 
210.09111 237442.0 
222.092026 5773.0 
223.06282 55096.0 
223.099319 29369.0 
224.106491 83261.0 
225.11058 15611.0 
236.070541 38538.0 
238.122375 240698.0 
240.064667 6055.0 
241.072784 24539.0 
241.104538 16054.0 
250.086075 23343.0 
251.0914 11937.0 
254.080795 101388.0 
266.081757 5463.0 
268.096008 41753.0 
268.130554 12135.0 
269.104034 111190.0 
269.136993 5622.0 
282.112 466852.0 
295.119202 5407.0 
296.12558 33544.0 
297.131439 46694.0 
312.122253 4981.0 
313.128571 41855.0 
341.161041 3707110.0 
342.168701 5122.0 
END IONS

BEGIN IONS
NAME="1-{[(3-(2-furyl)-1-methylpropyl)amino]methylene}-7-(8-{[(3-(2-furyl)-1-methylp ropyl)amino]methylene}-1,6-dihydroxy-3-methyl-5-(methylethyl)-7-oxo(2-naphthyl ))-3,8-dihydroxy-6-methyl-4-(methylethyl)naphthalen-2-one CollisionEnergy:102040" M+H
PRECURSOR_MZ=761.38
INCHI="InChI=1S/C46H52N2O8/c1-23(2)35-31-19-25(5)37(43(51)39(31)33(41(49)45(35)53)21-47-27(7)13-15-29-11-9-17-55-29)38-26(6)20-32-36(24(3)4)46(54)42(50)34(40(32)44(38)52)22-48-28(8)14-16-30-12-10-18-56-30/h9-12,17-24,27-28,47-48,51-54H,13-16H2,1-8H3/b33-21-,34-22-"
SMILES=Cc1cc2c(c(O)c1-c1c(C)cc3c(c1O)C(=CNC(C)CCc1ccco1)C(=O)C(O)=C3C(C)C)C(=CNC(C)CCc1ccco1)C(=O)C(O)=C2C(C)C
SPECTRUMID=CCMSLIB00010114132
53.039001 4569.0 
77.405724 3831.0 
80.947304 5952.0 
81.033798 217951.0 
81.038834 8517.0 
84.044128 4643.0 
90.976181 15955.0 
92.369797 5928.0 
94.065331 4888.0 
95.084953 19201.0 
104.279747 4273.0 
122.095734 7617.0 
123.080391 138035.0 
132.480469 4151.0 
138.090515 18913.0 
139.301926 4049.0 
140.106995 678400.0 
150.089813 4899.0 
158.96344 6132.0 
212.689011 3537.0 
213.089951 3845.0 
216.922928 7661.0 
226.949768 17001.0 
231.100815 6191.0 
242.092255 5101.0 
243.101105 45493.0 
258.110809 24218.0 
333.782104 4082.0 
380.185272 5212.0 
382.608093 3971.0 
400.748566 4334.0 
420.884766 13633.0 
441.130493 5823.0 
443.150818 6087.0 
457.197327 5225.0 
458.162506 4360.0 
465.172089 6631.0 
467.148804 18919.0 
468.156433 32517.0 
470.170654 5348.0 
473.196564 44925.0 
482.172638 17204.0 
483.17984 771239.0 
485.194214 31038.0 
500.205841 157459.0 
556.861633 7054.0 
622.279419 1680338.0 
761.379272 884581.0 
END IONS

BEGIN IONS
NAME=Eupatorin-5-methylether CollisionEnergy:102040 M+Na
PRECURSOR_MZ=381.094
INCHI="InChI=1S/C19H18O7/c1-22-13-6-5-10(7-11(13)20)14-8-12(21)17-15(26-14)9-16(23-2)18(24-3)19(17)25-4/h5-9,20H,1-4H3"
SMILES=COc1ccc(-c2cc(=O)c3c(OC)c(OC)c(OC)cc3o2)cc1O
SPECTRUMID=CCMSLIB00010104880
59.98814 4096.0 
61.146389 3216.0 
64.479156 3620.0 
64.532303 3314.0 
92.359047 4888.0 
109.647873 3225.0 
152.577194 3526.0 
157.935501 3719.0 
163.818161 3656.0 
211.94487 3675.0 
323.050293 6872.0 
337.064148 5913.0 
349.067017 7625.0 
350.076782 4778.0 
351.046631 883181.0 
361.281891 4785.0 
365.062622 38080.0 
366.070221 538185.0 
381.09375 13838589.0 
399.101501 35309.0 
END IONS

BEGIN IONS
NAME=Genipin CollisionEnergy:102040 M+H-H2O
PRECURSOR_MZ=209.081
INCHI="InChI=1S/C11H14O5/c1-15-10(13)8-5-16-11(14)9-6(4-12)2-3-7(8)9/h2,5,7,9,11-12,14H,3-4H2,1H3/t7-,9-,11-/m1/s1"
SMILES=COC(=O)C1=COC(O)C2C(CO)=CCC12
SPECTRUMID=CCMSLIB00010113975
53.039082 11289.0 
55.01833 4989.0 
57.83065 2611.0 
61.010769 3051.0 
61.585819 2808.0 
68.997238 3884.0 
71.013092 70203.0 
71.929764 4117.0 
72.937431 3030.0 
73.028572 11478.0 
77.039146 6122.0 
79.021393 17701.0 
79.049179 5145.0 
79.054451 137349.0 
81.033684 34921.0 
81.064903 5374.0 
81.070107 130049.0 
84.959473 3026.0 
91.054268 100075.0 
93.069923 300662.0 
95.049309 5740.0 
99.00766 29679.0 
101.02314 3241.0 
103.054092 99615.0 
105.033142 3649.0 
105.069817 128638.0 
107.049026 75079.0 
109.028267 2937.0 
109.064957 29437.0 
115.053978 4086.0 
119.049271 20683.0 
119.085213 6543.0 
121.064743 1195148.0 
131.049103 100828.0 
133.064255 35309.0 
133.33696 2910.0 
134.91954 35637.0 
135.080109 6517.0 
137.943329 5021.0 
139.038742 3228.0 
147.043594 27619.0 
149.059677 1919269.0 
149.943115 6456.0 
153.090744 18908.0 
155.952988 3786.0 
158.035355 6038.0 
159.043976 171528.0 
163.07489 76250.0 
167.053833 5051.0 
167.070114 184065.0 
167.953613 82236.0 
177.054535 1059863.0 
181.085846 30556.0 
184.969559 12467.0 
185.92804 22899.0 
185.964249 166470.0 
191.07016 367555.0 
195.065125 64932.0 
203.938171 60320.0 
204.02562 4911.0 
208.94342 30050.0 
208.979752 5406.0 
209.080612 474903.0 
209.112549 24272.0 
211.747375 3064.0 
226.953766 46354.0 
END IONS

BEGIN IONS
NAME="2-amino-3-[3,4-bis(phenylmethoxy)phenyl]-3-hydroxypropanoic acid, hydrate CollisionEnergy:205060" M-H
PRECURSOR_MZ=392.15
INCHI="InChI=1S/C23H23NO5/c24-21(23(26)27)22(25)18-11-12-19(28-14-16-7-3-1-4-8-16)20(13-18)29-15-17-9-5-2-6-10-17/h1-13,21-22,25H,14-15,24H2,(H,26,27)"
SMILES=NC(C(=O)O)C(O)c1ccc(OCc2ccccc2)c(OCc2ccccc2)c1
SPECTRUMID=CCMSLIB00010120391
50.398338 3060.0 
64.403923 3027.0 
67.680397 2831.0 
72.00882 2024482.0 
74.024483 2342342.0 
79.887199 3234.0 
92.050484 33339.0 
95.013657 6713.0 
106.029991 28357.0 
108.021698 28366.0 
109.030083 5250.0 
118.683228 4442.0 
120.04528 31768.0 
121.029701 18940.0 
123.045174 6126.0 
132.021606 5007.0 
136.016678 816577.0 
137.024292 3619.0 
147.032639 12643.0 
147.506088 3038.0 
148.040558 689882.0 
149.023224 3683.0 
149.049179 5144.0 
153.020065 4645.0 
166.050705 51484.0 
178.216995 3372.0 
183.081436 26858.0 
193.014465 13090.0 
193.20726 3500.0 
197.061172 16355.0 
198.069 14746.0 
210.913223 3312.0 
210.934387 4518.0 
211.076431 69495.0 
212.085144 5410.0 
223.076202 6894.0 
225.056519 17977.0 
226.063354 131232.0 
227.071487 642421.0 
239.095078 106601.0 
239.121979 4682.0 
240.103668 20427.0 
256.098236 21841.0 
301.101654 4245.0 
317.118713 54868.0 
392.150726 1954775.0 
END IONS

BEGIN IONS
NAME=(+)-Usnic acid CollisionEnergy:205060 M-H
PRECURSOR_MZ=343.082
INCHI="InChI=1S/C18H16O7/c1-6-14(22)12(8(3)20)16-13(15(6)23)18(4)10(25-16)5-9(21)11(7(2)19)17(18)24/h5,22-24H,1-4H3/t18-/m1/s1"
SMILES=CC(=O)C1=C(O)C2(C)C(=CC1=O)Oc1c(C(C)=O)c(O)c(C)c(O)c12
SPECTRUMID=CCMSLIB00010124076
52.91724 2411.0 
81.292458 2257.0 
83.01355 263144.0 
92.389763 3078.0 
95.050041 2965.0 
104.295448 2836.0 
109.80983 2516.0 
136.089615 2567.0 
145.065414 2458.0 
171.046143 4674.0 
178.90329 2492.0 
184.361496 2470.0 
187.039154 3250.0 
187.07637 9781.0 
189.056259 27295.0 
203.071259 14975.0 
213.056244 5874.0 
215.035233 25155.0 
215.070847 4668.0 
229.05101 20607.0 
231.066055 180433.0 
255.066132 11524.0 
257.045685 33721.0 
259.061249 69498.0 
269.046631 20440.0 
285.040863 11947.0 
286.048401 4180.0 
299.093048 19227.0 
301.072174 10941.0 
313.035309 188778.0 
324.780121 2536.0 
328.058502 194368.0 
343.082092 341018.0 
END IONS

BEGIN IONS
NAME=6559-91-7 CollisionEnergy:205060 M+H
PRECURSOR_MZ=401.123
INCHI="InChI=1S/C21H20O8/c1-25-15-3-9(4-16(26-2)20(15)23)17-10-5-13-14(29-8-28-13)6-11(10)19(22)12-7-27-21(24)18(12)17/h3-6,12,17-19,22-23H,7-8H2,1-2H3/t12-,17+,18-,19+/m0/s1"
SMILES=COc1cc(C2c3cc4c(cc3C(O)C3COC(=O)C23)OCO4)cc(OC)c1O
SPECTRUMID=CCMSLIB00010123772
53.0392 3467.0 
53.47364 2401.0 
59.963169 2834.0 
66.900581 2966.0 
71.887703 2984.0 
73.950958 3326.0 
92.375999 3938.0 
99.841293 2771.0 
103.054176 22203.0 
104.285881 4487.0 
115.053787 30295.0 
117.06987 12020.0 
118.654953 3151.0 
127.05452 14232.0 
128.061966 20584.0 
129.069748 64694.0 
130.560913 2829.0 
143.048935 12172.0 
145.064804 23803.0 
155.048904 44950.0 
155.070206 2955.0 
167.620209 2941.0 
173.059494 14567.0 
185.059464 2591208.0 
188.046448 3096.0 
189.055038 4105.0 
199.037506 85319.0 
201.053421 3597.0 
229.049149 271018.0 
247.059372 76070.0 
299.692322 2955.0 
361.282288 3152.0 
383.110596 6123.0 
401.117371 12608.0 
END IONS

BEGIN IONS
NAME=Vanillic acid CollisionEnergy:205060 M+H
PRECURSOR_MZ=169.05
INCHI="InChI=1S/C8H8O4/c1-12-7-4-5(8(10)11)2-3-6(7)9/h2-4,9H,1H3,(H,10,11)"
SMILES=COc1cc(C(=O)O)ccc1O
SPECTRUMID=CCMSLIB00010125637
53.039089 3830.0 
54.683441 2911.0 
55.01836 3448.0 
65.039032 837801.0 
67.054626 14763.0 
81.033813 12283.0 
81.070053 12122.0 
82.411247 3677.0 
84.945297 3069.0 
85.028931 3399.0 
92.391479 2780.0 
93.03363 363275.0 
95.049316 15368.0 
97.064903 3520.0 
99.043907 3326.0 
104.300041 2860.0 
106.848923 2967.0 
108.020638 5468.0 
109.028419 18467.0 
109.065041 13444.0 
110.036217 130988.0 
111.044113 976537.0 
113.963158 3973.0 
123.04406 11426.0 
123.08046 4524.0 
124.052094 4765.0 
125.059753 369908.0 
127.075577 3310.0 
134.060196 93857.0 
135.062195 2980.0 
139.73912 3412.0 
151.038986 208867.0 
151.050049 14370.0 
169.04953 112123.0 
169.086029 3656.0 
END IONS

BEGIN IONS
NAME=brefeldin A CollisionEnergy:102040 M+H
PRECURSOR_MZ=281.175
INCHI="InChI=1S/C16H24O4/c1-11-5-3-2-4-6-12-9-13(17)10-14(12)15(18)7-8-16(19)20-11/h4,6-8,11-15,17-18H,2-3,5,9-10H2,1H3/b6-4+,8-7+/t11-,12+,13-,14+,15+/m0/s1"
SMILES=CC1CCCC=CC2CC(O)CC2C(O)C=CC(=O)O1
SPECTRUMID=CCMSLIB00010113408
53.002548 5846.0 
53.03899 3142.0 
55.018269 13872.0 
55.054829 22157.0 
57.07029 13458.0 
57.663239 2439.0 
66.744003 3336.0 
67.054626 117966.0 
68.900581 2337.0 
69.070236 45775.0 
71.013 3017.0 
71.049362 10631.0 
71.085747 6007.0 
73.028664 33317.0 
74.975693 3212.0 
79.054482 43884.0 
80.982147 2426.0 
81.033684 17597.0 
81.070129 188261.0 
83.049278 10074.0 
83.085693 41253.0 
85.028069 4365.0 
85.064392 3678.0 
85.101433 31919.0 
91.054337 39140.0 
92.377876 3390.0 
93.033386 6092.0 
93.069946 72849.0 
95.049088 23881.0 
95.085564 128376.0 
97.064888 6180.0 
97.101341 19874.0 
99.007683 117308.0 
99.080437 153162.0 
101.023422 88685.0 
103.054733 3983.0 
105.069771 74032.0 
107.049004 11638.0 
107.085449 46871.0 
109.027924 14544.0 
109.064842 5849.0 
109.101067 40808.0 
111.043968 22437.0 
111.080254 11276.0 
113.059509 18048.0 
113.095932 51477.0 
117.06958 37736.0 
118.655861 3139.0 
119.04879 13467.0 
119.085533 60473.0 
121.028374 4825.0 
121.064651 20125.0 
121.101028 38261.0 
123.043488 10861.0 
123.079819 5929.0 
123.116814 29083.0 
125.05925 4196.0 
125.095818 4062.0 
127.039124 21261.0 
129.069794 33490.0 
131.085281 58381.0 
131.195419 3064.0 
133.064743 75633.0 
133.101074 37773.0 
135.044022 3479.0 
135.0802 30524.0 
135.116669 19329.0 
137.059219 17763.0 
137.131973 16471.0 
139.03891 78941.0 
139.075226 10946.0 
141.054672 19705.0 
143.085617 26547.0 
145.064178 4787.0 
145.101105 28567.0 
147.044357 6095.0 
147.080246 30558.0 
147.11676 31507.0 
149.059647 51961.0 
149.095688 10857.0 
149.132294 25652.0 
151.07547 43434.0 
151.11232 2570.0 
153.090851 3291.0 
157.049286 19194.0 
157.064102 10484.0 
157.101303 44213.0 
159.079773 9452.0 
159.116486 33040.0 
161.05954 25961.0 
161.095551 28414.0 
161.132248 25245.0 
163.075348 21929.0 
163.14801 89785.0 
165.05452 21953.0 
165.090912 12842.0 
165.163376 9937.0 
167.070374 42267.0 
167.08493 5730.0 
171.079651 11872.0 
171.116638 17882.0 
173.095657 5723.0 
173.13205 20340.0 
175.075241 30398.0 
175.111191 13532.0 
175.147659 15454.0 
177.090637 16111.0 
177.126205 4375.0 
179.070358 20580.0 
179.106766 3841.0 
181.0858 5309.0 
183.115967 13493.0 
185.080093 11639.0 
185.096832 5637.0 
185.132324 96329.0 
187.110428 3964.0 
189.090622 17100.0 
189.126373 4200.0 
189.163651 43486.0 
193.085648 14255.0 
195.101303 10344.0 
197.646469 2769.0 
199.114761 4725.0 
199.147858 151782.0 
201.127029 3734.0 
201.162903 4084.0 
203.106186 12484.0 
203.14241 15697.0 
205.121719 3298.0 
209.132019 16959.0 
217.122177 3733.0 
217.158417 135499.0 
219.136993 10468.0 
221.153625 4134.0 
224.981003 2638.0 
227.142441 71876.0 
234.95137 25065.0 
235.169159 30323.0 
245.153183 328545.0 
257.967163 34592.0 
263.163788 225385.0 
263.196136 5708.0 
275.220459 3135.0 
281.137604 10407.0 
281.173859 242298.0 
END IONS

BEGIN IONS
NAME=Taurolithocholate CollisionEnergy:102040 M+NH4
PRECURSOR_MZ=501.336
INCHI="InChI=1S/C26H45NO5S/c1-17(4-9-24(29)27-14-15-33(30,31)32)21-7-8-22-20-6-5-18-16-19(28)10-12-25(18,2)23(20)11-13-26(21,22)3/h17-23,28H,4-16H2,1-3H3,(H,27,29)(H,30,31,32)/t17-,18-,19-,20+,21-,22+,23+,25+,26-/m1/s1"
SMILES=C[C@H](CCC(O)=NCCS(=O)(=O)O)[C@H]1CC[C@H]2[C@@H]3CC[C@@H]4C[C@H](O)CC[C@]4(C)[C@H]3CC[C@@]21C
SPECTRUMID=CCMSLIB00010103090
53.163101 2453.629883 
73.976402 2402.870117 
92.405502 2261.199951 
100.952003 2401.209961 
104.319 3970.27002 
108.568001 2254.100098 
126.023003 6086.049805 
136.253006 3025.090088 
141.934006 2622.070068 
149.783997 2601.399902 
155.091995 2739.149902 
259.537994 2885.949951 
322.643005 2923.01001 
466.298004 51469.398438 
484.308014 5726.620117 
END IONS

BEGIN IONS
NAME=ABSCISIC ACID CollisionEnergy:102040 2M-H
PRECURSOR_MZ=527.265
INCHI="InChI=1S/C15H20O4/c1-10(7-13(17)18)5-6-15(19)11(2)8-12(16)9-14(15,3)4/h5-8,19H,9H2,1-4H3,(H,17,18)/b6-5+,10-7-"
SMILES=CC(C=CC1(O)C(C)=CC(=O)CC1(C)C)=CC(=O)O
SPECTRUMID=CCMSLIB00010108267
71.013733 3193.0 
74.095139 2913.0 
83.211853 2653.0 
97.02961 5745.0 
102.94487 2393.0 
108.05806 10991.0 
109.029587 3358.0 
111.045052 12155.0 
113.061012 11432.0 
123.081337 4452.0 
125.060493 4522.0 
136.052658 5591.0 
136.233521 3229.0 
137.036346 2910.0 
138.067505 3953.0 
139.076279 42803.0 
151.076477 89927.0 
152.047455 5164.0 
152.084381 47744.0 
153.092148 17679.0 
158.003113 2972.0 
161.09639 4612.0 
163.076462 6563.0 
201.128021 27835.0 
204.115921 40067.0 
212.516647 3328.0 
219.139175 103187.0 
263.128906 587721.0 
295.107635 2955.0 
413.725311 3448.0 
423.646637 3166.0 
527.26239 19529.0 
END IONS

BEGIN IONS
NAME="methyl 2-{3-[(1,3-dimethyl-2,6-dioxo(1,3-dihydropyrimidin-4-yl))carbonylamino] -4-methoxyphenoxy}acetate CollisionEnergy:205060" M-H
PRECURSOR_MZ=376.115
INCHI="InChI=1S/C17H19N3O7/c1-19-12(8-14(21)20(2)17(19)24)16(23)18-11-7-10(5-6-13(11)25-3)27-9-15(22)26-4/h5-8H,9H2,1-4H3,(H,18,23)"
SMILES=COC(=O)COc1ccc(OC)c(N=C(O)c2cc(=O)n(C)c(=O)n2C)c1
SPECTRUMID=CCMSLIB00010123283
54.034851 2166.0 
73.471237 2182.0 
82.029716 84085.0 
95.91478 2386.0 
96.03318 3036.0 
108.009598 2507.0 
136.225571 2756.0 
139.051239 341954.0 
176.034103 3237.0 
181.897339 4436.0 
183.040909 67492.0 
183.912674 8033.0 
204.010773 2826.0 
204.029556 20818.0 
236.054977 3258.0 
245.056244 2614.0 
260.84787 2635.0 
288.061859 20901.0 
327.65799 2802.0 
376.114532 104340.0 
END IONS

BEGIN IONS
NAME="N-(4-acetylphenyl){2-[(3,4-dimethoxyphenyl)sulfonyl](3-1,2,3,4-tetrahydroisoqu inolyl)}carboxamide CollisionEnergy:102040" M+Cl
PRECURSOR_MZ=529.121
INCHI="InChI=1S/C26H26N2O6S/c1-17(29)18-8-10-21(11-9-18)27-26(30)23-14-19-6-4-5-7-20(19)16-28(23)35(31,32)22-12-13-24(33-2)25(15-22)34-3/h4-13,15,23H,14,16H2,1-3H3,(H,27,30)"
SMILES=COc1ccc(S(=O)(=O)N2Cc3ccccc3CC2C(=O)Nc2ccc(C(C)=O)cc2)cc1OC
SPECTRUMID=CCMSLIB00010110073
60.548191 2878.0 
61.524529 3123.0 
63.961979 20586.0 
78.949852 2468.0 
79.957123 25693.0 
91.591621 2829.0 
92.393784 3042.0 
95.592781 2901.0 
95.878304 2644.0 
99.748466 2778.0 
123.045357 44879.0 
135.148254 3266.0 
137.060898 3021.0 
138.032501 6360.0 
139.709305 2815.0 
157.999786 3203.0 
170.1754 3175.0 
201.022995 805018.0 
201.780151 3405.0 
205.645844 2673.0 
207.982437 15367.0 
280.591766 3037.0 
493.144409 497611.0 
528.979431 5930.0 
529.121277 33952.0 
END IONS

BEGIN IONS
NAME=1-(phenylsulfonyl)pyrrolidine-2-carboxylic acid CollisionEnergy:102040 M+Na
PRECURSOR_MZ=278.046
INCHI="InChI=1S/C11H13NO4S/c13-11(14)10-7-4-8-12(10)17(15,16)9-5-2-1-3-6-9/h1-3,5-6,10H,4,7-8H2,(H,13,14)"
SMILES=O=C(O)C1CCCN1S(=O)(=O)c1ccccc1
SPECTRUMID=CCMSLIB00010108394
61.04948 2625.0 
65.369453 3120.0 
88.95858 3214.0 
100.459991 3127.0 
118.637108 3722.0 
151.944748 3569.0 
157.94693 4977.0 
164.534668 2961.0 
174.953171 5734.0 
278.045593 7828797.0 
296.056244 20918.0 
END IONS

BEGIN IONS
NAME=d-Dethiobiotin CollisionEnergy:102040 2M-H
PRECURSOR_MZ=427.256
INCHI="InChI=1S/C10H18N2O3/c1-7-8(12-10(15)11-7)5-3-2-4-6-9(13)14/h7-8H,2-6H2,1H3,(H,13,14)(H2,11,12,15)/t7-,8+/m0/s1"
SMILES=CC1N=C(O)NC1CCCCCC(=O)O
SPECTRUMID=CCMSLIB00010106723
50.640511 2428.0 
52.913231 2642.0 
56.384029 2677.0 
59.00272 2617.0 
62.728458 2666.0 
99.065826 2372.0 
113.079376 2418.0 
126.092682 2502.0 
146.960693 5739.0 
169.134506 55188.0 
170.118698 52934.0 
174.955841 16677.0 
213.124512 1583795.0 
256.29068 2646.0 
297.077667 9870.0 
417.303986 2849.0 
427.03479 62046.0 
END IONS

BEGIN IONS
NAME=4'-Hydroxychalcone CollisionEnergy:205060 M+H
PRECURSOR_MZ=225.091
INCHI="InChI=1S/C15H12O2/c16-14-9-7-13(8-10-14)15(17)11-6-12-4-2-1-3-5-12/h1-11,16H/b11-6+"
SMILES=O=C(C=Cc1ccccc1)c1ccc(O)cc1
SPECTRUMID=CCMSLIB00010115674
50.015659 19121.0 
51.023571 25109.0 
53.039131 16903.0 
55.018188 32648.0 
63.024021 16392.0 
65.039009 503746.0 
65.042763 26232.0 
68.997528 95598.0 
69.033943 21462.0 
71.013153 128260.0 
74.719383 12880.0 
77.039299 93334.0 
79.018318 27786.0 
79.054573 824841.0 
82.38221 18980.0 
91.054428 274321.0 
95.049477 69876.0 
102.046547 62092.0 
103.054237 14842031.0 
105.033081 18244.0 
107.049118 802348.0 
109.028313 61832.0 
111.044212 224393.0 
119.049217 680675.0 
121.028503 12491680.0 
131.049255 19596460.0 
136.182678 16042.0 
144.081207 34269.0 
147.044083 1698277.0 
165.069397 68790.0 
166.064911 15683.0 
178.077927 317197.0 
179.085526 909981.0 
181.065353 20749.0 
182.07164 29336.0 
197.096451 100332.0 
197.626694 17829.0 
207.08046 959742.0 
210.067947 156456.0 
225.091034 19287842.0 
239.072311 14626.0 
END IONS

BEGIN IONS
NAME="(2E)-3-(2H-benzo[3,4-d]1,3-dioxolen-5-yl)-N-{2-[(3-chlorophenyl)methylthio]eth yl}prop-2-enamide CollisionEnergy:205060" M+H
PRECURSOR_MZ=376.077
INCHI="InChI=1S/C19H18ClNO3S/c20-16-3-1-2-15(10-16)12-25-9-8-21-19(22)7-5-14-4-6-17-18(11-14)24-13-23-17/h1-7,10-11H,8-9,12-13H2,(H,21,22)/b7-5+"
SMILES=OC(C=Cc1ccc2c(c1)OCO2)=NCCSCc1cccc(Cl)c1
SPECTRUMID=CCMSLIB00010120120
55.56171 15132.0 
63.02301 118254.0 
64.243538 15651.0 
65.038986 42584.0 
66.673424 15215.0 
89.038612 6440656.0 
91.054291 199376.0 
92.385307 17184.0 
107.040573 18086.0 
111.529343 17156.0 
117.033287 8208246.0 
119.048714 25255.0 
125.004898 30887.0 
125.015007 624847.0 
130.064835 26718.0 
135.031219 24197.0 
135.043762 2679854.0 
145.028183 15507446.0 
147.043716 4063228.0 
147.054428 66184.0 
158.059692 264403.0 
163.038635 9539270.0 
167.286667 16579.0 
174.43457 22093.0 
175.03862 42159696.0 
185.018036 34618.0 
186.035431 37352.0 
186.054535 1130668.0 
205.084656 19371.0 
212.289368 19400.0 
218.080002 180218.0 
272.832428 18507.0 
376.077087 252067.0 
END IONS

BEGIN IONS
NAME={3-methoxy-4-[3-nitro-5-(trifluoromethyl)phenoxy]phenyl}-N-[2-piperidyl-5-(tri fluoromethyl)phenyl]carboxamide CollisionEnergy:102040 M+H
PRECURSOR_MZ=584.161
INCHI="InChI=1S/C27H23F6N3O5/c1-40-24-11-16(5-8-23(24)41-20-13-18(27(31,32)33)12-19(15-20)36(38)39)25(37)34-21-14-17(26(28,29)30)6-7-22(21)35-9-3-2-4-10-35/h5-8,11-15H,2-4,9-10H2,1H3,(H,34,37)"
SMILES=COc1cc(C(O)=Nc2cc(C(F)(F)F)ccc2N2CCCCC2)ccc1Oc1cc([N+](=O)[O-])cc(C(F)(F)F)c1
SPECTRUMID=CCMSLIB00010103696
50.015591 6048.0 
52.031139 10581.0 
55.018291 91760.0 
56.026039 19015.0 
57.033932 4694.0 
58.510799 4695.0 
65.038788 5549.0 
66.046547 16529.0 
68.997414 31110.0 
69.03376 46131.0 
70.041527 23688.0 
71.009483 4025.0 
71.013107 54362.0 
80.025574 32373.0 
81.033623 5011.0 
82.004967 6042.0 
84.02066 34667.0 
88.286697 4032.0 
90.976723 4541.0 
92.02507 5966.0 
94.041183 25807.0 
96.020416 20272.0 
97.028374 187954.0 
98.036186 93722.0 
99.007622 372335.0 
104.013153 4899.0 
104.314049 6954.0 
107.012589 47613.0 
107.048927 9412.0 
108.020393 115896.0 
109.99987 16229.0 
121.028214 193506.0 
122.036011 140499.0 
123.006958 8356.0 
125.02317 238488.0 
126.03064 24532.0 
130.162598 5320.0 
136.051208 10491.0 
136.243317 4563.0 
137.023148 474682.0 
137.059387 26044.0 
138.030823 59177.0 
141.01767 8241.0 
149.02301 23057.0 
150.030945 478386.0 
151.038712 464113.0 
154.025787 4825951.0 
156.03009 20818.0 
164.031601 10582.0 
165.018219 52152.0 
174.01564 211764.0 
176.757248 4367.0 
182.020218 18394.0 
190.010605 19149.0 
192.026917 29962.0 
195.052536 10256.0 
207.974884 11615.0 
207.997253 7238.0 
226.950668 5411.0 
239.07901 17384.0 
243.109238 99100.0 
253.035645 4850.0 
268.05719 78185.0 
268.08667 5924.0 
299.051361 4419.0 
312.047089 8633.0 
340.041931 3819056.0 
566.152161 20014.0 
584.160339 9618349.0 
END IONS

BEGIN IONS
NAME=CCG-208349 CollisionEnergy:102040 M-e
PRECURSOR_MZ=479.288
INCHI="InChI=1S/C26H41NO7/c1-6-27-11-23(12-29-2)8-7-17(31-4)25-15-9-14-16(30-3)10-24(18(15)19(14)32-5)26(22(25)27,34-13-33-24)21(28)20(23)25/h14-22,28H,6-13H2,1-5H3/t14-,15?,16+,17+,18?,19+,20?,21+,22?,23+,24-,25+,26?/m1/s1"
SMILES=CCN1CC2(COC)CCC(OC)C34C5CC6C(OC)CC7(OCOC7(C(O)C23)C14)C5C6OC
SPECTRUMID=CCMSLIB00010106439
68.394958 2612.0 
71.048866 5341.0 
72.080551 5192.0 
73.042618 2958.0 
73.084053 3234.0 
75.043854 4577.0 
110.096207 27447.0 
111.079437 3824.0 
111.099373 4352.0 
115.813477 3268.0 
169.558945 3137.0 
262.069672 3471.0 
295.132416 19004.0 
296.135406 47248.0 
299.181152 3656.0 
312.153961 7740.0 
313.161987 14310.0 
314.169312 4908.0 
321.166656 13142.0 
325.196411 17903.0 
328.159332 7760.0 
333.223083 3948.0 
343.214111 3375.0 
345.185089 4744.0 
345.226746 5761.0 
347.203278 5894.0 
353.193024 37752.0 
355.209839 6873.0 
357.223236 32516.0 
361.257446 4496.0 
367.20816 6094.0 
373.216431 4326.0 
375.23056 3328.0 
384.214874 26742.0 
385.219238 228431.0 
387.235901 15823.0 
388.24588 7540.0 
389.250763 90225.0 
399.235352 20196.0 
403.22818 5740.0 
416.241913 25558.0 
417.245575 305636.0 
419.263519 28576.0 
420.272858 5725.0 
421.277039 98998.0 
431.260529 35740.0 
447.256836 6153.0 
448.268555 51260.0 
449.271759 1122324.0 
479.282532 3583235.0 
480.296539 40217.0 
610.962463 3760.0 
946.89624 3965.0 
END IONS

BEGIN IONS
NAME="(2E)-1-(2H,3H-benzo[3,4-e]1,4-dioxan-6-yl)-3-(6,7-dimethoxy(2H-benzo[d]1,3-dio xolen-5-yl))prop-2-en-1-one CollisionEnergy:102040" M+Na
PRECURSOR_MZ=393.094
INCHI="InChI=1S/C20H18O7/c1-22-18-13(10-17-19(20(18)23-2)27-11-26-17)3-5-14(21)12-4-6-15-16(9-12)25-8-7-24-15/h3-6,9-10H,7-8,11H2,1-2H3/b5-3+"
SMILES=COc1c(C=CC(=O)c2ccc3c(c2)OCCO3)cc2c(c1OC)OCO2
SPECTRUMID=CCMSLIB00010105421
52.01133 3974.0 
88.000023 3654.0 
90.633247 4137.0 
104.215652 3789.0 
105.713669 4188.0 
118.641457 5530.0 
209.527222 6956.0 
215.031204 24650.0 
220.608582 4094.0 
283.059265 9277.0 
314.056824 8950.0 
316.032959 23813.0 
324.062714 103201.0 
329.082367 76487.0 
330.08728 7211.0 
331.057037 222280.0 
333.036743 5563.0 
339.085907 3801288.0 
346.044769 44601.0 
347.051758 31961.0 
348.059448 103632.0 
349.065155 6893.0 
361.067749 359719.0 
363.083374 1066775.0 
378.069183 29564.0 
379.078339 1190175.0 
381.089294 5775.0 
393.093964 9899994.0 
397.086517 6505.0 
411.10495 49258.0 
415.509888 4720.0 
END IONS

BEGIN IONS
NAME=4-Methoxysalicylic acid CollisionEnergy:102040 M+H-H2O
PRECURSOR_MZ=151.039
INCHI="InChI=1S/C8H8O4/c1-12-5-2-3-6(8(10)11)7(9)4-5/h2-4,9H,1H3,(H,10,11)"
SMILES=COc1ccc(C(=O)O)c(O)c1
SPECTRUMID=CCMSLIB00010107323
61.300289 2047.0 
65.038834 3190.0 
66.038757 1895.0 
67.054337 3801.0 
68.952492 12840.0 
68.982536 10199.0 
69.173218 2011.0 
82.01413 14759.0 
86.992844 9788.0 
89.465469 9899.0 
95.049294 121153.0 
98.470871 17654.0 
100.024406 40762.0 
105.003403 13147.0 
107.475906 38303.0 
108.020683 10377.0 
110.008553 22789.0 
110.036827 2773.0 
113.702332 2337.0 
116.068802 2791.0 
116.481209 21291.0 
118.034866 10412.0 
118.625893 3199.0 
118.984154 3416.0 
123.013474 2442.0 
123.044434 26522.0 
123.081253 2421.0 
125.486328 2505.0 
128.019272 128152.0 
146.029831 20289.0 
151.039078 2125785.0 
154.9077 9498.0 
157.938553 2837.0 
162.959351 2756.0 
175.478165 2812.0 
185.351944 2969.0 
255.075516 2442.0 
END IONS

BEGIN IONS
NAME=N-(2-methoxy-5-methylphenyl)-2-(9-methyl-6-oxohydropurin-8-ylthio)acetamide CollisionEnergy:205060 M+Na
PRECURSOR_MZ=382.094
INCHI="InChI=1S/C16H17N5O3S/c1-9-4-5-11(24-3)10(6-9)19-12(22)7-25-16-20-13-14(21(16)2)17-8-18-15(13)23/h4-6,8H,7H2,1-3H3,(H,19,22)(H,17,18,23)"
SMILES=COc1ccc(C)cc1N=C(O)CSc1nc2c(O)ncnc2n1C
SPECTRUMID=CCMSLIB00010121874
54.32481 2411.0 
56.96513 2655.0 
71.035507 2545.0 
72.397476 3002.0 
75.332069 2501.0 
77.984482 2798.0 
92.89959 2341.0 
119.168404 3456.0 
134.38179 3059.0 
173.042572 5831.0 
186.051224 11939.0 
192.195297 2831.0 
194.225433 2856.0 
202.999557 3080.0 
204.007446 71769.0 
205.014694 3522.0 
216.007019 3544.0 
217.01561 26562.0 
217.409576 2750.0 
218.023178 117755.0 
245.010284 60154.0 
303.20047 2993.0 
367.071289 25145.0 
382.09375 3362938.0 
384.04425 3822.0 
END IONS

BEGIN IONS
NAME="N-(2H-benzo[3,4-d]1,3-dioxolen-5-ylmethyl)-2-[2-oxo-4-(2-1,2,3,4-tetrahydroiso quinolylcarbonyl)hydroquinolyl]acetamide CollisionEnergy:205060" M+formate
PRECURSOR_MZ=540.178
INCHI="InChI=1S/C29H25N3O5/c33-27(30-15-19-9-10-25-26(13-19)37-18-36-25)17-32-24-8-4-3-7-22(24)23(14-28(32)34)29(35)31-12-11-20-5-1-2-6-21(20)16-31/h1-10,13-14H,11-12,15-18H2,(H,30,33)"
SMILES=O=C(c1cc(=O)n(CC(O)=NCc2ccc3c(c2)OCO3)c2ccccc12)N1CCc2ccccc2C1
SPECTRUMID=CCMSLIB00010125501
73.947906 2963.0 
88.5578 2747.0 
118.668068 2576.0 
128.050598 11837.0 
130.066391 4962.0 
142.06604 3803.0 
158.06134 20374.0 
168.675171 2567.0 
184.039719 14383.0 
186.055908 20586.0 
211.024399 3739.0 
216.303391 2720.0 
236.8172 2567.0 
275.118378 2638.0 
317.129272 25992.0 
319.108795 4303.0 
494.172699 79261.0 
END IONS

BEGIN IONS
NAME="7,8,3'-Trihydroxyflavone CollisionEnergy:205060" M+H
PRECURSOR_MZ=271.06
INCHI="InChI=1S/C15H10O5/c16-9-3-1-2-8(6-9)13-7-12(18)10-4-5-11(17)14(19)15(10)20-13/h1-7,16-17,19H"
SMILES=O=c1cc(-c2cccc(O)c2)oc2c(O)c(O)ccc12
SPECTRUMID=CCMSLIB00010119710
53.03907 3379.0 
55.018261 14939.0 
65.038857 16851.0 
68.997467 55614.0 
69.033829 104615.0 
71.34417 2586.0 
71.612373 2685.0 
73.958344 2814.0 
74.039459 2501.0 
79.017769 10078.0 
81.028801 2769.0 
81.033852 58028.0 
82.402237 2698.0 
84.9599 10576.0 
89.038689 6523.0 
91.054298 35861.0 
95.012306 5014.0 
97.028526 20781.0 
107.012688 201982.0 
109.028137 16715.0 
110.073051 2671.0 
111.043854 13111.0 
117.033073 4057.0 
119.049026 73916.0 
121.028374 280361.0 
121.038483 9058.0 
125.02314 70779.0 
127.038834 5098.0 
131.085052 4289.0 
135.007538 27297.0 
135.043777 35022.0 
137.012146 5003.0 
137.0233 110418.0 
141.069809 55455.0 
142.669708 3284.0 
145.028381 323342.0 
145.06427 13047.0 
147.044388 5134.0 
152.061844 6289.0 
153.018127 218155.0 
153.06987 12735.0 
155.033829 28081.0 
155.046936 4372.0 
157.063599 9575.0 
159.07988 3607.0 
161.023254 49542.0 
163.038788 18811.0 
169.064743 80069.0 
171.030075 3601.0 
172.665268 3669.0 
173.059235 15777.0 
181.065048 19348.0 
183.209091 2720.0 
185.059555 4721.0 
187.07489 13169.0 
197.059357 118086.0 
201.052734 9202.0 
203.033707 40190.0 
215.070114 103229.0 
225.054169 108601.0 
229.049347 48049.0 
243.064911 145860.0 
253.049057 27775.0 
254.057556 13314.0 
271.059784 3845465.0 
END IONS

BEGIN IONS
NAME="2-{N-[2-(3,4-dimethoxyphenyl)ethyl]carbamoyl}cyclohexanecarboxylic acid CollisionEnergy:102040" M+Na
PRECURSOR_MZ=358.162
INCHI="InChI=1S/C18H25NO5/c1-23-15-8-7-12(11-16(15)24-2)9-10-19-17(20)13-5-3-4-6-14(13)18(21)22/h7-8,11,13-14H,3-6,9-10H2,1-2H3,(H,19,20)(H,21,22)"
SMILES=COc1ccc(CCN=C(O)C2CCCCC2C(=O)O)cc1OC
SPECTRUMID=CCMSLIB00010107887
55.766548 2367.0 
55.879871 2461.0 
73.534668 2440.0 
73.963814 2766.0 
169.485367 2987.0 
177.05249 58675.0 
197.999924 2831.0 
201.626984 2769.0 
204.099304 2196406.0 
204.858276 2967.0 
211.781235 2987.0 
222.110123 16959.0 
245.12587 32753.0 
279.419556 2867.0 
358.161774 2673484.0 
END IONS

BEGIN IONS
NAME="8-iodo-1,3-dimethyl-1,3-dihydropurine-2,6-dione CollisionEnergy:102040" M+Na
PRECURSOR_MZ=328.951
INCHI="InChI=1S/C7H7IN4O2/c1-11-4-3(9-6(8)10-4)5(13)12(2)7(11)14/h1-2H3,(H,9,10)"
SMILES=Cn1c(=O)c2nc(I)[nH]c2n(C)c1=O
SPECTRUMID=CCMSLIB00010109726
50.171329 2329.0 
60.53772 2657.0 
69.628311 2322.0 
69.643791 2354.0 
72.536667 2573.0 
72.714043 2347.0 
83.017151 2638.0 
85.239922 2362.0 
90.719772 2507.0 
98.984016 38730.0 
106.025002 2868.0 
170.884064 2860.0 
174.991776 12947.0 
176.989258 4874.0 
196.038605 2596.0 
222.983749 2719.0 
258.535156 2571.0 
264.870361 18989.0 
282.882935 5036.0 
311.670227 2686.0 
328.950012 1890378.0 
346.95929 13874.0 
348.895355 2596.0 
END IONS

BEGIN IONS
NAME="(2S)-1-{[3-amino-6-methyl-4-(trifluoromethyl)thiopheno[2,3-b]pyridin-2-yl]carb onyl}pyrrolidine-2-carboxylic acid CollisionEnergy:102040" M+Na
PRECURSOR_MZ=396.06
INCHI="InChI=1S/C15H14F3N3O3S/c1-6-5-7(15(16,17)18)9-10(19)11(25-12(9)20-6)13(22)21-4-2-3-8(21)14(23)24/h5,8H,2-4,19H2,1H3,(H,23,24)/t8-/m0/s1"
SMILES=Cc1cc(C(F)(F)F)c2c(N)c(C(=O)N3CCCC3C(=O)O)sc2n1
SPECTRUMID=CCMSLIB00010109509
51.0616 2273.0 
66.746613 2985.0 
70.065323 3152.0 
92.04718 22253.0 
104.290573 3558.0 
138.052429 155595.0 
299.006439 89290.0 
317.016541 3016.0 
340.033112 3888.0 
340.879456 2794.0 
373.015533 4861.0 
396.059387 1095084.0 
END IONS

BEGIN IONS
NAME=Dihydromethysticin CollisionEnergy:205060 M+Na
PRECURSOR_MZ=299.089
INCHI="InChI=1S/C15H16O5/c1-17-12-7-11(20-15(16)8-12)4-2-10-3-5-13-14(6-10)19-9-18-13/h3,5-6,8,11H,2,4,7,9H2,1H3/t11-/m0/s1"
SMILES=COC1=CC(=O)OC(CCc2ccc3c(c2)OCO3)C1
SPECTRUMID=CCMSLIB00010116878
61.852989 2204.0 
79.555557 2221.0 
80.428864 2266.0 
80.654732 2254.0 
82.217979 2318.0 
92.383537 3005.0 
102.74749 2530.0 
103.35778 2817.0 
104.293083 2689.0 
120.829178 2257.0 
193.532211 2531.0 
299.088531 2041999.0 
END IONS

BEGIN IONS
NAME=2-[(tert-butoxy)carbonylamino]-3-indol-3-yl-N-(2-methylphenyl)propanamide CollisionEnergy:102040 M-H
PRECURSOR_MZ=392.198
INCHI="InChI=1S/C23H27N3O3/c1-15-9-5-7-11-18(15)25-21(27)20(26-22(28)29-23(2,3)4)13-16-14-24-19-12-8-6-10-17(16)19/h5-12,14,20,24H,13H2,1-4H3,(H,25,27)(H,26,28)"
SMILES=Cc1ccccc1N=C(O)C(Cc1c[nH]c2ccccc12)N=C(O)OC(C)(C)C
SPECTRUMID=CCMSLIB00010110102
53.16819 2664.0 
65.381279 2256.0 
66.758553 2718.0 
72.00885 39463.0 
104.311081 3795.0 
106.065651 16074.0 
132.045273 3731.0 
134.060318 2857.0 
142.066147 48465.0 
146.060608 3101.0 
161.071777 85970.0 
168.045319 14680.0 
171.453415 2497.0 
185.070999 3048.0 
188.058914 105971.0 
189.066818 211081.0 
201.066254 3612.0 
209.260223 9763.0 
247.124832 5153.0 
275.118896 91752.0 
275.149902 5067.0 
286.348633 2956.0 
318.124603 927925.0 
354.793854 2795.0 
378.327393 3159.0 
391.986816 6046.0 
392.198029 145419.0 
392.975159 9666.0 
END IONS

BEGIN IONS
NAME=Isoscopoletin CollisionEnergy:205060 M-H
PRECURSOR_MZ=191.035
INCHI="InChI=1S/C10H8O4/c1-13-9-5-8-6(4-7(9)11)2-3-10(12)14-8/h2-5,11H,1H3"
SMILES=COc1cc2oc(=O)ccc2cc1O
SPECTRUMID=CCMSLIB00010121172
61.914478 1752.0 
61.987801 2958.0 
66.73761 2473.0 
73.946877 2537.0 
84.265533 2347.0 
86.712517 2669.0 
87.925133 30737.0 
95.013718 3278.0 
102.948853 75745.0 
103.920143 18955.0 
104.026787 136714.0 
104.928017 2527.0 
120.021881 9081.0 
123.008728 9247.0 
123.946114 5056.0 
136.200272 2125.0 
142.128189 2322.0 
144.430176 1993.0 
145.821655 2237.0 
146.898941 3008.0 
146.938583 29802.0 
148.016663 180164.0 
157.95636 2709.0 
163.003876 8226.0 
164.640549 2510.0 
176.011673 856359.0 
180.006973 17243.0 
188.503723 2394.0 
190.999191 3768.0 
191.03511 96237.0 
200.680725 2131.0 
272.788147 2200.0 
END IONS

BEGIN IONS
NAME=Vanillylmandelic acid CollisionEnergy:102040 M+H-H2O
PRECURSOR_MZ=181.05
INCHI="InChI=1S/C9H10O5/c1-14-7-4-5(2-3-6(7)10)8(11)9(12)13/h2-4,8,10-11H,1H3,(H,12,13)"
SMILES=COc1cc(C(O)C(=O)O)ccc1O
SPECTRUMID=CCMSLIB00010113884
65.03894 62702.0 
66.517273 2441.0 
69.566177 2787.0 
70.942101 23152.0 
71.614159 2400.0 
73.753448 2726.0 
77.038887 11722.0 
84.959869 54878.0 
88.952599 6009.0 
92.535789 3115.0 
93.033531 182173.0 
97.064751 27661.0 
102.970253 5777.0 
104.963943 5183.0 
105.033386 103724.0 
106.979767 14484.0 
110.036324 27407.0 
111.04393 292852.0 
111.968193 38941.0 
118.672523 3256.0 
121.028236 31623.0 
125.05954 526724.0 
129.978867 10726.0 
134.97438 19251.0 
138.029694 4055.0 
139.038574 15110.0 
139.075089 2768.0 
139.962799 19246.0 
146.981506 4773.0 
149.023132 1644604.0 
153.054382 923384.0 
153.979584 2995.0 
157.973557 17697.0 
162.972794 11990.0 
164.996521 2727.0 
167.033249 19156.0 
180.985229 27033.0 
181.04921 1272415.0 
183.319443 2534.0 
190.048813 4001.0 
198.995819 2588.0 
END IONS

BEGIN IONS
NAME="N-(2-{1-[(3,4,5-trimethoxyphenyl)carbonyl]-8-1,2,3,4-tetrahydroquinolyloxy}eth yl)acetamide CollisionEnergy:205060" M+Na
PRECURSOR_MZ=451.184
INCHI="InChI=1S/C23H28N2O6/c1-15(26)24-10-12-31-18-9-5-7-16-8-6-11-25(21(16)18)23(27)17-13-19(28-2)22(30-4)20(14-17)29-3/h5,7,9,13-14H,6,8,10-12H2,1-4H3,(H,24,26)"
SMILES=COc1cc(C(=O)N2CCCc3cccc(OCCN=C(C)O)c32)cc(OC)c1OC
SPECTRUMID=CCMSLIB00010116546
86.060211 61068.0 
90.689812 3030.0 
169.04982 3983.0 
170.057541 282776.0 
171.065109 25464.0 
184.072342 4493.0 
195.062439 3212.0 
203.030991 5174.0 
208.715164 13583.0 
255.11145 6200.0 
256.118622 23231.0 
280.096558 16576.0 
296.091583 13866.0 
310.107666 5066.0 
326.137939 85456.0 
332.089355 3877.0 
366.130463 43899.0 
378.089752 2982.0 
451.183411 2876077.0 
END IONS

BEGIN IONS
NAME=CHEMBL1715881 CollisionEnergy:205060 M-H
PRECURSOR_MZ=577.156
INCHI="InChI=1S/C27H30O14/c1-10-20(31)22(33)24(35)26(38-10)41-27-25(36)23(34)21(32)18(40-27)9-37-13-6-14(29)19-15(30)8-16(39-17(19)7-13)11-2-4-12(28)5-3-11/h2-8,10,18,20-29,31-36H,9H2,1H3/t10-,18-,20-,21+,22+,23+,24+,25-,26-,27?/m0/s1"
SMILES=CC1OC(OC2OC(COc3cc(O)c4c(=O)cc(-c5ccc(O)cc5)oc4c3)C(O)C(O)C2O)C(O)C(O)C1O
SPECTRUMID=CCMSLIB00010123795
56.5835 3987.0 
60.541882 4733.0 
63.02359 150983.0 
65.002853 69392.0 
83.013527 8526.0 
89.002853 5353.0 
92.382683 5109.0 
93.034561 29631.0 
105.034439 23076.0 
107.013847 169631.0 
117.034576 326088.0 
121.029823 16313.0 
124.907303 3441.0 
133.029465 4892.0 
135.045258 19683.0 
136.221237 4871.0 
146.961273 18337.0 
147.009674 5059.0 
148.017685 6054.0 
149.024323 111686.0 
151.003799 101101.0 
155.050705 8244.0 
157.065765 20745.0 
159.04512 142802.0 
161.02449 101390.0 
169.066132 57040.0 
171.045761 16462.0 
172.048828 3947.0 
173.060913 4047.0 
174.95665 14011.0 
180.057922 21648.0 
181.066208 52049.0 
182.038315 5212.0 
183.044952 89806.0 
192.235504 4531.0 
195.045914 18047.0 
196.053131 35619.0 
197.060883 99732.0 
199.040253 23617.0 
200.046616 4253.0 
201.056198 74904.0 
203.035126 16073.0 
210.032303 6313.0 
211.040436 18645.0 
212.048019 4335.0 
213.056244 15010.0 
224.048843 39615.0 
225.055939 159411.0 
227.034927 85027.0 
239.035736 26106.0 
240.043243 45498.0 
241.050858 16479.0 
253.051956 6766.0 
267.029541 18598.0 
267.890594 10821.0 
267.918518 4614.0 
268.038208 513468.0 
269.045868 10831171.0 
270.050598 4990.0 
270.17749 6995.0 
270.20993 17261.0 
291.066956 6117.0 
304.91507 24508.0 
311.054352 30650.0 
577.157043 601517.0 
END IONS

BEGIN IONS
NAME="methyl 4-(3-bromo-4-hydroxy-5-methoxyphenyl)-2-methyl-5-oxo-1,4,6,7,8-pentahyd roquinoline-3-carboxylate CollisionEnergy:205060" M-H
PRECURSOR_MZ=420.045
INCHI="InChI=1S/C19H20BrNO5/c1-9-15(19(24)26-3)16(17-12(21-9)5-4-6-13(17)22)10-7-11(20)18(23)14(8-10)25-2/h7-8,16,21,23H,4-6H2,1-3H3"
SMILES=COC(=O)C1=C(C)NC2=C(C(=O)CCC2)C1c1cc(Br)c(O)c(OC)c1
SPECTRUMID=CCMSLIB00010119844
72.677658 2953.0 
78.918694 4166592.0 
126.880798 3166.0 
130.066635 13700.0 
142.06636 6402.0 
144.045212 11586.0 
146.061188 22832.0 
148.040314 33216.0 
148.076736 26452.0 
149.047821 6096.0 
158.060974 104439.0 
160.076553 30447.0 
162.056198 35139.0 
164.071777 5970.0 
174.056198 21521.0 
185.932083 1348781.0 
186.056274 13161.0 
188.035309 4148.0 
190.086929 3926.0 
191.057968 6516.0 
200.955505 363704.0 
203.058716 53751.0 
207.887756 18173.0 
216.066254 4902.0 
218.082062 422938.0 
223.04834 15163.0 
235.04837 41427.0 
236.071899 3912.0 
238.051315 5163.0 
264.068176 3894.0 
265.07489 15987.0 
266.08255 5359.0 
287.880249 3389.0 
293.06958 13194.0 
357.972076 21321.0 
372.996887 4741.0 
388.019073 27951.0 
405.025269 5418.0 
420.045227 2005926.0 
END IONS

BEGIN IONS
NAME=Rauwolscine CollisionEnergy:205060 M+H
PRECURSOR_MZ=355.202
INCHI="InChI=1S/C21H26N2O3/c1-26-21(25)19-15-10-17-20-14(13-4-2-3-5-16(13)22-20)8-9-23(17)11-12(15)6-7-18(19)24/h2-5,12,15,17-19,22,24H,6-11H2,1H3/t12-,15+,17+,18+,19+/m1/s1"
SMILES=COC(=O)C1C(O)CCC2CN3CCc4c([nH]c5ccccc45)C3CC21
SPECTRUMID=CCMSLIB00010116454
56.049931 72546.0 
58.065578 25436.0 
65.039062 3811.0 
67.05455 14264.0 
68.049767 5381.0 
70.065514 26185.0 
72.044762 4819.0 
79.054352 46433.0 
80.049843 31508.0 
81.0336 5687.0 
81.069702 4243.0 
82.065231 40422.0 
83.049217 4101.0 
84.04464 4694.0 
91.054108 60740.0 
92.049629 5168.0 
93.057442 8584.0 
93.069939 37839.0 
94.065117 208618.0 
95.049622 4104.0 
96.044708 9203.0 
96.080849 24708.0 
98.060043 8659.0 
103.054153 84810.0 
105.069771 55646.0 
106.064972 46054.0 
107.048851 4923.0 
107.072731 16395.0 
107.085419 42174.0 
108.080643 199437.0 
109.064583 5815.0 
111.043716 16412.0 
113.059677 8524.0 
115.054176 63807.0 
116.049927 4467.0 
117.069794 470474.0 
118.064888 51165.0 
119.04911 15720.0 
119.085541 18685.0 
120.080803 31586.0 
121.064934 6476.0 
122.09642 18625.0 
127.054367 7059.0 
128.049957 13933.0 
128.061905 9484.0 
129.07016 29556.0 
130.065125 165834.0 
131.049042 8876.0 
131.072983 15204.0 
131.085419 6228.0 
132.080673 66138.0 
133.06459 19214.0 
134.096283 413457.0 
135.080551 21163.0 
136.075333 17246.0 
138.091141 9515.0 
142.066193 4965.0 
143.072968 228643.0 
143.634705 8838.0 
144.080673 9634266.0 
144.529984 8141.0 
144.541229 4616.0 
145.064972 58709.0 
146.059708 18260.0 
146.096024 55764.0 
147.044586 4655.0 
147.080643 6142.0 
147.104172 26223.0 
148.075821 6061.0 
148.111343 7554.0 
149.059677 19229.0 
150.09137 8300.0 
151.074951 6263.0 
152.07016 4140.0 
152.106796 62348.0 
153.054367 20573.0 
154.065262 7770.0 
155.059814 38315.0 
155.072449 5392.0 
156.080505 45806.0 
157.087692 4811.0 
158.096283 152078.0 
159.067841 19726.0 
160.075043 19662.0 
162.091171 201570.0 
163.075058 17452.0 
164.107101 37421.0 
165.091415 5924.0 
166.086304 19626.0 
166.122772 8467.0 
167.072403 17596.0 
168.0802 37427.0 
169.088425 16155.0 
170.096176 45732.0 
171.092178 16703.0 
174.091141 74870.0 
177.090012 6222.0 
178.086105 31300.0 
180.081223 29159.0 
180.101501 249886.0 
181.087708 24031.0 
182.09671 48902.0 
184.099335 21092.0 
190.086166 6179.0 
192.101578 499024.0 
193.087082 7916.0 
194.097183 49014.0 
194.117172 629139.0 
195.103928 19881.0 
196.111633 22313.0 
197.106476 8426.0 
198.537445 4258.0 
199.122925 5445.0 
205.087479 6711.0 
206.096054 41987.0 
206.117294 86368.0 
207.103729 7033.0 
208.112198 95098.0 
208.13324 7726.0 
209.119827 45504.0 
210.090454 19500.0 
210.112473 23025.0 
212.127823 677089.0 
218.09584 21414.0 
219.104019 6738.0 
220.111526 57364.0 
221.120483 28581.0 
222.12767 13720.0 
223.123505 5937.0 
224.127777 618703.0 
230.096237 15205.0 
231.103973 9523.0 
232.111557 19038.0 
233.120056 6751.0 
234.127121 24941.0 
237.13884 4122.0 
245.119308 5317.0 
246.12764 29339.0 
248.142914 48955.0 
260.142914 32310.0 
262.122253 6948.0 
276.138 20557.0 
278.152039 4583.0 
280.134521 5468.0 
288.137543 5943.0 
294.14859 21818.0 
295.180206 5934.0 
305.164825 30024.0 
306.148712 9378.0 
308.163452 37198.0 
320.164825 16048.0 
323.175018 45464.0 
337.190338 105078.0 
338.176086 8142.0 
353.475128 4601.0 
355.200958 7323692.0 
356.938263 8414.0 
END IONS

BEGIN IONS
NAME="6,7,3'-Trihydroxyflavone CollisionEnergy:205060" M+H
PRECURSOR_MZ=271.06
INCHI="InChI=1S/C15H10O5/c16-9-3-1-2-8(4-9)14-6-11(17)10-5-12(18)13(19)7-15(10)20-14/h1-7,16,18-19H"
SMILES=O=c1cc(-c2cccc(O)c2)oc2cc(O)c(O)cc12
SPECTRUMID=CCMSLIB00010116945
51.9403 2861.0 
68.997414 2993.0 
70.96714 2908.0 
70.972023 2366.0 
72.937302 10683.0 
73.454407 2745.0 
73.959976 2592.0 
79.01757 2945.0 
84.960007 3062.0 
90.948303 2150.0 
92.387718 2833.0 
107.01268 72018.0 
113.904243 2282.0 
113.963333 19392.0 
119.048912 5469.0 
121.028442 48673.0 
125.022987 9474.0 
131.974075 4786.0 
135.007492 17253.0 
145.028244 24948.0 
153.018127 117838.0 
169.065323 9328.0 
171.028549 3654.0 
173.059402 2192.0 
180.888885 2407.0 
190.062607 3353.0 
192.395874 4070.0 
196.883057 4581.0 
197.059601 42974.0 
208.391098 14959.0 
215.069443 14363.0 
225.055145 18091.0 
231.899414 2940.0 
236.386108 10010.0 
238.888412 4520.0 
242.055969 3375.0 
243.064713 19817.0 
245.391449 9895.0 
247.893402 23935.0 
253.047958 17161.0 
256.898773 13006.0 
259.400604 5558.0 
271.059753 1097991.0 
271.147278 18385.0 
301.80954 4654.0 
302.816956 3462.0 
314.818726 2946.0 
444.58905 2461.0 
END IONS

BEGIN IONS
NAME="N-(2,6-dimethylphenyl)-2-(4-chlorophenyl)-2-{N-[2-(2-methylindol-3-yl)ethyl]ac etylamino}acetamide CollisionEnergy:205060" M+H
PRECURSOR_MZ=488.21
INCHI="InChI=1S/C29H30ClN3O2/c1-18-8-7-9-19(2)27(18)32-29(35)28(22-12-14-23(30)15-13-22)33(21(4)34)17-16-24-20(3)31-26-11-6-5-10-25(24)26/h5-15,28,31H,16-17H2,1-4H3,(H,32,35)"
SMILES=CC(=O)N(CCc1c(C)[nH]c2ccccc12)C(C(O)=Nc1c(C)cccc1C)c1ccc(Cl)cc1
SPECTRUMID=CCMSLIB00010124095
80.864754 2823.0 
85.321953 3009.0 
91.054337 4099.0 
115.054337 3187.0 
117.057297 3610.0 
117.069977 5225.0 
127.012291 4759.0 
130.065033 12541.0 
131.085846 3997.0 
143.073044 118222.0 
144.080765 4034.0 
155.072388 3257.0 
156.080856 21256.0 
157.088593 49218.0 
158.096527 1602471.0 
160.076645 4916.0 
169.076416 16014.0 
170.083633 17491.0 
171.090958 4406.0 
172.099731 24167.0 
173.101257 3309.0 
182.096771 3144.0 
214.10997 14542.0 
223.780441 2580.0 
243.104675 5426.0 
244.148621 3177.0 
280.070618 12568.0 
297.093567 27022.0 
339.118835 35449.0 
367.120941 163015.0 
443.14389 22214.0 
488.674072 25265.0 
489.138916 4003.0 
729.202942 5002.0 
END IONS

BEGIN IONS
NAME=2-amino-3-hydroxy-N-(2-naphthyl)propanamide CollisionEnergy:102040 M-H
PRECURSOR_MZ=229.098
INCHI="InChI=1S/C13H14N2O2/c14-12(8-16)13(17)15-11-6-5-9-3-1-2-4-10(9)7-11/h1-7,12,16H,8,14H2,(H,15,17)"
SMILES=NC(CO)C(O)=Nc1ccc2ccccc2c1
SPECTRUMID=CCMSLIB00010109302
60.552109 2419.0 
71.684082 2408.0 
78.349327 2365.0 
81.931831 2134.0 
88.003891 5081.0 
88.89286 2249.0 
89.316757 2365.0 
104.310181 2481.0 
136.244141 2917.0 
142.066513 1398658.0 
168.044388 2768.0 
169.087006 3889.0 
181.898056 3743.0 
182.95491 12452.0 
182.988846 3719.0 
186.056442 3556.0 
186.358124 2277.0 
197.072433 274685.0 
199.087372 14328.0 
225.683731 2449.0 
228.993805 3399.0 
229.098358 247296.0 
230.678741 2364.0 
240.082794 2567.0 
END IONS

BEGIN IONS
NAME=5-oxopentadecanoic acid CollisionEnergy:205060 M+formate
PRECURSOR_MZ=301.202
INCHI="InChI=1S/C15H28O3/c1-2-3-4-5-6-7-8-9-11-14(16)12-10-13-15(17)18/h2-13H2,1H3,(H,17,18)"
SMILES=CCCCCCCCCCC(=O)CCCC(=O)O
SPECTRUMID=CCMSLIB00010124685
59.013641 16549.0 
71.845978 2379.0 
92.387749 2969.0 
116.054398 2349.0 
164.927795 3965.0 
167.379044 2188.0 
183.17482 9219.0 
255.196838 46935.0 
280.983734 3383.0 
300.99173 19195.0 
END IONS

BEGIN IONS
NAME="methyl 3-[(2-(2-1,2,3,4-tetrahydroisoquinolyl)acetylamino)methyl]benzoate CollisionEnergy:205060" M+H
PRECURSOR_MZ=339.17
INCHI="InChI=1S/C20H22N2O3/c1-25-20(24)17-8-4-5-15(11-17)12-21-19(23)14-22-10-9-16-6-2-3-7-18(16)13-22/h2-8,11H,9-10,12-14H2,1H3,(H,21,23)"
SMILES=COC(=O)c1cccc(CN=C(O)CN2CCc3ccccc3C2)c1
SPECTRUMID=CCMSLIB00010116875
60.589642 3848.0 
77.038567 5091.0 
79.054451 9143.0 
82.398201 4364.0 
82.403442 4443.0 
91.054169 308043.0 
92.379349 7122.0 
103.053871 23876.0 
105.069672 320934.0 
115.053917 108674.0 
117.06958 970424.0 
118.064507 27442.0 
118.077667 34753.0 
119.048889 267575.0 
119.085274 869223.0 
128.06131 6107.0 
129.069473 194849.0 
130.064667 117737.0 
131.072662 708906.0 
132.080551 36017.0 
134.096466 6968.0 
144.080521 501625.0 
145.088577 27915.0 
145.641586 10305.0 
146.096054 17406174.0 
146.552521 9666.0 
149.05928 499006.0 
178.0858 36904.0 
189.101761 22864.0 
190.085342 7598.0 
221.090317 37207.0 
234.8759 4871.0 
279.15097 4738.0 
307.14444 47600.0 
316.034424 6124.0 
337.156708 4800.0 
339.16922 5743237.0 
END IONS

BEGIN IONS
NAME="9-acetyl-10,14-dimethyl-20-oxahexacyclo[11.9.0.0<2,10>.0<4,9>.0<14,19>.0<19,21 >]docos-17-yl acetate CollisionEnergy:205060" M+H-H2O
PRECURSOR_MZ=411.289
INCHI="InChI=1S/C27H40O4/c1-16(28)26-10-6-5-7-18(26)13-22-20-14-23-27(31-23)15-19(30-17(2)29)8-11-25(27,4)21(20)9-12-24(22,26)3/h18-23H,5-15H2,1-4H3"
SMILES=CC(=O)OC1CCC2(C)C3CCC4(C)C(CC5CCCCC54C(C)=O)C3CC3OC32C1
SPECTRUMID=CCMSLIB00010125492
51.640881 2719.0 
53.039089 3517.0 
55.054771 15518.0 
57.070702 2818.0 
67.054604 61770.0 
69.070221 13105.0 
79.054459 52077.0 
81.07016 106332.0 
81.075546 3787.0 
81.088173 2631.0 
83.08593 14257.0 
91.054413 63045.0 
93.070007 93294.0 
95.049217 4822.0 
95.085564 56503.0 
97.065086 6791.0 
99.08062 3514.0 
100.625511 3132.0 
105.069923 110926.0 
107.04953 2697.0 
107.077362 2946.0 
107.08548 80323.0 
109.06488 14743.0 
109.101013 27962.0 
117.069649 38205.0 
119.076691 3425.0 
119.085571 90010.0 
121.101028 35603.0 
123.116592 5194.0 
125.095993 10301.0 
128.062805 6141.0 
129.069687 19032.0 
131.085373 71654.0 
133.101135 90878.0 
135.116684 71857.0 
137.095779 6227.0 
141.070023 3843.0 
142.077881 12134.0 
143.085281 50772.0 
144.093719 4260.0 
145.101227 87195.0 
147.116669 147708.0 
149.0961 17474.0 
149.132446 101043.0 
151.111633 48369.0 
153.127777 3647.0 
155.085114 16448.0 
157.101212 50782.0 
158.109238 11315.0 
159.116806 114147.0 
161.095627 3682.0 
161.132355 76116.0 
163.111588 18564.0 
163.148148 12225.0 
165.127487 12139.0 
167.0858 3290.0 
169.100937 23909.0 
171.116638 32747.0 
173.132355 108377.0 
175.111801 6751.0 
175.148087 74761.0 
177.127548 20422.0 
181.10022 4787.0 
183.117157 23281.0 
185.132584 65217.0 
187.148102 39582.0 
189.127151 38557.0 
189.163666 4674.0 
191.143021 19647.0 
195.116928 13480.0 
197.13205 31434.0 
199.147705 49229.0 
201.163788 19086.0 
203.143875 20217.0 
205.702057 3081.0 
209.133606 13389.0 
210.138748 3380.0 
211.148956 22712.0 
211.168839 2696.0 
212.156967 3354.0 
213.163315 33168.0 
215.179916 6482.0 
217.157806 6701.0 
220.61528 2991.0 
221.131775 3146.0 
223.148224 27461.0 
225.163437 19649.0 
227.179947 20834.0 
235.149292 5127.0 
237.164291 13294.0 
239.180099 6040.0 
240.183868 2891.0 
251.178284 12931.0 
265.194946 5932.0 
279.209991 6484.0 
291.211334 3960.0 
293.192871 3150.0 
293.224609 20189.0 
307.242706 29993.0 
308.251465 2976.0 
309.22168 8352.0 
309.254364 25901.0 
333.25708 76499.0 
351.267761 301706.0 
367.26297 3534.0 
369.278259 214134.0 
370.283112 19580.0 
393.277191 36482.0 
410.305359 32465.0 
411.289093 187825.0 
END IONS

BEGIN IONS
NAME="8-{[2-(2,5-dimethylphenyl)-5-methyl(1,3-oxazol-4-yl)]methylthio}-9-methylhydro purin-6-one CollisionEnergy:102040" M-H
PRECURSOR_MZ=380.119
INCHI="InChI=1S/C19H19N5O2S/c1-10-5-6-11(2)13(7-10)18-22-14(12(3)26-18)8-27-19-23-15-16(24(19)4)20-9-21-17(15)25/h5-7,9H,8H2,1-4H3,(H,20,21,25)"
SMILES=Cc1ccc(C)c(-c2nc(CSc3nc4c(O)ncnc4n3C)c(C)o2)c1
SPECTRUMID=CCMSLIB00010107105
60.537121 2869.0 
66.003349 2329.0 
89.810097 2175.0 
112.262466 2811.0 
112.98484 2541.0 
144.311844 2460.0 
149.047058 13410.0 
172.570221 2410.0 
174.955933 4047.0 
175.95929 3312.0 
179.003525 4971.0 
180.011307 662848.0 
181.01915 84900.0 
209.219238 2458.0 
243.947266 3037.0 
380.118835 270660.0 
END IONS

BEGIN IONS
NAME=methyl 4-[3-acetyl-4-hydroxy-1-(2-indol-3-ylethyl)-5-oxo-3-pyrrolin-2-yl]benzo ate CollisionEnergy:102040 M+Na
PRECURSOR_MZ=441.142
INCHI="InChI=1S/C24H22N2O5/c1-14(27)20-21(15-7-9-16(10-8-15)24(30)31-2)26(23(29)22(20)28)12-11-17-13-25-19-6-4-3-5-18(17)19/h3-10,13,21,25,28H,11-12H2,1-2H3"
SMILES=COC(=O)c1ccc(C2C(C(C)=O)=C(O)C(=O)N2CCc2c[nH]c3ccccc23)cc1
SPECTRUMID=CCMSLIB00010110026
104.29982 3985.0 
118.673683 3570.0 
144.080688 5604.0 
298.066528 10904.0 
441.141876 2470673.0 
END IONS

BEGIN IONS
NAME="(3,4-dimethoxyphenyl)-N-{4-[(1-methylimidazol-2-yl)carbonyl]phenyl}carboxamide CollisionEnergy:102040" M+Cl
PRECURSOR_MZ=400.107
INCHI="InChI=1S/C20H19N3O4/c1-23-11-10-21-19(23)18(24)13-4-7-15(8-5-13)22-20(25)14-6-9-16(26-2)17(12-14)27-3/h4-12H,1-3H3,(H,22,25)"
SMILES=COc1ccc(C(=O)Nc2ccc(C(=O)c3nccn3C)cc2)cc1OC
SPECTRUMID=CCMSLIB00010104820
71.528038 2197.0 
76.691879 2197.0 
77.900208 2036.0 
80.011436 2067.0 
82.400597 2916.0 
92.386551 2933.0 
97.771751 2242.0 
104.297279 3064.0 
137.412231 1990.0 
183.297882 2151.0 
206.392227 2670.0 
207.543488 2523.0 
308.128357 2478.0 
334.083679 3522.0 
348.096741 4115.0 
364.130493 49180.0 
END IONS

BEGIN IONS
NAME=2-Hydroxyhippuric acid CollisionEnergy:205060 M-H
PRECURSOR_MZ=194.046
INCHI="InChI=1S/C9H9NO4/c11-7-4-2-1-3-6(7)9(14)10-5-8(12)13/h1-4,11H,5H2,(H,10,14)(H,12,13)"
SMILES=O=C(O)CN=C(O)c1ccccc1O
SPECTRUMID=CCMSLIB00010122237
65.039589 3502.0 
66.753853 2866.0 
73.966583 3059.0 
74.024551 28258.0 
78.189423 2266.0 
93.034523 1553869.0 
100.003899 16840.0 
121.029556 36799.0 
136.039993 3920.0 
137.024506 12655.0 
141.526779 2070.0 
143.771957 2572.0 
148.040268 13795.0 
150.055984 995448.0 
183.500092 2811.0 
194.045761 325685.0 
END IONS

BEGIN IONS
NAME=3-benzothiazol-2-yl-6-chlorochromen-2-one CollisionEnergy:102040 M+Na
PRECURSOR_MZ=335.986
INCHI=InChI=1S/C16H8ClNO2S/c17-10-5-6-13-9(7-10)8-11(16(19)20-13)15-18-12-3-1-2-4-14(12)21-15/h1-8H
SMILES=O=c1oc2ccc(Cl)cc2cc1-c1nc2ccccc2s1
SPECTRUMID=CCMSLIB00010105661
58.970581 2237.0 
66.191917 2479.0 
73.952797 3363.0 
83.701012 2261.0 
92.376167 2272.0 
104.282944 2556.0 
118.2435 2366.0 
179.140747 2351.0 
204.932205 2473.0 
208.049164 3138.0 
208.067932 5781.0 
271.939941 2574.0 
335.985504 579218.0 
336.219177 3922.0 
END IONS

BEGIN IONS
NAME="8-({2-[4-(tert-butyl)phenoxy]ethyl}amino)-1,3,7-trimethyl-1,3,7-trihydropurine -2,6-dione CollisionEnergy:102040" M+formate
PRECURSOR_MZ=430.21
INCHI="InChI=1S/C20H27N5O3/c1-20(2,3)13-7-9-14(10-8-13)28-12-11-21-18-22-16-15(23(18)4)17(26)25(6)19(27)24(16)5/h7-10H,11-12H2,1-6H3,(H,21,22)"
SMILES=Cn1c(=O)c2c([nH]c(=NCCOc3ccc(C(C)(C)C)cc3)n2C)n(C)c1=O
SPECTRUMID=CCMSLIB00010105507
56.706539 2382.0 
73.963921 2208.0 
75.347603 2279.0 
92.390266 2549.0 
104.300781 3150.0 
125.194702 2625.0 
149.097321 426206.0 
196.236069 2441.0 
211.135422 3560.0 
384.204681 368977.0 
429.986084 3269.0 
END IONS

BEGIN IONS
NAME="4-(dimethylamino)phenyl 2-1,2,3,4-tetrahydroisoquinolyl ketone CollisionEnergy:102040" M+Na
PRECURSOR_MZ=303.147
INCHI="InChI=1S/C18H20N2O/c1-19(2)17-9-7-15(8-10-17)18(21)20-12-11-14-5-3-4-6-16(14)13-20/h3-10H,11-13H2,1-2H3"
SMILES=CN(C)c1ccc(C(=O)N2CCc3ccccc3C2)cc1
SPECTRUMID=CCMSLIB00010103997
50.885479 2499.0 
53.498341 2142.0 
59.475441 2180.0 
66.731598 2520.0 
80.46183 2373.0 
82.382393 2874.0 
84.959862 5597.0 
91.928993 2606.0 
92.361183 4069.0 
157.944504 3189.0 
159.065384 5787.0 
177.312119 2777.0 
238.870499 3561.0 
256.883453 11035.0 
275.563354 2529.0 
303.14621 1554385.0 
321.157867 24458.0 
323.93277 2709.0 
END IONS

BEGIN IONS
NAME=quercetin CollisionEnergy:102040 M-H
PRECURSOR_MZ=301.035
INCHI="InChI=1S/C15H10O7/c16-7-4-10(19)12-11(5-7)22-15(14(21)13(12)20)6-1-2-8(17)9(18)3-6/h1-5,16-19,21H"
SMILES=O=c1c(O)c(-c2ccc(O)c(O)c2)oc2cc(O)cc(O)c12
SPECTRUMID=CCMSLIB00010107128
60.013802 3383.0 
60.696899 3136.0 
63.02364 58849.0 
65.002876 126819.0 
65.046783 3507.0 
66.747337 3179.0 
73.960373 4546.0 
83.013748 125498.0 
93.034721 25651.0 
107.013878 497180.0 
108.992996 8127.0 
109.02964 29689.0 
109.686943 3258.0 
111.008537 7037.0 
121.029488 668239.0 
125.024529 38012.0 
135.009033 8681.0 
135.764664 3072.0 
136.223114 3900.0 
137.024551 8479.0 
139.040146 16531.0 
147.008713 4574.0 
147.045395 8912.0 
147.074066 3367.0 
148.0168 3966.0 
149.024414 92210.0 
151.003601 3432338.0 
152.011307 7813.0 
159.045853 7264.0 
161.024475 24631.0 
163.003754 62664.0 
163.040268 28792.0 
164.012207 28851.0 
164.927658 15409.0 
165.018967 21403.0 
169.014236 121850.0 
171.044266 5695.0 
175.003326 4588.0 
175.040604 20598.0 
178.998611 1674240.0 
183.044434 4372.0 
185.061554 15267.0 
187.0392 33963.0 
189.018951 6698.0 
189.055573 6352.0 
192.005814 29373.0 
193.013916 81202.0 
193.602661 4028.0 
196.001694 5203.0 
201.055847 26143.0 
203.034851 17535.0 
205.051697 35121.0 
211.040329 31647.0 
213.056015 6612.0 
214.027771 5547.0 
215.035126 6165.0 
217.049942 5512.0 
227.034775 23387.0 
228.042313 4612.0 
229.0504 101945.0 
231.030243 20979.0 
232.925369 8048.0 
233.047592 5825.0 
239.034576 15224.0 
240.042648 5962.0 
243.031235 7166.0 
245.045349 86525.0 
255.029221 30872.0 
256.036469 8303.0 
257.045959 76624.0 
259.023376 4659.0 
273.040466 262365.0 
284.032776 14604.0 
299.02121 34584.0 
299.670929 16344.0 
300.02713 15409.0 
301.035217 13353377.0 
302.407257 16859.0 
END IONS

BEGIN IONS
NAME=CHEMBL1726879 CollisionEnergy:102040 M+H-H2O
PRECURSOR_MZ=369.17
INCHI="InChI=1S/C22H26O6/c1-23-17-7-5-13(9-19(17)25-3)21-15-11-28-22(16(15)12-27-21)14-6-8-18(24-2)20(10-14)26-4/h5-10,15-16,21-22H,11-12H2,1-4H3/t15?,16?,21-,22-/m1/s1"
SMILES=COc1ccc(C2OCC3C(c4ccc(OC)c(OC)c4)OCC23)cc1OC
SPECTRUMID=CCMSLIB00010111022
54.09454 2784.0 
55.941021 2866.0 
57.22715 2681.0 
62.742088 3003.0 
71.049561 5531.0 
75.044197 4032.0 
136.051666 37106.0 
139.075317 10800.0 
148.052399 2936.0 
149.059174 3182.0 
150.869797 3004.0 
151.075241 728852.0 
163.074951 15536.0 
165.054581 17621.0 
165.090881 51697.0 
167.070282 12944.0 
172.088348 19211.0 
174.067551 26377.0 
175.075027 5999.0 
177.091003 28235.0 
179.070023 99733.0 
181.086273 14476.0 
188.082886 59743.0 
189.090836 207439.0 
190.098923 5217.0 
191.070282 67169.0 
191.10614 38033.0 
193.085724 29237.0 
200.167084 3132.0 
201.090805 231939.0 
203.106461 106413.0 
205.085709 6219.0 
213.090637 18875.0 
215.106155 6313.0 
224.082794 12254.0 
231.101212 188338.0 
245.096436 4063.0 
253.085312 14538.0 
255.100723 70699.0 
261.09198 12709.0 
262.099426 6572.0 
267.100647 3785.0 
268.076019 4402.0 
268.108704 124198.0 
269.080322 24359.0 
273.090027 4720.0 
275.106445 5729.0 
276.113678 16841.0 
277.089172 4667.0 
277.120544 26258.0 
283.095947 159852.0 
284.103638 100282.0 
284.138519 3356.0 
288.114594 16999.0 
289.086334 9722.0 
289.121033 60364.0 
292.111145 10656.0 
293.117126 40064.0 
294.122284 5828.0 
295.096283 4117.0 
296.102783 14475.0 
298.119385 750256.0 
299.127197 354698.0 
304.1091 13917.0 
305.116516 126375.0 
306.127106 3587.0 
307.132141 30213.0 
308.140381 28828.0 
309.111298 19777.0 
309.146362 3968.0 
311.127136 176630.0 
311.168091 6238.0 
313.143585 5480.0 
319.13205 132062.0 
320.140045 298566.0 
321.11145 58173.0 
321.150116 5609.0 
323.127289 7015.0 
324.135254 91405.0 
325.142792 24122.0 
335.127258 11826.0 
336.13446 97078.0 
337.142639 6480.0 
338.15033 6025.0 
339.158386 160282.0 
341.17392 56265.0 
351.158295 768614.0 
369.168884 1220457.0 
END IONS

BEGIN IONS
NAME="2-(3,4-dimethoxyphenyl)-6-chlorochroman-4-one CollisionEnergy:205060" M+H
PRECURSOR_MZ=319.073
INCHI="InChI=1S/C17H15ClO4/c1-20-15-5-3-10(7-17(15)21-2)16-9-13(19)12-8-11(18)4-6-14(12)22-16/h3-8,16H,9H2,1-2H3"
SMILES=COc1ccc(C2CC(=O)c3cc(Cl)ccc3O2)cc1OC
SPECTRUMID=CCMSLIB00010123893
61.99229 22623.0 
62.38998 2750.0 
67.944443 3341.0 
72.984482 19123.0 
79.054626 23349.0 
81.071243 2769.0 
84.960159 3875.0 
88.979393 14443.0 
91.054497 22095.0 
98.999741 304690.0 
102.046738 5375.0 
103.054207 35537.0 
105.033577 11372.0 
105.070007 32793.0 
107.049057 11979.0 
108.0569 4918.0 
109.029114 5430.0 
110.036598 6594.0 
113.986877 33892.0 
118.041512 14105.0 
119.049393 32729.0 
120.057213 17662.0 
121.065178 6259.0 
122.036774 3697.0 
124.052338 26211.0 
125.015411 53786.0 
126.994537 139731.0 
129.010178 33148.0 
131.048782 3097.0 
131.997375 44138.0 
132.057037 43807.0 
133.02858 22692.0 
133.064758 30678.0 
135.044235 18209.0 
137.05986 36668.0 
139.075333 38813.0 
141.010193 37169.0 
145.005203 69038.0 
146.036514 5873.0 
147.044113 24591.0 
148.052032 127349.0 
149.060089 15021.0 
150.068283 26916.0 
151.075607 51291.0 
152.078674 5497.0 
153.010437 20638.0 
154.989517 2644843.0 
160.052002 34126.0 
161.06015 7313.0 
162.994537 7143.0 
163.075485 269655.0 
164.084106 3892.0 
165.054932 7161.0 
165.070465 4769.0 
165.090973 29553.0 
173.000046 27940.0 
176.047028 48955.0 
178.670807 3072.0 
181.005234 267806.0 
181.06459 6526.0 
182.072067 4176.0 
191.070343 382098.0 
194.072678 4570.0 
195.080704 15141.0 
197.058899 3686.0 
205.064514 5290.0 
211.075851 5803.0 
215.027512 3402.0 
222.066788 4263.0 
223.075531 20901.0 
224.084213 4471.0 
235.074066 20698.0 
238.099152 14133.0 
239.025787 13880.0 
239.069763 12119.0 
240.077728 5217.0 
241.08696 21476.0 
242.049408 13694.0 
243.021027 12389.0 
245.035965 4730.0 
251.069733 16877.0 
255.020859 28188.0 
255.101837 16631.0 
257.036499 25078.0 
258.045258 5860.0 
261.030945 5321.0 
265.084747 4242.0 
266.094025 4910.0 
268.074677 3899.0 
269.039825 10955.0 
269.081207 28723.0 
270.044312 19041.0 
273.067719 11408.0 
283.096466 40385.0 
284.103424 22067.0 
285.032318 22189.0 
286.037994 6304.0 
287.046783 5031.0 
288.018768 4301.0 
301.062408 74459.0 
303.042053 12077.0 
304.048645 18941.0 
318.082916 4562.0 
319.072815 1689516.0 
319.222931 70410.0 
END IONS

BEGIN IONS
NAME="2-(6-amino-4-hydroxypyrimidin-2-ylthio)-N,N-dimethylacetamide CollisionEnergy:205060" M+H
PRECURSOR_MZ=229.075
INCHI="InChI=1S/C8H12N4O2S/c1-12(2)7(14)4-15-8-10-5(9)3-6(13)11-8/h3H,4H2,1-2H3,(H3,9,10,11,13)"
SMILES=CN(C)C(=O)CSc1nc(N)cc(O)n1
SPECTRUMID=CCMSLIB00010121377
53.371651 2898.0 
54.052608 2573.0 
58.065521 19339.0 
68.013443 48228.0 
71.990517 10969.0 
73.413887 3391.0 
73.96199 3302.0 
82.206512 2679.0 
83.990433 10368.0 
86.060158 14619.0 
90.688103 2799.0 
97.039619 446646.0 
104.297371 3175.0 
104.44799 2787.0 
110.034401 5490.0 
117.011597 131074.0 
126.995903 925271.0 
138.995773 179689.0 
139.008011 3807.0 
144.02243 50887.0 
156.022354 1312699.0 
184.017273 2232321.0 
229.075104 17155.0 
229.235626 4600.0 
END IONS

BEGIN IONS
NAME=3-methoxy-4-(2-oxo-2-piperidylethoxy)benzaldehyde CollisionEnergy:102040 M+Na
PRECURSOR_MZ=300.121
INCHI="InChI=1S/C15H19NO4/c1-19-14-9-12(10-17)5-6-13(14)20-11-15(18)16-7-3-2-4-8-16/h5-6,9-10H,2-4,7-8,11H2,1H3"
SMILES=COc1cc(C=O)ccc1OCC(=O)N1CCCCC1
SPECTRUMID=CCMSLIB00010105534
50.481461 3138.0 
88.568398 3110.0 
88.729424 2613.0 
94.008507 2876.0 
106.062576 38292.0 
159.041794 3842.0 
174.027252 4175.0 
194.160767 3095.0 
209.978058 5568.0 
215.031143 22210.0 
262.626587 3231.0 
271.115692 6189.0 
272.126404 3012.0 
276.897614 10990.0 
285.097565 17701.0 
300.120087 11399065.0 
301.479248 4536.0 
END IONS

BEGIN IONS
NAME=ST027719 CollisionEnergy:205060 M-H
PRECURSOR_MZ=317.114
INCHI="InChI=1S/C16H18N2O5/c1-4-7-18-15(20)11(14(19)17-16(18)21)8-10-5-6-12(22-2)13(9-10)23-3/h4-6,9,11H,1,7-8H2,2-3H3,(H,17,19,21)"
SMILES=C=CCN1C(=O)N=C(O)C(Cc2ccc(OC)c(OC)c2)C1=O
SPECTRUMID=CCMSLIB00010122684
66.512306 3040.0 
73.907211 2627.0 
81.102707 2759.0 
88.609337 2750.0 
90.934227 2745.0 
92.386383 3771.0 
92.995697 5575.0 
96.008942 5204.0 
112.98568 216984.0 
121.02919 4941.0 
123.045547 3828.0 
130.042389 11067.0 
130.993286 4313.0 
132.045715 5331.0 
133.029587 14510.0 
139.014923 173638.0 
139.027161 5750.0 
144.045547 51303.0 
146.061172 28278.0 
146.940079 2809.0 
147.045181 3205.0 
154.864426 3267.0 
159.032166 21982.0 
160.040512 152740.0 
160.07663 15838.0 
161.02449 160188.0 
167.046509 51518.0 
172.076828 12382.0 
173.060272 4772.0 
174.056137 20323.0 
175.040588 41957.0 
179.046936 20524.0 
180.973618 33568.0 
183.069061 21090.0 
184.039749 6788.0 
186.092682 6900.0 
189.042679 4426.0 
190.087143 12638.0 
191.069809 3303.0 
197.088242 3302.0 
200.071884 98107.0 
204.030228 23973.0 
207.05394 58283.0 
209.761978 6190.0 
212.044113 46007.0 
216.06488 3130.0 
243.077835 3677.0 
244.062637 21712.0 
246.028671 16181.0 
248.959427 5511.0 
258.076752 29128.0 
259.072266 108499.0 
260.623474 3005.0 
261.051636 26941.0 
271.072845 23065.0 
273.088409 155502.0 
284.081635 6760.0 
285.089081 16143.0 
286.059113 5452.0 
287.067688 1759450.0 
288.352753 3175.0 
301.08313 457394.0 
302.091278 168388.0 
317.114532 2112311.0 
END IONS

BEGIN IONS
NAME=Isosakuranetin CollisionEnergy:205060 M-H
PRECURSOR_MZ=285.077
INCHI="InChI=1S/C16H14O5/c1-20-11-4-2-9(3-5-11)14-8-13(19)16-12(18)6-10(17)7-15(16)21-14/h2-7,14,17-18H,8H2,1H3/t14-/m0/s1"
SMILES=COc1ccc(C2CC(=O)c3c(O)cc(O)cc3O2)cc1
SPECTRUMID=CCMSLIB00010117646
55.162182 15005.0 
59.01339 28221.0 
60.317451 15129.0 
63.023609 3298709.0 
65.002876 3692168.0 
67.018509 75841.0 
68.997879 200057.0 
69.034187 127094.0 
71.823387 14119.0 
78.079819 17770.0 
79.018608 116118.0 
80.02108 22117.0 
80.026489 1038686.0 
83.013634 3710610.0 
95.013634 223288.0 
97.029198 89741.0 
104.302582 15695.0 
107.013779 8113247.0 
108.021591 6698836.0 
108.992729 36303.0 
109.028633 22946.0 
110.000572 30211.0 
110.41256 17409.0 
111.008438 26335.0 
112.016327 24808.0 
117.0345 35711.0 
118.667511 18917.0 
119.049911 171213.0 
120.021469 74475.0 
121.029709 25489.0 
122.000633 28316.0 
123.008636 1120336.0 
124.016434 526175.0 
125.024246 206154.0 
125.995461 18988.0 
130.042297 26664.0 
132.021973 22325.0 
132.057739 177088.0 
133.029282 101093.0 
134.037262 210830.0 
135.008743 68366.0 
136.016357 7538151.0 
143.050003 24120.0 
145.029434 127227.0 
147.082336 17526.0 
149.995193 24170.0 
151.003403 6989943.0 
152.010635 148920.0 
156.058151 245587.0 
157.065002 29895.0 
158.036972 84841.0 
159.044937 680354.0 
160.052765 251868.0 
163.003052 26162.0 
164.011261 9223083.0 
168.005737 38522.0 
169.01384 262648.0 
169.065598 74177.0 
171.045135 109849.0 
171.081451 26759.0 
172.052902 65573.0 
173.060638 70036.0 
175.076096 2020289.0 
177.018967 675517.0 
181.065369 39822.0 
183.044861 380380.0 
184.052765 306418.0 
185.023682 71527.0 
186.031845 1109931.0 
187.039581 823914.0 
196.001007 14092025.0 
196.482956 18790.0 
197.060425 249371.0 
198.004807 66467.0 
198.068207 713851.0 
199.041016 236590.0 
199.075775 598786.0 
200.047516 795516.0 
201.055298 1086297.0 
202.063309 285535.0 
208.053757 26087.0 
209.793274 33244.0 
211.039719 80578.0 
213.019424 17310.0 
214.062317 24723.0 
215.071091 853684.0 
217.086823 523793.0 
217.769257 16121.0 
224.04657 19948.0 
225.055038 356065.0 
226.063309 550082.0 
227.034698 776738.0 
227.058929 34222.0 
228.042343 998875.0 
241.050705 92162.0 
241.086563 446261.0 
242.057739 144797.0 
243.065872 3916410.0 
252.045029 22073.0 
253.050034 26523.0 
257.081451 137587.0 
269.045013 366372.0 
270.053162 1516041.0 
283.059723 31273.0 
285.076599 52859276.0 
END IONS

BEGIN IONS
NAME="methyl 4-[(5R)-5-(methoxycarbonyloxy)-2,15-dimethyl-16-oxotetracyclo[8.7.0.0<2 ,7>.0<11,15>]heptadeca-9,11-dien-14-yl]pentanoate CollisionEnergy:102040" M+H
PRECURSOR_MZ=459.274
INCHI="InChI=1S/C27H38O6/c1-16(6-11-24(29)31-4)20-9-10-21-19-8-7-17-14-18(33-25(30)32-5)12-13-26(17,2)22(19)15-23(28)27(20,21)3/h8,10,16-18,20,22H,6-7,9,11-15H2,1-5H3"
SMILES=COC(=O)CCC(C)C1CC=C2C3=CCC4CC(OC(=O)OC)CCC4(C)C3CC(=O)C21C
SPECTRUMID=CCMSLIB00010114416
52.783058 2888.0 
67.055038 4269.0 
75.419434 2775.0 
77.0242 16081.0 
79.055183 3757.0 
81.070602 11919.0 
83.049858 6679.0 
83.086304 3335.0 
85.065628 4244.0 
85.20948 2798.0 
92.372467 3147.0 
93.070572 16755.0 
95.049942 2981.0 
95.085823 28708.0 
98.097191 12328.0 
99.043732 4074.0 
105.070587 17231.0 
107.086098 14099.0 
109.101387 3342.0 
115.075729 5798.0 
119.085854 12830.0 
121.063683 2950.0 
121.101921 14886.0 
123.080887 11310.0 
124.507248 2711.0 
125.096863 5996.0 
131.085556 4515.0 
133.101837 5448.0 
135.081009 17178.0 
143.086426 10927.0 
145.102066 13854.0 
147.081345 4249.0 
147.117264 10367.0 
155.086182 6637.0 
157.102127 13782.0 
159.081589 11072.0 
159.116531 25706.0 
161.097229 3206.0 
161.13298 3949.0 
163.112335 15488.0 
169.102112 18805.0 
173.096756 3086.0 
181.102203 3505.0 
183.117493 6783.0 
185.095337 6327.0 
185.13353 5512.0 
187.11351 13710.0 
189.128067 11424.0 
195.116699 6851.0 
197.13295 18519.0 
199.111755 5424.0 
199.148758 14522.0 
207.11731 3392.0 
209.133133 14412.0 
211.147491 27971.0 
213.126785 20888.0 
213.163803 5921.0 
215.142975 5271.0 
221.133194 4392.0 
223.148071 16624.0 
225.12706 41724.0 
225.16478 6887.0 
227.14325 6939.0 
229.158417 51578.0 
235.147888 10425.0 
237.127365 3053.0 
237.16301 10177.0 
239.142487 13101.0 
239.181107 3473.0 
241.158966 25693.0 
243.137619 69244.0 
249.164368 13905.0 
251.144424 5465.0 
251.179611 16576.0 
253.159439 3994.0 
257.153412 14346.0 
261.164551 11816.0 
263.179352 4414.0 
265.159332 5940.0 
267.174072 6801.0 
269.154236 12165.0 
269.189819 11728.0 
277.158691 14776.0 
279.175354 6752.0 
281.191559 5242.0 
283.168152 3861.0 
291.174347 11510.0 
291.209595 8755.0 
295.169678 13546.0 
297.184723 27698.0 
305.225861 44255.0 
307.240784 25147.0 
309.184265 30275.0 
309.219757 5369.0 
315.211639 11059.0 
323.237 44237.0 
333.220856 94459.0 
351.231598 572846.0 
383.257782 378317.0 
383.302612 4603.0 
399.25354 22576.0 
404.964294 3132.0 
427.24762 393022.0 
430.273071 3742.0 
459.272491 928393.0 
END IONS

BEGIN IONS
NAME="methylethyl (2E)-2-cyano-3-(2,3,4-trimethoxyphenyl)prop-2-enoate CollisionEnergy:205060" M+Na
PRECURSOR_MZ=328.116
INCHI="InChI=1S/C16H19NO5/c1-10(2)22-16(18)12(9-17)8-11-6-7-13(19-3)15(21-5)14(11)20-4/h6-8,10H,1-5H3/b12-8+"
SMILES=COc1ccc(C=C(C#N)C(=O)OC(C)C)c(OC)c1OC
SPECTRUMID=CCMSLIB00010125441
61.434071 2159.0 
62.981998 2554.0 
66.740356 2054.0 
87.29763 2083.0 
92.375763 2279.0 
98.983902 2912.0 
104.281273 2645.0 
118.65609 2766.0 
138.298752 2136.0 
166.710922 2795.0 
183.556198 2138.0 
197.021484 2157.0 
239.196503 2604.0 
286.06778 55575.0 
328.114716 185961.0 
334.166046 2450.0 
END IONS

BEGIN IONS
NAME=(2E)-4-(4-chlorophenyl)-4-oxobut-2-enoic acid CollisionEnergy:205060 M-H
PRECURSOR_MZ=209.001
INCHI="InChI=1S/C10H7ClO3/c11-8-3-1-7(2-4-8)9(12)5-6-10(13)14/h1-6H,(H,13,14)/b6-5+"
SMILES=O=C(O)C=CC(=O)c1ccc(Cl)cc1
SPECTRUMID=CCMSLIB00010124078
52.132961 1959.0 
53.790131 2034.0 
65.378059 1845.0 
69.003189 1889.0 
87.629372 1856.0 
92.401291 2885.0 
92.995888 4363.0 
103.920349 3721.0 
111.385307 2003.0 
118.684532 2508.0 
129.034576 2774.0 
136.214111 2113.0 
136.239349 2377.0 
137.016113 4565.0 
142.991867 3467.0 
147.045135 34922.0 
165.010651 41562.0 
180.989151 2798.0 
181.006256 7384.0 
185.438873 2797.0 
186.655258 2128.0 
209.000595 31523.0 
209.082764 2468.0 
355.282654 2542.0 
384.308014 2298.0 
END IONS

BEGIN IONS
NAME="2-methoxyethyl 4-(3-chloro-4-hydroxy-5-methoxyphenyl)-2-methyl-5-oxo-1,4,6,7,8 -pentahydroquinoline-3-carboxylate CollisionEnergy:205060" M-H
PRECURSOR_MZ=420.122
INCHI="InChI=1S/C21H24ClNO6/c1-11-17(21(26)29-8-7-27-2)18(19-14(23-11)5-4-6-15(19)24)12-9-13(22)20(25)16(10-12)28-3/h9-10,18,23,25H,4-8H2,1-3H3"
SMILES=COCCOC(=O)C1=C(C)NC2=C(C(=O)CCC2)C1c1cc(Cl)c(O)c(OC)c1
SPECTRUMID=CCMSLIB00010120969
50.473518 2217.0 
50.543839 2579.0 
55.2029 2623.0 
61.356731 2244.0 
66.521294 2276.0 
66.751892 2414.0 
73.965233 3246.0 
92.391747 3242.0 
118.670197 3087.0 
124.30407 2588.0 
124.382156 2406.0 
130.066177 3720.0 
141.982605 338810.0 
146.061813 2601.0 
148.040436 12329.0 
157.006149 58961.0 
158.061005 32148.0 
160.076385 21218.0 
162.05632 4765.0 
174.056198 13519.0 
186.054901 4245.0 
203.059158 11285.0 
235.049545 10998.0 
238.051468 4579.0 
262.108459 50492.0 
285.050262 2598.0 
328.039032 3738.0 
344.07016 4933.0 
420.122009 396569.0 
END IONS

BEGIN IONS
NAME="3-(3-amino-5,6-dimethoxyphenyl)propanoic acid CollisionEnergy:205060" M+H
PRECURSOR_MZ=226.107
INCHI="InChI=1S/C11H15NO4/c1-15-9-6-8(12)5-7(11(9)16-2)3-4-10(13)14/h5-6H,3-4,12H2,1-2H3,(H,13,14)"
SMILES=COc1cc(N)cc(CCC(=O)O)c1OC
SPECTRUMID=CCMSLIB00010117146
55.018429 2363.0 
56.96534 4547.0 
62.44939 2571.0 
63.35302 2402.0 
73.571693 3035.0 
79.054466 12454.0 
84.960052 3764.0 
91.054207 4038.0 
92.380867 3444.0 
93.05751 12689.0 
94.065033 3901.0 
95.073082 3977.0 
106.065201 92184.0 
107.072929 27329.0 
108.04435 5753.0 
108.080673 15018.0 
110.05986 2728.0 
120.081299 5446.0 
121.052078 12421.0 
122.059708 23227.0 
123.06781 99307.0 
124.075623 16701.0 
134.060043 12025.0 
136.075851 55531.0 
138.055252 21390.0 
138.091339 103361.0 
148.075211 19830.0 
149.083725 16697.0 
150.054962 64675.0 
150.091583 13932.0 
151.06279 2182649.0 
152.070129 3065.0 
153.078232 6328.0 
162.05481 182933.0 
164.070862 28292.0 
165.078445 638194.0 
166.086273 496331.0 
169.327316 2750.0 
176.070999 5857.0 
177.07843 567665.0 
178.049622 17057.0 
180.101868 72164.0 
192.909683 9308.0 
193.0737 67840.0 
202.972809 2612.0 
208.096802 1220116.0 
210.920822 5069.0 
211.083084 5851.0 
220.904495 7950.0 
226.1073 42365.0 
226.160614 4985.0 
END IONS

BEGIN IONS
NAME=N-[(4-methoxyphenyl)methyl]-2-purin-6-ylthioacetamide CollisionEnergy:205060 2M-H
PRECURSOR_MZ=657.182
INCHI="InChI=1S/C15H15N5O2S/c1-22-11-4-2-10(3-5-11)6-16-12(21)7-23-15-13-14(18-8-17-13)19-9-20-15/h2-5,8-9H,6-7H2,1H3,(H,16,21)(H,17,18,19,20)"
SMILES=COc1ccc(CN=C(O)CSc2ncnc3[nH]cnc23)cc1
SPECTRUMID=CCMSLIB00010121557
66.757133 3317.0 
76.249039 2748.0 
80.691231 2724.0 
87.319733 2951.0 
117.020683 34913.0 
119.036339 38599.0 
132.0448 3762.0 
133.039322 52763.0 
136.238251 3090.0 
150.000412 36977.0 
151.008362 13851.0 
160.558228 3311.0 
163.009003 13815.0 
165.024384 12689.0 
191.003433 62939.0 
208.958542 8051.0 
254.105133 37080.0 
269.892365 3135.0 
328.087494 152800.0 
348.968842 3169.0 
645.66333 4158.0 
686.48938 4175.0 
END IONS

BEGIN IONS
NAME=N-(3-fluorophenyl)-2-{2-oxo-4-[N-benzylcarbamoyl]hydroquinolyl}acetamide CollisionEnergy:102040 M+H
PRECURSOR_MZ=430.156
INCHI="InChI=1S/C25H20FN3O3/c26-18-9-6-10-19(13-18)28-23(30)16-29-22-12-5-4-11-20(22)21(14-24(29)31)25(32)27-15-17-7-2-1-3-8-17/h1-14H,15-16H2,(H,27,32)(H,28,30)"
SMILES=O=c1cc(C(O)=NCc2ccccc2)c2ccccc2n1CC(O)=Nc1cccc(F)c1
SPECTRUMID=CCMSLIB00010111077
82.028893 4258.0 
91.054428 1118666.0 
92.376671 3526.0 
104.288361 3557.0 
157.822601 3327.0 
158.06012 3663.0 
164.291855 3600.0 
180.080765 55003.0 
199.050507 15552.0 
204.0802 3750.0 
206.059387 6939.0 
210.301208 6473.0 
217.089737 7144.0 
218.096436 171610.0 
232.076279 6459.0 
233.106613 38751.0 
261.10144 38143.0 
279.111603 44012.0 
291.112579 725703.0 
303.197144 4505.0 
304.403076 3335.0 
309.121124 3744.0 
319.107452 3902618.0 
332.138611 43398.0 
402.167694 2983.0 
410.491608 3427.0 
430.033508 3406.0 
END IONS

BEGIN IONS
NAME=2-methoxyethyl 1-{2-[(4-chlorophenyl)methoxy]ethyl}-5-hydroxy-2-methylindole-3 -carboxylate CollisionEnergy:102040 M+H
PRECURSOR_MZ=418.142
INCHI="InChI=1S/C22H24ClNO5/c1-15-21(22(26)29-12-11-27-2)19-13-18(25)7-8-20(19)24(15)9-10-28-14-16-3-5-17(23)6-4-16/h3-8,13,25H,9-12,14H2,1-2H3"
SMILES=COCCOC(=O)c1c(C)n(CCOCc2ccc(Cl)cc2)c2ccc(O)cc12
SPECTRUMID=CCMSLIB00010111764
66.754448 2720.0 
94.72126 3474.0 
104.306068 4071.0 
105.969543 3062.0 
119.085426 65131.0 
120.088882 63900.0 
121.091873 17732.0 
125.015167 475799.0 
127.012154 5722.0 
158.004623 3183.0 
173.046829 84933.0 
174.055695 24537.0 
174.091583 26407.0 
187.062561 17986.0 
200.071259 6934.0 
202.086517 6294.0 
216.066025 6488.0 
217.072678 5856.0 
263.415466 3078.0 
270.066803 6060.0 
298.062531 11738.0 
336.353058 3694.0 
340.456543 4000.0 
342.088623 5082588.0 
386.115265 15517.0 
418.141357 109293.0 
418.217194 16554.0 
END IONS

BEGIN IONS
NAME=Palatinose CollisionEnergy:102040 M-H
PRECURSOR_MZ=341.109
INCHI="InChI=1S/C12H22O11/c13-1-4-6(15)8(17)9(18)11(22-4)21-2-5-7(16)10(19)12(20,3-14)23-5/h4-11,13-20H,1-3H2/t4-,5-,6-,7-,8+,9-,10+,11+,12?/m1/s1"
SMILES=OC[C@H]1O[C@H](OC[C@H]2OC(O)(CO)[C@@H](O)[C@@H]2O)[C@H](O)[C@@H](O)[C@@H]1O
SPECTRUMID=CCMSLIB00010102626
59.013401 16325.5 
59.678501 2415.23999 
71.013702 22470.0 
81.418404 2099.679932 
85.029602 4709.27002 
87.008797 3072.409912 
89.024399 51872.300781 
101.024002 43957.800781 
113.025002 15478.599609 
119.035004 24292.5 
131.033997 3429.419922 
143.035004 4080.580078 
161.046997 5314.799805 
179.056 47557.0 
214.199005 2373.01001 
221.067001 37856.199219 
267.054993 2407.290039 
276.798004 2241.139893 
END IONS

BEGIN IONS
NAME="3-(6,7-dimethoxy-1,2,3,4-tetrahydroisoquinolyl)propan-1-ol CollisionEnergy:205060" M+H
PRECURSOR_MZ=252.159
INCHI="InChI=1S/C14H21NO3/c1-17-13-8-10-5-6-15-12(4-3-7-16)11(10)9-14(13)18-2/h8-9,12,15-16H,3-7H2,1-2H3"
SMILES=COc1cc2c(cc1OC)C(CCCO)NCC2
SPECTRUMID=CCMSLIB00010116366
55.05479 28220.0 
67.054626 29747.0 
69.070297 44508.0 
70.065437 22024.0 
71.049492 7083116.0 
79.054482 282894.0 
91.054268 141587.0 
92.380722 25025.0 
103.054108 102712.0 
105.069839 276456.0 
107.04882 42121.0 
115.054024 111598.0 
117.056953 46699.0 
117.06987 157887.0 
119.049042 34513.0 
120.056328 38234.0 
121.064583 333814.0 
128.062149 111948.0 
129.069672 428002.0 
130.06517 96429.0 
130.077362 23254.0 
131.048767 145014.0 
131.08522 197874.0 
132.056976 114841.0 
133.053146 37822.0 
133.064529 358588.0 
134.061966 24421.0 
134.072357 128362.0 
135.043304 40730.0 
135.080444 150936.0 
136.051392 109525.0 
137.059448 163651.0 
138.067123 212307.0 
141.069305 83343.0 
142.077438 196663.0 
143.048782 113547.0 
143.073761 42324.0 
143.085403 258114.0 
144.057037 171871.0 
145.052811 57571.0 
145.064621 849520.0 
145.100723 49755.0 
146.059799 78768.0 
146.072327 158282.0 
147.067596 82192.0 
147.080475 148016.0 
148.075333 132353.0 
149.059494 141526.0 
150.067307 961566.0 
151.061401 46031.0 
151.075058 1253771.0 
152.082794 29066.0 
153.068939 40171.0 
154.077652 31286.0 
155.085083 233168.0 
157.064743 536963.0 
157.101028 106432.0 
158.072433 1138013.0 
159.044556 189801.0 
159.067963 61055.0 
159.080276 1275683.0 
160.053146 292764.0 
160.075119 1236089.0 
160.088211 1553978.0 
161.059479 1140218.0 
161.082535 310553.0 
161.096451 126421.0 
162.06691 86193.0 
162.091217 75050.0 
163.075363 296976.0 
164.069916 94950.0 
164.083511 72913.0 
165.090851 6297020.0 
169.064407 81522.0 
170.072418 230659.0 
170.096283 40297.0 
171.063187 30316.0 
171.080292 1357462.0 
171.104553 91030.0 
172.087784 120974.0 
173.059723 879673.0 
173.095871 1810996.0 
174.067337 2271116.0 
174.103912 578857.0 
175.075073 1137538.0 
175.111359 46690.0 
176.083008 3112464.0 
177.078751 42013.0 
177.091492 331270.0 
178.085846 85271.0 
178.100067 25047.0 
179.09317 104250.0 
179.106796 95450.0 
180.102112 20957.0 
182.117294 2877649.0 
184.087952 46180.0 
185.095932 439956.0 
186.103714 3328604.0 
187.075058 1775413.0 
187.096405 69360.0 
188.082947 2191416.0 
188.102921 69392.0 
189.090683 7675732.0 
190.098846 270127.0 
191.106339 2669445.0 
192.082092 20486.0 
192.101364 116454.0 
193.085373 82872.0 
193.121292 36127.0 
200.082977 24945.0 
201.090622 166528.0 
202.098679 2381133.0 
202.121246 220531.0 
203.10704 23368.0 
203.129257 47961.0 
205.122131 586215.0 
215.105164 35933.0 
217.122009 7029965.0 
218.113815 21469.0 
220.109116 1134763.0 
220.131668 67221.0 
221.139786 24490.0 
234.14949 42890.0 
235.132416 2869509.0 
237.135986 106423.0 
252.15892 22198218.0 
END IONS

BEGIN IONS
NAME=4-((hydroxyimino)methyl)-1-methylhydroquinolin-2-one CollisionEnergy:102040 M+H
PRECURSOR_MZ=203.082
INCHI="InChI=1S/C11H10N2O2/c1-13-10-5-3-2-4-9(10)8(7-12-15)6-11(13)14/h2-7,15H,1H3/b12-7+"
SMILES=Cn1c(=O)cc(C=NO)c2ccccc21
SPECTRUMID=CCMSLIB00010105389
56.96524 1096116.0 
63.20747 51051.0 
89.039124 73559.0 
92.98632 96373.0 
97.991508 794239.0 
116.001907 58611.0 
118.065041 115282.0 
123.067299 365599.0 
130.06572 297455.0 
134.060074 987402.0 
135.068207 492202.0 
139.028259 205493.0 
141.531387 87145.0 
146.059479 48829.0 
148.033524 350921.0 
148.076447 362151.0 
150.536163 528489.0 
156.067429 82860.0 
157.037186 64606.0 
157.076111 251257.0 
158.060165 973771.0 
159.06723 1402004.0 
159.541595 3494086.0 
160.043671 215684.0 
162.055649 99745.0 
163.062607 8577292.0 
168.546738 1822503.0 
169.047638 80520.0 
171.054672 986521.0 
176.070343 292372.0 
180.054977 113294.0 
185.07077 13885495.0 
186.078568 12575961.0 
191.057526 17910730.0 
194.044418 77204.0 
202.336349 95043.0 
203.081299 250511712.0 
END IONS

BEGIN IONS
NAME=Lobeline hydrochloride CollisionEnergy:102040 M+H
PRECURSOR_MZ=338.211
INCHI="InChI=1S/C22H27NO2/c1-23-19(15-21(24)17-9-4-2-5-10-17)13-8-14-20(23)16-22(25)18-11-6-3-7-12-18/h2-7,9-12,19-21,24H,8,13-16H2,1H3/t19-,20?,21?/m0/s1"
SMILES=CN1C(CC(=O)c2ccccc2)CCCC1CC(O)c1ccccc1
SPECTRUMID=CCMSLIB00010104008
55.054729 7319.0 
56.049969 5657.0 
58.029099 11514.0 
58.065449 40542.0 
66.750557 8031.0 
67.054672 26162.0 
68.049767 51735.0 
70.065376 551282.0 
79.054428 78706.0 
81.033691 8187.0 
81.057533 42267.0 
81.070007 41930.0 
82.065117 47817.0 
82.39801 6186.0 
84.080757 9692.0 
91.054169 198951.0 
94.058212 10363.0 
94.065063 254980.0 
94.732674 6259.0 
96.080688 16691955.0 
98.09626 1772818.0 
104.287117 6499.0 
105.033279 2741717.0 
107.048973 32324.0 
108.08036 47272.0 
109.088516 87692.0 
110.096283 31600.0 
112.112038 6611.0 
114.091164 183099.0 
117.069832 38996.0 
118.87767 6236.0 
120.079903 10516.0 
129.069489 31204.0 
131.085236 41519.0 
133.06485 8802.0 
136.075211 38734.0 
141.070038 11067.0 
143.073105 12820.0 
143.085342 269276.0 
146.096039 10536.0 
148.11203 32859.0 
157.100906 42144.0 
159.080002 104836.0 
159.116684 39124.0 
162.090958 35708.0 
167.085342 12182.0 
169.101562 10814.0 
170.09549 28196.0 
174.090775 7379.0 
174.127365 27913.0 
185.095154 57152.0 
188.106506 203152.0 
198.126999 42374.0 
200.142929 3343898.0 
212.945221 7978.0 
216.137878 6591767.0 
218.153381 3093275.0 
314.881439 7655.0 
320.199951 2288238.0 
336.608154 20670.0 
337.202972 10843.0 
338.210419 39072584.0 
339.823151 17632.0 
339.868286 7254.0 
END IONS

BEGIN IONS
NAME=COUMESTROL CollisionEnergy:102040 M-H
PRECURSOR_MZ=267.03
INCHI="InChI=1S/C15H8O5/c16-7-1-3-9-11(5-7)19-14-10-4-2-8(17)6-12(10)20-15(18)13(9)14/h1-6,16-17H"
SMILES=O=c1oc2cc(O)ccc2c2oc3cc(O)ccc3c12
SPECTRUMID=CCMSLIB00010107693
51.82259 2920.0 
82.406036 3485.0 
92.384911 3490.0 
104.292107 4240.0 
115.013573 2926.0 
135.008652 16346.0 
136.223022 3226.0 
153.019104 4090.0 
167.051453 3446.0 
169.50943 3325.0 
195.045273 18600.0 
211.040161 44667.0 
213.853577 3606.0 
223.040131 17154.0 
232.03653 3443.0 
239.035141 150925.0 
265.886841 7078.0 
265.913635 4318.0 
266.022003 269869.0 
267.029846 10052397.0 
268.17926 8691.0 
END IONS

BEGIN IONS
NAME=2-(4-hydroxyquinazolin-2-ylthio)-N-[(4-methoxyphenyl)methyl]acetamide CollisionEnergy:102040 M-H
PRECURSOR_MZ=354.092
INCHI="InChI=1S/C18H17N3O3S/c1-24-13-8-6-12(7-9-13)10-19-16(22)11-25-18-20-15-5-3-2-4-14(15)17(23)21-18/h2-9H,10-11H2,1H3,(H,19,22)(H,20,21,23)"
SMILES=COc1ccc(CN=C(O)CSc2nc(O)c3ccccc3n2)cc1
SPECTRUMID=CCMSLIB00010110193
52.05587 2739.0 
57.975071 5146.0 
67.486 2456.0 
69.244743 2542.0 
72.974907 5615.0 
102.400177 3003.0 
145.040741 40374.0 
159.0439 40828.0 
161.035706 34205.0 
176.022659 5383.0 
177.012939 49578.0 
189.013718 25590.0 
191.028702 170927.0 
194.836365 2860.0 
209.831512 11820.0 
217.00798 55856.0 
264.077881 89418.0 
265.086853 12577.0 
280.109528 2173068.0 
303.245758 3997.0 
320.105072 17003.0 
354.092285 1072210.0 
END IONS

BEGIN IONS
NAME=Sphinganine CollisionEnergy:102040 M+acetate
PRECURSOR_MZ=360.312
INCHI="InChI=1S/C18H39NO2/c1-2-3-4-5-6-7-8-9-10-11-12-13-14-15-18(21)17(19)16-20/h17-18,20-21H,2-16,19H2,1H3/t17-,18+/m0/s1"
SMILES=CCCCCCCCCCCCCCC[C@@H](O)[C@@H](N)CO
SPECTRUMID=CCMSLIB00010102647
50.4916 2293.669922 
54.702702 2573.310059 
65.057899 2159.909912 
68.2201 2196.459961 
72.992699 5290.819824 
104.338997 2551.709961 
118.279999 2924.800049 
159.201004 2190.919922 
190.718994 2513.689941 
266.895996 2316.620117 
359.875 3415.27002 
360.260986 3169.570068 
END IONS

BEGIN IONS
NAME=6-{[4-(2-fluorophenyl)piperazinyl]sulfonyl}-4-methylhydroquinolin-2-one CollisionEnergy:102040 2M-H
PRECURSOR_MZ=801.235
INCHI="InChI=1S/C20H20FN3O3S/c1-14-12-20(25)22-18-7-6-15(13-16(14)18)28(26,27)24-10-8-23(9-11-24)19-5-3-2-4-17(19)21/h2-7,12-13H,8-11H2,1H3,(H,22,25)"
SMILES=Cc1cc(O)nc2ccc(S(=O)(=O)N3CCN(c4ccccc4F)CC3)cc12
SPECTRUMID=CCMSLIB00010105216
73.057114 3072.0 
99.31575 3515.0 
104.286812 4244.0 
118.653214 3388.0 
160.040161 19308.0 
173.048203 21549.0 
400.113831 307991.0 
453.297485 3684.0 
497.16861 3586.0 
540.390686 3384.0 
END IONS

BEGIN IONS
NAME="3-[2-(diethylamino)ethyl]-2-(3,4,5-trimethoxyphenyl)-1,2,3-trihydroquinazolin- 4-one CollisionEnergy:205060" M+H
PRECURSOR_MZ=414.239
INCHI="InChI=1S/C23H31N3O4/c1-6-25(7-2)12-13-26-22(24-18-11-9-8-10-17(18)23(26)27)16-14-19(28-3)21(30-5)20(15-16)29-4/h8-11,14-15,22,24H,6-7,12-13H2,1-5H3"
SMILES=CCN(CC)CCN1C(=O)c2ccccc2NC1c1cc(OC)c(OC)c(OC)c1
SPECTRUMID=CCMSLIB00010115568
50.015461 26496.0 
51.023411 33389.0 
55.018291 40052.0 
65.038902 124578.0 
65.515747 21142.0 
68.026222 25143.0 
70.065483 24520.0 
72.076637 39601.0 
72.081078 1073663.0 
77.038979 29472.0 
78.034073 426993.0 
78.046768 106086.0 
79.054207 25890.0 
81.033737 26646.0 
81.069977 99893.0 
84.008461 21716.0 
86.096733 282731.0 
91.054443 125734.0 
92.025627 27165.0 
92.04953 239803.0 
93.033379 111730.0 
93.057198 114618.0 
95.049118 52004.0 
100.112053 4630920.0 
102.033684 52291.0 
104.049553 337233.0 
104.287727 23877.0 
105.033386 1355339.0 
105.056519 21916.0 
105.069588 24063.0 
106.028793 29520.0 
106.041298 49648.0 
106.065079 212067.0 
107.048973 102040.0 
108.056351 99000.0 
109.064743 359117.0 
117.05722 1103489.0 
118.064987 685766.0 
119.036507 32844.0 
119.049789 27537.0 
119.060158 133942.0 
120.044273 1562667.0 
121.051781 94013.0 
123.043549 90801.0 
124.05162 54722.0 
125.059479 114722.0 
129.044601 5103960.0 
130.028717 9331713.0 
130.039307 536854.0 
130.064651 277762.0 
131.050339 24040.0 
131.060699 190717.0 
132.044266 4762459.0 
132.080276 206712.0 
133.075851 655325.0 
134.05957 28927.0 
135.043991 209368.0 
137.04837 34032.0 
137.05957 414762.0 
138.055298 37727.0 
138.067322 863685.0 
139.038971 240808.0 
139.075317 234707.0 
139.554062 22930.0 
143.06015 54535.0 
145.075974 43925.0 
146.059448 119349.0 
147.042892 42444.0 
147.055283 957302.0 
147.067322 63140.0 
147.092758 26417.0 
148.051926 375887.0 
148.075241 506328.0 
150.054794 578836.0 
151.038666 45155.0 
151.0625 32707.0 
152.046753 265574.0 
153.054077 159913.0 
154.062286 10679238.0 
155.072144 38933.0 
155.399323 26200.0 
162.054764 47161.0 
162.078949 84799.0 
163.038544 48624.0 
163.086304 129983.0 
165.054718 451106.0 
166.0634 119109.0 
167.070404 454303.0 
169.085815 4539760.0 
170.059296 38090.0 
171.05481 54562.0 
172.051041 26421.0 
173.070831 1788131.0 
175.086395 238153.0 
178.049759 212376.0 
178.064743 32021.0 
179.033951 177689.0 
179.056854 81780.0 
179.072708 97732.0 
180.064514 72973.0 
180.080429 843481.0 
181.086151 4345884.0 
183.068085 35620.0 
183.09082 32462.0 
184.036316 127900.0 
184.075668 256524.0 
190.063339 47939.0 
191.072479 38111.0 
192.081161 32762.0 
193.07489 52597.0 
194.059357 124911.0 
194.081207 106333.0 
195.066422 329731.0 
195.103821 105215.0 
196.075699 354643.0 
197.071121 148302.0 
198.055099 153258.0 
198.090881 374788.0 
199.085785 31628.0 
205.073853 40668.0 
206.060608 45097.0 
206.08078 41733.0 
207.067764 213611.0 
207.09137 891456.0 
208.075287 662319.0 
208.099213 572751.0 
209.063065 33348.0 
209.083694 619047.0 
209.104935 43563.0 
210.054825 74832.0 
210.092545 273354.0 
211.063156 72965.0 
211.086182 149747.0 
212.070221 491059.0 
213.078476 27505.0 
219.091187 25609.0 
220.075272 171038.0 
220.097031 36505.0 
221.069489 251585.0 
221.106796 154409.0 
222.055435 247525.0 
222.09314 248293.0 
222.114822 89213.0 
223.061386 89335.0 
223.086548 205367.0 
224.070297 1418767.0 
224.092789 51370.0 
225.077438 112075.0 
225.101395 44377.0 
226.085983 872780.0 
227.093933 101077.0 
229.072281 50382.0 
233.08345 36298.0 
234.090363 80325.0 
235.061981 56429.0 
235.085892 1251083.0 
236.06958 1279235.0 
236.094345 1154848.0 
237.077408 719691.0 
237.102142 268798.0 
238.047272 50067.0 
238.087479 802408.0 
239.056442 87515.0 
239.080246 702323.0 
240.06514 1725374.0 
240.100159 138408.0 
241.073441 47725.0 
241.111816 23821.0 
242.080414 49125.0 
246.078735 32144.0 
247.086426 42039.0 
248.06842 45599.0 
249.073273 46608.0 
249.101883 525803.0 
250.048462 109689.0 
250.084457 397646.0 
250.111099 67525.0 
251.080338 3269606.0 
251.11705 101655.0 
252.064957 2054649.0 
252.093719 137384.0 
253.070786 57954.0 
253.09642 1207655.0 
254.080688 2304006.0 
255.089417 434334.0 
256.095703 38017.0 
261.100922 42788.0 
262.084656 102766.0 
263.080658 944583.0 
264.064026 705648.0 
264.091827 422399.0 
265.070496 581765.0 
265.097382 723598.0 
266.04364 42568.0 
266.078674 255957.0 
266.109253 84607.0 
267.075928 3908238.0 
267.110626 231929.0 
268.059692 2001606.0 
268.09549 813065.0 
269.104248 968328.0 
270.077972 35027.0 
270.112091 172835.0 
277.095734 93010.0 
278.105621 31076.0 
279.078308 229009.0 
279.112061 2728258.0 
280.121582 2336555.0 
281.091492 2820813.0 
282.073517 551239.0 
282.099762 1818463.0 
282.138794 33820.0 
283.082062 528326.0 
283.112396 203108.0 
289.098724 43677.0 
293.091919 236044.0 
293.126526 32010.0 
294.113251 196754.0 
295.107147 3012545.0 
295.201355 147247.0 
296.115448 154125.0 
297.047943 24481.0 
297.088715 363890.0 
297.122528 6665080.0 
298.106689 9262922.0 
307.106964 2613040.0 
308.113922 112061.0 
309.122223 145074.0 
310.131042 176313.0 
311.10199 2201103.0 
311.138428 211854.0 
312.108887 31712.0 
325.117462 4687113.0 
326.125366 162207.0 
339.523407 26696.0 
340.137909 45844.0 
341.148926 50469268.0 
399.217743 28827.0 
414.237732 33252364.0 
END IONS

BEGIN IONS
NAME="3-[(3,5-dimethoxyphenyl)carbonylamino]-3-(3-nitrophenyl)propanoic acid CollisionEnergy:205060" M+Na
PRECURSOR_MZ=397.101
INCHI="InChI=1S/C18H18N2O7/c1-26-14-7-12(8-15(9-14)27-2)18(23)19-16(10-17(21)22)11-4-3-5-13(6-11)20(24)25/h3-9,16H,10H2,1-2H3,(H,19,23)(H,21,22)"
SMILES=COc1cc(OC)cc(C(O)=NC(CC(=O)O)c2cccc([N+](=O)[O-])c2)c1
SPECTRUMID=CCMSLIB00010121310
57.027119 2241.0 
60.957859 2563.0 
66.745079 2288.0 
82.837082 2317.0 
157.563629 2466.0 
165.054626 3592.0 
172.173111 2680.0 
204.062332 2945.0 
221.557404 2324.0 
228.757401 2529.0 
244.333389 2553.0 
292.844727 2713.0 
397.09964 558594.0 
END IONS

BEGIN IONS
NAME=N-(4-ethoxyphenyl)-2-[4-(N-methylcarbamoyl)-2-oxohydroquinolyl]acetamide CollisionEnergy:205060 M+formate
PRECURSOR_MZ=424.151
INCHI="InChI=1S/C21H21N3O4/c1-3-28-15-10-8-14(9-11-15)23-19(25)13-24-18-7-5-4-6-16(18)17(12-20(24)26)21(27)22-2/h4-12H,3,13H2,1-2H3,(H,22,27)(H,23,25)"
SMILES=CCOc1ccc(NC(=O)Cn2c(=O)cc(C(O)=NC)c3ccccc32)cc1
SPECTRUMID=CCMSLIB00010123747
92.371223 2971.0 
94.918808 2289.0 
104.27948 2621.0 
107.03788 3390.0 
116.050812 9977.0 
118.647461 3496.0 
128.050659 31134.0 
129.614914 2340.0 
130.066742 33924.0 
131.048126 2340.0 
134.024811 34984.0 
142.066467 3586.0 
144.045593 39179.0 
148.04068 5752.0 
156.069717 5862.0 
157.966293 2825.0 
158.048325 34625.0 
158.061371 31516.0 
160.040161 12641.0 
169.077408 4405.0 
171.092865 29373.0 
172.039703 4106.0 
173.072128 13478.0 
176.07225 4681.0 
185.07193 28512.0 
201.067474 23368.0 
202.050095 3765.0 
217.061752 5268.0 
241.062103 5862.0 
289.799164 2395.0 
293.092896 11520.0 
321.124176 16231.0 
339.491119 2847.0 
378.14624 173413.0 
END IONS

BEGIN IONS
NAME="2-methyl-4-(phenylcarbonyl)phenyl 2-(1,3-dioxobenzo[c]azolin-2-yl)acetate CollisionEnergy:102040" M+H
PRECURSOR_MZ=400.118
INCHI="InChI=1S/C24H17NO5/c1-15-13-17(22(27)16-7-3-2-4-8-16)11-12-20(15)30-21(26)14-25-23(28)18-9-5-6-10-19(18)24(25)29/h2-13H,14H2,1H3"
SMILES=Cc1cc(C(=O)c2ccccc2)ccc1OC(=O)CN1C(=O)c2ccccc2C1=O
SPECTRUMID=CCMSLIB00010110894
53.03891 5287.0 
56.129269 2928.0 
67.759369 3674.0 
69.425858 3304.0 
74.699364 3295.0 
74.775063 3003.0 
76.031441 3702.0 
77.035133 3897.0 
77.039513 16809.0 
79.224419 3865.0 
82.387466 3653.0 
92.367683 3261.0 
94.207611 2914.0 
95.049583 3946.0 
104.026543 3835.0 
104.278374 4244.0 
105.033508 1523163.0 
133.028412 21896.0 
135.043961 247082.0 
157.955307 3559.0 
160.039261 4787891.0 
178.04985 14402.0 
188.034241 175962.0 
213.090866 4211196.0 
225.091476 5143.0 
372.12265 21646.0 
400.117493 1832869.0 
END IONS

BEGIN IONS
NAME=5-Iodouracil CollisionEnergy:205060 M-H
PRECURSOR_MZ=236.917
INCHI="InChI=1S/C4H3IN2O2/c5-2-1-6-4(9)7-3(2)8/h1H,(H2,6,7,8,9)"
SMILES=Oc1ncc(I)c(O)n1
SPECTRUMID=CCMSLIB00010125266
51.929131 2129.0 
55.894112 2703.0 
65.998093 14800.0 
66.424461 2466.0 
73.978691 3638.0 
82.016808 14188.0 
87.925018 2898.0 
97.004143 5340.0 
98.012001 3234.0 
103.647629 2703.0 
103.919907 10529.0 
104.337486 2497.0 
113.976021 2655.0 
126.007118 10431.0 
126.904831 431909.0 
138.455338 2654.0 
166.899643 26216.0 
193.909561 5367.0 
235.965317 3254.0 
236.916626 4713199.0 
END IONS

BEGIN IONS
NAME="ethyl 10-[2-(3,4-dimethoxyphenyl)ethyl]-2,4-dioxo-3,10-dihydrobenzo[g]pteridin e-8-carboxylate CollisionEnergy:205060" M-H
PRECURSOR_MZ=449.147
INCHI="InChI=1S/C23H22N4O6/c1-4-33-22(29)14-6-7-15-16(12-14)27(20-19(24-15)21(28)26-23(30)25-20)10-9-13-5-8-17(31-2)18(11-13)32-3/h5-8,11-12H,4,9-10H2,1-3H3,(H,26,28,30)"
SMILES=CCOC(=O)c1ccc2nc3c(O)nc(=O)nc-3n(CCc3ccc(OC)c(OC)c3)c2c1
SPECTRUMID=CCMSLIB00010121219
83.745049 2538.0 
92.398697 3317.0 
102.232552 2790.0 
136.240387 3210.0 
154.973999 4421.0 
158.01207 2922.0 
208.890472 10824.0 
242.05899 10792.0 
285.062866 54341.0 
303.224884 2987.0 
449.146851 92800.0 
END IONS

BEGIN IONS
NAME="2,2',4'-Trihydroxychalcone CollisionEnergy:102040" M+H-H2O
PRECURSOR_MZ=239.07
INCHI="InChI=1S/C15H12O4/c16-11-6-7-12(15(19)9-11)14(18)8-5-10-3-1-2-4-13(10)17/h1-9,16-17,19H/b8-5+"
SMILES=O=C(C=Cc1ccccc1O)c1ccc(O)cc1O
SPECTRUMID=CCMSLIB00010106112
66.75399 3101.0 
82.411797 3322.0 
104.300682 3926.0 
116.972656 2611.0 
118.671211 3247.0 
139.987549 4043.0 
154.293442 2546.0 
163.075027 4256.0 
165.07045 5815.0 
169.115784 2504.0 
171.044907 4099.0 
178.199463 2487.0 
183.08049 11514.0 
192.911926 3331.0 
197.060028 27196.0 
211.074524 11867.0 
237.05278 3101.0 
238.057648 58135.0 
239.070038 4763280.0 
END IONS

BEGIN IONS
NAME=2-Amino-6-chloropurine-9-riboside CollisionEnergy:102040 M+formate
PRECURSOR_MZ=346.056
INCHI="InChI=1S/C10H12ClN5O4/c11-7-4-8(15-10(12)14-7)16(2-13-4)9-6(19)5(18)3(1-17)20-9/h2-3,5-6,9,17-19H,1H2,(H2,12,14,15)/t3-,5-,6-,9-/m1/s1"
SMILES=N=c1nc2c(ncn2C2OC(CO)C(O)C2O)c(Cl)[nH]1
SPECTRUMID=CCMSLIB00010113760
50.90572 2469.0 
52.009369 2176.0 
92.360527 2658.0 
102.979668 2379.0 
132.031769 29262.0 
157.998566 3243.0 
168.008545 1928953.0 
170.999863 2475.0 
300.050385 84885.0 
346.056091 38184.0 
END IONS

BEGIN IONS
NAME=(2R)-2-amino-3-(phenylmethylthio)propanoic acid CollisionEnergy:102040 M-H
PRECURSOR_MZ=210.059
INCHI="InChI=1S/C10H13NO2S/c11-9(10(12)13)7-14-6-8-4-2-1-3-5-8/h1-5,9H,6-7,11H2,(H,12,13)/t9-/m0/s1"
SMILES=NC(CSCc1ccccc1)C(=O)O
SPECTRUMID=CCMSLIB00010105102
53.271938 2059.0 
71.107262 2103.0 
87.92514 37395.0 
90.927818 2289.0 
103.920174 4983.0 
104.33271 2303.0 
105.935631 3172.0 
107.931343 4947.0 
108.939178 3595.0 
118.709473 2424.0 
119.915581 3641.0 
120.939003 8699.0 
123.027344 1452745.0 
123.946449 16843.0 
125.941803 25967.0 
149.236023 2431.0 
159.859848 8836.0 
164.929092 5564.0 
165.843781 4862.0 
189.594849 2218.0 
209.952591 1909.0 
210.059311 35797.0 
END IONS

BEGIN IONS
NAME=3-(7-hydroxy-4-methyl-2-oxochromen-3-yl)-N-benzylpropanamide CollisionEnergy:205060 M-H
PRECURSOR_MZ=336.124
INCHI="InChI=1S/C20H19NO4/c1-13-16-8-7-15(22)11-18(16)25-20(24)17(13)9-10-19(23)21-12-14-5-3-2-4-6-14/h2-8,11,22H,9-10,12H2,1H3,(H,21,23)"
SMILES=Cc1c(CCC(O)=NCc2ccccc2)c(=O)oc2cc(O)ccc12
SPECTRUMID=CCMSLIB00010120198
50.662498 2380.0 
54.789509 2787.0 
57.136108 3245.0 
60.545441 2819.0 
67.018547 14883.0 
73.964523 2757.0 
104.05069 3356.0 
109.016792 9775.0 
109.029442 53554.0 
119.049843 4639.0 
131.049973 17000.0 
132.045685 5594.0 
133.02951 21303.0 
135.04509 39043.0 
143.050186 45804.0 
145.029404 6107.0 
147.044647 5886.0 
148.07692 120327.0 
159.044739 29125.0 
159.081848 6517.0 
160.052872 19178.0 
161.060944 22994.0 
162.032349 13905.0 
164.034988 4852.0 
175.039978 504361.0 
187.040054 574577.0 
188.047852 825466.0 
200.071365 88626.0 
201.055466 5867.0 
202.0271 15462.0 
203.071716 44853.0 
220.037674 283629.0 
226.087524 6294.0 
261.889343 5213.0 
274.941193 2817.0 
294.113129 3339.0 
336.124237 1766994.0 
END IONS

BEGIN IONS
NAME="2-(2,4-dimethoxyphenyl)-6-hydroxy-3-azabicyclo[4.4.0]dec-3-yl 3,4,5-triethoxyp henyl ketone CollisionEnergy:102040" M+H
PRECURSOR_MZ=528.296
INCHI="InChI=1S/C30H41NO7/c1-6-36-25-17-20(18-26(37-7-2)28(25)38-8-3)29(32)31-16-15-30(33)14-10-9-11-23(30)27(31)22-13-12-21(34-4)19-24(22)35-5/h12-13,17-19,23,27,33H,6-11,14-16H2,1-5H3"
SMILES=CCOc1cc(C(=O)N2CCC3(O)CCCCC3C2c2ccc(OC)cc2OC)cc(OCC)c1OCC
SPECTRUMID=CCMSLIB00010110990
51.97176 5060.0 
60.542801 3957.0 
67.054604 32053.0 
72.927963 3982.0 
73.9599 4546.0 
81.070381 4454.0 
92.385002 4146.0 
96.958321 3618.0 
109.10125 32157.0 
125.060226 6447.0 
133.909088 3724.0 
136.112473 14855.0 
151.075272 239533.0 
153.018066 93802.0 
153.054718 5053.0 
165.09108 5060.0 
181.030746 4105.0 
181.049393 291510.0 
209.080719 2217549.0 
218.428436 4880.0 
223.132034 4986.0 
236.091782 5795.0 
237.111923 5047087.0 
249.147675 41982.0 
250.107574 51604.0 
254.137741 9365.0 
257.153961 29269.0 
262.107056 6457.0 
264.123444 28490.0 
270.111725 4628.0 
275.163544 6032.0 
278.138336 350770.0 
280.153839 216847.0 
286.107178 15734.0 
288.12323 6740.0 
290.13736 26543.0 
296.130096 13116.0 
297.136627 15467.0 
298.140961 27393.0 
299.150757 6144.0 
300.123077 17266.0 
310.142242 5810.0 
314.138672 87086.0 
315.147461 16952.0 
316.15448 31047.0 
327.183411 56027.0 
328.153809 53544.0 
342.170563 7111.0 
343.177216 175009.0 
344.184113 105862.0 
346.237 9406.0 
372.216522 5990556.0 
390.226898 1845099.0 
390.346283 16282.0 
414.188904 8103.0 
508.233643 23282.0 
510.284332 104302.0 
518.490173 4370.0 
528.294983 502013.0 
END IONS

BEGIN IONS
NAME="methyl 5-(2H-benzo[3,4-d]1,3-dioxolan-5-ylcarbonylamino)-4-cyano-3-methylthiop hene-2-carboxylate CollisionEnergy:205060" M+H
PRECURSOR_MZ=345.054
INCHI="InChI=1S/C16H12N2O5S/c1-8-10(6-17)15(24-13(8)16(20)21-2)18-14(19)9-3-4-11-12(5-9)23-7-22-11/h3-5H,7H2,1-2H3,(H,18,19)"
SMILES=COC(=O)c1sc(N=C(O)c2ccc3c(c2)OCO3)c(C#N)c1C
SPECTRUMID=CCMSLIB00010119547
51.023479 13158.0 
52.460991 3225.0 
53.002739 69511.0 
53.039268 3275.0 
55.018318 58118.0 
60.546421 3696.0 
62.848598 2659.0 
65.039032 301952.0 
67.018379 24915.0 
68.997528 170922.0 
69.000839 2972.0 
69.033836 15343.0 
71.0131 6978.0 
84.684036 2978.0 
92.387733 3637.0 
93.033607 21332.0 
95.012917 159574.0 
95.049393 27542.0 
104.297119 3725.0 
109.02832 18308.0 
110.006073 13435.0 
111.044006 64968.0 
121.028908 4916.0 
123.00779 3085.0 
123.044098 74963.0 
124.409897 3127.0 
125.023376 48980.0 
135.001144 61809.0 
137.023087 11673.0 
139.039062 38983.0 
140.015945 3008.0 
148.039444 27070.0 
149.023361 5346156.0 
165.995712 4570.0 
167.027023 15432.0 
195.022552 5046.0 
198.021896 19396.0 
223.017136 33547.0 
287.051819 3685.0 
295.409302 3051.0 
313.028717 3354.0 
327.042786 21750.0 
345.053619 400127.0 
END IONS

BEGIN IONS
NAME=2-[9-(4-methylphenyl)-6-oxohydropurin-8-ylthio]-N-phenyl-N-prop-2-enylacetamid e CollisionEnergy:205060 M+H
PRECURSOR_MZ=432.149
INCHI="InChI=1S/C23H21N5O2S/c1-3-13-27(17-7-5-4-6-8-17)19(29)14-31-23-26-20-21(24-15-25-22(20)30)28(23)18-11-9-16(2)10-12-18/h3-12,15H,1,13-14H2,2H3,(H,24,25,30)"
SMILES=C=CCN(C(=O)CSc1nc2c(O)ncnc2n1-c1ccc(C)cc1)c1ccccc1
SPECTRUMID=CCMSLIB00010119428
63.455009 3096.0 
118.06501 6268.0 
125.533188 3172.0 
130.065323 13396.0 
146.096237 6454.0 
150.03801 3529.0 
157.076004 4033.0 
158.059708 14718.0 
159.067886 3720.0 
162.037018 73260.0 
164.052994 5722.0 
169.075943 5204.0 
172.087067 20402.0 
175.032227 5711.0 
184.086578 16103.0 
185.094757 14558.0 
189.047791 71951.0 
190.031631 100914.0 
193.042877 29337.0 
198.065781 6432.0 
202.042252 24717.0 
211.074219 4299.0 
212.081635 444408.0 
213.089554 76021.0 
213.991501 3232.0 
216.058762 74242.0 
230.037979 256769.0 
237.076981 5058.0 
238.084717 42505.0 
239.092148 5928.0 
244.053528 1867063.0 
253.053802 16723.0 
257.048676 215246.0 
262.064301 87286.0 
271.064301 1862135.0 
297.720123 3764.0 
299.059204 2606064.0 
383.670074 3484.0 
432.147919 176367.0 
600.044556 3645.0 
849.256897 3538.0 
END IONS

BEGIN IONS
NAME=ethyl 6-bromo-5-methoxy-2-methyl-1-phenylindole-3-carboxylate CollisionEnergy:102040 M+H
PRECURSOR_MZ=388.054
INCHI="InChI=1S/C19H18BrNO3/c1-4-24-19(22)18-12(2)21(13-8-6-5-7-9-13)16-11-15(20)17(23-3)10-14(16)18/h5-11H,4H2,1-3H3"
SMILES=CCOC(=O)c1c(C)n(-c2ccccc2)c2cc(Br)c(OC)cc12
SPECTRUMID=CCMSLIB00010110234
55.756241 2442.0 
67.364014 2713.0 
72.332817 2460.0 
82.392387 3365.0 
92.369698 3883.0 
98.053352 2866.0 
104.275124 3969.0 
109.273003 2625.0 
135.906982 2443.0 
145.769104 3011.0 
188.373596 2609.0 
222.090866 25065.0 
234.090759 4950.0 
235.09906 4827.0 
236.106781 42821.0 
237.11441 142160.0 
238.086319 2909.0 
250.122284 56113.0 
252.101471 6093.0 
262.084808 20441.0 
263.094025 53549.0 
264.101135 44254.0 
265.145477 41194.0 
266.080505 38298.0 
280.095886 47327.0 
281.103943 198561.0 
294.111176 53051.0 
300.001312 46147.0 
301.010101 26868.0 
309.135254 918329.0 
315.024628 98562.0 
326.987335 19712.0 
342.01181 396189.0 
343.992249 4904.0 
359.014465 5641.0 
360.022308 23717.0 
388.053497 1017124.0 
END IONS

BEGIN IONS
NAME=3'-Hydroxyflavone CollisionEnergy:205060 M+Na
PRECURSOR_MZ=261.052
INCHI="InChI=1S/C15H10O3/c16-11-5-3-4-10(8-11)15-9-13(17)12-6-1-2-7-14(12)18-15/h1-9,16H"
SMILES=O=c1cc(-c2cccc(O)c2)oc2ccccc12
SPECTRUMID=CCMSLIB00010115883
56.96513 2234.0 
61.010979 3817.0 
79.021477 3926.0 
82.391602 2176.0 
84.959686 3698.0 
85.361168 2323.0 
102.803452 2177.0 
104.275322 2551.0 
118.641853 2196.0 
136.194809 2547.0 
176.980499 2730.0 
192.960815 3525.0 
199.301376 2483.0 
208.994003 2876.0 
209.72345 3650.0 
220.274216 2194.0 
237.908615 4902.0 
237.958237 9224.0 
237.985245 10068.0 
261.051849 218215.0 
261.13092 25869.0 
279.060974 5013.0 
END IONS

BEGIN IONS
NAME=2-(2-chlorophenyl)-4-oxochromen-3-yl propanoate CollisionEnergy:102040 M+H
PRECURSOR_MZ=329.058
INCHI="InChI=1S/C18H13ClO4/c1-2-15(20)23-18-16(21)12-8-4-6-10-14(12)22-17(18)11-7-3-5-9-13(11)19/h3-10H,2H2,1H3"
SMILES=CCC(=O)Oc1c(-c2ccccc2Cl)oc2ccccc2c1=O
SPECTRUMID=CCMSLIB00010112034
57.034031 35729.0 
67.599243 2570.0 
70.030312 2942.0 
73.943947 4038.0 
98.984177 43091.0 
105.03331 5866.0 
121.028488 3626.0 
133.028458 13861.0 
138.994675 5793.0 
174.992203 15085.0 
176.989136 11007.0 
181.064484 3088.0 
182.072128 3465.0 
209.059006 4592.0 
237.05484 20817.0 
238.062225 16967.0 
250.998917 3058.0 
252.998138 10601.0 
264.873047 5189.0 
273.031097 5443671.0 
274.202637 3758.0 
329.056946 119176.0 
329.109314 10838.0 
END IONS

BEGIN IONS
NAME=N-Acetyl-D-Glucosamine CollisionEnergy:102040 M+Cl
PRECURSOR_MZ=256.059
INCHI="InChI=1S/C8H15NO6/c1-3(11)9-5-7(13)6(12)4(2-10)15-8(5)14/h4-8,10,12-14H,2H2,1H3,(H,9,11)/t4-,5-,6-,7-,8?/m1/s1"
SMILES=CC(O)=N[C@H]1C(O)O[C@H](CO)[C@@H](O)[C@@H]1O
SPECTRUMID=CCMSLIB00010126069
59.013401 22775.5 
71.013496 2466.860107 
71.237099 2409.909912 
89.0243 21075.0 
92.400902 2249.719971 
99.925797 2853.48999 
100.040001 28705.199219 
100.352997 2413.080078 
101.025002 42253.398438 
119.035004 113859.0 
120.885002 2301.52002 
136.244003 2270.97998 
140.035004 2972.73999 
142.050995 3639.929932 
173.957993 2343.429932 
190.835999 2249.790039 
190.962997 2344.909912 
210.072998 4848.930176 
220.082993 13644.5 
220.513 2577.790039 
220.697998 2239.73999 
237.869003 11342.700195 
255.882004 29296.900391 
255.906998 4447.02002 
256.028992 4494.240234 
256.05899 133698.0 
256.238007 9791.719727 
END IONS

BEGIN IONS
NAME="1-(2-oxo-2-(2-1,2,3,4-tetrahydroisoquinolyl)ethyl)benzo[d]azolidine-2,3-dione CollisionEnergy:102040" M+Na
PRECURSOR_MZ=343.105
INCHI="InChI=1S/C19H16N2O3/c22-17(20-10-9-13-5-1-2-6-14(13)11-20)12-21-16-8-4-3-7-15(16)18(23)19(21)24/h1-8H,9-12H2"
SMILES=O=C1C(=O)N(CC(=O)N2CCc3ccccc3C2)c2ccccc21
SPECTRUMID=CCMSLIB00010109894
57.105598 3305.0 
65.395798 3064.0 
66.300056 3224.0 
70.657532 3234.0 
80.989487 3459.0 
146.055344 3200.0 
157.969604 3639.0 
212.364838 4612.0 
228.063721 3203.0 
234.311035 3902.0 
343.104645 10724084.0 
361.115845 92476.0 
END IONS

BEGIN IONS
NAME="6-(2H-benzo[3,4-d]1,3-dioxolan-5-yl)-4-(4-chlorophenyl)-2-oxohydropyridine-3-c arbonitrile CollisionEnergy:102040" 2M-H
PRECURSOR_MZ=699.084
INCHI="InChI=1S/C19H11ClN2O3/c20-13-4-1-11(2-5-13)14-8-16(22-19(23)15(14)9-21)12-3-6-17-18(7-12)25-10-24-17/h1-8H,10H2,(H,22,23)"
SMILES=N#Cc1c(-c2ccc(Cl)cc2)cc(-c2ccc3c(c2)OCO3)nc1O
SPECTRUMID=CCMSLIB00010109527
53.54491 3538.0 
76.996033 3236.0 
92.364052 2997.0 
104.293617 3442.0 
108.450653 3235.0 
112.40657 2709.0 
118.666992 3364.0 
124.805946 2662.0 
142.793533 3526.0 
200.082855 3570.0 
215.649414 3839.0 
321.042603 25114.0 
349.038483 226966.0 
END IONS

BEGIN IONS
NAME=Phorbol 12-myristate 13-acetate CollisionEnergy:205060 M+H-H2O
PRECURSOR_MZ=599.394
INCHI="InChI=1S/C36H56O8/c1-7-8-9-10-11-12-13-14-15-16-17-18-29(39)43-32-24(3)35(42)27(30-33(5,6)36(30,32)44-25(4)38)20-26(22-37)21-34(41)28(35)19-23(2)31(34)40/h19-20,24,27-28,30,32,37,41-42H,7-18,21-22H2,1-6H3/t24-,27+,28-,30-,32-,34-,35-,36-/m1/s1"
SMILES=CCCCCCCCCCCCCC(=O)OC1C(C)C2(O)C(C=C(CO)CC3(O)C(=O)C(C)=CC32)C2C(C)(C)C12OC(C)=O
SPECTRUMID=CCMSLIB00010125574
53.02047 2738.0 
58.065651 3221.0 
69.033913 4260.0 
73.684883 2657.0 
76.667923 2576.0 
79.054352 5231.0 
89.071327 2794.0 
91.054153 6562.0 
92.381866 4055.0 
93.070007 3016.0 
105.069679 5998.0 
107.08519 3440.0 
117.069656 3001.0 
129.04895 2833.0 
135.080383 4315.0 
142.076813 3585.0 
143.085724 2833.0 
153.069595 3620.0 
155.08461 4820.0 
159.079697 4735.0 
166.076828 3191.0 
169.101074 4983.0 
179.085327 10633.0 
181.100143 5273.0 
183.116211 4085.0 
192.092773 3688.0 
193.10054 14037.0 
195.116684 11670.0 
197.131149 3455.0 
199.110901 5786.0 
205.100739 5680.0 
207.116333 6304.0 
208.088089 3093.0 
209.09436 4429.0 
210.103775 3129.0 
211.111145 6739.0 
215.665939 3432.0 
217.101089 5725.0 
221.094574 3725.0 
222.102158 4406.0 
223.111328 13451.0 
235.110229 13088.0 
235.14534 3381.0 
239.139542 3519.0 
250.136459 3829.0 
265.122375 5964.0 
265.157227 11692.0 
293.152222 32228.0 
311.163574 138317.0 
311.204132 6556.0 
317.232544 2873.0 
329.174805 37554.0 
416.831604 2974.0 
599.353149 3262.0 
599.628662 11129.0 
END IONS

BEGIN IONS
NAME=N-(tert-butyl)-2-{4-[(6-ethoxy-2-oxochromen-4-yl)methyl]piperazinyl}acetamide CollisionEnergy:205060 M+H
PRECURSOR_MZ=402.239
INCHI="InChI=1S/C22H31N3O4/c1-5-28-17-6-7-19-18(13-17)16(12-21(27)29-19)14-24-8-10-25(11-9-24)15-20(26)23-22(2,3)4/h6-7,12-13H,5,8-11,14-15H2,1-4H3,(H,23,26)"
SMILES=CCOc1ccc2oc(=O)cc(CN3CCN(CC(O)=NC(C)(C)C)CC3)c2c1
SPECTRUMID=CCMSLIB00010118037
54.0345 3383.0 
55.042171 14539.0 
56.049961 390355.0 
56.320278 2970.0 
56.440731 2925.0 
57.057869 7598.0 
57.070351 65007.0 
58.065632 159934.0 
68.049759 28033.0 
69.045197 23883.0 
70.065514 1162465.0 
71.57827 3854.0 
72.044678 12703.0 
72.081123 282644.0 
73.588173 3055.0 
73.956413 4811.0 
80.049629 14543.0 
81.045189 5350.0 
82.052788 189787.0 
82.065086 24935.0 
82.396584 3438.0 
82.402313 4337.0 
83.06076 40907.0 
84.06852 7705.0 
84.080948 19112.0 
85.076439 35474.0 
91.598824 3600.0 
95.060547 4098.0 
95.123299 3273.0 
96.068298 47908.0 
97.076088 4357226.0 
98.083862 517308.0 
99.08445 6971.0 
99.09169 147986.0 
101.070999 22101.0 
103.054787 4333.0 
104.284309 3232.0 
107.04911 4942.0 
111.091568 66779.0 
112.099297 13251.0 
113.312477 3183.0 
115.447021 3392.0 
119.049332 4990.0 
127.08828 3686.0 
129.143204 3478.0 
130.96582 3255.0 
133.064941 13567.0 
141.089447 16941.0 
145.064987 12374.0 
147.043839 70923.0 
149.060318 5592.0 
161.059631 17623.0 
172.074295 11733.0 
175.039627 12633.0 
175.075241 169475.0 
176.046371 7909.0 
186.03093 22626.0 
186.053619 4059.0 
186.091599 5062.0 
188.070221 15476.0 
189.054611 3641.0 
189.091965 25337.0 
191.07048 14116.0 
203.070206 42098.0 
204.078491 5416.0 
216.065796 5344.0 
216.101761 70376.0 
217.086075 14144.0 
229.071121 24696.0 
230.080643 29865.0 
230.116714 16284.0 
242.080109 5567.0 
244.096466 107105.0 
246.111511 26313.0 
256.095825 39225.0 
257.092316 8427.0 
258.112061 135392.0 
258.141632 5734.0 
270.113373 5948.0 
273.160034 8117.0 
286.132111 36905.0 
296.447083 4124.0 
301.154144 1118187.0 
326.042236 4895.0 
346.175629 275344.0 
402.238068 3725434.0 
END IONS

BEGIN IONS
NAME=Peracetate Quercetin CollisionEnergy:102040 M+Na
PRECURSOR_MZ=535.085
INCHI="InChI=1S/C25H20O12/c1-11(26)32-17-9-20(35-14(4)29)22-21(10-17)37-24(25(23(22)31)36-15(5)30)16-6-7-18(33-12(2)27)19(8-16)34-13(3)28/h6-10H,1-5H3"
SMILES=CC(=O)Oc1cc(OC(C)=O)c2c(=O)c(OC(C)=O)c(-c3ccc(OC(C)=O)c(OC(C)=O)c3)oc2c1
SPECTRUMID=CCMSLIB00010109666
58.469219 3078.0 
59.26643 3463.0 
62.94873 3411.0 
104.273773 3711.0 
305.737488 3806.0 
367.042053 14066.0 
408.045532 7967.0 
409.052704 138572.0 
450.054565 7123.0 
451.062988 356966.0 
492.066589 44965.0 
493.0737 2028741.0 
494.07782 38755.0 
499.382721 4911.0 
531.896179 8410.0 
534.102661 20455.0 
535.084534 10612744.0 
538.298767 6371.0 
551.591736 4036.0 
END IONS

BEGIN IONS
NAME=RETRORSINE CollisionEnergy:205060 M+Na
PRECURSOR_MZ=374.157
INCHI="InChI=1S/C18H25NO6/c1-3-12-8-11(2)18(23,10-20)17(22)24-9-13-4-6-19-7-5-14(15(13)19)25-16(12)21/h3-4,11,14-15,20,23H,5-10H2,1-2H3/b12-3-/t11-,14-,15-,18-/m1/s1"
SMILES=CC=C1CC(C)C(O)(CO)C(=O)OCC2=CCN3CCC(OC1=O)C23
SPECTRUMID=CCMSLIB00010115792
54.899239 2743.0 
61.47813 2517.0 
63.038811 2599.0 
70.64254 2801.0 
80.04966 3957.0 
91.054237 3792.0 
93.069992 10811.0 
94.065079 5336.0 
95.623627 2660.0 
98.868828 2668.0 
103.054176 5866.0 
104.286186 2601.0 
118.064796 2665.0 
118.658669 4422.0 
120.080788 516230.0 
141.138672 2500.0 
168.11203 2444.0 
180.289246 2531.0 
185.632355 2579.0 
209.075012 3121.0 
212.060013 2984.0 
227.639008 2704.0 
236.601349 2632.0 
237.074326 23607.0 
255.083466 37144.0 
374.156952 996348.0 
END IONS

BEGIN IONS
NAME=ethyl 4-hydroxy-2-oxo-3-benzylhydroquinoline-6-carboxylate CollisionEnergy:102040 M+Na
PRECURSOR_MZ=346.105
INCHI="InChI=1S/C19H17NO4/c1-2-24-19(23)13-8-9-16-14(11-13)17(21)15(18(22)20-16)10-12-6-4-3-5-7-12/h3-9,11H,2,10H2,1H3,(H2,20,21,22)"
SMILES=CCOC(=O)c1ccc2nc(O)c(Cc3ccccc3)c(O)c2c1
SPECTRUMID=CCMSLIB00010108740
56.965279 5491.0 
60.531601 2534.0 
60.534809 2390.0 
61.540531 2082.0 
69.258629 2249.0 
81.033813 4552.0 
111.117523 2312.0 
114.308594 2318.0 
168.714172 2585.0 
252.075958 2463.0 
270.076233 2467.0 
305.013092 35122.0 
307.999756 3736.0 
311.338715 3208.0 
323.024323 51051.0 
324.122467 2791.0 
335.009155 2500.0 
346.104492 1246088.0 
354.921021 2925.0 
END IONS

BEGIN IONS
NAME=indole-3-acetaldehyde CollisionEnergy:205060 M+H
PRECURSOR_MZ=160.076
INCHI="InChI=1S/C10H9NO/c12-6-5-8-7-11-10-4-2-1-3-9(8)10/h1-4,6-7,11H,5H2"
SMILES=O=CCc1c[nH]c2ccccc12
SPECTRUMID=CCMSLIB00010125119
52.668892 12371.0 
57.12077 9280.0 
59.69529 11506.0 
79.347839 12182.0 
91.054779 210211.0 
105.070351 132605.0 
115.054703 225360.0 
117.057693 1001497.0 
118.065552 8062304.0 
130.065353 1027923.0 
131.073303 794414.0 
132.081039 2866064.0 
133.064651 11084.0 
142.065689 91370.0 
145.052261 53074.0 
159.062851 11063.0 
160.075836 1576337.0 
END IONS

BEGIN IONS
NAME="N-[4,5-dihydroxy-6-(hydroxymethyl)-2-(phenylmethoxy)-2H-3,4,5,6-tetrahydropyra n-3-yl]acetamide CollisionEnergy:205060" M+H
PRECURSOR_MZ=312.144
INCHI="InChI=1S/C15H21NO6/c1-9(18)16-12-14(20)13(19)11(7-17)22-15(12)21-8-10-5-3-2-4-6-10/h2-6,11-15,17,19-20H,7-8H2,1H3,(H,16,18)"
SMILES=CC(O)=NC1C(OCc2ccccc2)OC(CO)C(O)C1O
SPECTRUMID=CCMSLIB00010120128
53.03907 5660.0 
55.018509 13473.0 
56.049961 55330.0 
57.034 4712.0 
60.04488 98604.0 
61.028858 42522.0 
62.893089 2991.0 
65.039062 22680.0 
68.049896 41045.0 
69.033897 148598.0 
69.038002 6497.0 
70.029427 4527.0 
70.065437 64984.0 
71.013153 3514.0 
71.049538 45792.0 
72.044731 40888.0 
73.028763 4303.0 
80.049759 75986.0 
80.054604 4454.0 
81.03376 163807.0 
82.029198 12814.0 
82.06543 38187.0 
83.012962 25148.0 
83.049347 38291.0 
84.044647 782882.0 
85.028618 8060.0 
86.060387 12592.0 
91.054398 1027581.0 
95.397057 3531.0 
96.044502 856500.0 
97.021309 7079.0 
97.028503 219083.0 
97.052094 6015.0 
98.023987 21652.0 
98.060097 418860.0 
99.044128 74773.0 
100.039543 16551.0 
101.023376 24434.0 
108.044373 41032.0 
109.028427 230865.0 
110.059967 24754.0 
114.05481 49962.0 
116.070793 7133.0 
124.039436 20621.0 
126.054962 1066180.0 
127.038986 94597.0 
138.054993 3776343.0 
138.517685 3379.0 
144.065521 885469.0 
157.064575 4126.0 
168.065445 856368.0 
174.091599 5247.0 
177.790131 3519.0 
185.384018 3558.0 
186.06131 13101.0 
186.075974 891142.0 
204.086533 1134554.0 
209.488876 4425.0 
216.102646 13188.0 
238.461334 3585.0 
294.132538 17170.0 
312.141663 5941.0 
END IONS

BEGIN IONS
NAME="N-(2H-benzo[3,4-d]1,3-dioxolen-5-yl)-2-[2-oxo-4-(N-propylcarbamoyl)hydroquinol yl]acetamide CollisionEnergy:102040" M+formate
PRECURSOR_MZ=452.146
INCHI="InChI=1S/C22H21N3O5/c1-2-9-23-22(28)16-11-21(27)25(17-6-4-3-5-15(16)17)12-20(26)24-14-7-8-18-19(10-14)30-13-29-18/h3-8,10-11H,2,9,12-13H2,1H3,(H,23,28)(H,24,26)"
SMILES=CCCN=C(O)c1cc(=O)n(CC(O)=Nc2ccc3c(c2)OCO3)c2ccccc12
SPECTRUMID=CCMSLIB00010113278
65.083809 2532.0 
79.408791 2632.0 
92.381538 3515.0 
102.507561 2522.0 
122.024712 26988.0 
128.05043 3590.0 
130.065887 4464.0 
132.045624 3525.0 
136.217087 3819.0 
142.903976 3331.0 
144.045074 3223.0 
158.048111 3662.0 
158.061111 10745.0 
176.072128 2798.0 
198.056122 16496.0 
199.124069 39091.0 
201.102264 3448.0 
202.051437 3571.0 
213.103882 16691.0 
215.119339 4830.0 
215.484573 2663.0 
229.098251 21741.0 
230.093964 2783.0 
243.113495 10449.0 
245.09462 4697.0 
269.093597 10680.0 
275.10556 3836.0 
311.098267 2323.0 
321.088348 22045.0 
367.55658 2530.0 
406.141113 432658.0 
458.520905 2933.0 
END IONS

BEGIN IONS
NAME=ouabain CollisionEnergy:102040 M+formate
PRECURSOR_MZ=629.281
INCHI="InChI=1S/C29H44O12/c1-13-22(34)23(35)24(36)25(40-13)41-15-8-19(32)28(12-30)21-17(3-5-27(28,37)9-15)29(38)6-4-16(14-7-20(33)39-11-14)26(29,2)10-18(21)31/h7,13,15-19,21-25,30-32,34-38H,3-6,8-12H2,1-2H3/t13-,15-,16+,17+,18+,19+,21+,22-,23+,24+,25-,26+,27-,28+,29-/m0/s1"
SMILES=CC1OC(OC2CC(O)C3(CO)C4C(O)CC5(C)C(C6=CC(=O)OC6)CCC5(O)C4CCC3(O)C2)C(O)C(O)C1O
SPECTRUMID=CCMSLIB00010112685
58.005619 22337.0 
59.01339 241093.0 
69.034058 29049.0 
70.81826 4051.0 
71.013527 86978.0 
72.992752 30143.0 
73.029182 33454.0 
73.943604 3819.0 
77.931267 3938.0 
83.013779 22146.0 
83.050148 6888.0 
85.029259 62838.0 
87.008797 6301.0 
89.024239 127205.0 
92.362419 5488.0 
95.050003 5362.0 
101.024399 88568.0 
103.040047 95967.0 
109.029213 5672.0 
119.03508 33019.0 
121.066521 4664.0 
123.045486 17703.0 
123.08123 5492.0 
127.040314 8065.0 
135.081787 31569.0 
137.060822 6707.0 
145.051224 25668.0 
149.06131 9277.0 
159.082306 5258.0 
160.089645 8248.0 
161.097488 19617.0 
163.061172 72469.0 
163.075638 4386.0 
177.056351 28833.0 
178.064072 28450.0 
179.071518 212602.0 
179.108826 5832.0 
211.893677 5365.0 
221.081909 7758.0 
225.128189 7868.0 
227.108826 4436.0 
247.150711 34600.0 
251.144318 8977.0 
251.732437 3791.0 
257.155579 18265.0 
269.153625 28537.0 
273.165863 21976.0 
277.161133 4327.0 
283.172211 7921.0 
291.175507 90349.0 
293.193298 4373.0 
295.171082 14971.0 
309.14682 6238.0 
309.185638 98186.0 
311.202332 6621.0 
313.181427 4466.0 
319.155914 23106.0 
321.188232 19561.0 
327.196228 43081.0 
331.155884 58440.0 
335.16571 86463.0 
339.198608 15397.0 
345.170776 29651.0 
353.175903 249891.0 
357.170197 29041.0 
365.175598 9147.0 
371.186554 614357.0 
373.20343 3638.0 
375.178253 13071.0 
383.187164 51084.0 
389.198151 19185.0 
393.229156 21007.0 
401.196808 93774.0 
419.207825 713745.0 
437.218384 312184.0 
459.226807 17087.0 
579.608154 5647.0 
583.276917 5356461.0 
584.278809 27686.0 
629.282043 1672367.0 
630.287231 4823.0 
END IONS

BEGIN IONS
NAME=(2Z)-3-[N-(carboxymethyl)carbamoyl]prop-2-enoic acid CollisionEnergy:102040 2M-H
PRECURSOR_MZ=345.058
INCHI="InChI=1S/C6H7NO5/c8-4(1-2-5(9)10)7-3-6(11)12/h1-2H,3H2,(H,7,8)(H,9,10)(H,11,12)/b2-1-"
SMILES=O=C(O)C=CC(O)=NCC(=O)O
SPECTRUMID=CCMSLIB00010114203
61.975021 2268.0 
66.748207 3156.0 
74.024788 4392.0 
80.14537 2203.0 
96.497177 2157.0 
154.014557 38896.0 
172.025223 44230.0 
183.032135 2122.0 
206.170883 2303.0 
213.988388 2416.0 
326.520111 2308.0 
END IONS

BEGIN IONS
NAME="N-(2,4-dichlorophenyl)-2-[6-hydroxy-2-(4-methoxyphenyl)-3-azabicyclo[4.4.0]dec -3-yl]acetamide CollisionEnergy:102040" M+Na
PRECURSOR_MZ=485.137
INCHI="InChI=1S/C24H28Cl2N2O3/c1-31-18-8-5-16(6-9-18)23-19-4-2-3-11-24(19,30)12-13-28(23)15-22(29)27-21-10-7-17(25)14-20(21)26/h5-10,14,19,23,30H,2-4,11-13,15H2,1H3,(H,27,29)"
SMILES=COc1ccc(C2C3CCCCC3(O)CCN2CC(O)=Nc2ccc(Cl)cc2Cl)cc1
SPECTRUMID=CCMSLIB00010108894
50.938862 2707.0 
65.415497 2645.0 
100.307877 2509.0 
118.657883 3866.0 
137.059647 6545.0 
156.080948 3474.0 
157.980957 3290.0 
164.070496 3341.0 
213.100693 3696.0 
234.189941 2555.0 
243.138107 12321.0 
297.669434 2668.0 
314.175629 5806.0 
335.138184 6766.0 
377.149933 5206.0 
411.338745 2933.0 
485.136566 2158840.0 
485.232483 62797.0 
END IONS

BEGIN IONS
NAME=2-Hydroxyphenylacetic acid CollisionEnergy:205060 M-H
PRECURSOR_MZ=151.04
INCHI="InChI=1S/C8H8O3/c9-7-4-2-1-3-6(7)5-8(10)11/h1-4,9H,5H2,(H,10,11)"
SMILES=O=C(O)Cc1ccccc1O
SPECTRUMID=CCMSLIB00010124596
51.569221 38910.0 
52.888111 36696.0 
60.940529 37768.0 
75.946129 42962.0 
82.397163 44524.0 
84.661598 45774.0 
106.042557 234106.0 
107.050323 39835776.0 
107.160042 39824.0 
138.031876 52963.0 
146.159149 38399.0 
151.040115 944989.0 
157.966812 41217.0 
END IONS

BEGIN IONS
NAME=3-indol-3-yl-N-(2-methylphenyl)-2-(phenoxycarbonylamino)propanamide CollisionEnergy:205060 M+H
PRECURSOR_MZ=414.181
INCHI="InChI=1S/C25H23N3O3/c1-17-9-5-7-13-21(17)27-24(29)23(28-25(30)31-19-10-3-2-4-11-19)15-18-16-26-22-14-8-6-12-20(18)22/h2-14,16,23,26H,15H2,1H3,(H,27,29)(H,28,30)"
SMILES=Cc1ccccc1N=C(O)C(Cc1c[nH]c2ccccc12)N=C(O)Oc1ccccc1
SPECTRUMID=CCMSLIB00010124130
53.021912 2932.0 
53.039051 36908.0 
53.803162 2591.0 
67.054466 4190.0 
70.13752 2969.0 
70.294197 2558.0 
81.033783 3092.0 
90.379257 2561.0 
91.054314 4313.0 
95.049202 591800.0 
99.516243 2809.0 
108.080727 18696.0 
115.054024 14924.0 
119.049423 5867.0 
130.054718 4824.0 
130.065094 120147.0 
132.080475 24938.0 
140.048859 11523.0 
142.065094 27370.0 
143.07283 5854.0 
148.039398 5803.0 
152.348923 2494.0 
156.068115 3791.0 
157.075974 128816.0 
157.090744 4938.0 
158.059921 6898.0 
158.08374 11328.0 
159.092117 12800.0 
160.075363 14631.0 
167.060272 103377.0 
170.059845 56858.0 
185.070801 1396294.0 
203.986542 2891.0 
213.065933 40462.0 
266.975128 2981.0 
279.112366 875488.0 
307.107178 136779.0 
370.96759 3430.0 
END IONS

BEGIN IONS
NAME="3,6,3'-Trihydroxyflavone CollisionEnergy:102040" M+H
PRECURSOR_MZ=271.06
INCHI="InChI=1S/C15H10O5/c16-9-3-1-2-8(6-9)15-14(19)13(18)11-7-10(17)4-5-12(11)20-15/h1-7,16-17,19H"
SMILES=O=c1c(O)c(-c2cccc(O)c2)oc2ccc(O)cc12
SPECTRUMID=CCMSLIB00010114706
54.92514 2159.0 
62.15382 2160.0 
62.165699 2026.0 
64.027443 2550.0 
67.25972 2034.0 
82.394463 3274.0 
104.281982 2741.0 
112.77655 2322.0 
121.02877 22274.0 
136.209625 2909.0 
149.023087 2304.0 
197.060883 2289.0 
202.52356 2383.0 
210.951233 9432.0 
228.959839 4958.0 
271.060028 712197.0 
271.149963 13189.0 
288.928314 2884.0 
END IONS

BEGIN IONS
NAME=2-amino-7-hydroxy-4-phenyl-4H-chromene-3-carbonitrile CollisionEnergy:102040 M+H
PRECURSOR_MZ=265.097
INCHI="InChI=1S/C16H12N2O2/c17-9-13-15(10-4-2-1-3-5-10)12-7-6-11(19)8-14(12)20-16(13)18/h1-8,15,19H,18H2"
SMILES=N#CC1=C(N)Oc2cc(O)ccc2C1c1ccccc1
SPECTRUMID=CCMSLIB00010110874
52.327229 3444.0 
66.736153 4816.0 
70.93116 2818.0 
71.699539 3069.0 
73.375099 2720.0 
73.946213 3581.0 
82.391487 2726.0 
104.049202 39297.0 
111.043877 203212.0 
121.870567 3338.0 
130.065552 3142.0 
136.03894 14820.0 
139.987717 4508.0 
149.046234 10603.0 
153.069672 6840.0 
153.102539 3566.0 
155.059998 168487.0 
162.054672 37742.0 
167.085754 27648.0 
181.064072 10967.0 
186.040421 3321.0 
187.049881 6393717.0 
188.05397 4727.0 
195.079544 52880.0 
199.075073 617921.0 
209.640167 6762.0 
212.524551 5354.0 
220.075134 7994.0 
221.058533 5065.0 
222.091797 6363.0 
225.078156 70850.0 
237.100128 5557.0 
238.086212 23685.0 
248.069824 113803.0 
263.078949 3434.0 
265.096558 6038427.0 
288.733459 3411.0 
END IONS

BEGIN IONS
NAME=medrysone CollisionEnergy:102040 M+H-H2O
PRECURSOR_MZ=327.232
INCHI="InChI=1S/C22H32O3/c1-12-9-15-17-6-5-16(13(2)23)22(17,4)11-19(25)20(15)21(3)8-7-14(24)10-18(12)21/h10,12,15-17,19-20,25H,5-9,11H2,1-4H3/t12-,15-,16+,17-,19-,20+,21-,22+/m0/s1"
SMILES=CC(=O)C1CCC2C3CC(C)C4=CC(=O)CCC4(C)C3C(O)CC12C
SPECTRUMID=CCMSLIB00010107938
51.43586 2482.0 
67.054459 12180.0 
69.033737 3627.0 
69.070213 4403.0 
71.049522 11077.0 
73.629997 3024.0 
75.344948 2629.0 
75.367409 2522.0 
77.052437 2414.0 
79.054367 10310.0 
79.214737 2728.0 
81.070007 34589.0 
83.049477 35813.0 
83.085564 3293.0 
85.06498 173970.0 
91.0541 4687.0 
93.070007 22479.0 
93.345398 2802.0 
95.085632 58359.0 
97.064819 137757.0 
98.977493 4153.0 
98.984207 75379.0 
99.080116 5198.0 
105.070007 22412.0 
107.085548 46807.0 
109.064697 10317.0 
109.101334 27155.0 
111.079826 10545.0 
114.417526 2745.0 
118.659119 3108.0 
119.085564 49811.0 
121.064629 20837.0 
121.10112 34382.0 
123.080231 44149.0 
123.116737 5414.0 
125.095543 7201.0 
131.08551 21578.0 
133.101227 41184.0 
135.080353 165136.0 
135.116776 22892.0 
137.095963 87306.0 
139.11142 2884.0 
143.085617 16991.0 
145.101349 46202.0 
147.08049 10490.0 
147.116928 32817.0 
149.096008 18183.0 
149.132233 6325.0 
151.111816 23210.0 
155.085388 5379.0 
157.100815 27752.0 
159.117065 51293.0 
161.096161 34873.0 
161.132416 21611.0 
163.111725 26420.0 
169.100647 17608.0 
171.116577 63586.0 
173.096146 13390.0 
173.132309 45968.0 
174.991531 33025.0 
175.111755 44852.0 
175.148056 15222.0 
177.127014 45474.0 
179.142273 3925.0 
181.100647 3537.0 
183.116699 27985.0 
185.095444 5849.0 
185.13266 41515.0 
187.111404 60423.0 
187.147842 16305.0 
189.12709 102628.0 
189.163239 5524.0 
191.142868 25916.0 
195.116104 6639.0 
197.131393 24022.0 
199.110992 6526.0 
199.147415 31647.0 
201.127274 18571.0 
201.162888 16773.0 
203.143234 34416.0 
205.15802 5168.0 
209.132523 16578.0 
211.147202 20500.0 
213.127609 16415.0 
213.162903 17197.0 
215.14209 22447.0 
217.158234 14924.0 
221.130814 5605.0 
223.14798 11577.0 
225.126648 6124.0 
225.163895 60419.0 
227.142166 20791.0 
227.178757 18847.0 
229.158051 15671.0 
231.173355 15610.0 
235.148041 6837.0 
237.163757 4238.0 
239.143127 14610.0 
239.178726 13303.0 
241.15863 23148.0 
243.174805 46848.0 
245.189819 18446.0 
249.162796 13678.0 
250.999268 14733.0 
251.17865 42000.0 
253.157669 45522.0 
257.153442 6375.0 
257.19046 13190.0 
265.194397 18994.0 
265.417786 3259.0 
267.174072 25176.0 
267.210052 51719.0 
269.189362 77106.0 
271.171387 3253.0 
281.188477 17217.0 
281.221924 5667.0 
283.205139 19885.0 
285.22049 72666.0 
291.210876 59200.0 
294.196106 4240.0 
299.201447 15092.0 
309.177917 5200.0 
309.220581 403996.0 
327.231201 2963711.0 
336.608368 3533.0 
END IONS

BEGIN IONS
NAME=menadione CollisionEnergy:205060 2M+H
PRECURSOR_MZ=345.112
INCHI="InChI=1S/C11H8O2/c1-7-6-10(12)8-4-2-3-5-9(8)11(7)13/h2-6H,1H3"
SMILES=CC1=CC(=O)c2ccccc2C1=O
SPECTRUMID=CCMSLIB00010125765
53.03904 10795.0 
82.402657 2789.0 
91.054367 20331.0 
95.049149 4243.0 
103.054047 13167.0 
105.03344 192555.0 
115.054337 34051.0 
117.069794 71992.0 
118.663162 2520.0 
121.028313 13790.0 
128.062088 15582.0 
129.069717 22490.0 
131.049057 10975.0 
133.02832 106994.0 
135.044128 2706.0 
139.844528 2672.0 
141.069778 24855.0 
143.048965 11844.0 
143.085449 6481.0 
145.064682 308410.0 
147.043884 30359.0 
149.023132 55593.0 
152.062271 10830.0 
153.069885 25277.0 
154.077698 11313.0 
155.048798 6624.0 
155.086136 2771.0 
157.065216 26280.0 
158.072037 2654.0 
159.044098 4178.0 
165.069748 10226.0 
166.07579 2784.0 
169.101578 19442.0 
171.043884 4191.0 
171.080383 10713.0 
173.059677 154457.0 
174.067078 11087.0 
178.077026 25276.0 
179.085495 51537.0 
181.064468 42745.0 
182.072266 15281.0 
197.096008 73251.0 
199.07579 5069.0 
205.599548 2784.0 
215.085129 16920.0 
227.084564 6404.0 
228.092834 87746.0 
229.100037 18400.0 
231.080261 11455.0 
233.030899 3350.0 
239.085129 83197.0 
240.092773 57727.0 
241.099258 6321.0 
242.072083 3229.0 
243.07988 4899.0 
243.116547 25710.0 
245.094788 4732.0 
250.075195 3606.0 
252.09288 119348.0 
253.10083 127551.0 
254.108673 14071.0 
255.079819 86601.0 
255.115417 16537.0 
256.08783 101084.0 
257.096039 17018.0 
259.075409 5230.0 
261.088745 3298.0 
263.085449 5050.0 
265.099701 29685.0 
266.072296 3150.0 
267.080322 25410.0 
268.087769 55467.0 
269.095093 5413.0 
270.066589 4892.0 
271.077423 5265.0 
271.110596 49644.0 
273.126282 4187.0 
280.087128 11814.0 
281.095764 154290.0 
282.102783 24110.0 
283.074615 54654.0 
283.111115 23247.0 
284.08255 204443.0 
285.089874 19760.0 
292.085846 4677.0 
294.065247 4719.0 
295.076904 3366.0 
297.090668 14792.0 
298.09787 4402.0 
299.106018 145371.0 
299.144592 4755.0 
309.089844 59749.0 
310.098114 14087.0 
311.070038 23660.0 
312.077271 152476.0 
317.117218 26826.0 
327.100952 484326.0 
338.036377 3194.0 
345.111267 371513.0 
END IONS

BEGIN IONS
NAME=8-[(4-fluorophenyl)methylthio]-9-(4-methylphenyl)hydropurin-6-one CollisionEnergy:102040 M+Na
PRECURSOR_MZ=389.084
INCHI="InChI=1S/C19H15FN4OS/c1-12-2-8-15(9-3-12)24-17-16(18(25)22-11-21-17)23-19(24)26-10-13-4-6-14(20)7-5-13/h2-9,11H,10H2,1H3,(H,21,22,25)"
SMILES=Cc1ccc(-n2c(SCc3ccc(F)cc3)nc3c(O)ncnc32)cc1
SPECTRUMID=CCMSLIB00010109783
61.76498 2688.0 
70.706841 2826.0 
100.914879 2829.0 
118.282829 2613.0 
225.066223 3546.0 
279.000793 4476.0 
279.030548 144343.0 
280.038361 237819.0 
350.442108 3213.0 
387.105988 5171.0 
389.083435 5229766.0 
391.080444 4593.0 
END IONS

BEGIN IONS
NAME=taurine CollisionEnergy:102040 2M+H
PRECURSOR_MZ=251.037
INCHI="InChI=1S/C2H7NO3S/c3-1-2-7(4,5)6/h1-3H2,(H,4,5,6)"
SMILES=NCCS(=O)(=O)O
SPECTRUMID=CCMSLIB00010102966
50.199799 2358.189941 
50.394699 2032.359985 
65.283302 1870.699951 
70.467003 1913.51001 
82.176201 1920.619995 
92.3871 2684.120117 
98.984398 21472.800781 
108.012001 4681.580078 
111.869003 2336.959961 
116.871002 2331.780029 
126.022003 257249.0 
141.341995 2068.75 
227.645996 2319.189941 
241.987 4739.490234 
END IONS

BEGIN IONS
NAME=Caffeicacid CollisionEnergy:102040 M-H
PRECURSOR_MZ=179.035
INCHI="InChI=1S/C9H8O4/c10-7-3-1-6(5-8(7)11)2-4-9(12)13/h1-5,10-11H,(H,12,13)/b4-2-"
SMILES=O=C(O)/C=C\c1ccc(O)c(O)c1
SPECTRUMID=CCMSLIB00010102619
50.4846 236042.0 
53.634201 237708.0 
82.43 267592.0 
134.037003 1138180.0 
135.044998 132414000.0 
139.882996 259942.0 
179.035004 35024200.0 
END IONS

BEGIN IONS
NAME=L-norvaline CollisionEnergy:102040 M-H
PRECURSOR_MZ=116.072
INCHI="InChI=1S/C5H11NO2/c1-2-3-4(6)5(7)8/h4H,2-3,6H2,1H3,(H,7,8)/t4-/m0/s1"
SMILES=CCC[C@H](N)C(=O)O
SPECTRUMID=CCMSLIB00010126203
51.1828 43137.398438 
92.413696 49017.0 
116.071999 7857150.0 
END IONS

BEGIN IONS
NAME="2,2,2-trifluoro-N-[2-(5-methoxy-2-methylindol-3-yl)ethyl]acetamide CollisionEnergy:102040" M+H
PRECURSOR_MZ=301.116
INCHI="InChI=1S/C14H15F3N2O2/c1-8-10(5-6-18-13(20)14(15,16)17)11-7-9(21-2)3-4-12(11)19-8/h3-4,7,19H,5-6H2,1-2H3,(H,18,20)"
SMILES=COc1ccc2[nH]c(C)c(CCN=C(O)C(F)(F)F)c2c1
SPECTRUMID=CCMSLIB00010108550
62.029301 3103.0 
73.947983 3166.0 
82.194069 3256.0 
82.485077 2887.0 
92.372253 3636.0 
92.380058 3038.0 
100.176048 3117.0 
104.276894 3453.0 
118.648682 3948.0 
125.008614 3531.0 
128.579575 3108.0 
132.081009 5326.0 
140.031845 39037.0 
143.072784 5003.0 
145.088593 7916.0 
147.067871 5043.0 
147.080856 13038.0 
157.088669 56765.0 
158.060852 5511.0 
158.096085 23393.0 
160.076324 16076.0 
161.083145 7831.0 
162.090942 33918.0 
166.83551 3538.0 
172.075577 12928.0 
173.083405 284950.0 
174.090881 30824.0 
175.094772 98666.0 
182.344833 3999.0 
187.100082 4544.0 
188.106888 5803066.0 
219.092178 6936.0 
232.927109 3814.0 
272.088562 19206.0 
283.104065 5039.0 
284.089569 19995.0 
301.115417 5193033.0 
END IONS

BEGIN IONS
NAME=N-(2-ethoxyphenyl)-2-(4-hydroxyquinazolin-2-ylthio)acetamide CollisionEnergy:102040 M+Na
PRECURSOR_MZ=378.088
INCHI="InChI=1S/C18H17N3O3S/c1-2-24-15-10-6-5-9-14(15)19-16(22)11-25-18-20-13-8-4-3-7-12(13)17(23)21-18/h3-10H,2,11H2,1H3,(H,19,22)(H,20,21,23)"
SMILES=CCOc1ccccc1N=C(O)CSc1nc(O)c2ccccc2n1
SPECTRUMID=CCMSLIB00010106782
66.049927 3381.0 
67.105911 3147.0 
68.943512 3065.0 
86.460678 2367.0 
104.28006 3519.0 
167.021591 3498.0 
213.00882 19651.0 
215.024628 72648.0 
232.039505 15512.0 
237.044281 28659.0 
241.003738 322739.0 
285.190002 3739.0 
304.105896 28200.0 
332.286835 3371.0 
378.087585 5617020.0 
END IONS

BEGIN IONS
NAME="1-(2-(2-1,2,3,4-tetrahydroisoquinolyl)acetyl)benzimidazole-2-carbonitrile CollisionEnergy:205060" M+H
PRECURSOR_MZ=317.14
INCHI="InChI=1S/C19H16N4O/c20-11-18-21-16-7-3-4-8-17(16)23(18)19(24)13-22-10-9-14-5-1-2-6-15(14)12-22/h1-8H,9-10,12-13H2"
SMILES=N#Cc1nc2ccccc2n1C(=O)CN1CCc2ccccc2C1
SPECTRUMID=CCMSLIB00010116967
56.19825 2473.0 
56.8246 2640.0 
70.137299 2725.0 
91.054237 45509.0 
103.053886 3815.0 
105.069794 166147.0 
112.585663 3293.0 
115.054153 120993.0 
117.057114 113019.0 
117.069633 149401.0 
118.065353 4543.0 
118.642143 3040.0 
119.085327 89813.0 
121.175583 2654.0 
128.06131 3960.0 
129.069748 105832.0 
130.065018 557173.0 
131.061478 5563.0 
131.072723 102175.0 
132.080658 2329594.0 
144.08075 43555.0 
146.096268 1167416.0 
160.02356 2933.0 
160.075516 3635.0 
172.978577 2960.0 
174.091141 260947.0 
184.050018 5857.0 
186.065811 3329.0 
220.615356 3229.0 
317.139008 1674679.0 
END IONS

BEGIN IONS
NAME=(2E)-3-{3-[(3-{[(4-methylphenyl)sulfonyl]amino}quinoxalin-2-yl)amino]phenyl}pr op-2-enoic acid CollisionEnergy:102040 M-H
PRECURSOR_MZ=459.113
INCHI="InChI=1S/C24H20N4O4S/c1-16-9-12-19(13-10-16)33(31,32)28-24-23(26-20-7-2-3-8-21(20)27-24)25-18-6-4-5-17(15-18)11-14-22(29)30/h2-15H,1H3,(H,25,26)(H,27,28)(H,29,30)/b14-11+"
SMILES=Cc1ccc(S(=O)(=O)N=c2[nH]c3ccccc3nc2Nc2cccc(C=CC(=O)O)c2)cc1
SPECTRUMID=CCMSLIB00010107905
63.96207 6875.0 
67.272247 3169.0 
68.99527 4041.0 
73.9627 3362.0 
82.40612 3239.0 
95.399597 2908.0 
111.848557 2763.0 
114.143753 2860.0 
118.066437 6865.0 
118.663979 2985.0 
127.905777 3343.0 
155.017273 267039.0 
161.893326 3000.0 
162.055984 86002.0 
174.956696 4544.0 
232.087677 27202.0 
233.096176 44922.0 
259.099213 136993.0 
260.108154 27029.0 
261.114349 22517.0 
263.094025 43875.0 
296.051239 4129.0 
303.088898 138280.0 
304.096832 14404.0 
304.394745 3258.0 
304.982635 6278.0 
305.104431 73141.0 
322.887268 6693.0 
324.148682 29422.0 
332.981567 3816.0 
351.161407 13766.0 
354.979706 135344.0 
355.029388 5035.0 
368.140472 72915.0 
374.986023 81594.0 
394.988464 14319.0 
398.974701 5643.0 
415.128052 5039.0 
418.977478 12983.0 
438.981476 16924.0 
456.549683 3997.0 
459.113525 3761469.0 
906.392578 3617.0 
END IONS

BEGIN IONS
NAME="2-[2-(4,5-diphenyl-1,2,4-triazol-3-ylthio)acetylamino]hexanoic acid CollisionEnergy:205060" 2M-H
PRECURSOR_MZ=847.307
INCHI="InChI=1S/C22H24N4O3S/c1-2-3-14-18(21(28)29)23-19(27)15-30-22-25-24-20(16-10-6-4-7-11-16)26(22)17-12-8-5-9-13-17/h4-13,18H,2-3,14-15H2,1H3,(H,23,27)(H,28,29)"
SMILES=CCCCC(N=C(O)CSc1nnc(-c2ccccc2)n1-c1ccccc1)C(=O)O
SPECTRUMID=CCMSLIB00010116486
72.975273 7228.0 
88.427803 3752.0 
90.98584 147868.0 
117.04586 29844.0 
118.669167 4064.0 
130.087402 711238.0 
154.741501 3430.0 
158.064209 14945.0 
181.474426 4270.0 
210.755005 3670.0 
210.960587 4795.0 
214.688141 4088.0 
220.087967 97811.0 
252.06015 439303.0 
264.221497 3513.0 
303.240936 5397.0 
349.168121 28729.0 
423.150024 517544.0 
710.53241 4042.0 
END IONS

BEGIN IONS
NAME=N-[2-chloro-5-(trifluoromethyl)phenyl]-2-{4-[(7-methyl-2-oxochromen-4-yl)methy l]piperazinyl}acetamide CollisionEnergy:205060 M+H
PRECURSOR_MZ=494.145
INCHI="InChI=1S/C24H23ClF3N3O3/c1-15-2-4-18-16(11-23(33)34-21(18)10-15)13-30-6-8-31(9-7-30)14-22(32)29-20-12-17(24(26,27)28)3-5-19(20)25/h2-5,10-12H,6-9,13-14H2,1H3,(H,29,32)"
SMILES=Cc1ccc2c(CN3CCN(CC(O)=Nc4cc(C(F)(F)F)ccc4Cl)CC3)cc(=O)oc2c1
SPECTRUMID=CCMSLIB00010119924
55.042198 12938.0 
56.049961 394351.0 
57.057812 14120.0 
58.06559 97215.0 
68.049911 41503.0 
69.045158 24441.0 
70.065514 865062.0 
72.0448 21150.0 
72.081123 82653.0 
80.049767 18443.0 
81.045036 15635.0 
82.05278 181639.0 
82.065247 27957.0 
83.060654 32134.0 
84.068336 33771.0 
84.081017 7205.0 
85.076408 32871.0 
91.054283 17725.0 
95.060661 5440.0 
96.068237 48188.0 
97.07608 2919275.0 
97.324654 5113.0 
98.083893 141647.0 
99.084213 7514.0 
99.091652 236494.0 
105.069962 14739.0 
111.091553 53186.0 
112.099312 14669.0 
115.054321 22886.0 
117.069717 29720.0 
118.659767 3923.0 
119.085274 6319.0 
128.061859 23288.0 
129.069702 21996.0 
131.085388 25518.0 
133.065033 4887.0 
141.07019 4315.0 
143.085785 15938.0 
145.064713 274462.0 
145.100861 3927.0 
147.080627 20105.0 
155.084763 5509.0 
159.080338 43393.0 
160.052139 5228.0 
161.059769 47132.0 
171.080582 6536.0 
173.059357 29482.0 
174.0914 4413.0 
175.075546 17899.0 
185.059586 4242.0 
185.083649 4905.0 
186.091248 75219.0 
187.074966 27799.0 
188.106735 14823.0 
198.090042 6857.0 
199.074539 5018.0 
200.071686 5753.0 
200.1064 39761.0 
208.013351 17342.0 
214.086075 74208.0 
216.102158 24680.0 
226.085541 24713.0 
228.101578 137026.0 
256.120331 33400.0 
258.136353 13745.0 
271.143646 943459.0 
319.066742 5034.0 
402.222046 4266.0 
494.144684 2570217.0 
516.501587 3852.0 
END IONS

BEGIN IONS
NAME="8-{[2-(2-ethoxyphenyl)-5-methyl(1,3-oxazol-4-yl)]methylthio}-9-methylhydropuri n-6-one CollisionEnergy:205060" M-H
PRECURSOR_MZ=396.114
INCHI="InChI=1S/C19H19N5O3S/c1-4-26-14-8-6-5-7-12(14)18-22-13(11(2)27-18)9-28-19-23-15-16(24(19)3)20-10-21-17(15)25/h5-8,10H,4,9H2,1-3H3,(H,20,21,25)"
SMILES=CCOc1ccccc1-c1nc(CSc2nc3c(O)ncnc3n2C)c(C)o1
SPECTRUMID=CCMSLIB00010119145
57.975071 26153.0 
58.31551 2554.0 
61.98814 4796.0 
66.384918 2708.0 
69.037949 2228.0 
70.2108 2737.0 
73.953583 2909.0 
88.740356 2753.0 
89.64402 2651.0 
113.663437 2709.0 
134.023117 3388.0 
138.013092 4907.0 
147.031326 24293.0 
149.046936 28149.0 
179.003433 204688.0 
180.011246 988337.0 
181.019135 48187.0 
189.829926 2540.0 
191.946182 3745.0 
207.807571 2820.0 
209.050552 4400.0 
224.709839 2765.0 
237.920364 2540.0 
396.112701 32770.0 
END IONS

BEGIN IONS
NAME="N-{1-methyl-2-[(3,4,5-trimethoxyphenyl)carbonylamino]ethyl}(3,4,5-trimethoxyph enyl)carboxamide CollisionEnergy:102040" M+Na
PRECURSOR_MZ=485.189
INCHI="InChI=1S/C23H30N2O8/c1-13(25-23(27)15-10-18(30-4)21(33-7)19(11-15)31-5)12-24-22(26)14-8-16(28-2)20(32-6)17(9-14)29-3/h8-11,13H,12H2,1-7H3,(H,24,26)(H,25,27)"
SMILES=COc1cc(C(O)=NCC(C)N=C(O)c2cc(OC)c(OC)c(OC)c2)cc(OC)c1OC
SPECTRUMID=CCMSLIB00010109794
51.334599 3064.0 
75.52282 2959.0 
77.713318 3179.0 
80.20034 3066.0 
82.945557 3271.0 
94.007111 3458.0 
104.278297 3724.0 
151.822052 3149.0 
156.052124 3009.0 
158.680099 3372.0 
171.838654 3126.0 
185.376373 3479.0 
409.13623 3634.0 
423.152954 6974.0 
451.143707 13930.0 
454.331055 3480.0 
455.140656 5353.0 
469.159241 14167.0 
470.162598 28218.0 
485.188629 6833013.0 
487.973755 5005.0 
END IONS

BEGIN IONS
NAME=N-(2-ethoxyphenyl)-2-[9-(4-methylphenyl)-6-oxohydropurin-8-ylthio]acetamide CollisionEnergy:205060 2M-H
PRECURSOR_MZ=869.266
INCHI="InChI=1S/C22H21N5O3S/c1-3-30-17-7-5-4-6-16(17)25-18(28)12-31-22-26-19-20(23-13-24-21(19)29)27(22)15-10-8-14(2)9-11-15/h4-11,13H,3,12H2,1-2H3,(H,25,28)(H,23,24,29)"
SMILES=CCOc1ccccc1N=C(O)CSc1nc2c(O)ncnc2n1-c1ccc(C)cc1
SPECTRUMID=CCMSLIB00010122130
60.53582 3070.0 
65.014153 7215.0 
65.896927 3012.0 
66.694183 3317.0 
69.365829 3902.0 
73.230553 3160.0 
73.488922 3092.0 
78.163696 3075.0 
82.396217 4641.0 
92.025436 4270.0 
104.278999 3830.0 
136.659073 4103.0 
155.061554 84707.0 
225.077774 47496.0 
243.855865 3806.0 
254.986969 4168.0 
255.034912 21196.0 
256.042297 32484.0 
257.049713 16696.0 
331.102478 3879.0 
360.146149 19274.0 
434.12915 95365.0 
863.346069 4003.0 
END IONS

BEGIN IONS
NAME="2-[2-oxo-4-(N-propylcarbamoyl)hydroquinolyl]-N-(2,4,6-trimethylphenyl)acetamid e CollisionEnergy:102040" M+H
PRECURSOR_MZ=406.213
INCHI="InChI=1S/C24H27N3O3/c1-5-10-25-24(30)19-13-22(29)27(20-9-7-6-8-18(19)20)14-21(28)26-23-16(3)11-15(2)12-17(23)4/h6-9,11-13H,5,10,14H2,1-4H3,(H,25,30)(H,26,28)"
SMILES=CCCN=C(O)c1cc(=O)n(CC(O)=Nc2c(C)cc(C)cc2C)c2ccccc12
SPECTRUMID=CCMSLIB00010110805
53.438431 2889.0 
63.210548 2807.0 
63.327099 2465.0 
66.739906 2899.0 
66.850616 2484.0 
70.065552 12148.0 
82.411148 2648.0 
92.370201 3094.0 
104.278862 3619.0 
106.902206 2806.0 
112.041206 2973.0 
128.049454 3758.0 
130.064911 74754.0 
136.204987 3617.0 
144.044418 14009.0 
146.059998 80880.0 
158.059982 114691.0 
173.071396 4842.0 
186.054169 12764.0 
201.065521 17516.0 
215.117218 19049.0 
231.112274 140112.0 
243.11235 760593.0 
271.107147 2552958.0 
284.13855 32274.0 
297.218445 2913.0 
END IONS

BEGIN IONS
NAME="3-(diethylamino)-1-(3,4-dimethoxyphenyl)propan-1-one CollisionEnergy:102040" M+formate
PRECURSOR_MZ=310.166
INCHI="InChI=1S/C15H23NO3/c1-5-16(6-2)10-9-13(17)12-7-8-14(18-3)15(11-12)19-4/h7-8,11H,5-6,9-10H2,1-4H3"
SMILES=CCN(CC)CCC(=O)c1ccc(OC)c(OC)c1
SPECTRUMID=CCMSLIB00010114653
56.02652 2709.0 
62.01849 1946.0 
69.363861 2044.0 
75.543327 2217.0 
92.387932 2589.0 
111.384743 2097.0 
174.956009 3015.0 
225.150665 5483.0 
238.872833 2429.0 
242.149841 4765.0 
242.176392 77433.0 
242.204239 2729.0 
264.158295 113454.0 
310.163422 13523.0 
315.281982 2224.0 
415.263733 2434.0 
END IONS

BEGIN IONS
NAME=folic acid CollisionEnergy:205060 M+2H]
PRECURSOR_MZ=221.577
INCHI="InChI=1S/C19H19N7O6/c20-19-25-15-14(17(30)26-19)23-11(8-22-15)7-21-10-3-1-9(2-4-10)16(29)24-12(18(31)32)5-6-13(27)28/h1-4,8,12,21H,5-7H2,(H,24,29)(H,27,28)(H,31,32)(H3,20,22,25,26,30)/t12-/m0/s1"
SMILES=N=c1nc(O)c2nc(CNc3ccc(C(=O)NC(CCC(=O)O)C(=O)O)cc3)cnc2[nH]1
SPECTRUMID=CCMSLIB00010123419
53.039242 3337.0 
56.049919 42908.0 
56.404228 3387.0 
61.01096 5190.0 
62.018742 4046.0 
65.038902 17554.0 
66.128593 2856.0 
68.02462 2880.0 
69.008621 6675.0 
79.0214 3397.0 
79.029167 3415.0 
81.045029 34020.0 
82.431923 3324.0 
83.829323 2888.0 
84.044533 1152481.0 
85.028488 14687.0 
85.047836 17727.0 
90.033798 15268.0 
91.041817 23675.0 
92.049522 21063.0 
97.03936 4026.0 
98.03746 3426.0 
99.965607 3139.0 
102.054817 201967.0 
104.325867 3514.0 
106.029114 3618.0 
106.031868 3909.0 
106.039627 45868.0 
108.055489 187432.0 
111.54213 34101.0 
113.534233 3519.0 
119.036423 82820.0 
120.04425 577252.0 
120.54792 23370.0 
121.04747 18577.0 
124.050377 30718.0 
125.539673 269926.0 
126.041092 23342.0 
130.049759 636615.0 
131.034698 3780.0 
131.05304 13432.0 
132.043518 10761.0 
133.051025 5597.0 
134.034393 18649.0 
134.053009 73509.0 
134.544952 136840.0 
134.556213 4980.0 
135.045959 4484.0 
139.045135 6064.0 
148.05014 2132171.0 
148.552841 154246.0 
149.044647 5415.0 
150.039917 3450.0 
152.951187 5533.0 
155.06041 4662.0 
157.055573 5564.0 
159.005966 3273.0 
161.00209 14509.0 
164.05658 3135.0 
165.065033 5067.0 
168.563553 6157.0 
170.034149 3122.0 
170.070145 4336.0 
170.961151 2985.0 
174.984512 43838.0 
176.056442 676922.0 
177.064102 106701.0 
178.072128 26290.0 
183.05481 3174.0 
189.052185 5195.0 
191.066956 14526.0 
194.066223 3590.0 
195.066696 14686.0 
197.081726 5798.0 
198.000168 5596.0 
203.066711 3900.0 
209.188522 2792.0 
213.354172 3016.0 
221.0056 5531.0 
221.073685 3633.0 
221.166443 3118.0 
222.076767 51572.0 
225.077377 25817.0 
229.389175 2818.0 
240.087723 14615.0 
250.071732 187053.0 
251.075104 9713.0 
267.095917 3457.0 
268.082672 56138.0 
269.11496 4350.0 
290.904083 2863.0 
295.093079 607245.0 
296.076782 23154.0 
296.096497 20372.0 
313.103455 204126.0 
314.105652 18258.0 
END IONS

BEGIN IONS
NAME=paclitaxel CollisionEnergy:102040 M+H
PRECURSOR_MZ=854.338
INCHI="InChI=1S/C47H51NO14/c1-25-31(60-43(56)36(52)35(28-16-10-7-11-17-28)48-41(54)29-18-12-8-13-19-29)23-47(57)40(61-42(55)30-20-14-9-15-21-30)38-45(6,32(51)22-33-46(38,24-58-33)62-27(3)50)39(53)37(59-26(2)49)34(25)44(47,4)5/h7-21,31-33,35-38,40,51-52,57H,22-24H2,1-6H3,(H,48,54)/t31-,32-,33+,35-,36+,37+,38?,40-,45+,46-,47+/m0/s1"
SMILES=CC(=O)OC1C(=O)C2(C)C(O)CC3OCC3(OC(C)=O)C2C(OC(=O)c2ccccc2)C2(O)CC(OC(=O)C(O)C(N=C(O)c3ccccc3)c3ccccc3)C(C)=C1C2(C)C
SPECTRUMID=CCMSLIB00010114208
59.75507 3962.0 
67.054581 6127.0 
69.033867 7815.0 
71.143257 4549.0 
77.038986 8694.0 
79.054573 31437.0 
81.033432 7679.0 
81.070107 5237.0 
82.394577 4797.0 
83.049507 4296.0 
91.054283 102519.0 
93.070183 42525.0 
95.04911 36404.0 
95.085732 20652.0 
95.812477 4878.0 
97.065102 4261.0 
103.054497 4657.0 
105.033493 1403102.0 
105.069687 73295.0 
106.065071 10496.0 
107.049179 9199.0 
107.085663 33196.0 
109.064873 17810.0 
117.070282 16656.0 
118.065071 93992.0 
118.640472 4638.0 
119.049179 40066.0 
119.085564 47983.0 
121.06472 67462.0 
121.101013 28130.0 
122.059998 551761.0 
123.044006 9088.0 
123.080238 31135.0 
129.069626 5433.0 
131.085358 22599.0 
133.064819 89306.0 
133.101089 97117.0 
135.080627 25258.0 
136.076141 11027.0 
137.060135 15955.0 
137.096222 5331.0 
143.085861 34309.0 
144.094742 4027.0 
145.064987 7419.0 
145.101242 17856.0 
147.043823 9382.0 
147.080399 28506.0 
149.059937 58869.0 
149.096008 59294.0 
151.075394 33685.0 
151.111649 26178.0 
155.085785 17865.0 
156.093246 5059.0 
157.10112 23488.0 
159.045776 4965.0 
159.080536 50788.0 
159.116333 5440.0 
161.060135 16720.0 
161.096268 59849.0 
163.075714 6878.0 
163.111877 6683.0 
165.053741 5334.0 
167.070465 18920.0 
167.085632 8392.0 
169.100357 33018.0 
171.080521 22831.0 
171.116684 10444.0 
173.096161 30660.0 
175.075241 18363.0 
175.110947 6472.0 
177.054474 36326.0 
177.090057 40460.0 
179.070099 6353.0 
179.085815 19241.0 
181.101257 21322.0 
183.080246 6789.0 
183.116989 36661.0 
185.096344 22726.0 
185.13179 6470.0 
187.07457 8099.0 
187.111649 20879.0 
189.091034 10608.0 
193.101227 27619.0 
194.108932 5324.0 
195.064865 18594.0 
195.082916 6466.0 
195.116699 38683.0 
197.095932 23301.0 
197.132843 24075.0 
199.076508 5015.0 
199.111694 19022.0 
201.090469 8835.0 
201.127563 5829.0 
203.105835 6499.0 
206.109283 29576.0 
207.116287 25472.0 
209.096024 21241.0 
209.132385 46596.0 
210.088516 6827.0 
211.111267 32649.0 
211.148209 29441.0 
213.091904 6357.0 
213.126678 10437.0 
215.10672 10940.0 
219.11676 19344.0 
220.124115 23533.0 
221.132172 57830.0 
222.105148 8214.0 
223.112091 39464.0 
223.149033 7188.0 
224.118332 10565.0 
225.090164 7283.0 
225.127502 36176.0 
225.164917 8093.0 
227.106094 16425.0 
227.144897 15425.0 
229.122803 9337.0 
230.109222 7094.0 
233.094391 5512.0 
233.133743 6875.0 
235.111618 4969.0 
235.147919 50153.0 
237.127075 55516.0 
237.164261 8954.0 
239.110733 14857.0 
239.142944 61327.0 
240.101547 399720.0 
241.121719 19593.0 
245.132248 34908.0 
247.111191 7433.0 
248.119385 28679.0 
249.126358 41679.0 
251.104919 8567.0 
251.142349 29640.0 
253.128464 7961.0 
253.157516 52927.0 
255.138275 26835.0 
257.154572 7813.0 
263.14267 115810.0 
265.123047 10232.0 
265.158081 7695.0 
266.130707 9069.0 
266.934326 5547.0 
267.105743 8915.0 
267.135895 50176.0 
268.096436 310123.0 
269.080719 8825.0 
269.117249 16794.0 
271.169891 5657.0 
273.127045 8850.0 
276.113831 6493.0 
279.137085 25491.0 
281.153198 137171.0 
283.132721 10009.0 
285.147705 25176.0 
286.106934 1122099.0 
291.137787 98035.0 
297.149414 7745.0 
299.16394 52877.0 
309.14801 247447.0 
327.158447 292302.0 
328.116913 5688.0 
329.138702 8027.0 
341.173737 7959.0 
345.167969 66372.0 
351.15863 10909.0 
359.185059 7050.0 
369.170013 81764.0 
372.121124 6223.0 
387.179352 134538.0 
390.133148 27731.0 
405.190186 27169.0 
413.172333 5269.0 
429.18988 20045.0 
431.182617 33578.0 
447.200531 29287.0 
449.196716 68346.0 
473.194794 18633.0 
491.206451 73195.0 
509.216583 481418.0 
533.220398 6708.0 
551.227234 143332.0 
569.238281 211081.0 
655.251282 32801.0 
776.305969 46254.0 
794.311218 6487.0 
854.336243 142932.0 
END IONS

BEGIN IONS
NAME=CINNAMIC ACID CollisionEnergy:102040 M+H
PRECURSOR_MZ=149.06
INCHI="InChI=1S/C9H8O2/c10-9(11)7-6-8-4-2-1-3-5-8/h1-7H,(H,10,11)/b7-6+"
SMILES=O=C(O)C=Cc1ccccc1
SPECTRUMID=CCMSLIB00010114077
61.011219 3817.0 
62.520351 1988.0 
66.732407 2383.0 
98.67028 2212.0 
99.003288 2415.0 
101.191818 1924.0 
103.054192 180823.0 
118.641876 2391.0 
121.028473 8674.0 
131.04924 666045.0 
136.192154 2900.0 
138.724182 2120.0 
145.469345 2173.0 
149.023239 43545.0 
149.060043 14428.0 
149.096497 4284.0 
169.034225 7459.0 
END IONS

BEGIN IONS
NAME="methyl 2-(indol-3-ylcarbonylamino)-4,5-dimethoxybenzoate CollisionEnergy:102040" M+H
PRECURSOR_MZ=355.129
INCHI="InChI=1S/C19H18N2O5/c1-24-16-8-12(19(23)26-3)15(9-17(16)25-2)21-18(22)13-10-20-14-7-5-4-6-11(13)14/h4-10,20H,1-3H3,(H,21,22)"
SMILES=COC(=O)c1cc(OC)c(OC)cc1N=C(O)c1c[nH]c2ccccc12
SPECTRUMID=CCMSLIB00010108604
54.297531 3048.0 
60.082939 2608.0 
64.707832 2852.0 
66.743027 3521.0 
89.038651 3805.0 
92.377243 3341.0 
95.601402 2686.0 
116.049667 10882.0 
127.36264 3111.0 
136.207626 3747.0 
143.597214 3197.0 
144.044327 4173885.0 
144.493439 4971.0 
180.065521 33751.0 
196.060028 2712.0 
206.044571 6457.0 
211.08374 5682.0 
212.090149 26596.0 
223.959244 3030.0 
308.901062 14632.0 
323.101776 72719.0 
331.915863 13610.0 
355.128296 69365.0 
355.243958 34299.0 
END IONS

BEGIN IONS
NAME=riboflavin CollisionEnergy:102040 M+Na
PRECURSOR_MZ=399.127
INCHI="InChI=1S/C17H20N4O6/c1-7-3-9-10(4-8(7)2)21(5-11(23)14(25)12(24)6-22)15-13(18-9)16(26)20-17(27)19-15/h3-4,11-12,14,22-25H,5-6H2,1-2H3,(H,20,26,27)/t11-,12+,14-/m0/s1"
SMILES=Cc1cc2nc3c(O)nc(=O)nc-3n(C[C@H](O)[C@H](O)[C@H](O)CO)c2cc1C
SPECTRUMID=CCMSLIB00010103372
52.458199 15978.5 
68.8144 19266.900391 
69.026703 17771.0 
82.417397 20803.099609 
104.310997 19417.599609 
143.031006 28852.300781 
144.033005 17442.300781 
167.005997 18940.800781 
199.072998 19785.300781 
265.066986 23752.300781 
279.084015 258136.0 
287.893005 32656.300781 
299.162994 21687.800781 
356.121002 137936.0 
375.949005 19803.5 
382.098999 38074.5 
393.955994 94427.796875 
399.127014 14390200.0 
END IONS

BEGIN IONS
NAME="2-amino-6-(hydroxymethyl)-4-(2-nitrophenyl)-8-oxo-4H-pyrano[3,2-b]pyran-3-carb onitrile CollisionEnergy:205060" M+H
PRECURSOR_MZ=342.072
INCHI="InChI=1S/C16H11N3O6/c17-6-10-13(9-3-1-2-4-11(9)19(22)23)15-14(25-16(10)18)12(21)5-8(7-20)24-15/h1-5,13,20H,7,18H2"
SMILES=N#CC1=C(N)Oc2c(oc(CO)cc2=O)C1c1ccccc1[N+](=O)[O-]
SPECTRUMID=CCMSLIB00010123702
50.015541 4857.0 
51.023529 9463.0 
52.03125 3389.0 
53.00259 13585.0 
53.03899 4075.0 
55.018299 41009.0 
57.033932 32811.0 
64.030937 5328.0 
65.038857 5290.0 
67.018181 245676.0 
68.013344 15701.0 
68.02597 5324.0 
68.997398 15884.0 
69.033836 5910.0 
69.992523 12415.0 
71.013046 5451.0 
73.028664 5869.0 
73.880577 2592.0 
78.03392 20171.0 
79.041687 12870.0 
81.033577 4013.0 
82.385017 2941.0 
83.012901 40726.0 
84.959862 2947.0 
85.028526 62966.0 
86.023727 4168.0 
89.038887 2920.0 
89.972282 3034.0 
90.033813 19690.0 
91.042 6380.0 
92.025726 18347.0 
92.049431 25591.0 
95.012787 17154.0 
95.036537 3753.0 
96.044243 12050.0 
97.028374 25825.0 
101.023216 49896.0 
102.033783 4337.0 
103.041893 3676.0 
104.048981 21310.0 
105.03331 12543.0 
111.007011 9892.0 
111.030853 3024.0 
113.023247 25831.0 
114.033623 39559.0 
115.041397 4352.0 
115.053902 15648.0 
116.049507 25900.0 
117.044228 5111.0 
118.052147 6508.0 
119.060493 6686.0 
120.034187 3694.0 
120.044144 88405.0 
124.039383 3910.0 
127.041092 21416.0 
128.049332 19373.0 
128.061493 4202.0 
129.044556 70114.0 
129.05542 5390.0 
130.028824 163721.0 
130.039673 21599.0 
130.051422 5005.0 
130.064529 5704.0 
131.060074 33311.0 
132.044144 85162.0 
134.023697 4652.0 
135.055298 6175.0 
137.04689 5806.0 
140.049149 26404.0 
141.018326 63219.0 
141.044617 142775.0 
142.052567 62385.0 
142.064667 11842.0 
143.034378 20182.0 
143.060181 26866.0 
144.043961 17112.0 
144.055557 35045.0 
145.03949 56924.0 
145.051849 5556.0 
145.062576 8520.0 
146.023132 29382.0 
146.059769 18192.0 
147.055237 6282.0 
152.036423 39197.0 
152.048676 4029.0 
153.044556 74476.0 
153.057159 11015.0 
154.028091 4163.0 
154.040298 4446.0 
154.052307 6509.0 
154.064972 16326.0 
155.060059 123288.0 
156.043228 4968.0 
156.055771 24761.0 
156.067993 5247.0 
157.039474 224665.0 
158.046371 38771.0 
159.028839 101063.0 
159.054901 98622.0 
160.026215 3399.0 
160.039322 21510.0 
162.054184 25003.0 
163.049911 20478.0 
165.044083 5540.0 
166.039536 26430.0 
166.052658 16726.0 
166.065735 5248.0 
167.047333 33327.0 
167.058884 4774.0 
167.072937 24378.0 
168.031387 19961.0 
168.055206 44420.0 
168.068726 16058.0 
169.039383 120241.0 
169.063019 23729.0 
169.07637 13473.0 
170.046661 11937.0 
170.058762 20718.0 
170.073135 5508.0 
171.029266 3485.0 
171.055389 42736.0 
172.051025 32761.0 
175.050201 11845.0 
176.034805 7070.0 
178.051773 10364.0 
179.060303 63640.0 
180.028381 4678.0 
180.05394 20441.0 
180.069489 10955.0 
181.037857 24389.0 
182.046371 38872.0 
183.054993 203447.0 
184.050125 6337.0 
185.033875 67743.0 
186.067703 24136.0 
187.049728 14454.0 
193.037964 3864.0 
193.078018 27004.0 
194.048096 5757.0 
194.084747 54261.0 
195.055038 40143.0 
196.049881 45395.0 
197.034317 41630.0 
197.056839 14330.0 
197.074097 5020.0 
198.065384 5524.0 
199.049271 21672.0 
200.044159 38345.0 
201.050934 8404.0 
206.059479 14999.0 
207.055344 4320.0 
208.062851 19448.0 
209.057205 3633.0 
210.042099 61319.0 
210.065918 16346.0 
211.050095 35667.0 
212.04483 57542.0 
214.062271 32024.0 
215.044922 21275.0 
216.04129 11367.0 
218.055405 13991.0 
221.073135 25110.0 
222.065231 16344.0 
222.080505 5264.0 
223.049835 19452.0 
224.042603 10818.0 
224.059784 6051.0 
225.029434 12264.0 
225.050354 10413.0 
225.066284 4574.0 
226.036758 14305.0 
226.06041 20911.0 
227.044724 19209.0 
234.054352 12933.0 
235.049835 72042.0 
236.057266 91066.0 
237.06398 13369.0 
238.059113 14928.0 
239.045181 16037.0 
242.055161 14246.0 
249.062317 14897.0 
250.074631 31867.0 
251.044739 4940.0 
253.060104 76601.0 
254.030594 5230.0 
255.039856 4447.0 
263.045349 4863.0 
264.052368 196197.0 
265.059692 4405.0 
266.056183 5358.0 
267.065582 4256.0 
272.052948 5373.0 
277.054901 15054.0 
279.038818 4406.0 
280.044495 5183.0 
280.075012 4825.0 
281.054047 79321.0 
281.084625 4449.0 
282.064178 22459.0 
299.066956 49221.0 
308.06842 7086.0 
315.061523 5695.0 
324.06073 1121414.0 
325.065887 5518.0 
342.071411 84404.0 
END IONS

BEGIN IONS
NAME="1-(4-chlorophenyl)-1,2,3,4-tetrahydrobeta-carboline-3-carboxylic acid CollisionEnergy:102040" M-H
PRECURSOR_MZ=325.075
INCHI="InChI=1S/C18H15ClN2O2/c19-11-7-5-10(6-8-11)16-17-13(9-15(21-16)18(22)23)12-3-1-2-4-14(12)20-17/h1-8,15-16,20-21H,9H2,(H,22,23)"
SMILES=O=C(O)C1Cc2c([nH]c3ccccc23)C(c2ccc(Cl)cc2)N1
SPECTRUMID=CCMSLIB00010108712
61.408852 2524.0 
63.58778 2403.0 
72.008827 128546.0 
80.364403 2655.0 
82.408417 2871.0 
92.050537 45047.0 
92.385902 4863.0 
116.050636 1410107.0 
125.016487 46582.0 
130.212173 3058.0 
144.082001 3651.0 
150.011444 5677.0 
156.069412 91917.0 
169.077515 14565.0 
196.017273 257461.0 
239.050797 38498.0 
252.058838 83878.0 
253.053986 26023.0 
254.074417 69074.0 
264.058533 51561.0 
279.069794 51623.0 
281.085236 461962.0 
325.075165 967593.0 
END IONS

BEGIN IONS
NAME=folic acid CollisionEnergy:102040 M+H
PRECURSOR_MZ=442.147
INCHI="InChI=1S/C19H19N7O6/c20-19-25-15-14(17(30)26-19)23-11(8-22-15)7-21-10-3-1-9(2-4-10)16(29)24-12(18(31)32)5-6-13(27)28/h1-4,8,12,21H,5-7H2,(H,24,29)(H,27,28)(H,31,32)(H3,20,22,25,26,30)/t12-/m0/s1"
SMILES=N=c1nc(O)c2nc(CNc3ccc(C(=O)N[C@@H](CCC(=O)O)C(=O)O)cc3)cnc2[nH]1
SPECTRUMID=CCMSLIB00010126735
52.109901 6095.709961 
62.3839 5051.02002 
92.411102 7367.350098 
96.339203 6676.120117 
108.347 6683.47998 
115.410004 5840.629883 
118.695 7084.97998 
120.044998 230405.0 
131.380997 5935.330078 
136.261002 10116.599609 
176.056 204018.0 
211.932007 6747.589844 
267.062012 7323.700195 
295.092987 1676810.0 
305.097992 9092.830078 
313.104004 159867.0 
442.144012 40788.300781 
END IONS

BEGIN IONS
NAME="methyl 2-(indol-3-ylcarbonylamino)-4,5-dimethoxybenzoate CollisionEnergy:102040" M-H
PRECURSOR_MZ=353.114
INCHI="InChI=1S/C19H18N2O5/c1-24-16-8-12(19(23)26-3)15(9-17(16)25-2)21-18(22)13-10-20-14-7-5-4-6-11(13)14/h4-10,20H,1-3H3,(H,21,22)"
SMILES=COC(=O)c1cc(OC)c(OC)cc1N=C(O)c1c[nH]c2ccccc12
SPECTRUMID=CCMSLIB00010108605
82.415787 3826.0 
90.607552 3507.0 
94.091537 3669.0 
111.349777 3147.0 
116.050598 998658.0 
118.683937 3884.0 
136.039963 39426.0 
138.17485 3796.0 
141.046524 6159.0 
142.787613 3732.0 
146.938766 5771.0 
165.006912 4576.0 
180.030243 615866.0 
190.928802 6580.0 
195.053802 4304198.0 
209.945984 5708.0 
210.077255 809314.0 
216.944489 6510.0 
262.857819 3871.0 
266.986847 22715.0 
280.864899 4481.0 
291.043396 6716.0 
295.607941 4276.0 
304.985016 3653.0 
306.064789 21193.0 
321.088623 34202.0 
332.977631 40792.0 
338.090912 156618.0 
353.114655 8020513.0 
END IONS

BEGIN IONS
NAME=methyl (2E)-3-{3-[(methylsulfonyl)amino]phenyl}prop-2-enoate CollisionEnergy:205060 M+Na
PRECURSOR_MZ=278.046
INCHI="InChI=1S/C11H13NO4S/c1-16-11(13)7-6-9-4-3-5-10(8-9)12-17(2,14)15/h3-8,12H,1-2H3/b7-6+"
SMILES=COC(=O)C=Cc1cccc(NS(C)(=O)=O)c1
SPECTRUMID=CCMSLIB00010119311
54.811779 1900.0 
55.934921 2217.0 
62.61919 2151.0 
73.946167 3032.0 
92.364433 2530.0 
96.705544 2312.0 
99.669983 2154.0 
213.923126 3359.0 
278.045502 457489.0 
END IONS

BEGIN IONS
NAME="4-bromonaphthyl 3,4,5-trimethoxybenzoate CollisionEnergy:205060" M+H
PRECURSOR_MZ=417.033
INCHI="InChI=1S/C20H17BrO5/c1-23-17-10-12(11-18(24-2)19(17)25-3)20(22)26-16-9-8-15(21)13-6-4-5-7-14(13)16/h4-11H,1-3H3"
SMILES=COc1cc(C(=O)Oc2ccc(Br)c3ccccc23)cc(OC)c1OC
SPECTRUMID=CCMSLIB00010125940
79.05426 5028.0 
81.033974 3729.0 
81.069893 3226.0 
84.872467 2634.0 
93.339539 2687.0 
96.056618 4047.0 
104.294113 3207.0 
109.064522 5577.0 
118.663834 2764.0 
122.036011 5263.0 
124.051567 10430.0 
130.215179 2818.0 
136.222916 2396.0 
139.074966 21057.0 
142.041031 58211.0 
151.038574 4331.0 
152.046677 26707.0 
153.054199 10138.0 
156.041183 2632.0 
157.988037 3159.0 
160.051758 4997.0 
168.077805 14923.0 
170.036118 3158.0 
178.436829 2532.0 
186.512451 2497.0 
188.046829 24479.0 
192.964447 305331.0 
195.06488 230528.0 
207.951218 23594.0 
220.959686 49245.0 
236.357224 2882.0 
248.954071 867918.0 
263.35025 2660.0 
263.3862 2743.0 
283.064728 2450.0 
329.609436 2598.0 
338.115936 3387.0 
343.784363 2771.0 
417.03241 105761.0 
530.206177 2733.0 
798.454224 2638.0 
861.395264 2700.0 
END IONS

BEGIN IONS
NAME=2-{1-[(4-chlorophenyl)carbonyl]-5-methoxy-2-methylindol-3-yl}-N-(2-pyridylmeth yl)acetamide CollisionEnergy:205060 M+Cl
PRECURSOR_MZ=482.104
INCHI="InChI=1S/C25H22ClN3O3/c1-16-21(14-24(30)28-15-19-5-3-4-12-27-19)22-13-20(32-2)10-11-23(22)29(16)25(31)17-6-8-18(26)9-7-17/h3-13H,14-15H2,1-2H3,(H,28,30)"
SMILES=COc1ccc2c(c1)c(CC(O)=NCc1ccccn1)c(C)n2C(=O)c1ccc(Cl)cc1
SPECTRUMID=CCMSLIB00010116412
52.29052 2207.0 
69.27478 2164.0 
70.140282 2374.0 
99.811096 2432.0 
106.922523 2629.0 
156.98764 4874.0 
170.308121 2724.0 
183.755859 2506.0 
209.926239 3949.0 
349.324402 2576.0 
END IONS

BEGIN IONS
NAME="2-(4-methoxyphenyl)-2-oxoethyl 3-[(3,4-dimethoxyphenyl)carbonylamino]benzoate CollisionEnergy:205060" M+Na
PRECURSOR_MZ=472.137
INCHI="InChI=1S/C25H23NO7/c1-30-20-10-7-16(8-11-20)21(27)15-33-25(29)18-5-4-6-19(13-18)26-24(28)17-9-12-22(31-2)23(14-17)32-3/h4-14H,15H2,1-3H3,(H,26,28)"
SMILES=COc1ccc(C(=O)COC(=O)c2cccc(N=C(O)c3ccc(OC)c(OC)c3)c2)cc1
SPECTRUMID=CCMSLIB00010121246
51.6875 2879.0 
58.489239 2768.0 
60.02309 2499.0 
77.575974 2685.0 
85.921059 3399.0 
87.840073 2599.0 
105.069717 13853.0 
109.084793 3053.0 
132.313507 2937.0 
208.371658 11454.0 
223.48819 2871.0 
276.149811 3758.0 
457.114655 4222.0 
472.136261 3089836.0 
END IONS

BEGIN IONS
NAME=ST024712 CollisionEnergy:102040 M+Na
PRECURSOR_MZ=469.111
INCHI="InChI=1S/C22H22O10/c1-29-11-4-2-10(3-5-11)13-9-30-15-7-12(6-14(24)17(15)18(13)25)31-22-21(28)20(27)19(26)16(8-23)32-22/h2-7,9,16,19-24,26-28H,8H2,1H3"
SMILES=COc1ccc(-c2coc3cc(OC4OC(CO)C(O)C(O)C4O)cc(O)c3c2=O)cc1
SPECTRUMID=CCMSLIB00010108621
56.50074 2201.0 
58.87265 2532.0 
59.41449 2591.0 
82.386909 3581.0 
111.043022 2851.0 
130.689453 2796.0 
132.959061 2537.0 
162.359436 3180.0 
201.638748 2696.0 
207.448349 20222.0 
307.057098 182045.0 
313.326965 2677.0 
469.10965 1301461.0 
470.524475 2618.0 
487.119568 11785.0 
END IONS

BEGIN IONS
NAME="6,7-Dimethoxyflavone CollisionEnergy:102040" M+Na
PRECURSOR_MZ=305.078
INCHI="InChI=1S/C17H14O4/c1-19-16-8-12-13(18)9-14(11-6-4-3-5-7-11)21-15(12)10-17(16)20-2/h3-10H,1-2H3"
SMILES=COc1cc2oc(-c3ccccc3)cc(=O)c2cc1OC
SPECTRUMID=CCMSLIB00010104207
53.141338 2278.0 
60.685692 2076.0 
82.974701 2312.0 
90.976418 9950.0 
92.373901 2544.0 
95.308578 2120.0 
109.215874 2399.0 
157.512238 2596.0 
305.077759 1340691.0 
323.08728 44337.0 
END IONS

BEGIN IONS
NAME=2'-deoxycytidine CollisionEnergy:102040 2M+H
PRECURSOR_MZ=455.189
INCHI="InChI=1S/C9H13N3O4/c10-7-1-2-12(9(15)11-7)8-3-5(14)6(4-13)16-8/h1-2,5-6,8,13-14H,3-4H2,(H2,10,11,15)/t5-,6+,8+/m0/s1"
SMILES=N=c1ccn([C@H]2C[C@H](O)[C@@H](CO)O2)c(O)n1
SPECTRUMID=CCMSLIB00010103329
52.7967 373714.0 
55.167301 394118.0 
60.930801 388580.0 
68.805496 399350.0 
95.024498 577525.0 
100.788002 486972.0 
112.051003 248656000.0 
117.055 1578550.0 
118.672997 468711.0 
151.209 384323.0 
157.179001 475620.0 
157.996994 431200.0 
173.378998 405979.0 
228.098007 67268704.0 
339.140015 673897.0 
344.14801 569892.0 
455.187988 19022100.0 
455.259003 768198.0 
END IONS

BEGIN IONS
NAME="methyl 5-(methoxycarbonyl)-4-(3,4,5-trimethoxyphenyl)-1,4-dihydropyridine-3-ca rboxylate CollisionEnergy:102040" M-e
PRECURSOR_MZ=363.131
INCHI="InChI=1S/C18H21NO7/c1-22-13-6-10(7-14(23-2)16(13)24-3)15-11(17(20)25-4)8-19-9-12(15)18(21)26-5/h6-9,15,19H,1-5H3"
SMILES=COC(=O)C1=CNC=C(C(=O)OC)C1c1cc(OC)c(OC)c(OC)c1
SPECTRUMID=CCMSLIB00010107766
50.546341 2467.0 
79.324417 2520.0 
93.033699 4970.0 
111.043571 6080.0 
125.059227 10306.0 
153.054382 146106.0 
157.980759 3393.0 
168.077805 515223.0 
169.036301 4991.0 
196.060074 732960.0 
211.629395 3130.0 
229.067642 5172.0 
244.096466 5252.0 
256.061493 3545.0 
258.075806 11401.0 
271.08371 2540.0 
274.070282 15238.0 
288.085846 66045.0 
289.089661 3954.0 
300.085693 95627.0 
304.117126 85313.0 
316.081085 53263.0 
317.085083 17492.0 
330.095337 11246.0 
331.104187 75713.0 
332.072174 5319.0 
332.111847 57812.0 
333.079102 36928.0 
347.095642 6344.0 
348.106445 99023.0 
363.127136 515299.0 
END IONS

BEGIN IONS
NAME=4-({4-[(4-fluorophenyl)methyl]piperazinyl}methyl)-6-methoxychromen-2-one CollisionEnergy:205060 M+Na
PRECURSOR_MZ=405.158
INCHI="InChI=1S/C22H23FN2O3/c1-27-19-6-7-21-20(13-19)17(12-22(26)28-21)15-25-10-8-24(9-11-25)14-16-2-4-18(23)5-3-16/h2-7,12-13H,8-11,14-15H2,1H3"
SMILES=COc1ccc2oc(=O)cc(CN3CCN(Cc4ccc(F)cc4)CC3)c2c1
SPECTRUMID=CCMSLIB00010117387
60.17997 2285.0 
90.774063 2383.0 
92.377487 2514.0 
120.211128 2363.0 
136.21344 2863.0 
212.818054 2630.0 
340.025635 2613.0 
405.157898 59411.0 
END IONS

BEGIN IONS
NAME=galanthamine CollisionEnergy:205060 M+Na
PRECURSOR_MZ=310.141
INCHI="InChI=1S/C17H21NO3/c1-18-8-7-17-6-5-12(19)9-14(17)21-16-13(20-2)4-3-11(10-18)15(16)17/h3-6,12,14,19H,7-10H2,1-2H3/t12-,14-,17-/m0/s1"
SMILES=COc1ccc2c3c1OC1CC(O)C=CC31CCN(C)C2
SPECTRUMID=CCMSLIB00010121848
50.113972 2535.0 
51.111641 2600.0 
51.700199 2182.0 
52.551628 2466.0 
63.735291 2306.0 
64.01104 2436.0 
64.879837 2428.0 
124.52317 2569.0 
126.192757 2505.0 
136.664337 3592.0 
253.920563 2744.0 
263.905426 20088.0 
286.921356 14608.0 
294.108093 3614.0 
295.11676 3340.0 
310.140778 3150711.0 
END IONS

BEGIN IONS
NAME="3-adamantanyl-7,9-dimethyl-1-benzyl-5,7,9-trihydro-4H-1,2,4-triazino[4,3-h]pur ine-6,8-dione CollisionEnergy:102040" M+H
PRECURSOR_MZ=459.25
INCHI="InChI=1S/C26H30N6O2/c1-29-22-21(23(33)30(2)25(29)34)31-15-20(26-11-17-8-18(12-26)10-19(9-17)13-26)28-32(24(31)27-22)14-16-6-4-3-5-7-16/h3-7,17-19H,8-15H2,1-2H3"
SMILES=Cn1c(=O)c2c(nc3n2CC(C24CC5CC(CC(C5)C2)C4)=NN3Cc2ccccc2)n(C)c1=O
SPECTRUMID=CCMSLIB00010113008
57.557899 3230.0 
65.038834 4655.0 
66.041656 2991.0 
79.054512 3962.0 
83.060257 26979.0 
91.054367 652464.0 
91.503098 2946.0 
92.057747 7037.0 
104.291191 3530.0 
107.085548 4025.0 
135.11673 323339.0 
136.221375 4504.0 
150.165573 3577.0 
181.071365 13159.0 
198.090057 7370.0 
213.112839 42098.0 
220.082413 23681.0 
238.092819 7732.0 
241.107849 201564.0 
297.119537 4426.0 
298.129395 1709858.0 
327.180542 50220.0 
368.194672 19360.0 
402.231079 5466.0 
459.249634 5744577.0 
END IONS

BEGIN IONS
NAME="2H-benzo[3,4-d]1,3-dioxolen-5-yl 4-[(3,5-dimethyl-1-phenylpyrazol-4-yl)methyl] piperazinyl ketone CollisionEnergy:102040" M+Na
PRECURSOR_MZ=441.19
INCHI="InChI=1S/C24H26N4O3/c1-17-21(18(2)28(25-17)20-6-4-3-5-7-20)15-26-10-12-27(13-11-26)24(29)19-8-9-22-23(14-19)31-16-30-22/h3-9,14H,10-13,15-16H2,1-2H3"
SMILES=Cc1nn(-c2ccccc2)c(C)c1CN1CCN(C(=O)c2ccc3c(c2)OCO3)CC1
SPECTRUMID=CCMSLIB00010107754
53.42318 2930.0 
74.087822 3575.0 
82.402489 3217.0 
88.108932 2887.0 
168.638367 3100.0 
247.834503 2954.0 
432.395447 3225.0 
441.189392 5225936.0 
END IONS

BEGIN IONS
NAME=(-)-Scopolamine N-oxide CollisionEnergy:102040 M+formate
PRECURSOR_MZ=364.14
INCHI="InChI=1S/C17H21NO5/c1-18(21)13-7-11(8-14(18)16-15(13)23-16)22-17(20)12(9-19)10-5-3-2-4-6-10/h2-6,11-16,19H,7-9H2,1H3/t11-,12?,13-,14-,15-,16+,18?/m0/s1"
SMILES=C[N+]1([O-])C2CC(OC(=O)C(CO)c3ccccc3)CC1C1OC12
SPECTRUMID=CCMSLIB00010108787
56.777851 2343.0 
61.927361 2237.0 
71.451187 2223.0 
82.417953 2726.0 
118.489166 2406.0 
119.817711 2545.0 
136.240784 2517.0 
158.432129 2276.0 
185.426163 2650.0 
332.230042 2682.0 
END IONS

BEGIN IONS
NAME={4-[(4-chlorophenyl)methoxy]-3-methoxyphenyl}-N-(3-pyridylmethyl)carboxamide CollisionEnergy:102040 M+formate
PRECURSOR_MZ=427.107
INCHI="InChI=1S/C21H19ClN2O3/c1-26-20-11-17(21(25)24-13-16-3-2-10-23-12-16)6-9-19(20)27-14-15-4-7-18(22)8-5-15/h2-12H,13-14H2,1H3,(H,24,25)"
SMILES=COc1cc(C(O)=NCc2cccnc2)ccc1OCc1ccc(Cl)cc1
SPECTRUMID=CCMSLIB00010104610
50.066422 2778.0 
65.655327 2686.0 
67.018517 15143.0 
76.545647 2281.0 
95.013809 22331.0 
111.008751 5574.0 
112.986313 3377.0 
123.008698 318891.0 
136.224625 2983.0 
157.992203 2699.0 
165.329208 2728.0 
172.109283 2617.0 
208.753265 3115.0 
208.772446 5768.0 
232.030106 11068.0 
247.051941 22290.0 
255.077393 16646.0 
256.085083 76627.0 
288.074463 37317.0 
315.808136 2908.0 
342.979034 3454.0 
358.358063 2814.0 
376.1474 2458.0 
381.100922 654279.0 
424.881683 2597.0 
427.105896 13119.0 
429.348267 2696.0 
END IONS

BEGIN IONS
NAME=2-methoxyethyl 5-hydroxy-2-methyl-1-[2-(4-propylphenoxy)ethyl]benzo[g]indole-3 -carboxylate CollisionEnergy:102040 M-H
PRECURSOR_MZ=460.213
INCHI="InChI=1S/C28H31NO5/c1-4-7-20-10-12-21(13-11-20)33-15-14-29-19(2)26(28(31)34-17-16-32-3)24-18-25(30)22-8-5-6-9-23(22)27(24)29/h5-6,8-13,18,30H,4,7,14-17H2,1-3H3"
SMILES=CCCc1ccc(OCCn2c(C)c(C(=O)OCCOC)c3cc(O)c4ccccc4c32)cc1
SPECTRUMID=CCMSLIB00010112328
51.224522 2658.0 
57.196449 2805.0 
66.786263 2772.0 
75.533913 2330.0 
92.434372 3367.0 
118.72525 2346.0 
121.652962 2595.0 
124.797897 2704.0 
135.082123 3832.0 
179.322235 2641.0 
185.055847 2414.0 
194.061264 16547.0 
195.068848 9348.0 
222.054855 3057.0 
238.051117 20191.0 
239.059128 11028.0 
266.08316 16667.0 
297.10083 527415.0 
459.974792 5205.0 
460.213684 443956.0 
END IONS

BEGIN IONS
NAME="methylethyl 4-(3-chloro-4-hydroxy-5-methoxyphenyl)-2-methyl-5-oxo-1,4,6,7,8-pe ntahydroquinoline-3-carboxylate CollisionEnergy:205060" M+Na
PRECURSOR_MZ=428.124
INCHI="InChI=1S/C21H24ClNO5/c1-10(2)28-21(26)17-11(3)23-14-6-5-7-15(24)19(14)18(17)12-8-13(22)20(25)16(9-12)27-4/h8-10,18,23,25H,5-7H2,1-4H3"
SMILES=COc1cc(C2C(C(=O)OC(C)C)=C(C)NC3=C2C(=O)CCC3)cc(Cl)c1O
SPECTRUMID=CCMSLIB00010117664
55.831081 2689.0 
56.055099 2475.0 
60.36684 2282.0 
67.971977 2441.0 
73.953529 2347.0 
80.347717 2423.0 
152.344803 2839.0 
184.073456 17880.0 
228.062851 33516.0 
332.739899 3186.0 
386.031342 2954.0 
386.075623 169815.0 
428.122711 2533608.0 
446.136749 26465.0 
END IONS

BEGIN IONS
NAME="N-[(2-hydroxynaphthyl)phenylmethyl](3,4,5-trimethoxyphenyl)carboxamide CollisionEnergy:102040" 2M-H
PRECURSOR_MZ=885.339
INCHI="InChI=1S/C27H25NO5/c1-31-22-15-19(16-23(32-2)26(22)33-3)27(30)28-25(18-10-5-4-6-11-18)24-20-12-8-7-9-17(20)13-14-21(24)29/h4-16,25,29H,1-3H3,(H,28,30)"
SMILES=COc1cc(C(O)=NC(c2ccccc2)c2c(O)ccc3ccccc23)cc(OC)c1OC
SPECTRUMID=CCMSLIB00010111166
91.62661 4489.0 
92.394836 5514.0 
142.095886 4235.0 
143.050217 2860152.0 
195.052917 5838.0 
209.906387 17356.0 
210.077133 594712.0 
323.000366 4476.0 
442.165924 2632481.0 
582.75061 4385.0 
808.962402 5297.0 
END IONS

BEGIN IONS
NAME=kynurenic acid CollisionEnergy:102040 M+H-H2O
PRECURSOR_MZ=172.039
INCHI="InChI=1S/C10H7NO3/c12-9-5-8(10(13)14)11-7-4-2-1-3-6(7)9/h1-5H,(H,11,12)(H,13,14)"
SMILES=O=C(O)c1cc(=O)c2ccccc2[nH]1
SPECTRUMID=CCMSLIB00010103273
50.967602 2961.129883 
62.6661 3487.070068 
63.5439 3583.360107 
72.0448 18876.800781 
73.048203 5077.109863 
75.215797 3917.189941 
87.044098 4193.839844 
89.038902 259078.0 
89.071198 20087.400391 
90.074699 14339.400391 
91.054497 3659.669922 
116.050003 792477.0 
117.031998 25568.199219 
120.043999 28686.5 
134.059998 120754.0 
144.044006 102986.0 
144.057007 5274.52002 
157.076004 7171.330078 
161.046997 8591.129883 
161.522003 27231.800781 
162.054993 21167200.0 
162.589996 25038.599609 
163.059998 13928.0 
164.059006 39487.601562 
172.151993 52025.300781 
172.169006 11895.200195 
END IONS

BEGIN IONS
NAME={4-[(4-hydroxy-6-propylpyrimidin-2-ylthio)methyl]phenyl}-N-(3-methylphenyl)car boxamide CollisionEnergy:102040 M+Na
PRECURSOR_MZ=416.14
INCHI="InChI=1S/C22H23N3O2S/c1-3-5-18-13-20(26)25-22(24-18)28-14-16-8-10-17(11-9-16)21(27)23-19-7-4-6-15(2)12-19/h4,6-13H,3,5,14H2,1-2H3,(H,23,27)(H,24,25,26)"
SMILES=CCCc1cc(O)nc(SCc2ccc(C(=O)Nc3cccc(C)c3)cc2)n1
SPECTRUMID=CCMSLIB00010106343
58.564442 2954.0 
84.148537 2545.0 
104.306847 3415.0 
122.15995 2776.0 
128.082748 2727.0 
129.408325 3013.0 
130.255417 2594.0 
161.067993 14218.0 
171.746246 2908.0 
185.438004 2851.0 
278.061279 12501.0 
280.077393 16416.0 
370.665161 3142.0 
416.139648 3460021.0 
END IONS

BEGIN IONS
NAME="2-[(4-{[(dimethylamino)sulfonyl]amino}phenyl)sulfonyl]-1,2,3,4-tetrahydroisoqu inoline CollisionEnergy:102040" M-H
PRECURSOR_MZ=394.09
INCHI="InChI=1S/C17H21N3O4S2/c1-19(2)26(23,24)18-16-7-9-17(10-8-16)25(21,22)20-12-11-14-5-3-4-6-15(14)13-20/h3-10,18H,11-13H2,1-2H3"
SMILES=CN(C)S(=O)(=O)Nc1ccc(S(=O)(=O)N2CCc3ccccc3C2)cc1
SPECTRUMID=CCMSLIB00010107440
60.957691 3422.0 
63.961849 5391.0 
64.96981 6385.0 
66.746674 4324.0 
79.957176 120690.0 
80.964577 6420.0 
92.050377 4892.0 
94.024017 4268.0 
94.029846 80487.0 
96.003838 2949.0 
96.00914 57368.0 
97.403214 3312.0 
107.037804 34962.0 
108.01255 73538.0 
121.016876 5389.0 
122.024963 649842.0 
138.002213 19621.0 
153.996933 20324.0 
155.004837 34174.0 
157.990799 4647.0 
198.050095 15293.0 
199.054382 23572.0 
201.033951 42695.0 
214.042145 256682.0 
262.008606 28783.0 
263.016327 20234.0 
286.078491 1637814.0 
287.085724 32883.0 
350.039246 5431.0 
351.048431 4047.0 
392.044403 14425.0 
392.09726 4113.0 
394.090576 9238148.0 
396.147644 8257.0 
427.806976 4193.0 
END IONS

BEGIN IONS
NAME="1-Methyl-6,7-dihydro-5H-pyrido[3,2,1-ij]quinolin-3-one CollisionEnergy:102040" M+H
PRECURSOR_MZ=200.107
INCHI="InChI=1S/C13H13NO/c1-9-8-12(15)14-7-3-5-10-4-2-6-11(9)13(10)14/h2,4,6,8H,3,5,7H2,1H3"
SMILES=Cc1cc(=O)n2c3c(cccc13)CCC2
SPECTRUMID=CCMSLIB00010103422
55.932411 3012.0 
55.934841 54982.0 
66.744293 2975.0 
70.958099 42853.0 
71.92971 5809.0 
72.937218 22995.0 
73.954033 3281.0 
74.096458 16293.0 
75.100021 13683.0 
76.927834 3924.0 
82.908257 2692.0 
85.393822 2743.0 
88.968483 68555.0 
89.939888 21724.0 
90.947723 14970.0 
100.076088 2999.0 
103.943024 3514.0 
105.934677 6266.0 
106.507469 3112.0 
106.97876 4246.0 
107.95015 43585.0 
108.957741 4162.0 
111.984444 11996.0 
113.963692 5748.0 
117.93438 18453.0 
123.944847 3339.0 
125.96067 32289.0 
128.950592 469167.0 
130.966232 16916.0 
135.945114 156166.0 
146.961166 218682.0 
148.977005 27292.0 
153.955521 62844.0 
158.961151 305913.0 
169.976974 62770.0 
172.075623 67550.0 
176.971939 106458.0 
200.106705 10387786.0 
200.838013 3552.0 
212.133163 4007.0 
END IONS

BEGIN IONS
NAME=2-Hydroxycinnamic acid CollisionEnergy:205060 M-H
PRECURSOR_MZ=163.04
INCHI="InChI=1S/C9H8O3/c10-8-4-2-1-3-7(8)5-6-9(11)12/h1-6,10H,(H,11,12)/b6-5+"
SMILES=O=C(O)C=Cc1ccccc1O
SPECTRUMID=CCMSLIB00010119354
51.587479 164191.0 
60.53318 189874.0 
66.73764 203404.0 
69.404846 169710.0 
71.622749 200934.0 
91.05545 1510919.0 
93.03476 1837018.0 
104.278412 208688.0 
117.034828 4311934.0 
118.643929 272445.0 
119.0504 162433776.0 
120.054199 328051.0 
129.631653 152880.0 
136.198181 201166.0 
163.040497 3992786.0 
176.355392 168837.0 
END IONS

BEGIN IONS
NAME=colchicine CollisionEnergy:102040 M+H
PRECURSOR_MZ=400.175
INCHI="InChI=1S/C22H25NO6/c1-12(24)23-16-8-6-13-10-19(27-3)21(28-4)22(29-5)20(13)14-7-9-18(26-2)17(25)11-15(14)16/h7,9-11,16H,6,8H2,1-5H3,(H,23,24)/t16-/m0/s1"
SMILES=COc1cc2c(c(OC)c1OC)-c1ccc(OC)c(=O)cc1C(N=C(C)O)CC2
SPECTRUMID=CCMSLIB00010107257
56.050331 8304.0 
60.044861 61657.0 
60.53307 5651.0 
67.809479 5066.0 
71.010117 4273.0 
75.044884 22558.0 
75.603493 4410.0 
75.633842 4537.0 
84.045174 32540.0 
86.060661 10201.0 
92.595123 4489.0 
98.060593 9130.0 
102.055389 5234.0 
104.276337 5979.0 
111.044411 6085.0 
125.059647 5772.0 
137.059631 72107.0 
138.055618 7816.0 
145.065582 7719.0 
151.075836 11603.0 
152.07074 39463.0 
152.591675 5154.0 
160.076248 8512.0 
165.079208 32092.0 
167.070557 11210.0 
173.060196 7947.0 
175.076492 5422.0 
176.070831 34331.0 
179.071075 10230.0 
181.085693 112513.0 
188.085159 11101.0 
190.085983 15513.0 
191.071213 21253.0 
193.07373 24528.0 
194.095032 5852.0 
195.102051 5423.0 
202.086899 10917.0 
203.092865 47510.0 
205.086349 30589.0 
206.096115 9752.0 
207.102188 53827.0 
211.07724 6400.0 
219.088593 28563.0 
220.094208 7764.0 
221.097427 10100.0 
222.112335 26800.0 
223.075195 10277.0 
225.091049 9567.0 
226.099701 11155.0 
227.070969 9631.0 
234.068436 10325.0 
234.111893 179768.0 
235.07608 25526.0 
235.098694 9036.0 
236.080917 6213.0 
237.091583 22883.0 
238.099792 35104.0 
239.105453 55648.0 
239.687271 5195.0 
240.078857 5843.0 
240.116486 7246.0 
241.085999 20129.0 
242.094086 56070.0 
243.104248 7262.0 
245.104355 11205.0 
247.075012 10365.0 
248.083603 23321.0 
249.090424 65875.0 
250.098618 73856.0 
251.07103 36680.0 
251.10701 54432.0 
252.076797 20202.0 
252.114151 46430.0 
253.086884 27481.0 
253.122177 10709.0 
254.095261 44547.0 
254.126892 5288.0 
255.069046 16303.0 
255.101608 60918.0 
256.108978 25617.0 
257.117279 32433.0 
258.089844 22371.0 
262.05957 6181.0 
262.088806 7765.0 
263.06781 37955.0 
263.097656 6329.0 
264.074921 9528.0 
264.103516 24225.0 
265.085968 54028.0 
265.107605 12447.0 
266.093018 84275.0 
266.119293 28343.0 
267.100769 252339.0 
268.108948 76651.0 
269.081146 34923.0 
269.115845 21597.0 
270.088898 84031.0 
270.124847 52826.0 
271.096069 33728.0 
271.127136 12086.0 
272.102631 7370.0 
272.128906 8236.0 
273.110931 39329.0 
276.077271 5309.0 
276.12439 7530.0 
277.08429 83931.0 
277.108734 11648.0 
278.093231 225436.0 
279.064575 61428.0 
279.100861 111936.0 
280.067505 8706.0 
280.100525 64254.0 
281.081787 16336.0 
281.116699 267188.0 
282.124725 860714.0 
283.09433 173613.0 
283.127502 40456.0 
284.100403 91387.0 
284.13446 11314.0 
285.076294 16069.0 
285.111023 435302.0 
286.1203 53778.0 
287.0914 53073.0 
287.12558 15379.0 
292.100067 59595.0 
293.078552 26135.0 
293.111908 47784.0 
294.088043 137372.0 
294.11499 91215.0 
295.091125 407188.0 
295.124969 113635.0 
296.092743 81050.0 
296.128601 41602.0 
297.109161 58422.0 
298.081909 23645.0 
298.118378 205168.0 
298.145935 163126.0 
299.127197 122807.0 
300.094299 16056.0 
300.12854 82399.0 
301.136292 58163.0 
302.113098 78652.0 
306.114502 20492.0 
307.119263 30414.0 
308.097198 24626.0 
308.134186 88492.0 
309.109253 396243.0 
310.119141 1208319.0 
311.085632 311734.0 
311.121216 53440.0 
312.12323 137620.0 
313.105896 121582.0 
313.143372 291860.0 
314.10144 37340.0 
314.138916 76955.0 
315.11496 43274.0 
316.154236 126034.0 
320.090698 11225.0 
321.098114 8761.0 
322.141785 18075.0 
323.11792 43794.0 
324.122986 172626.0 
324.162384 9602.0 
325.135162 104801.0 
326.110352 248499.0 
326.139709 432519.0 
327.15094 38195.0 
328.117065 269286.0 
329.127991 71555.0 
330.131958 51887.0 
330.170319 36047.0 
334.107941 21597.0 
335.11438 19511.0 
336.121124 47446.0 
338.138367 35190.0 
339.146515 212916.0 
340.154053 335269.0 
340.200806 11346.0 
341.137817 696819.0 
342.132843 219059.0 
343.140533 142830.0 
349.132996 7995.0 
350.137665 31390.0 
351.146729 10266.0 
352.11792 77391.0 
353.122192 8440.0 
354.172028 63961.0 
356.141663 7540.0 
357.155304 31855.0 
358.164185 1289217.0 
366.131592 25744.0 
367.141388 183117.0 
368.14917 137516.0 
370.128479 11525.0 
382.164246 508899.0 
383.152527 7607.0 
384.142487 18495.0 
385.151642 53999.0 
398.117126 30304.0 
400.174896 26389128.0 
402.247894 29123.0 
END IONS

BEGIN IONS
NAME=CCG-208508 CollisionEnergy:102040 M+H
PRECURSOR_MZ=465.103
INCHI="InChI=1S/C21H20O12/c22-6-12(27)19-16(29)17(30)21(32-19)33-20-15(28)14-11(26)4-8(23)5-13(14)31-18(20)7-1-2-9(24)10(25)3-7/h1-5,12,16-17,19,21-27,29-30H,6H2/t12-,16-,17-,19?,21+/m1/s1"
SMILES=O=c1c(OC2OC(C(O)CO)C(O)C2O)c(-c2ccc(O)c(O)c2)oc2cc(O)cc(O)c12
SPECTRUMID=CCMSLIB00010113148
50.47562 2843.0 
51.656971 2992.0 
53.03899 4002.0 
55.018391 7237.0 
57.034019 14996.0 
61.02874 46300.0 
69.033813 54073.0 
71.0494 11798.0 
73.028542 14474.0 
79.988319 3100.0 
81.033821 31273.0 
82.391037 2819.0 
83.340408 2951.0 
85.028572 284428.0 
87.043892 7141.0 
91.038834 25317.0 
92.367653 4284.0 
97.028397 87786.0 
99.044037 19285.0 
109.028687 27048.0 
118.642761 3417.0 
127.038918 72692.0 
137.0233 16378.0 
145.049454 113328.0 
146.037704 3163.0 
153.018677 11720.0 
165.018341 13084.0 
199.603348 2995.0 
209.918365 6328.0 
229.049179 18706.0 
247.05806 4638.0 
257.043762 14893.0 
285.039917 12961.0 
303.049316 5096433.0 
345.062073 4612.0 
397.82196 3100.0 
465.101929 71538.0 
END IONS

BEGIN IONS
NAME="N,N-diethyl{3-methoxy-4-[(2-methyl(1,3-thiazol-4-yl))methoxy]phenyl}carboxamid e CollisionEnergy:205060" M+H
PRECURSOR_MZ=335.142
INCHI="InChI=1S/C17H22N2O3S/c1-5-19(6-2)17(20)13-7-8-15(16(9-13)21-4)22-10-14-11-23-12(3)18-14/h7-9,11H,5-6,10H2,1-4H3"
SMILES=CCN(CC)C(=O)c1ccc(OCc2csc(C)n2)c(OC)c1
SPECTRUMID=CCMSLIB00010114834
59.967041 22275.0 
61.011051 6990.0 
70.995407 2177111.0 
72.044769 317621.0 
72.0812 6034.0 
72.663513 3002.0 
74.096718 54413.0 
82.413567 3925.0 
95.049057 4186.0 
100.075729 450642.0 
112.021553 3469237.0 
113.029404 24891.0 
121.027893 7766.0 
123.04351 7825.0 
123.054863 4125.0 
125.723518 4021.0 
130.03215 945586.0 
133.010422 7476.0 
135.044006 6015.0 
137.022949 5154.0 
139.086716 4065.0 
149.023422 95454.0 
149.059692 3340.0 
150.013092 14225.0 
151.03894 177093.0 
151.0522 7443.0 
153.047668 34727.0 
154.025909 69727.0 
161.005173 36225.0 
163.038132 35934.0 
165.053604 3053.0 
172.079025 6023.0 
176.070496 6446.0 
177.054733 25245.0 
178.007935 57052.0 
179.016052 3383.0 
185.110519 17529.0 
189.001144 3889.0 
189.040085 4035.0 
191.039795 29797.0 
193.031586 110050.0 
196.573837 3277.0 
202.032349 13254.0 
203.040573 10149.0 
204.065155 17260.0 
206.003281 13556.0 
206.063873 7151.0 
218.026428 24242.0 
219.034531 91749.0 
220.042389 22804.0 
221.026627 36448.0 
222.112274 58902.0 
224.128937 12137.0 
234.058273 19845.0 
247.02948 289047.0 
262.053009 1849799.0 
335.14212 486907.0 
335.178772 15207.0 
335.217194 13383.0 
END IONS

BEGIN IONS
NAME="3-{[1-(tert-butyl)(1,2,3,4-tetraazol-5-yl)][4-benzylpiperazinyl]methyl}-6-etho xyhydroquinolin-2-one CollisionEnergy:102040" M+Na
PRECURSOR_MZ=524.274
INCHI="InChI=1S/C28H35N7O2/c1-5-37-22-11-12-24-21(17-22)18-23(27(36)29-24)25(26-30-31-32-35(26)28(2,3)4)34-15-13-33(14-16-34)19-20-9-7-6-8-10-20/h6-12,17-18,25H,5,13-16,19H2,1-4H3,(H,29,36)"
SMILES=CCOc1ccc2[nH]c(=O)c(C(c3nnnn3C(C)(C)C)N3CCN(Cc4ccccc4)CC3)cc2c1
SPECTRUMID=CCMSLIB00010106631
66.745697 3576.0 
83.060341 3832.0 
104.289169 3568.0 
174.115097 47039.0 
186.08992 3100.0 
196.096909 7413.0 
199.120804 7498.0 
224.06813 527968.0 
225.076004 6505.0 
226.086166 4128.0 
236.068146 64226.0 
239.078857 145579.0 
250.069122 4354.0 
251.079803 15261.0 
264.074585 39770.0 
265.094971 7801.0 
278.090424 5807.0 
285.147278 42981.0 
290.089722 3732.0 
292.08075 12648.0 
293.261627 3356.0 
305.026917 3780.0 
307.128998 31745.0 
346.399017 3279.0 
348.14325 26494.0 
370.097748 5115.0 
370.152222 156108.0 
376.201843 69138.0 
398.183716 212228.0 
413.192383 4805.0 
416.194824 59277.0 
468.211578 627593.0 
495.223755 5805.0 
524.274353 2840382.0 
END IONS

BEGIN IONS
NAME=2-[9-(4-methylphenyl)-6-oxohydropurin-8-ylthio]-N-phenyl-N-prop-2-enylacetamid e CollisionEnergy:102040 M-H
PRECURSOR_MZ=430.134
INCHI="InChI=1S/C23H21N5O2S/c1-3-13-27(17-7-5-4-6-8-17)19(29)14-31-23-26-20-21(24-15-25-22(20)30)28(23)18-11-9-16(2)10-12-18/h3-12,15H,1,13-14H2,2H3,(H,24,25,30)"
SMILES=C=CCN(C(=O)CSc1nc2c(O)ncnc2n1-c1ccc(C)cc1)c1ccccc1
SPECTRUMID=CCMSLIB00010108095
65.013977 18867.0 
65.997917 21653.0 
68.013779 5155.0 
92.025368 43292.0 
110.032112 2822.0 
127.926857 3725.0 
139.443771 3042.0 
155.061371 301744.0 
162.32338 3043.0 
197.059616 23714.0 
198.066681 16302.0 
208.571732 14965.0 
225.07814 1104597.0 
235.204788 3216.0 
236.07016 43549.0 
237.078842 25502.0 
254.038742 4480.0 
255.034256 48392.0 
256.04248 1573406.0 
264.065674 43231.0 
265.075409 3382.0 
269.05011 293716.0 
270.056671 6300.0 
297.045044 975188.0 
321.12027 2973.0 
347.097198 23468.0 
387.128204 16860.0 
429.50177 4113.0 
430.134186 1151309.0 
788.07373 3491.0 
END IONS

BEGIN IONS
NAME="2-[4-(N,N-diethylcarbamoyl)-2-oxohydroquinolyl]-N-(2-fluorophenyl)acetamide CollisionEnergy:102040" M+H
PRECURSOR_MZ=396.172
INCHI="InChI=1S/C22H22FN3O3/c1-3-25(4-2)22(29)16-13-21(28)26(19-12-8-5-9-15(16)19)14-20(27)24-18-11-7-6-10-17(18)23/h5-13H,3-4,14H2,1-2H3,(H,24,27)"
SMILES=CCN(CC)C(=O)c1cc(=O)n(CC(O)=Nc2ccccc2F)c2ccccc12
SPECTRUMID=CCMSLIB00010113420
50.351582 2720.0 
51.90807 2716.0 
54.604038 2492.0 
58.065552 6661.0 
70.065353 4942.0 
72.044922 6370.0 
72.08107 3239.0 
79.256203 2737.0 
84.081329 3106.0 
86.096649 43141.0 
88.333946 2897.0 
100.075699 59211.0 
119.708847 4141.0 
130.065201 13260.0 
133.051956 3879.0 
136.208267 3244.0 
142.872833 2939.0 
155.060776 3915.0 
157.05191 6082.0 
158.060349 26479.0 
158.096573 42111.0 
184.099747 68077.0 
185.050461 3929.0 
185.106094 4172.0 
186.054459 31157.0 
213.138977 18205.0 
216.089142 34240.0 
227.081985 4638.0 
228.08757 6018.0 
229.096237 11445.0 
229.132935 39455.0 
245.098877 5902.0 
245.128098 246978.0 
257.128082 1190010.0 
285.122986 3498734.0 
298.153381 33342.0 
396.171387 4825.0 
396.26416 31116.0 
END IONS

BEGIN IONS
NAME="N-(2,4-dimethoxyphenyl)-2-phenylacetamide CollisionEnergy:205060" M+Na
PRECURSOR_MZ=294.11
INCHI="InChI=1S/C16H17NO3/c1-19-13-8-9-14(15(11-13)20-2)17-16(18)10-12-6-4-3-5-7-12/h3-9,11H,10H2,1-2H3,(H,17,18)"
SMILES=COc1ccc(N=C(O)Cc2ccccc2)c(OC)c1
SPECTRUMID=CCMSLIB00010115926
66.733414 2113.0 
78.955566 2467.0 
80.145554 2483.0 
84.960114 2318.0 
88.398499 2179.0 
213.597458 3173.0 
294.109741 2102476.0 
312.119202 3479.0 
END IONS

BEGIN IONS
NAME="2H-benzo[3,4-d]1,3-dioxolen-5-yl-N-(3-methoxyphenyl)carboxamide CollisionEnergy:205060" M+Cl
PRECURSOR_MZ=306.054
INCHI="InChI=1S/C15H13NO4/c1-18-12-4-2-3-11(8-12)16-15(17)10-5-6-13-14(7-10)20-9-19-13/h2-8H,9H2,1H3,(H,16,17)"
SMILES=COc1cccc(N=C(O)c2ccc3c(c2)OCO3)c1
SPECTRUMID=CCMSLIB00010116211
65.266167 2177.0 
76.706352 2343.0 
80.754677 2250.0 
82.402229 2401.0 
85.122658 2146.0 
88.463409 2183.0 
92.380882 2493.0 
106.106979 2057.0 
123.033203 2244.0 
136.209854 2990.0 
184.118484 2065.0 
209.400406 4293.0 
209.42099 4416.0 
228.68219 2398.0 
305.987305 4482.0 
314.975739 2329.0 
324.820557 2339.0 
END IONS

BEGIN IONS
NAME="2-(3-methoxyphenyl)-5-phenyl-3-thioxo-4,5,11,11a-tetrahydro-11aH-1,3-diazolidi no[1,5-b]beta-carbolin-1-one CollisionEnergy:102040" M+Cl
PRECURSOR_MZ=474.105
INCHI="InChI=1S/C26H21N3O2S/c1-31-18-11-7-10-17(14-18)28-25(30)22-15-20-19-12-5-6-13-21(19)27-23(20)24(29(22)26(28)32)16-8-3-2-4-9-16/h2-14,22,24,27H,15H2,1H3"
SMILES=COc1cccc(N2C(=O)C3Cc4c([nH]c5ccccc45)C(c4ccccc4)N3C2=S)c1
SPECTRUMID=CCMSLIB00010113630
51.96236 2155.0 
57.97514 3241.0 
77.588966 2382.0 
92.39772 2731.0 
95.191368 2341.0 
136.234055 2543.0 
211.970383 3210.0 
220.031693 11325.0 
379.159515 2769.0 
438.128632 24706.0 
454.001373 2443.0 
END IONS

BEGIN IONS
NAME="(3,5-dimethoxyphenyl)-N-(3-carbazol-9-ylpropyl)carboxamide CollisionEnergy:205060" M+Cl
PRECURSOR_MZ=423.148
INCHI="InChI=1S/C24H24N2O3/c1-28-18-14-17(15-19(16-18)29-2)24(27)25-12-7-13-26-22-10-5-3-8-20(22)21-9-4-6-11-23(21)26/h3-6,8-11,14-16H,7,12-13H2,1-2H3,(H,25,27)"
SMILES=COc1cc(OC)cc(C(O)=NCCCn2c3ccccc3c3ccccc32)c1
SPECTRUMID=CCMSLIB00010118391
59.058529 2636.0 
64.855293 2152.0 
64.889748 2329.0 
77.032051 2309.0 
86.580589 2026.0 
91.017906 2476.0 
92.421059 3103.0 
92.427429 2153.0 
92.99588 3020.0 
118.714073 3246.0 
129.331757 2267.0 
133.581848 2318.0 
145.002823 2489.0 
154.995407 2205.0 
158.048553 2599.0 
203.847488 2175.0 
216.991043 4851.0 
234.857605 2455.0 
257.004303 2675.0 
266.98526 17996.0 
292.983398 4248.0 
316.984222 12407.0 
382.975861 12946.0 
402.979858 10032.0 
422.98587 22442.0 
END IONS

BEGIN IONS
NAME="(3-amino-6-(2-pyridyl)thiopheno[2,3-b]pyridin-2-yl)-N-(2-indol-3-ylethyl)carbo xamide CollisionEnergy:102040" M+Na
PRECURSOR_MZ=436.12
INCHI="InChI=1S/C23H19N5OS/c24-20-16-8-9-19(18-7-3-4-11-25-18)28-23(16)30-21(20)22(29)26-12-10-14-13-27-17-6-2-1-5-15(14)17/h1-9,11,13,27H,10,12,24H2,(H,26,29)"
SMILES=Nc1c(C(=O)NCCc2c[nH]c3ccccc23)sc2nc(-c3ccccn3)ccc12
SPECTRUMID=CCMSLIB00010109550
53.030338 2713.0 
55.108379 2507.0 
69.917007 2904.0 
81.22554 2544.0 
82.398499 2652.0 
84.264702 2364.0 
87.058159 2433.0 
92.375053 2622.0 
94.833939 2681.0 
104.280457 3251.0 
123.389297 2783.0 
136.206543 3366.0 
139.203781 2825.0 
141.686508 2744.0 
155.062149 2775.0 
195.000946 2749.0 
436.119843 2121599.0 
449.566254 3002.0 
END IONS

BEGIN IONS
NAME=3-acetyl-4-hydroxy-1-[2-(2-methylindol-3-yl)ethyl]-2-(3-nitrophenyl)-5-oxo-3-p yrroline CollisionEnergy:205060 2M-H
PRECURSOR_MZ=837.289
INCHI="InChI=1S/C23H21N3O5/c1-13-17(18-8-3-4-9-19(18)24-13)10-11-25-21(20(14(2)27)22(28)23(25)29)15-6-5-7-16(12-15)26(30)31/h3-9,12,21,24,28H,10-11H2,1-2H3"
SMILES=CC(=O)C1=C(O)C(=O)N(CCc2c(C)[nH]c3ccccc23)C1c1cccc([N+](=O)[O-])c1
SPECTRUMID=CCMSLIB00010123594
82.415123 4162.0 
117.034653 6228.0 
145.029877 5304.0 
175.026871 23978.0 
188.048874 6513.0 
206.101013 3542.0 
418.140411 159979.0 
809.553772 4181.0 
END IONS

BEGIN IONS
NAME="4',7-Dimethoxy-3-hydroxyflavone CollisionEnergy:102040" M+H
PRECURSOR_MZ=299.091
INCHI="InChI=1S/C17H14O5/c1-20-11-5-3-10(4-6-11)17-16(19)15(18)13-8-7-12(21-2)9-14(13)22-17/h3-9,19H,1-2H3"
SMILES=COc1ccc(-c2oc3cc(OC)ccc3c(=O)c2O)cc1
SPECTRUMID=CCMSLIB00010104323
82.847557 2626.0 
92.364693 3391.0 
95.085571 3119.0 
101.002541 3858.0 
104.270897 3146.0 
109.545578 2769.0 
118.638023 3046.0 
135.043945 33391.0 
137.059662 30309.0 
151.039291 28666.0 
163.038834 26400.0 
197.972321 3118.0 
206.566528 2956.0 
217.854065 2761.0 
228.077194 13936.0 
235.985947 3022.0 
243.100266 4966.0 
255.064529 4112.0 
256.073029 74995.0 
267.064636 15229.0 
270.087585 11482.0 
284.067352 195732.0 
297.076202 3431.0 
297.757263 4112.0 
299.090668 4857238.0 
301.056091 2882.0 
END IONS

BEGIN IONS
NAME=Gitoxigenin CollisionEnergy:102040 M+H-H2O
PRECURSOR_MZ=373.237
INCHI="InChI=1S/C23H34O5/c1-21-7-5-15(24)10-14(21)3-4-17-16(21)6-8-22(2)20(13-9-19(26)28-12-13)18(25)11-23(17,22)27/h9,14-18,20,24-25,27H,3-8,10-12H2,1-2H3/t14-,15+,16+,17-,18+,20+,21+,22-,23+/m1/s1"
SMILES=CC12CCC(O)CC1CCC1C2CCC2(C)C(C3=CC(=O)OC3)C(O)CC12O
SPECTRUMID=CCMSLIB00010112156
53.11945 2950.0 
55.05452 3489.0 
61.69241 3584.0 
63.214779 3062.0 
67.05455 23545.0 
69.033623 6066.0 
69.070061 7294.0 
76.079582 3027.0 
79.054527 22177.0 
79.058456 3183.0 
81.03347 3950.0 
81.070198 66902.0 
82.407356 3541.0 
83.049026 5324.0 
83.08532 6547.0 
85.027962 5236.0 
85.06488 3012.0 
87.646317 2872.0 
91.054367 23310.0 
93.069962 87884.0 
95.048569 7110.0 
95.085548 91987.0 
96.372612 3731.0 
97.064392 7135.0 
104.299263 3198.0 
105.032639 3218.0 
105.063026 3288.0 
105.069832 78820.0 
106.74173 2843.0 
107.048798 4499.0 
107.08551 88710.0 
109.027893 7336.0 
109.064102 17329.0 
109.09404 3311.0 
109.101196 49801.0 
111.044113 3004.0 
111.079857 5225.0 
112.457237 2795.0 
117.069656 29320.0 
119.048607 3933.0 
119.085419 61122.0 
121.064697 29721.0 
121.101097 66021.0 
123.043182 15060.0 
123.07962 20527.0 
123.116501 4971.0 
125.059387 6862.0 
127.038383 16919.0 
129.069351 21080.0 
129.079422 4166.0 
131.085388 68654.0 
133.064423 5588.0 
133.101028 85090.0 
135.079834 18917.0 
135.116699 69881.0 
137.058899 6677.0 
137.095398 4332.0 
139.038864 4364.0 
139.075317 24635.0 
141.054321 3858.0 
141.069244 5998.0 
143.085464 43487.0 
145.101105 93278.0 
147.079941 12231.0 
147.11676 71285.0 
149.059738 3890.0 
149.095627 6806.0 
149.13208 33250.0 
151.075439 12619.0 
151.111191 5201.0 
153.054138 12761.0 
155.0849 29964.0 
157.089142 3541.0 
157.101227 63401.0 
159.080429 7355.0 
159.101929 4980.0 
159.116653 138396.0 
161.095978 15213.0 
161.132309 87425.0 
163.074997 18703.0 
163.111176 32882.0 
163.146896 4526.0 
165.091049 6358.0 
167.084595 4893.0 
169.100677 41603.0 
171.116714 56852.0 
173.095505 13657.0 
173.132248 39255.0 
175.075378 22509.0 
175.111923 6604.0 
175.147339 16857.0 
177.090683 41461.0 
181.100433 24756.0 
183.117065 55369.0 
185.095688 5643.0 
185.132202 95770.0 
187.110687 15179.0 
187.147964 33543.0 
189.090698 26550.0 
189.126694 3804.0 
189.163116 4067.0 
191.105698 13320.0 
193.101608 4899.0 
195.116547 44583.0 
197.094818 3493.0 
197.132538 42565.0 
199.111526 12878.0 
199.147705 53942.0 
201.088852 5886.0 
201.126572 17872.0 
201.163376 17975.0 
203.105728 17582.0 
203.141953 29014.0 
205.121292 5077.0 
207.099228 4176.0 
207.117676 7495.0 
209.132355 48843.0 
211.111557 7370.0 
211.147354 41443.0 
211.195984 5645.0 
213.090698 4039.0 
213.126541 18469.0 
213.163513 35505.0 
215.106583 14751.0 
215.142441 20836.0 
215.179184 61281.0 
217.121826 18030.0 
217.1586 18533.0 
221.131866 14811.0 
223.147232 19981.0 
225.126694 15336.0 
225.162964 15738.0 
227.106415 37107.0 
227.142746 26063.0 
227.180344 3511.0 
229.122543 40518.0 
229.157425 15543.0 
229.194931 15095.0 
231.137131 15390.0 
231.174652 6567.0 
235.148438 31887.0 
237.129272 9091.0 
237.162888 16876.0 
239.143433 3378.0 
239.178009 28208.0 
241.122345 24880.0 
243.137634 21947.0 
243.167175 3053.0 
249.164032 29127.0 
251.150681 4678.0 
251.178879 47970.0 
253.157623 3995.0 
253.193802 23094.0 
255.137634 41379.0 
255.167587 4591.0 
257.153839 7686.0 
259.133575 3600.0 
263.144592 6236.0 
263.180145 12485.0 
265.194916 12196.0 
267.141022 5277.0 
267.173553 25795.0 
267.207001 5545.0 
269.154419 6666.0 
269.188354 4662.0 
271.169342 5275.0 
271.203979 6398.0 
273.148041 21114.0 
275.179688 5301.0 
277.159821 9519.0 
277.194427 43490.0 
279.174255 4984.0 
281.153168 24461.0 
281.187653 7064.0 
281.225037 3223.0 
285.183716 23581.0 
287.165009 6805.0 
291.177094 4247.0 
291.210022 98702.0 
291.244324 5617.0 
293.190826 8543.0 
293.225464 19191.0 
295.167114 11535.0 
295.204498 38841.0 
297.18692 4421.0 
301.194031 18787.0 
309.187744 10930.0 
309.220673 228360.0 
311.199524 16242.0 
311.236816 4402.0 
313.215363 5963.0 
319.20517 108622.0 
327.231171 34405.0 
337.215515 781247.0 
355.226135 990818.0 
373.236786 2680760.0 
END IONS

BEGIN IONS
NAME=(3-{[2-(4-chlorophenyl)quinazolin-4-yl]amino}propyl)diethylamine CollisionEnergy:205060 M+H
PRECURSOR_MZ=369.184
INCHI="InChI=1S/C21H25ClN4/c1-3-26(4-2)15-7-14-23-21-18-8-5-6-9-19(18)24-20(25-21)16-10-12-17(22)13-11-16/h5-6,8-13H,3-4,7,14-15H2,1-2H3,(H,23,24,25)"
SMILES=CCN(CC)CCCN=c1nc(-c2ccc(Cl)cc2)[nH]c2ccccc12
SPECTRUMID=CCMSLIB00010114947
56.0499 47906.0 
58.065571 420297.0 
63.399479 4790.0 
65.452682 4279.0 
67.05471 6825.0 
69.07019 10789.0 
70.065491 7384.0 
72.081093 112741.0 
73.630676 5512.0 
77.040009 5206.0 
82.394127 4349.0 
82.400383 4884.0 
83.073013 5620.0 
84.08091 27777.0 
86.096603 6458358.0 
100.111977 144997.0 
112.111977 1429311.0 
114.127647 3481561.0 
118.052269 59169.0 
129.044388 78617.0 
129.138565 55475.0 
131.06015 18870.0 
132.080353 8044.0 
138.010101 17629.0 
147.05484 23416.0 
159.090683 6542.0 
174.06601 30587.0 
180.513016 5071.0 
184.086746 6800.0 
205.075241 24940.0 
206.084335 7848.0 
214.040482 9461.0 
233.094742 20964.0 
239.036591 3294123.0 
241.052109 3262591.0 
254.07077 25716.0 
255.05484 379999.0 
256.061951 37249.0 
267.054626 244828.0 
268.063049 6275416.0 
269.083466 302611.0 
269.275146 5635.0 
270.078217 6110.0 
279.066559 71858.0 
280.06311 27683.0 
282.077972 9313.0 
284.09613 6706.0 
294.079193 6955.0 
296.094299 8191513.0 
369.183258 8768829.0 
END IONS

BEGIN IONS
NAME=Lumazine CollisionEnergy:205060 M+Na
PRECURSOR_MZ=187.023
INCHI="InChI=1S/C6H4N4O2/c11-5-3-4(8-2-1-7-3)9-6(12)10-5/h1-2H,(H2,8,9,10,11,12)"
SMILES=Oc1nc(O)c2nccnc2n1
SPECTRUMID=CCMSLIB00010125472
55.935188 89071.0 
58.827492 4121.0 
60.580608 4196.0 
72.93779 19134.0 
73.941017 4709.0 
74.953552 8125.0 
81.087593 4637.0 
83.086182 25984.0 
88.022133 60301.0 
89.759811 4335.0 
90.948196 33790.0 
104.274193 4361.0 
105.935204 18988.0 
108.016068 4517.0 
109.955902 4557.0 
113.964058 5616.0 
116.952042 17217.0 
117.959892 8989.0 
118.942596 9354.0 
118.967659 48335.0 
123.945847 17406.0 
128.950943 8664.0 
134.962143 10090.0 
135.944946 9242.0 
136.19397 5855.0 
146.961563 10220.0 
153.956284 4783.0 
163.94072 34511.0 
163.964417 6602.0 
176.980789 9872.0 
181.950943 25548.0 
186.966476 9638.0 
187.021835 18436.0 
187.126419 21147.0 
192.426361 4808.0 
202.557571 4579.0 
207.299072 4942.0 
END IONS

BEGIN IONS
NAME=rhapontin CollisionEnergy:102040 M+H
PRECURSOR_MZ=421.149
INCHI="InChI=1S/C21H24O9/c1-28-16-5-4-11(8-15(16)24)2-3-12-6-13(23)9-14(7-12)29-21-20(27)19(26)18(25)17(10-22)30-21/h2-9,17-27H,10H2,1H3/b3-2+/t17-,18-,19+,20-,21-/m1/s1"
SMILES=COc1ccc(C=Cc2cc(O)cc(OC3OC(CO)C(O)C(O)C3O)c2)cc1O
SPECTRUMID=CCMSLIB00010113627
51.641472 2454.0 
69.033661 6050.0 
72.023682 2675.0 
73.028503 4274.0 
81.034103 3723.0 
85.028603 43568.0 
92.385643 2777.0 
97.028122 13696.0 
103.039032 5513.0 
107.048714 10301.0 
109.028107 2732.0 
121.064629 2736.0 
123.04451 4311.0 
127.03849 9852.0 
131.049469 4253.0 
135.043961 27788.0 
137.05986 26150.0 
145.049973 18276.0 
147.043976 3213.0 
149.05986 20672.0 
150.067886 3874.0 
157.064957 3125.0 
159.044144 22347.0 
161.058792 4222.0 
173.060699 3177.0 
177.05336 2811.0 
181.065414 11106.0 
195.080048 5092.0 
197.058929 3844.0 
199.075073 29207.0 
201.054138 4754.0 
209.06015 3291.0 
223.07486 14674.0 
226.058502 4252.0 
227.070358 16643.0 
239.071396 2771.0 
241.085388 5202.0 
243.067078 3369.0 
251.069733 11441.0 
255.101532 3671.0 
258.088593 39456.0 
259.095398 487478.0 
266.995728 2964.0 
269.081238 10898.0 
271.095825 142944.0 
273.111328 2780.0 
283.095703 83520.0 
293.079315 3223.0 
295.094818 18798.0 
297.111786 4461.0 
301.105957 77023.0 
313.104187 2922.0 
321.111664 3809.0 
325.106354 68347.0 
337.107147 6159.0 
349.107971 15438.0 
355.117279 4757.0 
367.116547 28460.0 
384.495178 2988.0 
385.12677 32120.0 
403.138885 17483.0 
421.14798 146380.0 
421.204437 15555.0 
421.3302 3560.0 
END IONS

BEGIN IONS
NAME=(+/-)-Taxifolin CollisionEnergy:102040 2M-H
PRECURSOR_MZ=607.109
INCHI="InChI=1S/C15H12O7/c16-7-4-10(19)12-11(5-7)22-15(14(21)13(12)20)6-1-2-8(17)9(18)3-6/h1-5,14-19,21H"
SMILES=O=C1c2c(O)cc(O)cc2OC(c2ccc(O)c(O)c2)C1O
SPECTRUMID=CCMSLIB00010111653
55.82972 2642.0 
64.298447 2513.0 
66.742531 2587.0 
92.377457 3032.0 
97.834038 2857.0 
98.810417 2565.0 
125.024353 60502.0 
147.513031 2557.0 
151.003708 4647.0 
153.01976 5473.0 
164.650253 3001.0 
175.039108 12094.0 
177.019836 20192.0 
178.998703 15947.0 
217.051376 11831.0 
222.864883 2713.0 
232.350479 2979.0 
241.051468 5513.0 
259.061188 3908.0 
275.054901 5538.0 
285.040863 106299.0 
285.073425 3984.0 
303.051178 287414.0 
305.054321 2879.0 
371.262451 3140.0 
560.934692 2887.0 
583.395081 3103.0 
END IONS

BEGIN IONS
NAME="11-(2,4-dichlorophenyl)-3,3-dimethyl-10-(phenylcarbonyl)-2,3,4-trihydro-5H,11H -benzo[b]benzo[2,1-f]1,4-diazepin-1-one CollisionEnergy:205060" M+Na
PRECURSOR_MZ=513.111
INCHI="InChI=1S/C28H24Cl2N2O2/c1-28(2)15-22-25(24(33)16-28)26(19-13-12-18(29)14-20(19)30)32(23-11-7-6-10-21(23)31-22)27(34)17-8-4-3-5-9-17/h3-14,26,31H,15-16H2,1-2H3"
SMILES=CC1(C)CC(=O)C2=C(C1)Nc1ccccc1N(C(=O)c1ccccc1)C2c1ccc(Cl)cc1Cl
SPECTRUMID=CCMSLIB00010116093
50.015579 4881.0 
50.043221 2824.0 
51.023491 18732.0 
51.389679 3447.0 
53.039101 162724.0 
55.018311 6559.0 
55.323269 3291.0 
56.911579 3457.0 
77.038834 16412.0 
81.033913 13858.0 
89.432137 3370.0 
92.378922 3324.0 
95.04924 74101.0 
104.288017 3697.0 
105.033493 1661086.0 
109.975563 3919.0 
136.209137 4876.0 
180.092789 3779.0 
195.091965 31620.0 
210.482605 4871.0 
223.122543 4520.0 
228.033463 25499.0 
229.041275 46464.0 
243.05687 395946.0 
244.051529 5107.0 
315.584686 3815.0 
318.06781 4335.0 
319.074585 3423.0 
332.344147 3159.0 
335.093475 102680.0 
349.109406 4221.0 
407.097351 8265.0 
421.110748 18222.0 
422.118042 7497.0 
437.139587 60701.0 
455.09314 4521.0 
455.151306 318629.0 
477.133575 135738.0 
513.110352 5175293.0 
END IONS

BEGIN IONS
NAME=N-(4-fluorophenyl)(2-iminochromen-3-yl)carboxamide CollisionEnergy:205060 M+H
PRECURSOR_MZ=283.088
INCHI="InChI=1S/C16H11FN2O2/c17-11-5-7-12(8-6-11)19-16(20)13-9-10-3-1-2-4-14(10)21-15(13)18/h1-9,18H,(H,19,20)"
SMILES=N=c1oc2ccccc2cc1C(=O)Nc1ccc(F)cc1
SPECTRUMID=CCMSLIB00010115851
50.015701 5683.0 
51.02343 21301.0 
53.039009 15467.0 
71.029411 4168.0 
72.208878 3136.0 
75.023209 7169.0 
77.038879 25490.0 
77.122978 2803.0 
81.771927 2990.0 
89.038803 29762.0 
91.054314 22279.0 
92.360077 3681.0 
95.049026 6335.0 
101.038513 3430.0 
103.054314 7150.0 
115.174797 3075.0 
116.049454 331959.0 
117.409019 3253.0 
118.635643 4736.0 
119.048973 6370.0 
128.049423 1099167.0 
129.044464 47404.0 
134.060211 5205.0 
136.185852 3704.0 
144.044373 131454.0 
145.027969 4552.0 
146.060043 211144.0 
152.539368 3039.0 
169.075623 6138.0 
171.032745 3898.0 
172.039185 3934042.0 
190.049683 1500178.0 
197.863083 3745.0 
213.065491 17263.0 
217.076889 4162.0 
227.060623 3845.0 
236.074005 18093.0 
237.081879 51948.0 
238.06636 5413.0 
245.002686 3617.0 
247.066391 4284.0 
264.067413 5059.0 
265.076843 1571060.0 
266.058807 5102.0 
282.078217 4545.0 
283.087372 2779644.0 
END IONS

BEGIN IONS
NAME=Dipterocarpol CollisionEnergy:205060 M+H-H2O
PRECURSOR_MZ=425.378
INCHI="InChI=1S/C30H50O2/c1-20(2)10-9-16-30(8,32)22-13-18-28(6)21(22)11-12-24-27(5)17-15-25(31)26(3,4)23(27)14-19-29(24,28)7/h10,21-24,32H,9,11-19H2,1-8H3/t21-,22+,23+,24-,27+,28-,29-,30+/m1/s1"
SMILES=CC(C)=CCCC(C)(O)C1CCC2(C)C1CCC1C3(C)CCC(=O)C(C)(C)C3CCC12C
SPECTRUMID=CCMSLIB00010124359
53.002628 4425.0 
53.039051 13676.0 
55.054699 75260.0 
57.070339 76471.0 
59.049839 4408.0 
65.038879 16278.0 
67.054581 259976.0 
69.070213 298453.0 
71.049461 6320.0 
71.0858 41025.0 
75.060112 3254.0 
79.054497 147360.0 
81.070099 438228.0 
83.049347 15256.0 
83.085693 131029.0 
85.064919 5545.0 
85.101219 6809.0 
87.871132 3533.0 
91.054291 94805.0 
93.069939 332829.0 
95.048958 8253.0 
95.085541 647966.0 
97.06472 15473.0 
97.101219 70132.0 
99.080368 20118.0 
104.284241 3163.0 
105.069817 201347.0 
107.049149 3579.0 
107.085411 479098.0 
109.064522 14455.0 
109.101089 529759.0 
111.080223 26049.0 
111.116638 41509.0 
113.096413 4932.0 
117.069702 22778.0 
118.967293 14120.0 
118.979729 14531.0 
119.085411 229978.0 
121.101067 353384.0 
123.080307 26636.0 
123.116676 198372.0 
125.096184 25268.0 
125.132156 5883.0 
127.111343 14148.0 
129.069519 6787.0 
131.085388 53062.0 
132.995483 13777.0 
133.089417 7174.0 
133.101028 213828.0 
133.885788 3039.0 
135.080185 46665.0 
135.116714 228013.0 
137.095963 17881.0 
137.132492 57645.0 
139.112 18681.0 
142.077179 3910.0 
142.98027 5522.0 
143.085251 43899.0 
144.996048 5661.0 
145.101074 120834.0 
147.116653 151205.0 
149.095901 17947.0 
149.132324 174673.0 
151.111465 22419.0 
151.147751 15265.0 
153.127823 6047.0 
155.085281 5299.0 
156.093399 4567.0 
157.100784 37914.0 
158.109146 4693.0 
159.116806 92693.0 
161.096436 3440.0 
161.132324 110191.0 
163.111572 60132.0 
163.148071 109718.0 
163.864975 3443.0 
165.127213 17155.0 
165.163361 5174.0 
169.101273 17454.0 
171.11647 43348.0 
172.123672 4535.0 
173.13208 67885.0 
175.111572 23215.0 
175.147934 65970.0 
176.985382 23004.0 
177.127243 38772.0 
177.163254 62595.0 
179.143372 5695.0 
179.179398 11887.0 
183.117279 7801.0 
185.13205 26481.0 
187.14772 54585.0 
189.126923 18603.0 
189.16391 67587.0 
191.000519 14599.0 
191.142944 18631.0 
191.179016 78316.0 
193.194809 34943.0 
197.132278 13410.0 
199.148071 21818.0 
201.128098 4602.0 
201.163727 39493.0 
203.144135 23456.0 
203.179138 75310.0 
205.158905 84708.0 
205.194168 85680.0 
207.174744 31128.0 
207.210373 12748.0 
211.1474 5688.0 
213.163971 45739.0 
215.179108 20523.0 
217.158707 7234.0 
217.194199 51844.0 
219.174393 23665.0 
219.210373 112589.0 
221.189529 5540.0 
227.17865 16767.0 
229.193771 14549.0 
231.17395 160578.0 
231.211639 11975.0 
233.189041 15519.0 
233.227203 5073.0 
239.179611 4802.0 
241.194794 13553.0 
243.172775 6313.0 
243.209778 5020.0 
245.189346 19329.0 
245.225525 18473.0 
247.242111 13165.0 
253.194138 6421.0 
255.211609 5242.0 
257.188751 30596.0 
257.220673 5750.0 
259.20517 3765.0 
259.239716 4214.0 
261.256256 7874.0 
269.221985 3752.0 
271.205872 66071.0 
271.240234 12397.0 
273.221802 4665.0 
273.253479 10332.0 
281.227081 7338.0 
285.221161 8132.0 
285.256927 4219.0 
287.237366 4795.0 
287.272552 23367.0 
295.241425 5592.0 
297.255646 12023.0 
299.23642 21803.0 
299.272827 12759.0 
311.271667 6142.0 
313.250885 18752.0 
313.289398 5553.0 
315.267487 24001.0 
323.271942 5523.0 
329.28186 5354.0 
337.285858 4718.0 
339.303436 6057.0 
343.195953 4486.0 
343.298859 6609.0 
351.305176 5034.0 
355.298004 5342.0 
361.202515 27623.0 
363.507263 3779.0 
369.314178 6429.0 
379.216125 24152.0 
407.367096 96948.0 
425.208099 168943.0 
425.37674 817795.0 
END IONS

BEGIN IONS
NAME="2-(4-chloro-3,5-dimethylpyrazolyl)-N-{2-[2-methyl-5-(phenylmethoxy)indol-3-yl] ethyl}acetamide CollisionEnergy:102040" M+Na
PRECURSOR_MZ=473.171
INCHI="InChI=1S/C25H27ClN4O2/c1-16-21(11-12-27-24(31)14-30-18(3)25(26)17(2)29-30)22-13-20(9-10-23(22)28-16)32-15-19-7-5-4-6-8-19/h4-10,13,28H,11-12,14-15H2,1-3H3,(H,27,31)"
SMILES=Cc1nn(CC(O)=NCCc2c(C)[nH]c3ccc(OCc4ccccc4)cc23)c(C)c1Cl
SPECTRUMID=CCMSLIB00010105498
50.843311 3157.0 
57.079521 3992.0 
79.06237 3517.0 
80.010422 19162.0 
87.560341 3211.0 
140.147812 3066.0 
169.78334 4245.0 
173.083542 6184.0 
179.73674 3340.0 
182.057861 89201.0 
195.065872 35693.0 
196.072327 6111.0 
210.040421 36721.0 
211.083298 17564.0 
211.126892 5338.0 
212.728256 3786.0 
222.040482 436013.0 
223.047729 46365.0 
225.040741 5620.0 
225.063522 113567.0 
239.07843 62513.0 
240.086807 66970.0 
255.039062 43355.0 
329.589203 3773.0 
382.116394 2094129.0 
473.171448 7708047.0 
END IONS

BEGIN IONS
NAME="2-amino-4-(3-bromophenyl)-5-oxo-4H-pyrano[3,2-c]chromene-3-carbonitrile CollisionEnergy:102040" M+H
PRECURSOR_MZ=395.003
INCHI="InChI=1S/C19H11BrN2O3/c20-11-5-3-4-10(8-11)15-13(9-21)18(22)25-17-12-6-1-2-7-14(12)24-19(23)16(15)17/h1-8,15H,22H2"
SMILES=N#CC1=C(N)Oc2c(c(=O)oc3ccccc23)C1c1cccc(Br)c1
SPECTRUMID=CCMSLIB00010111446
64.680031 2358.0 
91.054047 3685.0 
99.504509 2843.0 
121.028397 41556.0 
140.047455 3181.0 
152.062286 3123.0 
152.077347 2624.0 
175.643143 2576.0 
179.063721 2702.0 
239.044815 2546546.0 
249.053696 32531.0 
250.062195 18355.0 
274.961823 6687.0 
316.081512 3554.0 
318.971802 12413.0 
328.979889 71192.0 
354.038422 10087.0 
367.993134 13756.0 
395.001862 538825.0 
395.260437 12250.0 
398.907013 2698.0 
END IONS

BEGIN IONS
NAME=indole-3-acetonitrile CollisionEnergy:205060 M+H
PRECURSOR_MZ=157.076
INCHI="InChI=1S/C10H8N2/c11-6-5-8-7-12-10-4-2-1-3-9(8)10/h1-4,7,12H,5H2"
SMILES=C1=CC=C2C(=C1)C(=CN2)CC#N
SPECTRUMID=CCMSLIB00010102295
53.938965 10739.538086 
57.934696 12418.064453 
59.997906 4243.711426 
62.528324 3433.023193 
66.046707 4390.103516 
74.930756 7925.012207 
74.937607 215612.734375 
75.025978 5047.682129 
82.444763 4962.371582 
91.057182 6814.477539 
92.05571 5232.51416 
92.948242 53995.832031 
93.036324 6112.300781 
103.05439 19250.865234 
115.964088 174904.875 
116.971504 12828.217773 
116.98053 3956.468018 
117.057327 1608439.125 
118.721909 4824.799805 
128.0495 7003.840332 
130.065216 2600810.75 
131.068619 41667.015625 
133.974701 47631.894531 
138.75943 4710.096191 
146.060577 5419.546875 
156.063965 131488.765625 
156.990479 4337.661133 
157.076355 204684.46875 
END IONS

BEGIN IONS
NAME=5-(6-aminopurin-9-yl)-2-{[bis(4-methoxyphenyl)phenylmethoxy]methyl}oxolan-3-ol CollisionEnergy:205060 M+formate
PRECURSOR_MZ=598.231
INCHI="InChI=1S/C31H31N5O5/c1-38-23-12-8-21(9-13-23)31(20-6-4-3-5-7-20,22-10-14-24(39-2)15-11-22)40-17-26-25(37)16-27(41-26)36-19-35-28-29(32)33-18-34-30(28)36/h3-15,18-19,25-27,37H,16-17H2,1-2H3,(H2,32,33,34)"
SMILES=COc1ccc(C(OCC2OC(n3cnc4c(N)ncnc43)CC2O)(c2ccccc2)c2ccc(OC)cc2)cc1
SPECTRUMID=CCMSLIB00010122214
58.8298 2472.0 
58.86813 2196.0 
59.911579 2915.0 
88.314957 2429.0 
104.314217 3615.0 
111.661774 3261.0 
143.616547 2852.0 
161.464966 2691.0 
212.38324 4179.0 
214.896164 3103.0 
END IONS

BEGIN IONS
NAME="N-(3,5-dimethoxyphenyl)-2-(9-methyl-6-oxohydropurin-8-ylthio)acetamide CollisionEnergy:102040" 2M-H
PRECURSOR_MZ=749.193
INCHI="InChI=1S/C16H17N5O4S/c1-21-14-13(15(23)18-8-17-14)20-16(21)26-7-12(22)19-9-4-10(24-2)6-11(5-9)25-3/h4-6,8H,7H2,1-3H3,(H,19,22)(H,17,18,23)"
SMILES=COc1cc(N=C(O)CSc2nc3c(O)ncnc3n2C)cc(OC)c1
SPECTRUMID=CCMSLIB00010110270
136.245972 3498.0 
149.04657 75655.0 
152.028351 5055.0 
156.631409 3448.0 
180.01088 108308.0 
181.018982 51821.0 
193.018387 4786.0 
195.034134 19501.0 
195.133331 3898.0 
195.520447 3435.0 
221.013458 16570.0 
224.038025 16162.0 
242.180679 3218.0 
300.110748 18350.0 
356.993347 3428.0 
374.092529 582110.0 
425.854553 3272.0 
729.911804 3921.0 
END IONS

BEGIN IONS
NAME="9-chloro-4-oxo-5-oxatricyclo[4.2.1.0<3,7>]nonane-2-carboxylic acid CollisionEnergy:205060" M+H
PRECURSOR_MZ=217.026
INCHI="InChI=1S/C9H9ClO4/c10-6-2-1-3-5(4(2)8(11)12)9(13)14-7(3)6/h2-7H,1H2,(H,11,12)"
SMILES=O=C(O)C1C2CC3C(OC(=O)C31)C2Cl
SPECTRUMID=CCMSLIB00010125800
55.93486 31518.0 
65.039017 9114.0 
71.929626 3064.0 
72.937553 12067.0 
79.054611 3931.0 
90.947868 10994.0 
91.054359 488454.0 
102.947693 2733.0 
104.275703 2684.0 
109.064491 2893.0 
113.963737 4049.0 
118.643669 2562.0 
127.030823 102041.0 
128.950897 20910.0 
146.961182 11496.0 
157.966217 2261.0 
164.380692 2084.0 
175.977203 3338.0 
211.577972 2776.0 
217.026031 243198.0 
217.105225 8414.0 
235.037094 2240.0 
END IONS

BEGIN IONS
NAME=Gitoxigenin CollisionEnergy:205060 M+formate
PRECURSOR_MZ=435.239
INCHI="InChI=1S/C23H34O5/c1-21-7-5-15(24)10-14(21)3-4-17-16(21)6-8-22(2)20(13-9-19(26)28-12-13)18(25)11-23(17,22)27/h9,14-18,20,24-25,27H,3-8,10-12H2,1-2H3"
SMILES=CC12CCC(O)CC1CCC1C2CCC2(C)C(C3=CC(=O)OC3)C(O)CC12O
SPECTRUMID=CCMSLIB00010120219
51.396549 2277.0 
59.013439 4497.0 
66.461327 2567.0 
68.848419 2464.0 
69.034142 4412.0 
93.034309 12430.0 
95.013809 41110.0 
106.042664 2775.0 
118.640259 2838.0 
121.02951 19532.0 
121.066078 6149.0 
122.037209 56011.0 
123.044991 15788.0 
135.081177 3322.0 
146.96077 11429.0 
149.097336 13341.0 
213.092514 6132.0 
221.154434 39144.0 
225.092789 24411.0 
226.099487 5166.0 
238.176651 2767.0 
247.170074 53841.0 
249.186188 3754.0 
261.889801 6636.0 
263.1651 74592.0 
281.17511 34898.0 
297.220917 3539.0 
301.217682 4704.0 
304.9151 5587.0 
307.205658 4227.0 
309.18634 3256.0 
309.222382 5362.0 
313.213837 3172.0 
315.234192 3835.0 
323.202972 11504.0 
325.179871 4608.0 
325.217804 49603.0 
327.233215 47934.0 
337.181305 150446.0 
338.187866 14499.0 
343.228302 28473.0 
345.206116 17282.0 
345.246429 3806.0 
351.197327 18499.0 
353.21225 501211.0 
356.198761 10844.0 
371.222931 1378182.0 
389.233673 408884.0 
389.293182 4422.0 
435.2388 80386.0 
END IONS

BEGIN IONS
NAME=Lumazine CollisionEnergy:102040 M+Na
PRECURSOR_MZ=187.023
INCHI="InChI=1S/C6H4N4O2/c11-5-3-4(8-2-1-7-3)9-6(12)10-5/h1-2H,(H2,8,9,10,11,12)"
SMILES=Oc1nc(O)c2nccnc2n1
SPECTRUMID=CCMSLIB00010114146
55.93515 38046.0 
58.126228 3018.0 
72.628609 3080.0 
72.937576 5158.0 
74.953667 5104.0 
82.380363 3635.0 
83.086288 10918.0 
88.022034 63498.0 
90.948334 7125.0 
92.356277 3404.0 
104.258133 3915.0 
105.935173 28374.0 
116.951927 31872.0 
117.959824 20615.0 
118.942802 6200.0 
118.967392 7502.0 
119.975357 5473.0 
123.945374 21229.0 
128.950958 29934.0 
134.962128 24873.0 
135.945358 7364.0 
135.970535 4106.0 
141.983887 3479.0 
145.953598 3792.0 
146.961365 20487.0 
153.956116 5870.0 
163.94017 55131.0 
163.965073 15349.0 
176.981323 3867.0 
181.950928 47357.0 
186.964859 28306.0 
187.022675 36555.0 
187.055664 3962.0 
187.126633 41482.0 
205.991196 3414.0 
END IONS

BEGIN IONS
NAME="[4-(phenylcarbonyl)phenyl]-N-[(3,4,5-trimethoxyphenyl)methyl]carboxamide CollisionEnergy:102040" M+formate
PRECURSOR_MZ=450.156
INCHI="InChI=1S/C24H23NO5/c1-28-20-13-16(14-21(29-2)23(20)30-3)15-25-24(27)19-11-9-18(10-12-19)22(26)17-7-5-4-6-8-17/h4-14H,15H2,1-3H3,(H,25,27)"
SMILES=COc1cc(CNC(=O)c2ccc(C(=O)c3ccccc3)cc2)cc(OC)c1OC
SPECTRUMID=CCMSLIB00010108389
60.99258 2715.0 
61.107731 2424.0 
63.059849 2464.0 
79.792473 3244.0 
104.280701 2630.0 
109.257507 2763.0 
148.088547 2400.0 
165.04306 10717.0 
178.049561 4336.0 
180.066315 99468.0 
181.065506 67924.0 
192.029984 3701.0 
199.076218 13384.0 
211.157288 4220.0 
222.075806 3706.0 
261.626251 2437.0 
274.530243 2527.0 
359.074982 4100.0 
374.101776 30790.0 
388.121887 4244.0 
404.150085 1001138.0 
450.153961 4592.0 
END IONS

BEGIN IONS
NAME=6-oxoheptadecanedioic acid CollisionEnergy:102040 M+Na
PRECURSOR_MZ=337.199
INCHI="InChI=1S/C17H30O5/c18-15(12-9-10-14-17(21)22)11-7-5-3-1-2-4-6-8-13-16(19)20/h1-14H2,(H,19,20)(H,21,22)"
SMILES=O=C(O)CCCCCCCCCCC(=O)CCCCC(=O)O
SPECTRUMID=CCMSLIB00010106082
55.147518 2824.0 
62.484821 2733.0 
76.321877 2500.0 
80.925262 2761.0 
81.799957 2706.0 
107.88903 2834.0 
138.614655 3358.0 
212.297455 3493.0 
335.601135 3221.0 
337.197968 4376619.0 
END IONS

BEGIN IONS
NAME="1,2,5,8,15,19,19-heptamethyl-13,18-dioxopentacyclo[12.8.0.0<2,11>.0<5,10>.0<15 ,20>]docos-11-ene-8-carboxylic acid CollisionEnergy:102040" M+formate
PRECURSOR_MZ=513.322
INCHI="InChI=1S/C30H44O4/c1-25(2)21-8-11-30(7)23(28(21,5)10-9-22(25)32)20(31)16-18-19-17-27(4,24(33)34)13-12-26(19,3)14-15-29(18,30)6/h16,19,21,23H,8-15,17H2,1-7H3,(H,33,34)"
SMILES=CC1(C(=O)O)CCC2(C)CCC3(C)C(=CC(=O)C4C5(C)CCC(=O)C(C)(C)C5CCC43C)C2C1
SPECTRUMID=CCMSLIB00010111505
78.231232 3143.0 
86.502037 2519.0 
89.853783 2425.0 
92.387253 3020.0 
104.297951 3300.0 
104.953796 9385.0 
111.965103 2481.0 
112.985397 3969.0 
120.948334 2778.0 
165.388168 3202.0 
192.192505 3578.0 
196.622543 3212.0 
207.560287 13083.0 
308.913147 4340.0 
376.902161 5902.0 
423.324188 4945.0 
467.316528 578681.0 
492.970795 4791.0 
512.975708 38791.0 
582.945129 2713.0 
END IONS

BEGIN IONS
NAME=Myriocin CollisionEnergy:205060 M-H
PRECURSOR_MZ=400.27
INCHI="InChI=1S/C21H39NO6/c1-2-3-4-10-13-17(24)14-11-8-6-5-7-9-12-15-18(25)19(26)21(22,16-23)20(27)28/h9,12,18-19,23,25-26H,2-8,10-11,13-16,22H2,1H3,(H,27,28)/b12-9+/t18-,19+,21+/m1/s1"
SMILES=CCCCCCC(=O)CCCCCCC=CCC(O)C(O)C(N)(CO)C(=O)O
SPECTRUMID=CCMSLIB00010121289
58.005539 3652.0 
59.17469 2270.0 
64.641731 2274.0 
66.745041 3316.0 
68.863892 3058.0 
69.281227 2349.0 
72.008881 65485.0 
74.024544 57751.0 
86.024658 294270.0 
104.035423 329449.0 
127.112617 5009.0 
190.524139 2638.0 
208.043579 2449.0 
214.307037 2957.0 
250.403824 2291.0 
295.22818 14185.0 
334.239227 45259.0 
352.249634 10034.0 
370.259521 4206.0 
373.639221 2669.0 
381.825165 3911.0 
400.270844 239336.0 
END IONS

BEGIN IONS
NAME="(2E)-3-(2,4-dichlorophenyl)-1-(3,4-dimethoxyphenyl)prop-2-en-1-one CollisionEnergy:102040" M+H
PRECURSOR_MZ=337.039
INCHI="InChI=1S/C17H14Cl2O3/c1-21-16-8-5-12(9-17(16)22-2)15(20)7-4-11-3-6-13(18)10-14(11)19/h3-10H,1-2H3/b7-4+"
SMILES=COc1ccc(C(=O)C=Cc2ccc(Cl)cc2Cl)cc1OC
SPECTRUMID=CCMSLIB00010106024
52.845871 11705.0 
63.627171 33308.0 
63.631161 25158.0 
82.457649 14686.0 
84.864342 11929.0 
99.023209 19884.0 
135.000824 73864.0 
136.007294 632053.0 
156.395645 12413.0 
158.976288 62974.0 
163.07486 14451.0 
164.002441 16815.0 
165.054489 386023.0 
170.976212 10653807.0 
188.987762 10983.0 
191.06926 13718.0 
198.248016 25858.0 
198.971085 54020324.0 
199.699371 26911.0 
209.438095 26656.0 
212.001755 71128.0 
271.048218 13298.0 
277.01767 13884.0 
301.062622 119863.0 
302.066132 82149.0 
305.012817 55055.0 
306.020813 93386.0 
309.042084 14207.0 
319.028076 48250.0 
322.016052 57654.0 
335.444916 33252.0 
337.038605 42256180.0 
338.643127 25449.0 
END IONS

BEGIN IONS
NAME=(2S)-3-indol-3-yl-2-[(phenylmethoxy)carbonylamino]propanoic acid CollisionEnergy:102040 2M-H
PRECURSOR_MZ=675.246
INCHI="InChI=1S/C19H18N2O4/c22-18(23)17(10-14-11-20-16-9-5-4-8-15(14)16)21-19(24)25-12-13-6-2-1-3-7-13/h1-9,11,17,20H,10,12H2,(H,21,24)(H,22,23)/t17-/m0/s1"
SMILES=O=C(O)C(Cc1c[nH]c2ccccc12)N=C(O)OCc1ccccc1
SPECTRUMID=CCMSLIB00010109364
65.747627 3642.0 
72.008911 75435.0 
73.965767 4069.0 
74.516724 3674.0 
74.529083 3789.0 
88.748528 4092.0 
92.391861 5527.0 
96.972954 3634.0 
98.99614 6691.0 
100.004059 456107.0 
104.304443 4286.0 
116.050842 25701.0 
130.066086 85931.0 
142.066162 812127.0 
157.077209 8850.0 
184.479446 5081.0 
185.072006 73321.0 
186.056015 894837.0 
208.652023 3590.0 
228.815475 9457.0 
229.061874 6919013.0 
317.66803 4676.0 
337.119446 1505897.0 
533.557068 4740.0 
601.830444 4146.0 
END IONS

BEGIN IONS
NAME=2-amino-7-hydroxy-4-(3-nitrophenyl)-4H-chromene-3-carbonitrile CollisionEnergy:102040 M-H
PRECURSOR_MZ=308.068
INCHI="InChI=1S/C16H11N3O4/c17-8-13-15(9-2-1-3-10(6-9)19(21)22)12-5-4-11(20)7-14(12)23-16(13)18/h1-7,15,20H,18H2"
SMILES=N#CC1=C(N)Oc2cc(O)ccc2C1c1cccc([N+](=O)[O-])c1
SPECTRUMID=CCMSLIB00010109566
50.457298 3111.0 
52.770618 2611.0 
59.671139 2562.0 
65.014053 58147.0 
65.99839 2960.0 
86.269112 3135.0 
90.034012 3280.0 
92.381142 3324.0 
95.013702 3968.0 
96.745689 2719.0 
102.034149 3160.0 
104.736816 3015.0 
108.021843 7097.0 
114.034866 33091.0 
116.050438 15075.0 
118.661743 4424.0 
122.024834 58183.0 
133.02948 5673.0 
141.045944 76161.0 
142.029816 19975.0 
158.013306 3680.0 
158.02475 255873.0 
160.040436 139176.0 
185.035782 961828.0 
192.479858 2722.0 
196.040771 5436.0 
208.052704 26907.0 
211.041824 3496.0 
214.04982 3497.0 
218.06308 3615.0 
220.040298 30290.0 
229.025604 16797.0 
234.056747 5983.0 
238.050995 100496.0 
242.046021 397273.0 
247.050369 5689.0 
254.046722 6017.0 
257.913361 2818.0 
263.047394 15766.0 
264.05481 12402.0 
265.062775 17879.0 
268.050018 6296.0 
281.057892 19518.0 
287.482635 2832.0 
290.058014 14301.0 
306.657318 3667.0 
308.067871 4356009.0 
END IONS

BEGIN IONS
NAME=Desmethoxyyangonin CollisionEnergy:102040 M+H
PRECURSOR_MZ=229.086
INCHI="InChI=1S/C14H12O3/c1-16-13-9-12(17-14(15)10-13)8-7-11-5-3-2-4-6-11/h2-10H,1H3/b8-7+"
SMILES=COc1cc(C=Cc2ccccc2)oc(=O)c1
SPECTRUMID=CCMSLIB00010105311
51.768841 2392.0 
59.21883 2523.0 
68.997566 36643.0 
91.054527 5713.0 
92.383423 2985.0 
95.04892 4734.0 
99.04422 3737.0 
103.054153 27760.0 
108.533333 2969.0 
115.053741 3821.0 
123.043892 3467.0 
125.023277 6204.0 
128.062759 6689.0 
129.069916 23960.0 
131.04921 726729.0 
141.069901 267668.0 
141.079407 5883.0 
142.07811 11739.0 
143.085388 18152.0 
145.065247 10535.0 
152.062378 19713.0 
153.069458 52215.0 
154.832016 2978.0 
155.048981 45637.0 
155.085266 19773.0 
158.071915 6426.0 
159.081009 4111.0 
161.096069 3143.0 
165.069824 7107.0 
168.057083 72720.0 
169.064774 186637.0 
170.072815 25541.0 
173.095932 48928.0 
179.049194 86629.0 
181.065643 3631.0 
183.080399 154296.0 
186.067474 183714.0 
187.074219 6099.0 
196.050873 3628.0 
197.059708 108971.0 
201.090988 861785.0 
211.075287 76546.0 
212.466721 3303.0 
228.190277 5710.0 
229.085846 5534686.0 
229.988297 4781.0 
END IONS

BEGIN IONS
NAME=2-{1-[(4-chlorophenyl)carbonyl]-5-methoxy-2-methylindol-3-yl}-N-cyclopropylace tamide CollisionEnergy:102040 M+Cl
PRECURSOR_MZ=431.093
INCHI="InChI=1S/C22H21ClN2O3/c1-13-18(12-21(26)24-16-7-8-16)19-11-17(28-2)9-10-20(19)25(13)22(27)14-3-5-15(23)6-4-14/h3-6,9-11,16H,7-8,12H2,1-2H3,(H,24,26)"
SMILES=COc1ccc2c(c1)c(CC(O)=NC1CC1)c(C)n2C(=O)c1ccc(Cl)cc1
SPECTRUMID=CCMSLIB00010109404
66.746033 3470.0 
72.985649 2357.0 
73.048653 2250.0 
80.90638 2172.0 
91.477547 2161.0 
104.289146 3014.0 
118.660957 3627.0 
118.991829 2678.0 
148.486954 2528.0 
156.988052 3184.0 
169.507492 2786.0 
182.306015 2953.0 
185.414932 2727.0 
208.394547 10619.0 
230.985779 4744.0 
258.050293 2430.0 
314.990662 2720.0 
316.984009 5083.0 
332.050201 3297.0 
342.98526 2540.0 
344.977722 10562.0 
366.979218 5045.0 
390.978851 5525.0 
410.974976 13529.0 
430.975769 74376.0 
431.092285 7594.0 
END IONS

BEGIN IONS
NAME=butein CollisionEnergy:102040 M+H
PRECURSOR_MZ=273.076
INCHI="InChI=1S/C15H12O5/c16-10-3-4-11(14(19)8-10)12(17)5-1-9-2-6-13(18)15(20)7-9/h1-8,16,18-20H/b5-1+"
SMILES=O=C(C=Cc1ccc(O)c(O)c1)c1ccc(O)cc1O
SPECTRUMID=CCMSLIB00010110021
54.012329 2641.0 
67.908661 2976.0 
68.997543 3880.0 
71.4888 2537.0 
98.815651 2730.0 
104.569206 2584.0 
107.048767 5393.0 
111.044098 15444.0 
117.033234 21686.0 
123.044273 11823.0 
135.043976 45800.0 
137.0233 770499.0 
139.039169 14482.0 
145.028458 54930.0 
148.040512 3261.0 
155.034225 22985.0 
163.038849 872740.0 
175.075073 4721.0 
181.06456 25673.0 
185.059067 10967.0 
187.075394 13397.0 
197.98085 2685.0 
199.075256 13088.0 
203.068954 10973.0 
209.059708 33909.0 
213.054764 6308.0 
220.229492 3247.0 
227.069717 58256.0 
230.145416 2747.0 
231.064728 4016.0 
237.052979 25104.0 
255.064743 226887.0 
258.052032 44115.0 
271.910034 3109.0 
273.075348 2560791.0 
273.164734 73695.0 
274.249542 2867.0 
279.801666 3191.0 
END IONS

BEGIN IONS
NAME="7,8,3'-Trihydroxyflavone CollisionEnergy:102040" M+Na
PRECURSOR_MZ=293.042
INCHI="InChI=1S/C15H10O5/c16-9-3-1-2-8(6-9)13-7-12(18)10-4-5-11(17)14(19)15(10)20-13/h1-7,16-17,19H"
SMILES=O=c1cc(-c2cccc(O)c2)oc2c(O)c(O)ccc12
SPECTRUMID=CCMSLIB00010108375
55.15834 1997.0 
73.951622 2470.0 
76.307327 2235.0 
79.553619 2192.0 
84.959892 4911.0 
90.582336 2073.0 
92.375977 3899.0 
118.652603 2442.0 
127.220139 2014.0 
136.209076 2293.0 
151.966019 2037.0 
156.380768 2132.0 
158.927689 2894.0 
174.421143 2088.0 
176.936249 2130.0 
186.922531 3988.0 
204.932556 4401.0 
214.917526 4247.0 
232.927628 45930.0 
234.950912 3037.0 
250.938339 32373.0 
293.041382 208085.0 
293.137726 46974.0 
293.171448 6247.0 
311.052612 9609.0 
END IONS

BEGIN IONS
NAME="4,2',5'-TRIHYDROXYCHALCONE CollisionEnergy:102040" 2M-H
PRECURSOR_MZ=511.14
INCHI="InChI=1S/C15H12O4/c16-11-4-1-10(2-5-11)3-7-14(18)13-9-12(17)6-8-15(13)19/h1-9,16-17,19H/b7-3+"
SMILES=O=C(C=Cc1ccc(O)cc1)c1cc(O)ccc1O
SPECTRUMID=CCMSLIB00010106400
62.279049 2538.0 
62.932259 2356.0 
68.31958 2455.0 
70.430481 2436.0 
102.95713 3301.0 
109.029808 16118.0 
118.64167 3358.0 
162.041397 2327.0 
255.06546 28321.0 
306.920654 3098.0 
391.60849 2999.0 
END IONS

BEGIN IONS
NAME="N-(4-chlorophenyl)-2-[2-oxo-4-(2-1,2,3,4-tetrahydroisoquinolylcarbonyl)hydroqu inolyl]acetamide CollisionEnergy:205060" M+H
PRECURSOR_MZ=472.142
INCHI="InChI=1S/C27H22ClN3O3/c28-20-9-11-21(12-10-20)29-25(32)17-31-24-8-4-3-7-22(24)23(15-26(31)33)27(34)30-14-13-18-5-1-2-6-19(18)16-30/h1-12,15H,13-14,16-17H2,(H,29,32)"
SMILES=O=C(Cn1c(=O)cc(C(=O)N2CCc3ccccc3C2)c2ccccc21)Nc1ccc(Cl)cc1
SPECTRUMID=CCMSLIB00010124584
58.096581 2939.0 
67.483971 3624.0 
78.268631 2796.0 
91.054657 4390.0 
92.378769 3349.0 
103.054771 5360.0 
105.057533 4334.0 
105.070068 62988.0 
107.970039 3015.0 
115.054367 37322.0 
117.057388 19260.0 
117.069931 85534.0 
118.065193 4611.0 
118.660202 3060.0 
119.085503 6429.0 
128.049377 43804.0 
129.069458 12087.0 
130.065292 633811.0 
131.072189 3734.0 
132.080933 1069345.0 
133.05246 36566.0 
135.116867 12839.0 
142.065094 37513.0 
144.044571 4452.0 
144.080826 6174.0 
146.060272 98302.0 
146.096603 194279.0 
156.044128 27646.0 
157.052078 5540.0 
158.060226 692033.0 
160.075806 609428.0 
161.046844 4413.0 
169.07637 20825.0 
185.071335 5760.0 
186.055084 233408.0 
199.04982 22478.0 
199.08577 3685.0 
212.058411 6918.0 
230.0961 3826.0 
232.111526 12084.0 
244.111847 7445.0 
246.126511 6829.0 
256.100311 16693.0 
258.115967 5060.0 
259.12265 15821.0 
261.138184 13303.0 
269.1073 4091.0 
271.122772 20639.0 
273.139374 32461.0 
287.082092 3534.0 
287.117798 19095.0 
289.13327 59138.0 
305.128265 270717.0 
313.867432 4509.0 
317.128143 251607.0 
343.106079 13957.0 
345.123383 1405044.0 
352.368591 3855.0 
358.155212 17870.0 
472.142822 26862.0 
END IONS

BEGIN IONS
NAME=N-(4-bromophenyl)-2-[2-oxo-4-(pyrrolidinylcarbonyl)hydroquinolyl]acetamide CollisionEnergy:102040 M+H
PRECURSOR_MZ=454.076
INCHI="InChI=1S/C22H20BrN3O3/c23-15-7-9-16(10-8-15)24-20(27)14-26-19-6-2-1-5-17(19)18(13-21(26)28)22(29)25-11-3-4-12-25/h1-2,5-10,13H,3-4,11-12,14H2,(H,24,27)"
SMILES=O=C(Cn1c(=O)cc(C(=O)N2CCCC2)c2ccccc21)Nc1ccc(Br)cc1
SPECTRUMID=CCMSLIB00010113247
64.663841 3231.0 
68.049919 4462.0 
70.065376 13206.0 
73.957703 3434.0 
75.853653 2970.0 
82.065353 22544.0 
84.047188 3067.0 
84.080887 40215.0 
92.385483 3557.0 
96.044388 4838.0 
98.05986 33415.0 
104.293282 3553.0 
134.057571 3251.0 
152.826492 2971.0 
158.059906 17984.0 
160.0755 20236.0 
186.054886 67864.0 
188.069855 22819.0 
192.792297 3569.0 
211.122437 14595.0 
213.065109 6850.0 
227.11731 15763.0 
243.112595 92757.0 
255.112335 1104533.0 
257.126831 6513.0 
283.107239 3613539.0 
296.138947 34468.0 
297.121582 3670.0 
410.104248 14265.0 
420.760345 3474.0 
433.114349 16831.0 
433.615936 4339.0 
434.151794 52464.0 
442.116547 6101.0 
453.579285 11952.0 
454.077271 43574.0 
454.176849 23842.0 
462.592407 3371.0 
463.086243 7576.0 
551.193054 3168.0 
END IONS

BEGIN IONS
NAME="methylethyl 6-(3-bromo-4-hydroxy-5-methoxyphenyl)-3-ethyl-4-methyl-2-oxo-1,3,6 -trihydropyrimidine-5-carboxylate CollisionEnergy:102040" M-H
PRECURSOR_MZ=425.072
INCHI="InChI=1S/C18H23BrN2O5/c1-6-21-10(4)14(17(23)26-9(2)3)15(20-18(21)24)11-7-12(19)16(22)13(8-11)25-5/h7-9,15,22H,6H2,1-5H3,(H,20,24)"
SMILES=CCN1C(O)=NC(c2cc(Br)c(O)c(OC)c2)C(C(=O)OC(C)C)=C1C
SPECTRUMID=CCMSLIB00010110515
61.093281 2580.0 
65.303833 2513.0 
71.276314 2440.0 
76.805847 2454.0 
78.918571 110931.0 
82.402603 2973.0 
112.985519 12339.0 
113.415298 2556.0 
136.919205 2509.0 
157.978622 2715.0 
185.932098 5240.0 
241.982956 10545.0 
281.005554 4254.0 
296.02887 16601.0 
306.987 3542.0 
322.010468 8763.0 
367.04245 91096.0 
382.066071 516425.0 
424.972748 11424.0 
424.992889 14452.0 
425.071716 403132.0 
511.710083 2777.0 
844.713135 2674.0 
END IONS

BEGIN IONS
NAME="3,7,4'-Trihydroxyflavone CollisionEnergy:102040" M+H
PRECURSOR_MZ=271.06
INCHI="InChI=1S/C15H10O5/c16-9-3-1-8(2-4-9)15-14(19)13(18)11-6-5-10(17)7-12(11)20-15/h1-7,16-17,19H"
SMILES=O=c1c(O)c(-c2ccc(O)cc2)oc2cc(O)ccc12
SPECTRUMID=CCMSLIB00010107353
74.413689 3557.0 
75.96685 2779.0 
84.26107 3208.0 
101.307938 3323.0 
105.033508 5164.0 
107.049049 6626.0 
111.043953 3985.0 
118.653687 3615.0 
121.028313 136616.0 
126.070953 3623.0 
133.028549 30247.0 
137.023163 114799.0 
147.044144 4658.0 
149.023117 91066.0 
157.969681 3885.0 
167.034714 22670.0 
169.065018 16364.0 
173.058838 5014.0 
181.062714 3947.0 
187.075821 7354.0 
197.059296 62810.0 
215.069901 80558.0 
225.053711 53067.0 
227.067123 3664.0 
242.056122 32416.0 
243.064087 26733.0 
253.048706 18089.0 
269.880371 4734.0 
269.911072 17904.0 
270.049683 5550.0 
271.059662 13362616.0 
272.216003 16278.0 
END IONS

BEGIN IONS
NAME="(2E)-1-phenyl-3-(2,4,6-trimethylphenyl)prop-2-en-1-one CollisionEnergy:205060" M+H
PRECURSOR_MZ=251.143
INCHI="InChI=1S/C18H18O/c1-13-11-14(2)17(15(3)12-13)9-10-18(19)16-7-5-4-6-8-16/h4-12H,1-3H3/b10-9+"
SMILES=Cc1cc(C)c(C=CC(=O)c2ccccc2)c(C)c1
SPECTRUMID=CCMSLIB00010115419
50.01582 12720.0 
51.02359 33068.0 
53.039131 78592.0 
55.01849 8138.0 
58.169449 5368.0 
58.90303 5613.0 
65.039062 7612.0 
66.746536 6904.0 
67.054733 41693.0 
72.544037 6173.0 
73.956909 6702.0 
77.038696 52732.0 
79.054543 596334.0 
81.033867 66875.0 
82.401527 6212.0 
84.023216 5620.0 
84.95993 23910.0 
91.054413 509600.0 
92.380058 7454.0 
93.069878 7474.0 
95.049271 331674.0 
98.984253 50530.0 
103.05426 521748.0 
104.785599 6178.0 
105.033546 5056205.0 
105.069893 1047616.0 
107.049103 179895.0 
107.08532 29220.0 
115.054291 197079.0 
116.06208 10566.0 
117.069878 782547.0 
119.085548 103472.0 
121.101257 136768.0 
123.080673 6823.0 
128.062027 135949.0 
129.069748 219156.0 
129.080109 11902.0 
130.077759 1348973.0 
131.04921 1087477.0 
131.085739 22753.0 
133.101044 42707.0 
141.069916 12775.0 
143.085632 367987.0 
144.093689 31019.0 
145.101257 3986000.0 
147.080765 49862.0 
149.09642 32336.0 
153.068619 7067.0 
155.08577 102395.0 
155.54451 6613.0 
158.072784 77169.0 
160.088531 23619.0 
165.070282 13726.0 
166.077576 9326.0 
167.085526 12739.0 
173.096146 2034007.0 
174.992081 7379.0 
178.077377 23497.0 
179.0858 52112.0 
180.093002 14125.0 
181.101486 31401.0 
191.085571 34927.0 
192.075851 7474.0 
192.092987 69649.0 
193.101501 55400.0 
194.109131 34759.0 
195.117386 11624.0 
202.07782 30143.0 
203.064072 10441.0 
203.085678 260118.0 
203.106354 12106.0 
204.09346 7733.0 
205.10231 52449.0 
206.108856 38875.0 
207.116714 31012.0 
208.124817 30619.0 
209.13208 10740.0 
212.186203 9289.0 
216.092499 9019.0 
217.101593 146704.0 
218.108917 1473576.0 
221.096512 94531.0 
221.132492 30288.0 
222.10437 7004.0 
223.148163 39992.0 
231.117035 9837.0 
233.132294 1039257.0 
235.111282 12025.0 
236.119232 115784.0 
251.142838 9089766.0 
END IONS

BEGIN IONS
NAME="ethyl 10-[2-(3,4-dimethoxyphenyl)ethyl]-2,4-dioxo-3,10-dihydrobenzo[g]pteridin e-8-carboxylate CollisionEnergy:205060" M+H
PRECURSOR_MZ=451.161
INCHI="InChI=1S/C23H22N4O6/c1-4-33-22(29)14-6-7-15-16(12-14)27(20-19(24-15)21(28)26-23(30)25-20)10-9-13-5-8-17(31-2)18(11-13)32-3/h5-8,11-12H,4,9-10H2,1-3H3,(H,26,28,30)"
SMILES=CCOC(=O)c1ccc2nc3c(O)nc(=O)nc-3n(CCc3ccc(OC)c(OC)c3)c2c1
SPECTRUMID=CCMSLIB00010121218
53.039001 31781.0 
55.018452 5694.0 
57.03392 7377.0 
65.039108 6862.0 
66.046883 13547.0 
66.753868 3635.0 
68.220512 3099.0 
68.89888 3355.0 
77.039139 6241.0 
78.046783 16038.0 
79.054489 315166.0 
81.033836 5287.0 
91.054291 116850.0 
92.062073 12913.0 
93.069679 24813.0 
94.041656 6146.0 
95.049248 18457.0 
103.054153 264430.0 
104.06192 46512.0 
105.033386 5810.0 
105.069847 630959.0 
107.04911 176828.0 
107.08535 13511.0 
108.056999 6521.0 
109.064796 16365.0 
115.054031 4890.0 
118.041252 142669.0 
119.049103 105948.0 
120.056923 110267.0 
121.064697 198552.0 
122.072418 72704.0 
123.043961 3746.0 
123.080368 14205.0 
131.04921 46367.0 
132.056915 16390.0 
133.064743 418296.0 
134.072525 441244.0 
135.04393 360680.0 
135.080307 173239.0 
137.059677 5373.0 
137.096237 6115.0 
138.067703 4701.0 
149.059784 52172.0 
150.067474 1725645.0 
151.075882 4535.0 
165.090927 4176884.0 
165.645401 4134.0 
174.625061 3475.0 
183.694687 3175.0 
190.299316 3606.0 
266.410461 3565.0 
288.616425 3100.0 
305.910736 3473.0 
451.160278 161131.0 
459.268585 3384.0 
459.901581 3794.0 
END IONS

BEGIN IONS
NAME=L-Canavanine CollisionEnergy:205060 2M-2H+Na
PRECURSOR_MZ=373.157
INCHI="InChI=1S/C5H12N4O3/c6-3(4(10)11)1-2-12-9-5(7)8/h3H,1-2,6H2,(H,10,11)(H4,7,8,9)/t3-/m0/s1"
SMILES=C(CON=C(N)N)[C@@H](C(=O)O)N
SPECTRUMID=CCMSLIB00010102433
56.025024 22102.728516 
57.009205 4279.039551 
58.040726 29063.212891 
59.013363 6706.428223 
63.53664 4049.083496 
63.945835 3844.106445 
65.995934 24994.880859 
66.786514 6024.571289 
71.013397 10976.275391 
72.008835 22866.630859 
74.035828 208825.71875 
78.958923 177255.78125 
78.964165 9169.408203 
96.017471 4778.423828 
98.024796 59521.441406 
99.008766 70447.921875 
99.193909 3867.769043 
100.040359 15395.861328 
116.03479 14336.026367 
118.050987 728490.75 
118.726913 4782.132812 
121.002335 7928.529297 
128.292099 3945.46875 
133.06163 39188.238281 
138.016342 6414.100586 
139.001892 5756.440918 
139.294189 4409.902344 
140.031998 4023.109131 
150.389923 3769.202637 
156.946014 109969.484375 
158.044083 4278.643066 
167.043549 83376.671875 
170.789429 3872.800781 
174.956635 91523.515625 
175.083572 358481.75 
178.92807 7322.656738 
181.046799 31862.414062 
191.061249 5643.558594 
196.938522 134457.046875 
196.95929 7102.111328 
197.065582 397136.65625 
209.072968 5154.72998 
219.173584 4779.148926 
373.155426 340947.0625 
408.814758 4129.84082 
481.744629 4525.026855 
END IONS

BEGIN IONS
NAME=3-(3-{[4-(piperidylcarbonyl)phenyl]amino}propanoyl)chromen-2-one CollisionEnergy:205060 M+H
PRECURSOR_MZ=405.181
INCHI="InChI=1S/C24H24N2O4/c27-21(20-16-18-6-2-3-7-22(18)30-24(20)29)12-13-25-19-10-8-17(9-11-19)23(28)26-14-4-1-5-15-26/h2-3,6-11,16,25H,1,4-5,12-15H2"
SMILES=O=C(CCNc1ccc(C(=O)N2CCCCC2)cc1)c1cc2ccccc2oc1=O
SPECTRUMID=CCMSLIB00010118138
53.039162 3785.0 
65.038948 2693.0 
66.528954 2749.0 
66.751503 3957.0 
67.054611 2863.0 
69.070282 162077.0 
70.065521 3889.0 
73.900421 2985.0 
75.472153 3102.0 
79.054688 4041.0 
84.080887 49383.0 
91.05407 3830.0 
92.049606 3884.0 
96.044243 16074.0 
99.65654 3296.0 
100.044052 2651.0 
104.049591 27347.0 
104.302544 2765.0 
105.058167 3543.0 
106.065086 92080.0 
112.075684 84622.0 
117.069679 4483.0 
120.044319 123586.0 
129.070007 4315.0 
131.04921 3175.0 
132.044342 706752.0 
133.052292 5759.0 
134.059906 13579.0 
137.047073 36368.0 
145.064636 5704.0 
149.071152 10385.0 
157.065674 2816.0 
160.111801 13424.0 
171.043884 33296.0 
173.023392 4800.0 
173.060059 28552.0 
183.044144 3882.0 
188.106812 16984.0 
189.054306 43843.0 
191.013489 4970.0 
191.033691 240350.0 
201.054428 283082.0 
215.117737 3315.0 
217.133377 3187349.0 
258.161957 4049.0 
274.085388 5379.0 
302.080536 49783.0 
320.091064 152562.0 
320.133453 6527.0 
378.490692 3118.0 
387.114349 6428.0 
387.169586 143209.0 
405.179688 247927.0 
END IONS

BEGIN IONS
NAME=3-Ureidopropionic acid CollisionEnergy:102040 M+Na
PRECURSOR_MZ=155.043
INCHI="InChI=1S/C4H8N2O3/c5-4(9)6-2-1-3(7)8/h1-2H2,(H,7,8)(H3,5,6,9)"
SMILES=N=C(O)NCCC(=O)O
SPECTRUMID=CCMSLIB00010103215
54.498402 3798.350098 
62.5895 3451.810059 
70.227501 3325.939941 
70.758598 3611.02002 
73.076599 47101.601562 
73.391701 3248.699951 
73.973999 3906.110107 
81.634903 3482.110107 
84.134102 3790.870117 
112.037003 53112.601562 
131.962006 6005.580078 
138.014999 6361.0 
149.970993 5429.77002 
155.042999 77819.203125 
155.154007 123937.0 
155.167999 4880.069824 
END IONS

BEGIN IONS
NAME=ST092794 CollisionEnergy:102040 2M+H
PRECURSOR_MZ=969.718
INCHI="InChI=1S/C31H48O4/c1-26(2)22-9-12-31(7)24(29(22,5)11-10-23(26)33)21(32)17-19-20-18-28(4,25(34)35-8)14-13-27(20,3)15-16-30(19,31)6/h17,20,22-24,33H,9-16,18H2,1-8H3"
SMILES=COC(=O)C1(C)CCC2(C)CCC3(C)C(=CC(=O)C4C5(C)CCC(O)C(C)(C)C5CCC43C)C2C1
SPECTRUMID=CCMSLIB00010108817
67.054398 9639.0 
69.069633 12255.0 
77.183983 5466.0 
79.053818 8135.0 
81.070129 58249.0 
82.395859 6711.0 
83.048759 31223.0 
83.085564 8149.0 
85.064827 8511.0 
90.335777 6567.0 
93.069527 22317.0 
95.048683 21127.0 
95.085632 148294.0 
97.064407 6970.0 
105.069153 30618.0 
107.08548 102171.0 
109.064278 7114.0 
109.100983 89674.0 
111.079514 21752.0 
119.085342 90373.0 
121.064072 9442.0 
121.101112 152130.0 
123.079948 7887.0 
123.116493 65552.0 
125.09549 7178.0 
133.101059 73595.0 
135.079529 32372.0 
135.11676 222155.0 
136.206528 5966.0 
137.095734 7542.0 
137.132111 11542.0 
139.110672 31610.0 
145.100159 13781.0 
147.11644 54701.0 
149.096115 110026.0 
149.132553 63879.0 
151.110886 8030.0 
153.126404 10836.0 
155.105347 11256.0 
157.10112 6927.0 
159.115936 31229.0 
161.096466 20663.0 
161.132477 80750.0 
163.111023 11348.0 
163.147278 40904.0 
166.861404 6418.0 
171.115753 11728.0 
173.132187 79313.0 
175.111099 19295.0 
175.132141 8064.0 
175.148117 219063.0 
177.126541 8703.0 
177.163422 117861.0 
179.106812 7691.0 
179.141968 30635.0 
181.121536 6515.0 
185.130936 6426.0 
187.146896 36134.0 
189.163498 640645.0 
191.142059 8580.0 
191.179459 112060.0 
193.122833 6547.0 
199.147873 72184.0 
201.127045 6408.0 
201.162384 23640.0 
203.14209 8443.0 
203.179001 8155.0 
207.174606 42890.0 
211.147919 7669.0 
213.162689 26946.0 
215.141708 34944.0 
215.178513 33827.0 
217.158386 208657.0 
217.194275 9112.0 
219.173828 8758.0 
221.153946 13977.0 
227.140961 7564.0 
227.178192 36719.0 
229.194519 7158.0 
231.173325 24053.0 
233.151947 10320.0 
235.168961 178712.0 
241.19368 25156.0 
243.211258 9055.0 
245.153275 7294.0 
245.188965 59388.0 
249.184631 184264.0 
253.193604 34936.0 
255.208908 11667.0 
257.187622 21153.0 
259.168701 30304.0 
259.200409 7422.0 
267.209198 24260.0 
271.204956 115251.0 
273.218903 8925.0 
275.164886 12652.0 
277.180054 84465.0 
285.221222 23629.0 
287.200012 13382.0 
291.193756 11606.0 
299.197906 11105.0 
301.218079 7885.0 
303.230988 25304.0 
305.210724 38501.0 
313.214722 11383.0 
317.212067 10105.0 
331.226196 317199.0 
341.246704 7967.0 
343.225708 8141.0 
389.317383 44752.0 
407.330658 111176.0 
425.340759 165062.0 
433.187256 5755.0 
449.339661 46161.0 
467.352814 77630.0 
483.350677 9200.0 
484.351593 10766.0 
485.362 14919995.0 
486.363983 23515.0 
487.374817 7428.0 
526.383118 6595.0 
969.716125 623508.0 
END IONS

BEGIN IONS
NAME=N-(4-bromophenyl)-2-[4-(N-methylcarbamoyl)-2-oxohydroquinolyl]acetamide CollisionEnergy:102040 M+formate
PRECURSOR_MZ=458.036
INCHI="InChI=1S/C19H16BrN3O3/c1-21-19(26)15-10-18(25)23(16-5-3-2-4-14(15)16)11-17(24)22-13-8-6-12(20)7-9-13/h2-10H,11H2,1H3,(H,21,26)(H,22,24)"
SMILES=CN=C(O)c1cc(=O)n(CC(=O)Nc2ccc(Br)cc2)c2ccccc12
SPECTRUMID=CCMSLIB00010113432
65.508324 2302.0 
87.094643 2778.0 
98.365639 2775.0 
117.7146 2591.0 
130.066635 3005.0 
158.061539 3960.0 
160.040634 10923.0 
169.077438 3059.0 
169.961563 5036.0 
171.092834 40733.0 
173.072128 10393.0 
184.040436 3154.0 
185.072525 12678.0 
187.08754 4034.0 
201.067612 18067.0 
202.051849 4767.0 
215.083832 10249.0 
217.062149 10769.0 
241.062531 10695.0 
289.396027 2666.0 
321.906219 2783.0 
355.009064 29133.0 
412.030762 435415.0 
458.181061 22986.0 
474.584076 2722.0 
END IONS

BEGIN IONS
NAME="3-(2-chlorophenyl)-11-[2-(methylethoxy)phenyl]-2,3,4-trihydro-5H,10H,11H-benzo [b]benzo[2,1-f]1,4-diazepin-1-one CollisionEnergy:205060" M-H
PRECURSOR_MZ=457.169
INCHI="InChI=1S/C28H27ClN2O2/c1-17(2)33-26-14-8-4-10-20(26)28-27-24(30-22-12-6-7-13-23(22)31-28)15-18(16-25(27)32)19-9-3-5-11-21(19)29/h3-14,17-18,28,30-31H,15-16H2,1-2H3"
SMILES=CC(C)Oc1ccccc1C1Nc2ccccc2NC2=C1C(=O)CC(c1ccccc1Cl)C2
SPECTRUMID=CCMSLIB00010115977
53.279469 2840.0 
53.999611 2373.0 
54.24015 2521.0 
55.174679 2485.0 
57.034088 4135.0 
66.761261 2238.0 
68.995148 2645.0 
92.995354 4261.0 
93.034462 12892.0 
131.061523 184816.0 
145.041306 17773.0 
162.043503 10906.0 
163.050858 4737.0 
183.05629 6072.0 
192.989044 4999.0 
194.060059 4378.0 
209.071487 4915.0 
214.078796 2476.0 
236.557632 2553.0 
254.985779 5054.0 
266.083252 2890.0 
266.985077 2885.0 
267.093567 20317.0 
269.084473 3475.0 
278.988068 5996.0 
283.087616 4918.0 
284.095612 64681.0 
285.103638 46012.0 
304.981934 3614.0 
321.080597 15099.0 
327.150574 34912.0 
342.080322 2540.0 
366.982056 2824.0 
379.099426 5456.0 
392.977417 14183.0 
397.111053 11991.0 
416.97757 12116.0 
436.981232 11611.0 
439.158447 83157.0 
456.977783 14394.0 
457.169067 334434.0 
END IONS

BEGIN IONS
NAME=N-(4-ethoxyphenyl)xanthen-9-ylcarboxamide CollisionEnergy:205060 M+Cl
PRECURSOR_MZ=380.106
INCHI="InChI=1S/C22H19NO3/c1-2-25-16-13-11-15(12-14-16)23-22(24)21-17-7-3-5-9-19(17)26-20-10-6-4-8-18(20)21/h3-14,21H,2H2,1H3,(H,23,24)"
SMILES=CCOc1ccc(NC(=O)C2c3ccccc3Oc3ccccc32)cc1
SPECTRUMID=CCMSLIB00010119995
59.12278 2050.0 
66.751282 2486.0 
94.953751 2294.0 
116.569923 2228.0 
129.039886 2529.0 
131.997101 2507.0 
136.222122 2728.0 
146.961212 5261.0 
174.956192 5191.0 
175.958801 3904.0 
185.413467 2212.0 
326.754395 2234.0 
365.4039 2854.0 
379.982819 12921.0 
481.781525 2824.0 
605.962952 2700.0 
END IONS

BEGIN IONS
NAME="N-(2H,3H-benzo[3,4-e]1,4-dioxin-6-yl)-2-[2-oxo-4-(piperidylcarbonyl)hydroquino lyl]acetamide CollisionEnergy:205060" M+formate
PRECURSOR_MZ=492.178
INCHI="InChI=1S/C25H25N3O5/c29-23(26-17-8-9-21-22(14-17)33-13-12-32-21)16-28-20-7-3-2-6-18(20)19(15-24(28)30)25(31)27-10-4-1-5-11-27/h2-3,6-9,14-15H,1,4-5,10-13,16H2,(H,26,29)"
SMILES=O=C(c1cc(=O)n(CC(O)=Nc2ccc3c(c2)OCCO3)c2ccccc12)N1CCCCC1
SPECTRUMID=CCMSLIB00010125526
50.40477 2076.0 
55.053909 2770.0 
58.099949 2173.0 
60.53944 2582.0 
62.878071 2481.0 
114.625648 2432.0 
121.03437 2509.0 
128.050018 3382.0 
203.279404 2422.0 
280.142548 2569.0 
301.46701 2807.0 
446.172546 6001.0 
END IONS

BEGIN IONS
NAME="2-{1-[(4-chlorophenyl)carbonyl]-5-methoxy-2-methylindol-3-yl}-N-[(3,4,5-trimet hoxyphenyl)methyl]acetamide CollisionEnergy:102040" M+formate
PRECURSOR_MZ=581.17
INCHI="InChI=1S/C29H29ClN2O6/c1-17-22(15-27(33)31-16-18-12-25(36-3)28(38-5)26(13-18)37-4)23-14-21(35-2)10-11-24(23)32(17)29(34)19-6-8-20(30)9-7-19/h6-14H,15-16H2,1-5H3,(H,31,33)"
SMILES=COc1ccc2c(c1)c(CC(O)=NCc1cc(OC)c(OC)c(OC)c1)c(C)n2C(=O)c1ccc(Cl)cc1
SPECTRUMID=CCMSLIB00010110415
50.02512 2449.0 
61.928452 2394.0 
71.022568 2396.0 
82.427483 2880.0 
101.427307 3011.0 
104.953903 11867.0 
111.000137 3499.0 
112.985878 3463.0 
118.692291 2986.0 
136.255508 4220.0 
154.990494 114739.0 
158.02713 3641.0 
158.061691 3841.0 
211.512848 5343.0 
235.243652 2977.0 
240.928543 4204.0 
282.033661 3214.0 
297.05484 22474.0 
308.917297 12431.0 
312.079681 16973.0 
382.154053 9957.0 
397.176849 185443.0 
478.491638 2911.0 
535.164734 120226.0 
581.168823 85518.0 
END IONS

BEGIN IONS
NAME="5-[(6-bromo(2H-benzo[d]1,3-dioxolen-5-yl))methylene]-2-imino-3-[4-(trifluorome thoxy)phenyl]-1,3-thiazolidin-4-one CollisionEnergy:102040" M+H
PRECURSOR_MZ=486.957
INCHI="InChI=1S/C18H10BrF3N2O4S/c19-12-7-14-13(26-8-27-14)5-9(12)6-15-16(25)24(17(23)29-15)10-1-3-11(4-2-10)28-18(20,21)22/h1-7,23H,8H2/b15-6-,23-17?"
SMILES=N=C1SC(=Cc2cc3c(cc2Br)OCO3)C(=O)N1c1ccc(OC(F)(F)F)cc1
SPECTRUMID=CCMSLIB00010110670
94.493721 4257.0 
123.857323 3798.0 
130.822433 3385.0 
153.48851 3484.0 
157.966232 3836.0 
160.017166 6167.0 
176.031723 4630.0 
177.000137 31560.0 
178.008224 1318476.0 
179.015778 30410.0 
189.041031 5035.0 
189.995483 5988.0 
192.995316 292803.0 
203.004349 8116.0 
203.043015 43193.0 
204.995773 29297.0 
206.003067 487395.0 
207.010849 70208.0 
220.006241 46323.0 
226.916107 6189.0 
229.021652 13699.0 
229.121826 4167.0 
231.565857 4638.0 
243.237732 4027.0 
250.934082 8989.0 
256.926086 22953.0 
257.302948 3669.0 
279.083832 3578.0 
407.030426 3397934.0 
408.037109 39986.0 
484.19928 4333.0 
486.956757 9808531.0 
489.743591 6330.0 
684.287415 4170.0 
END IONS

BEGIN IONS
NAME="methyl 2-amino-4-(2,6-dichlorophenyl)-6-(hydroxymethyl)-8-oxo-4H-pyrano[3,2-b] pyran-3-carboxylate CollisionEnergy:205060" M+Na
PRECURSOR_MZ=420.001
INCHI="InChI=1S/C17H13Cl2NO6/c1-24-17(23)13-12(11-8(18)3-2-4-9(11)19)15-14(26-16(13)20)10(22)5-7(6-21)25-15/h2-5,12,21H,6,20H2,1H3"
SMILES=COC(=O)C1=C(N)Oc2c(oc(CO)cc2=O)C1c1c(Cl)cccc1Cl
SPECTRUMID=CCMSLIB00010123366
64.875389 2306.0 
76.364418 2552.0 
89.26577 2626.0 
118.663742 2635.0 
135.371429 2730.0 
217.440079 2216.0 
263.010651 2654.0 
268.542053 2142.0 
320.968475 2998.0 
387.974854 165851.0 
420.001007 133502.0 
END IONS

BEGIN IONS
NAME="1-({[2-(2-furylmethyl)cyclohexyl]amino}methylene)-7-[8-({[2-(2-furylmethyl)cyc lohexyl]amino}methylene)-1,6-dihydroxy-3-methyl-5-(methylethyl)-7-oxo(2-naphth yl)]-3,8-dihydroxy-6-methyl-4-(methylethyl)naphthalen-2-one CollisionEnergy:102040" M-H
PRECURSOR_MZ=839.428
INCHI="InChI=1S/C52H60N2O8/c1-27(2)41-35-21-29(5)43(49(57)45(35)37(47(55)51(41)59)25-53-39-17-9-7-13-31(39)23-33-15-11-19-61-33)44-30(6)22-36-42(28(3)4)52(60)48(56)38(46(36)50(44)58)26-54-40-18-10-8-14-32(40)24-34-16-12-20-62-34/h11-12,15-16,19-22,25-28,31-32,39-40,53-54,57-60H,7-10,13-14,17-18,23-24H2,1-6H3/b37-25-,38-26-"
SMILES=Cc1cc2c(c(O)c1-c1c(C)cc3c(c1O)C(=CNC1CCCCC1Cc1ccco1)C(=O)C(O)=C3C(C)C)C(=CNC1CCCCC1Cc1ccco1)C(=O)C(O)=C2C(C)C
SPECTRUMID=CCMSLIB00010109816
69.644249 3101.0 
73.960663 4071.0 
88.076874 3453.0 
118.663002 4326.0 
125.817993 4230.0 
142.791763 3489.0 
152.752853 3819.0 
158.691025 3548.0 
230.094559 6232.0 
231.100327 4038.0 
243.101486 18500.0 
256.098358 41874.0 
259.664886 3630.0 
303.218842 7452.0 
336.981415 3549.0 
355.612305 3848.0 
420.216766 15664.0 
455.184326 4581.0 
471.181183 47331.0 
483.183075 60463.0 
485.984955 4456.0 
533.286133 4213.0 
632.302795 20044.0 
660.297119 251498.0 
839.428406 945570.0 
END IONS

BEGIN IONS
NAME="N-[2-(4-methoxyphenyl)-5-oxochromeno[3,4-e]pyrimidin-4-yl]acetamide CollisionEnergy:102040" M+H
PRECURSOR_MZ=362.114
INCHI="InChI=1S/C20H15N3O4/c1-11(24)21-19-16-17(14-5-3-4-6-15(14)27-20(16)25)22-18(23-19)12-7-9-13(26-2)10-8-12/h3-10H,1-2H3,(H,21,22,23,24)"
SMILES=COc1ccc(-c2nc(N=C(C)O)c3c(=O)oc4ccccc4c3n2)cc1
SPECTRUMID=CCMSLIB00010111955
57.486542 3109.0 
71.656349 3066.0 
104.271271 3958.0 
105.601463 3722.0 
154.861816 3031.0 
157.950851 3057.0 
187.049591 28807.0 
244.966476 3670.0 
277.084442 17611.0 
286.945587 2929.0 
288.075989 2914.0 
305.078979 70843.0 
319.093231 3254.0 
320.10257 3918579.0 
362.113068 2735322.0 
END IONS

BEGIN IONS
NAME=2-[4-(morpholin-4-ylcarbonyl)-2-oxohydroquinolyl]-N-[3-(trifluoromethyl)phenyl ]acetamide CollisionEnergy:102040 M+formate
PRECURSOR_MZ=504.139
INCHI="InChI=1S/C23H20F3N3O4/c24-23(25,26)15-4-3-5-16(12-15)27-20(30)14-29-19-7-2-1-6-17(19)18(13-21(29)31)22(32)28-8-10-33-11-9-28/h1-7,12-13H,8-11,14H2,(H,27,30)"
SMILES=O=C(c1cc(=O)n(CC(O)=Nc2cccc(C(F)(F)F)c2)c2ccccc12)N1CCOCC1
SPECTRUMID=CCMSLIB00010110318
92.388153 2683.0 
160.039047 3640.0 
167.509872 2406.0 
184.041046 4465.0 
215.135895 2471.0 
220.940201 3079.0 
230.442505 2649.0 
257.095062 5877.0 
271.110229 5646.0 
297.088562 4074.0 
341.355896 2839.0 
458.134613 94352.0 
END IONS

BEGIN IONS
NAME="7,8-dihydroxy-6-methoxycoumarin CollisionEnergy:102040" 2M-2H+Na
PRECURSOR_MZ=437.049
INCHI="InChI=1S/C10H8O5/c1-14-6-4-5-2-3-7(11)15-10(5)9(13)8(6)12/h2-4,12-13H,1H3"
SMILES=COC1=C(C(=C2C(=C1)C=CC(=O)O2)O)O
SPECTRUMID=CCMSLIB00010102124
74.455597 3987.375 
93.684326 3743.451416 
125.593887 5083.816895 
192.006516 612543.25 
207.030029 1572635.25 
216.504547 4127.537109 
220.771973 4400.847168 
353.637329 4481.949707 
378.996155 6815.065918 
422.01355 10857.901367 
437.047241 130554.171875 
END IONS

BEGIN IONS
NAME=ouabain CollisionEnergy:102040 M+Na
PRECURSOR_MZ=607.272
INCHI="InChI=1S/C29H44O12/c1-13-22(34)23(35)24(36)25(40-13)41-15-8-19(32)28(12-30)21-17(3-5-27(28,37)9-15)29(38)6-4-16(14-7-20(33)39-11-14)26(29,2)10-18(21)31/h7,13,15-19,21-25,30-32,34-38H,3-6,8-12H2,1-2H3/t13-,15-,16+,17+,18+,19+,21+,22-,23+,24+,25-,26+,27-,28+,29-/m0/s1"
SMILES=CC1OC(OC2CC(O)C3(CO)C4C(O)CC5(C)C(C6=CC(=O)OC6)CCC5(O)C4CCC3(O)C2)C(O)C(O)C1O
SPECTRUMID=CCMSLIB00010112692
54.508831 2798.0 
73.952026 3752.0 
96.72998 3453.0 
107.77813 3256.0 
136.206161 3481.0 
224.248138 3117.0 
354.197906 3860.0 
382.895691 3368.0 
395.449371 3377.0 
454.681793 3446.0 
461.214203 7662.0 
520.038757 3395.0 
607.272217 3744034.0 
END IONS

BEGIN IONS
NAME=diosmin CollisionEnergy:102040 M+Na
PRECURSOR_MZ=631.163
INCHI="InChI=1S/C28H32O15/c1-10-21(32)23(34)25(36)27(40-10)39-9-19-22(33)24(35)26(37)28(43-19)41-12-6-14(30)20-15(31)8-17(42-18(20)7-12)11-3-4-16(38-2)13(29)5-11/h3-8,10,19,21-30,32-37H,9H2,1-2H3/t10-,19+,21-,22+,23+,24-,25+,26+,27+,28+/m0/s1"
SMILES=COc1ccc(-c2cc(=O)c3c(O)cc(OC4OC(COC5OC(C)C(O)C(O)C5O)C(O)C(O)C4O)cc3o2)cc1O
SPECTRUMID=CCMSLIB00010113638
57.726391 3183.0 
66.743889 3349.0 
92.376694 3872.0 
104.287888 3442.0 
106.645889 2935.0 
136.214249 3402.0 
147.233276 3621.0 
301.067627 4382.0 
323.007935 5628.0 
323.050751 71134.0 
331.099121 58360.0 
346.403687 3235.0 
616.138977 5442.0 
631.162659 4431096.0 
END IONS

BEGIN IONS
NAME="N-(5-oxo-2-phenylchromeno[3,4-e]pyrimidin-4-yl)acetamide CollisionEnergy:102040" M+H
PRECURSOR_MZ=332.103
INCHI="InChI=1S/C19H13N3O3/c1-11(23)20-18-15-16(13-9-5-6-10-14(13)25-19(15)24)21-17(22-18)12-7-3-2-4-8-12/h2-10H,1H3,(H,20,21,22,23)"
SMILES=CC(O)=Nc1nc(-c2ccccc2)nc2c1c(=O)oc1ccccc12
SPECTRUMID=CCMSLIB00010109631
91.054314 2817.0 
94.690781 2728.0 
116.722321 3138.0 
123.352318 2887.0 
129.163483 3021.0 
146.869308 2940.0 
187.049545 25842.0 
233.990875 3055.0 
266.972015 3559.0 
290.091614 3442340.0 
305.90332 2893.0 
332.101898 1858252.0 
332.329865 16891.0 
END IONS

BEGIN IONS
NAME=CCG-208487 CollisionEnergy:205060 M+Na
PRECURSOR_MZ=571.288
INCHI="InChI=1S/C30H44O9/c1-16-24(33)26(36-3)25(34)27(38-16)39-19-6-10-29(15-31)18(13-19)4-5-22-21(29)7-9-28(2)20(8-11-30(22,28)35)17-12-23(32)37-14-17/h12,15-16,18-22,24-27,33-35H,4-11,13-14H2,1-3H3/t16?,18-,19+,20-,21+,22-,24+,25?,26+,27+,28-,29-,30+/m1/s1"
SMILES=COC1C(O)C(C)OC(OC2CCC3(C=O)C(CCC4C3CCC3(C)C(C5=CC(=O)OC5)CCC43O)C2)C1O
SPECTRUMID=CCMSLIB00010124648
70.604347 3188.0 
140.197235 3016.0 
226.203918 3161.0 
411.212982 36333.0 
474.116211 6461.0 
571.286804 4809583.0 
END IONS

BEGIN IONS
NAME=mitomycin C CollisionEnergy:102040 M-H
PRECURSOR_MZ=333.12
INCHI="InChI=1S/C15H18N4O5/c1-5-9(16)12(21)8-6(4-24-14(17)22)15(23-2)13-7(18-13)3-19(15)10(8)11(5)20/h6-7,13,18H,3-4,16H2,1-2H3,(H2,17,22)/t6-,7+,13+,15-/m1/s1"
SMILES=COC12C(COC(=N)O)C3=C(C(=O)C(C)=C(N)C3=O)N1CC1NC12
SPECTRUMID=CCMSLIB00010112515
60.008598 26420.0 
60.54467 2295.0 
85.777222 2713.0 
116.647827 2323.0 
118.018593 2241.0 
126.533981 2461.0 
136.224228 2626.0 
150.054474 2476.0 
170.256973 2495.0 
201.067307 2735.0 
221.089386 2821.0 
227.069626 28639.0 
228.078278 9658.0 
242.091965 2941.0 
258.088837 9340.0 
272.104279 24053.0 
290.114777 112992.0 
298.773804 2243.0 
333.120575 27025.0 
END IONS

BEGIN IONS
NAME="(3,4-dimethoxyphenyl)-N-(2-{N-[2-(3,4-dimethoxyphenyl)ethyl]carbamoyl}phenyl)c arboxamide CollisionEnergy:205060" M+H
PRECURSOR_MZ=465.202
INCHI="InChI=1S/C26H28N2O6/c1-31-21-11-9-17(15-23(21)33-3)13-14-27-26(30)19-7-5-6-8-20(19)28-25(29)18-10-12-22(32-2)24(16-18)34-4/h5-12,15-16H,13-14H2,1-4H3,(H,27,30)(H,28,29)"
SMILES=COc1ccc(CCN=C(O)c2ccccc2N=C(O)c2ccc(OC)c(OC)c2)cc1OC
SPECTRUMID=CCMSLIB00010122669
50.454208 3057.0 
53.039131 29349.0 
65.038887 5906.0 
66.046707 17514.0 
67.502838 2716.0 
68.997543 5458.0 
77.038773 3379.0 
79.054497 61278.0 
81.033722 6768.0 
81.070107 17655.0 
82.041367 3522.0 
90.033882 17339.0 
91.054413 4547.0 
92.025902 4283.0 
94.041428 32469.0 
95.049179 5077.0 
98.036041 11191.0 
103.053909 5405.0 
104.260963 3834.0 
105.033241 4377.0 
105.069588 24600.0 
107.048859 6268.0 
109.028427 17891.0 
109.064636 31497.0 
111.007828 6213.0 
121.028473 4668.0 
121.064682 5102.0 
122.036148 49721.0 
126.031113 26621.0 
133.06456 22586.0 
134.072662 11989.0 
135.044174 7062.0 
135.080612 3546.0 
136.179138 2961.0 
141.054016 4572.0 
146.023544 418593.0 
150.067459 92071.0 
154.025024 3561.0 
155.070221 38168.0 
157.93634 2865.0 
164.033875 6814.0 
164.171539 2862.0 
165.054565 1392023.0 
165.09053 490448.0 
182.117325 154519.0 
182.135895 5334.0 
195.638977 2786.0 
284.091278 794200.0 
END IONS

BEGIN IONS
NAME="8-{[2-(3,4-dimethoxyphenyl)-5-methyl(1,3-oxazol-4-yl)]methylthio}-9-methylhydr opurin-6-one CollisionEnergy:102040" M+H
PRECURSOR_MZ=414.123
INCHI="InChI=1S/C19H19N5O4S/c1-10-12(8-29-19-23-15-16(24(19)2)20-9-21-17(15)25)22-18(28-10)11-5-6-13(26-3)14(7-11)27-4/h5-7,9H,8H2,1-4H3,(H,20,21,25)"
SMILES=COc1ccc(-c2nc(CSc3nc4c(O)ncnc4n3C)c(C)o2)cc1OC
SPECTRUMID=CCMSLIB00010107786
77.668282 3227.0 
81.350616 2992.0 
92.385811 3810.0 
102.136909 3189.0 
104.297043 4226.0 
162.776245 3535.0 
163.074951 12312.0 
164.07045 539042.0 
165.056076 3502.0 
179.135834 3102.0 
183.033188 6238.0 
212.872513 4092.0 
217.073242 13985.0 
231.181305 4304.0 
232.096588 6567811.0 
239.341827 3227.0 
273.123505 5888.0 
362.850098 4024.0 
414.122437 1611498.0 
END IONS

BEGIN IONS
NAME="(4S,5S,1R)-4-[4-(3-hydroxyphenyl)-5-thioxo(1,2,3,4-tetraazolinyl)]-7,8-dioxabi cyclo[3.2.1]octan-2-one CollisionEnergy:102040" M+H
PRECURSOR_MZ=321.065
INCHI="InChI=1S/C13H12N4O4S/c18-8-3-1-2-7(4-8)16-13(22)17(15-14-16)9-5-10(19)12-20-6-11(9)21-12/h1-4,9,11-12,18H,5-6H2/t9-,11+,12+/m0/s1"
SMILES=O=C1CC(n2nnn(-c3cccc(O)c3)c2=S)C2COC1O2
SPECTRUMID=CCMSLIB00010114655
54.705132 2199.0 
63.447182 2235.0 
70.314003 2257.0 
97.028503 72397.0 
97.296997 2582.0 
99.791351 2315.0 
109.052147 33769.0 
127.039307 4628.0 
134.047379 26077.0 
136.205795 4699.0 
139.031998 10145.0 
150.74707 2542.0 
152.016174 11967.0 
167.027359 77231.0 
192.249466 2543.0 
195.033463 395921.0 
212.353989 2532.0 
321.064758 418764.0 
321.12674 37914.0 
321.167419 26956.0 
END IONS

BEGIN IONS
NAME=Eupatorin-5-methylether CollisionEnergy:205060 M+H
PRECURSOR_MZ=359.113
INCHI="InChI=1S/C19H18O7/c1-22-13-6-5-10(7-11(13)20)14-8-12(21)17-15(26-14)9-16(23-2)18(24-3)19(17)25-4/h5-9,20H,1-4H3"
SMILES=COc1ccc(-c2cc(=O)c3c(OC)c(OC)c(OC)cc3o2)cc1O
SPECTRUMID=CCMSLIB00010116213
52.089432 2848.0 
67.054604 2693.0 
69.033829 3427.0 
71.048988 3544.0 
118.675652 3515.0 
121.028549 3680.0 
122.035843 13631.0 
124.721474 2900.0 
125.023087 5603.0 
133.02832 5481.0 
136.233429 3891.0 
148.051682 27478.0 
149.059555 85798.0 
150.031235 15624.0 
151.038651 99004.0 
153.017914 181195.0 
168.041229 45019.0 
171.028824 25144.0 
174.793198 2862.0 
175.038315 7571.0 
179.033646 4015.0 
181.01265 26302.0 
186.813797 3234.0 
195.028183 27795.0 
197.007004 3272.0 
199.023468 51435.0 
199.076355 3795.0 
203.03389 5177.0 
212.685074 4564.0 
213.054138 11461.0 
216.294815 3008.0 
225.053253 3937.0 
227.069412 102646.0 
227.092957 5757.0 
230.057693 6325.0 
238.217072 5681.0 
241.04892 4295.0 
245.079788 5784.0 
247.244858 3279.0 
251.069687 22595.0 
252.077652 3409.0 
254.056778 39499.0 
255.064529 240005.0 
255.095016 7636.0 
258.052094 17318.0 
267.064301 5923.0 
267.773529 3143.0 
269.04718 4901.0 
269.079834 91000.0 
270.051483 14384.0 
270.088318 15178.0 
271.059998 3969.0 
272.067566 30618.0 
273.07608 30151.0 
281.080719 4348.0 
282.051758 80151.0 
283.059296 300491.0 
284.031311 4682.0 
284.067596 15280.0 
285.040009 4885.0 
285.074341 23146.0 
286.046875 82711.0 
296.068024 25324.0 
297.075073 209800.0 
298.047913 13783.0 
298.082397 222737.0 
299.054962 16428.0 
299.091461 3746.0 
300.022339 5104.0 
300.061981 259482.0 
301.069824 538636.0 
310.046783 57529.0 
311.053528 32211.0 
312.025452 35470.0 
312.062958 28297.0 
313.069672 187061.0 
314.041107 293004.0 
315.085419 367903.0 
316.055695 6777.0 
316.09375 6544.0 
325.069824 243326.0 
326.04007 7240.0 
326.078705 35950.0 
327.048645 92188.0 
327.086548 72950.0 
328.056946 92483.0 
328.096832 5545.0 
329.064697 959355.0 
335.85025 3725.0 
341.064026 52364.0 
343.031708 7541.0 
343.080048 256003.0 
344.088013 126971.0 
359.111572 2667555.0 
END IONS

BEGIN IONS
NAME=Pregnenolone acetate CollisionEnergy:205060 M+H
PRECURSOR_MZ=359.258
INCHI="InChI=1S/C23H34O3/c1-14(24)19-7-8-20-18-6-5-16-13-17(26-15(2)25)9-11-22(16,3)21(18)10-12-23(19,20)4/h5,17-21H,6-13H2,1-4H3/t17?,18?,19?,20?,21?,22?,23-/m1/s1"
SMILES=CC(=O)OC1CCC2(C)C(=CCC3C2CCC2(C)C(C(C)=O)CCC32)C1
SPECTRUMID=CCMSLIB00010125936
55.054539 3378.0 
66.768173 2363.0 
67.054443 15774.0 
69.070236 4554.0 
71.049187 4812.0 
77.605331 2215.0 
79.054283 12907.0 
79.239906 2142.0 
81.070137 70371.0 
84.201508 2236.0 
84.970581 2172.0 
85.064743 15948.0 
91.054077 15318.0 
92.412292 3035.0 
93.06987 22627.0 
94.789543 2752.0 
95.085533 20995.0 
104.326408 3686.0 
105.069946 26019.0 
107.085213 15891.0 
107.635292 3045.0 
109.101173 4726.0 
117.069656 11766.0 
119.085327 11472.0 
120.261223 2549.0 
121.100739 4020.0 
123.11657 3632.0 
129.069366 4267.0 
131.085266 21466.0 
133.101562 20157.0 
135.116898 3924.0 
142.077652 3446.0 
143.085022 11761.0 
145.101639 19289.0 
147.116104 15321.0 
149.132706 4511.0 
151.147369 2831.0 
155.084946 3561.0 
157.101105 21933.0 
159.116852 53587.0 
161.131958 12292.0 
169.10051 5432.0 
171.116989 3590.0 
173.131546 9643.0 
175.147461 5690.0 
183.115753 5227.0 
185.131882 13370.0 
187.146973 4105.0 
189.125687 3006.0 
197.13298 3008.0 
199.146988 16511.0 
211.147064 10152.0 
213.16391 2952.0 
225.162521 9888.0 
233.187744 3642.0 
239.178467 2692.0 
255.209518 16068.0 
281.226105 58289.0 
299.236328 61187.0 
359.253601 16758.0 
END IONS

BEGIN IONS
NAME="{3,4,5-triacetyloxy-6-[5-acetyloxy-3-(4-methoxyphenyl)-4-oxochromen-6-yloxy]-2 H-3,4,5,6-tetrahydropyran-2-yl}methyl acetate CollisionEnergy:102040" M+Na
PRECURSOR_MZ=679.163
INCHI="InChI=1S/C32H32O15/c1-15(33)40-14-25-29(43-17(3)35)30(44-18(4)36)31(45-19(5)37)32(47-25)46-24-12-11-23-26(28(24)42-16(2)34)27(38)22(13-41-23)20-7-9-21(39-6)10-8-20/h7-13,25,29-32H,14H2,1-6H3"
SMILES=COc1ccc(-c2coc3ccc(OC4OC(COC(C)=O)C(OC(C)=O)C(OC(C)=O)C4OC(C)=O)c(OC(C)=O)c3c2=O)cc1
SPECTRUMID=CCMSLIB00010108167
53.792969 5595.0 
57.307739 5288.0 
65.736008 5310.0 
70.140518 6277.0 
81.033791 99896.0 
83.010399 6380.0 
97.028427 61513.0 
105.786201 6860.0 
109.028374 711908.0 
118.411133 11939.0 
118.419182 7916.0 
125.020317 12490.0 
127.038887 227444.0 
139.039093 42504.0 
149.020691 11939.0 
169.034256 10486.0 
169.049423 221540.0 
191.013641 7028.0 
191.031281 123432.0 
209.130997 6828.0 
211.059662 81147.0 
233.017563 9331.0 
233.041702 131108.0 
251.052216 708240.0 
285.075073 83227.0 
293.0625 491253.0 
303.3685 6247.0 
306.050323 26918.0 
307.057037 488327.0 
313.071869 13578.0 
334.045685 11757.0 
337.06781 8635.0 
347.090149 25883.0 
347.380463 7418.0 
349.067566 15096057.0 
350.767578 9460.0 
351.085541 12926.0 
353.083313 1718316.0 
365.102173 8954.0 
367.077576 39268.0 
375.085999 53507.0 
390.093323 68835.0 
393.0961 47412.0 
402.711273 7839.0 
457.089386 11964.0 
475.098816 23333.0 
517.108643 27635.0 
559.115906 6543.0 
577.128906 83745.0 
619.140503 511947.0 
637.151611 940372.0 
650.460022 7975.0 
664.142212 32363.0 
674.594727 12067.0 
679.162537 32386034.0 
683.783508 10053.0 
END IONS

BEGIN IONS
NAME=e-64c CollisionEnergy:102040 M+formate
PRECURSOR_MZ=359.182
INCHI="InChI=1S/C15H26N2O5/c1-8(2)5-6-16-13(18)10(7-9(3)4)17-14(19)11-12(22-11)15(20)21/h8-12H,5-7H2,1-4H3,(H,16,18)(H,17,19)(H,20,21)/t10-,11-,12-/m0/s1"
SMILES=CC(C)CCN=C(O)C(CC(C)C)N=C(O)C1OC1C(=O)O
SPECTRUMID=CCMSLIB00010114102
58.06665 2107.0 
63.35648 2405.0 
66.065987 2263.0 
73.949883 3504.0 
80.759163 2013.0 
95.870323 2497.0 
96.344513 2601.0 
130.994171 2342.0 
239.829071 2491.0 
250.979263 2764.0 
END IONS

BEGIN IONS
NAME="6-amino-3-butyl-4-(4-hydroxy-3-methoxyphenyl)-4H-pyrano[2,3-c]pyrazole-5-carbo nitrile CollisionEnergy:205060" M+H
PRECURSOR_MZ=341.161
INCHI="InChI=1S/C18H20N4O3/c1-3-4-5-12-16-15(10-6-7-13(23)14(8-10)24-2)11(9-19)17(20)25-18(16)22-21-12/h6-8,15,23H,3-5,20H2,1-2H3,(H,21,22)"
SMILES=CCCCc1[nH]nc2c1C(c1ccc(O)c(OC)c1)C(C#N)=C(N)O2
SPECTRUMID=CCMSLIB00010120375
53.002682 5103.0 
55.054508 4838.0 
57.044861 4815.0 
57.07029 69353.0 
67.054413 6951.0 
68.013603 4819.0 
68.049667 4162.0 
70.029007 4815.0 
79.02887 5321.0 
79.054413 32025.0 
80.049347 5455.0 
81.044724 6847.0 
81.070084 50394.0 
82.065247 53190.0 
82.393791 3675.0 
84.080673 13410.0 
85.039452 16111.0 
91.054123 26764.0 
92.049393 5074.0 
93.05751 27724.0 
95.060158 5329.0 
96.080681 73238.0 
97.039543 88497.0 
99.091438 36492.0 
103.053757 14126.0 
104.049049 6088.0 
105.044533 13387.0 
105.069794 25152.0 
106.039726 5583.0 
106.064957 57807.0 
108.08075 37965.0 
109.039513 178461.0 
109.064331 19755.0 
110.03508 12968.0 
110.047249 48046.0 
110.05999 4450.0 
111.055038 149127.0 
115.049881 3557.0 
116.049538 20548.0 
116.061142 7206.0 
117.033279 6236.0 
118.064308 5271.0 
120.055107 16748.0 
121.054657 5170.0 
121.064659 75558.0 
123.043694 67787.0 
123.054779 21608.0 
123.091492 125048.0 
124.051613 57673.0 
124.075439 15336.0 
126.090683 20783.0 
127.535553 3539.0 
128.049454 13760.0 
130.064774 18210.0 
131.048706 21157.0 
131.060043 15316.0 
132.044144 17002.0 
133.051453 21536.0 
133.064362 29257.0 
133.075104 7381.0 
134.035248 6513.0 
134.059784 32952.0 
135.031311 7281.0 
136.050262 23317.0 
136.06192 5062.0 
137.059494 198125.0 
137.069946 8327.0 
139.086411 53594.0 
141.102264 34645.0 
144.044144 82867.0 
144.056686 17274.0 
145.02832 28127.0 
145.052307 5800.0 
145.064163 7186.0 
145.07576 78804.0 
146.059814 37195.0 
147.055099 5994.0 
147.067017 35560.0 
148.07547 24397.0 
149.05896 17885.0 
149.070908 5656.0 
150.054337 47864.0 
150.077911 4414.0 
151.086319 455996.0 
152.070633 24443.0 
153.102249 5345.0 
156.043762 20733.0 
157.960342 3596.0 
158.046661 12470.0 
158.05986 24532.0 
159.031677 4566.0 
159.054886 40291.0 
159.079391 5161.0 
160.076187 6511.0 
161.045975 135833.0 
161.058212 7525.0 
161.070129 23859.0 
162.053955 13003.0 
162.06662 12440.0 
162.079697 10877.0 
164.069031 4527.0 
165.090759 66741.0 
166.097397 25975.0 
170.023071 42885.0 
170.096588 3965.0 
172.038849 4906.0 
172.062195 15009.0 
173.045624 12920.0 
173.053619 4448.0 
173.070648 103140.0 
174.054092 107609.0 
175.061676 45004.0 
175.087616 4855.0 
176.056717 16057.0 
176.070358 40921.0 
176.083466 11287.0 
177.040771 6244.0 
177.054672 51507.0 
178.049438 7173.0 
185.070633 6533.0 
186.041443 77574.0 
186.055923 4724.0 
187.049881 58175.0 
188.032211 3833.0 
188.070312 40235.0 
188.107117 5196.0 
189.04187 6129.0 
189.06514 54029.0 
189.101776 16569.0 
190.047562 6531.0 
190.072861 22843.0 
190.08725 16207.0 
191.081146 27267.0 
192.065201 71695.0 
192.112808 41807.0 
198.090057 6238.0 
199.048706 6906.0 
200.057297 18426.0 
201.042221 14834.0 
201.065414 184387.0 
202.050125 40766.0 
203.045273 26749.0 
203.080643 62589.0 
204.049408 47373.0 
204.065048 137325.0 
204.124985 4213.0 
214.050735 11056.0 
214.08606 5166.0 
214.108521 5364.0 
215.061172 4025.0 
215.078827 31793.0 
215.116791 40297.0 
216.065659 48062.0 
216.10112 25129.0 
217.059784 105944.0 
217.108047 599401.0 
218.067978 106768.0 
218.109131 6770.0 
219.075912 587881.0 
225.077911 14066.0 
226.035873 3373.0 
226.08551 5540.0 
228.101395 28194.0 
229.075256 5264.0 
230.080399 7615.0 
230.11734 12598.0 
231.075989 58354.0 
231.112625 7823.0 
231.150665 6412.0 
232.085144 13318.0 
232.117538 41344.0 
233.091766 92900.0 
233.127716 5842.0 
234.099213 24288.0 
235.084763 4231.0 
239.069962 6665.0 
240.101562 18596.0 
242.115692 19283.0 
243.063065 5949.0 
243.087769 53519.0 
243.112335 167692.0 
244.071259 4324.0 
245.127289 22905.0 
247.143051 21555.0 
257.078003 17795.0 
258.111877 314182.0 
259.107269 78182.0 
259.143311 20567.0 
260.115021 148826.0 
261.121735 13279.0 
267.062897 15276.0 
270.086731 18314.0 
271.130676 16828.0 
275.138275 3969053.0 
276.145966 77521.0 
280.07254 3942.0 
282.085327 5221.0 
286.116882 8295.0 
299.125732 26044.0 
301.14209 4901.0 
309.134735 12984.0 
314.148865 115278.0 
324.134125 16010.0 
341.159882 2428931.0 
END IONS

BEGIN IONS
NAME="4-[5-(benzimidazol-2-ylmethylthio)(1,3,4-oxadiazol-2-yl)]-1,2-dimethoxybenzene CollisionEnergy:205060" M-H
PRECURSOR_MZ=367.087
INCHI="InChI=1S/C18H16N4O3S/c1-23-14-8-7-11(9-15(14)24-2)17-21-22-18(25-17)26-10-16-19-12-5-3-4-6-13(12)20-16/h3-9H,10H2,1-2H3,(H,19,20)"
SMILES=COc1ccc(-c2nnc(SCc3nc4ccccc4[nH]3)o2)cc1OC
SPECTRUMID=CCMSLIB00010116084
57.975262 2497405.0 
86.323486 2560.0 
104.309593 3371.0 
108.021393 3869.0 
118.677422 3338.0 
136.244492 2979.0 
161.035202 14056.0 
175.014847 53554.0 
180.066437 28157.0 
189.029541 40154.0 
190.038071 236778.0 
205.061462 583100.0 
211.383072 4068.0 
236.036255 2870.0 
237.033691 1787867.0 
367.086365 30152.0 
END IONS

BEGIN IONS
NAME="7-methoxy-4-(2-1,2,3,4-tetrahydroisoquinolylmethyl)chromen-2-one CollisionEnergy:102040" M+H
PRECURSOR_MZ=322.144
INCHI="InChI=1S/C20H19NO3/c1-23-17-6-7-18-16(10-20(22)24-19(18)11-17)13-21-9-8-14-4-2-3-5-15(14)12-21/h2-7,10-11H,8-9,12-13H2,1H3"
SMILES=COc1ccc2c(CN3CCc4ccccc4C3)cc(=O)oc2c1
SPECTRUMID=CCMSLIB00010105176
51.860199 2694.0 
72.135132 3177.0 
91.054314 12885.0 
92.384743 5602.0 
103.053703 4924.0 
105.069763 152826.0 
115.053581 11362.0 
117.069687 65516.0 
119.085358 169649.0 
121.064957 2940.0 
129.070099 12773.0 
130.065277 27498.0 
131.049088 6982.0 
131.072708 3268.0 
131.085831 3299.0 
132.080597 662715.0 
133.064499 7198.0 
133.088226 23001.0 
134.0961 40102.0 
135.080627 13751.0 
137.059799 24656.0 
143.085556 3212.0 
144.080704 5739.0 
145.064941 15336.0 
146.096344 30519.0 
147.080292 6670.0 
149.059875 22534.0 
159.043915 7109.0 
160.051849 6544.0 
160.075317 41677.0 
161.043961 5372.0 
161.059372 169627.0 
162.090225 4468.0 
163.075058 58624.0 
164.069916 38099.0 
170.095963 20917.0 
172.07518 22784.0 
173.059631 56336.0 
174.090729 6513.0 
175.075134 88609.0 
176.04657 28514.0 
176.070099 39750.0 
177.054672 36687.0 
189.05452 122488.0 
189.07753 19186.0 
190.085846 131907.0 
191.069946 317132.0 
198.090866 43040.0 
199.099182 5975.0 
201.054398 12957.0 
202.086411 6249.0 
203.069534 19996.0 
204.065994 4007.0 
213.054016 6059.0 
216.065231 53390.0 
218.08075 968804.0 
230.080124 13056.0 
246.102417 5325.0 
276.07132 11766.0 
277.121521 26328.0 
280.132935 19540.0 
293.117645 4089.0 
294.148376 36946.0 
304.131104 17108.0 
305.115936 38480.0 
307.119568 4539.0 
320.65094 5197.0 
322.142883 6609813.0 
END IONS

BEGIN IONS
NAME=2-heptylhexanedioic acid CollisionEnergy:102040 M+H-H2O
PRECURSOR_MZ=227.164
INCHI="InChI=1S/C13H24O4/c1-2-3-4-5-6-8-11(13(16)17)9-7-10-12(14)15/h11H,2-10H2,1H3,(H,14,15)(H,16,17)"
SMILES=CCCCCCCC(CCCC(=O)O)C(=O)O
SPECTRUMID=CCMSLIB00010106860
51.22929 1915.0 
55.054699 29215.0 
57.070461 31066.0 
57.073528 3410.0 
59.049599 3306.0 
60.532398 1975.0 
66.735764 2262.0 
67.054588 15634.0 
69.07029 44069.0 
71.049454 4493.0 
71.085838 20737.0 
72.578209 2720.0 
73.064789 2712.0 
77.152184 2350.0 
79.054199 8729.0 
81.065918 2717.0 
81.070251 54202.0 
82.390892 2939.0 
83.049133 4060.0 
83.085823 82372.0 
85.064903 10322.0 
85.101143 9593.0 
88.424202 2178.0 
90.976723 33872.0 
92.367653 2333.0 
93.069962 20442.0 
95.085548 31706.0 
97.064949 33220.0 
97.101303 64906.0 
99.080231 4594.0 
101.059898 3424.0 
104.278793 2324.0 
107.085564 47459.0 
109.101013 12195.0 
111.080673 25762.0 
111.116447 4689.0 
114.755913 2431.0 
115.075256 8304.0 
115.111504 2801.0 
118.642326 2292.0 
121.101089 39495.0 
123.116386 12617.0 
125.0961 25681.0 
129.090439 3339.0 
134.546021 2563.0 
135.116821 15600.0 
139.11145 14043.0 
139.147903 4955.0 
143.106857 4251.0 
158.963852 4277.0 
163.148071 188659.0 
181.15863 70083.0 
210.22554 4776.0 
END IONS

BEGIN IONS
NAME="3-(2-chlorophenyl)-11-(3-hydroxy-4-methoxyphenyl)-2,3,4-trihydro-5H,10H,11H-be nzo[b]benzo[2,1-f]1,4-diazepin-1-one CollisionEnergy:205060" M+formate
PRECURSOR_MZ=491.138
INCHI="InChI=1S/C26H23ClN2O3/c1-32-24-11-10-15(13-22(24)30)26-25-21(28-19-8-4-5-9-20(19)29-26)12-16(14-23(25)31)17-6-2-3-7-18(17)27/h2-11,13,16,26,28-30H,12,14H2,1H3"
SMILES=COc1ccc(C2Nc3ccccc3NC3=C2C(=O)CC(c2ccccc2Cl)C3)cc1O
SPECTRUMID=CCMSLIB00010117295
50.508072 2195.0 
64.576157 2345.0 
66.761398 3181.0 
73.974457 2639.0 
78.161758 2555.0 
92.404678 3524.0 
92.993477 2482.0 
108.021637 11565.0 
109.02951 9502.0 
131.061264 51404.0 
134.024536 10614.0 
145.041428 3376.0 
207.429718 2572.0 
208.13501 2647.0 
212.825317 2712.0 
249.067703 4213.0 
251.484222 2557.0 
263.081207 2686.0 
271.5737 2444.0 
273.7341 2550.0 
291.075836 3677.0 
298.041931 2939.0 
299.081757 6103.0 
300.090088 41171.0 
375.115967 3203.0 
427.120544 12855.0 
445.131714 253814.0 
END IONS

BEGIN IONS
NAME="pentyl 4-(3-bromo-4-hydroxy-5-methoxyphenyl)-2-methyl-5-oxo-1,4,6,7,8-pentahyd roquinoline-3-carboxylate CollisionEnergy:102040" M+formate
PRECURSOR_MZ=522.113
INCHI="InChI=1S/C23H28BrNO5/c1-4-5-6-10-30-23(28)19-13(2)25-16-8-7-9-17(26)21(16)20(19)14-11-15(24)22(27)18(12-14)29-3/h11-12,20,25,27H,4-10H2,1-3H3"
SMILES=CCCCCOC(=O)C1=C(C)NC2=C(C(=O)CCC2)C1c1cc(Br)c(O)c(OC)c1
SPECTRUMID=CCMSLIB00010107843
78.918449 24109.0 
88.62648 2304.0 
89.383492 2494.0 
112.97834 2521.0 
112.985619 20572.0 
144.661667 2713.0 
185.931946 38618.0 
200.955765 4816.0 
248.959503 2964.0 
249.965179 5284.0 
274.144073 26316.0 
385.939087 3790.0 
437.572723 2651.0 
476.108063 246151.0 
521.993958 2543.0 
524.611023 2695.0 
END IONS

BEGIN IONS
NAME=3(2'-Chlorophenyl)-7-hydroxy-4-phenylcoumarin CollisionEnergy:205060 M-H
PRECURSOR_MZ=347.048
INCHI="InChI=1S/C21H13ClO3/c22-17-9-5-4-8-15(17)20-19(13-6-2-1-3-7-13)16-11-10-14(23)12-18(16)25-21(20)24/h1-12,23H"
SMILES=O=c1oc2cc(O)ccc2c(-c2ccccc2)c1-c1ccccc1Cl
SPECTRUMID=CCMSLIB00010117012
53.684471 24821.0 
54.244999 23665.0 
91.01889 38345.0 
104.849747 26955.0 
114.096512 26836.0 
118.651443 33016.0 
136.214264 30114.0 
150.99588 206752.0 
159.702637 28635.0 
169.491333 24609.0 
184.461487 28506.0 
193.300125 28889.0 
239.087921 196191.0 
241.066055 100461.0 
267.081238 978482.0 
267.111664 52377.0 
269.060944 127474.0 
282.068481 50926.0 
283.076141 156991.0 
285.055725 123299.0 
303.433594 118276.0 
311.07077 760863.0 
345.355225 168973.0 
345.405762 64228.0 
346.042114 39329.0 
347.048096 93949648.0 
348.753113 178150.0 
END IONS

BEGIN IONS
NAME=NAD+ CollisionEnergy:102040 M
PRECURSOR_MZ=664.116
INCHI="InChI=1S/C21H27N7O14P2/c22-17-12-19(25-7-24-17)28(8-26-12)21-16(32)14(30)11(41-21)6-39-44(36,37)42-43(34,35)38-5-10-13(29)15(31)20(40-10)27-3-1-2-9(4-27)18(23)33/h1-4,7-8,10-11,13-16,20-21,29-32H,5-6H2,(H5-,22,23,24,25,33,34,35,36,37)/p+1/t10-,11-,13-,14-,15-,16-,20-,21-/m1/s1"
SMILES=N=C(O)c1ccc[n+]([C@@H]2O[C@H](COP(=O)(O)OP(=O)(O)OC[C@H]3O[C@@H](n4cnc5c(N)ncnc54)[C@H](O)[C@@H]3O)[C@@H](O)[C@H]2O)c1
SPECTRUMID=CCMSLIB00010103356
53.184399 3200.530029 
57.187401 3023.100098 
70.753197 3151.919922 
73.966499 4195.450195 
88.875198 3309.669922 
97.028801 136025.0 
107.825996 4040.939941 
123.055 14161.099609 
123.080002 3450.530029 
134.451004 3473.330078 
136.061996 1519950.0 
178.072006 4666.890137 
208.453995 3493.949951 
218.156998 3623.340088 
232.082993 245554.0 
250.093002 21384.099609 
309.348999 4451.390137 
330.057007 5981.439941 
348.070007 129605.0 
348.11499 6311.060059 
410.026001 5867.47998 
428.036011 668684.0 
444.091003 39179.601562 
524.057007 482116.0 
542.067993 472749.0 
551.304993 4085.459961 
664.116028 526020.0 
END IONS

BEGIN IONS
NAME=cAMP CollisionEnergy:102040 M-H+2Na
PRECURSOR_MZ=374.024
INCHI="InChI=1S/C10H12N5O6P/c11-8-5-9(13-2-12-8)15(3-14-5)10-6(16)7-4(20-10)1-19-22(17,18)21-7/h2-4,6-7,10,16H,1H2,(H,17,18)(H2,11,12,13)/t4-,6-,7-,10-/m1/s1"
SMILES=Nc1ncnc2c1ncn2[C@@H]1O[C@@H]2COP(=O)(O)O[C@H]2[C@H]1O
SPECTRUMID=CCMSLIB00010103242
51.372898 2172.949951 
55.253601 2192.719971 
63.343102 2730.780029 
72.818497 2373.370117 
73.954697 2221.439941 
96.871399 2464.5 
117.053001 2479.639893 
124.936996 32363.900391 
131.714005 2349.22998 
133.539993 2790.610107 
136.229004 3214.76001 
137.582001 3271.01001 
142.947998 22808.800781 
154.578995 2272.97998 
155.692993 2424.27002 
208.957993 3303.889893 
219.852997 2838.280029 
233.908997 2618.290039 
238.968994 24547.099609 
249.783005 2407.850098 
254.063995 13860.200195 
374.02301 565031.0 
END IONS

BEGIN IONS
NAME=3-methylbutyl 2-{3-[4-(tert-butyl)phenoxy]-4-oxochromen-7-yloxy}acetate CollisionEnergy:102040 M+H
PRECURSOR_MZ=439.212
INCHI="InChI=1S/C26H30O6/c1-17(2)12-13-29-24(27)16-30-20-10-11-21-22(14-20)31-15-23(25(21)28)32-19-8-6-18(7-9-19)26(3,4)5/h6-11,14-15,17H,12-13,16H2,1-5H3"
SMILES=CC(C)CCOC(=O)COc1ccc2c(=O)c(Oc3ccc(C(C)(C)C)cc3)coc2c1
SPECTRUMID=CCMSLIB00010105979
57.070351 394403.0 
61.530159 3570.0 
62.576241 3527.0 
71.085709 4492.0 
71.673119 3777.0 
82.39994 4281.0 
94.800346 3899.0 
104.283447 4261.0 
111.358849 4277.0 
139.720703 3857.0 
161.294281 3913.0 
195.028641 20017.0 
225.040268 5321.0 
254.056824 52579.0 
255.064621 114554.0 
265.107117 19039.0 
267.065918 20322.0 
290.457397 4737.0 
313.070007 3880558.0 
314.868164 4591.0 
361.51059 4851.0 
369.132568 133786.0 
383.148346 4678728.0 
424.184631 8670.0 
439.210815 15877012.0 
441.618835 4576.0 
447.787415 4404.0 
END IONS

BEGIN IONS
NAME="2',6-Dihydroxyflavanone CollisionEnergy:205060" M+H
PRECURSOR_MZ=257.081
INCHI="InChI=1S/C15H12O4/c16-9-5-6-14-11(7-9)13(18)8-15(19-14)10-3-1-2-4-12(10)17/h1-7,15-17H,8H2"
SMILES=O=C1CC(c2ccccc2O)Oc2ccc(O)cc21
SPECTRUMID=CCMSLIB00010119877
53.002941 4445.0 
53.03915 7027.0 
54.270771 3020.0 
55.018391 6664.0 
57.767151 3110.0 
58.362099 3338.0 
65.039146 5864.0 
66.731003 2980.0 
68.026154 4879.0 
68.997414 44056.0 
79.054482 4948.0 
80.253639 3976.0 
81.033791 910877.0 
82.382957 3214.0 
83.012947 32108.0 
84.207573 2791.0 
86.838707 3394.0 
91.054314 87569.0 
95.012688 16457.0 
96.020683 426318.0 
101.023453 19731.0 
101.731651 2775.0 
103.054222 141149.0 
104.262779 3891.0 
104.270432 3470.0 
105.044083 3420.0 
107.049156 141710.0 
109.028549 128294.0 
111.007683 198713.0 
115.054413 3847.0 
119.049026 34598.0 
121.028633 14917.0 
127.039017 179706.0 
129.018967 5097.0 
131.049561 7016.0 
131.085144 6344.0 
135.043915 42800.0 
136.189102 3146.0 
136.60672 4754.0 
137.023392 8506545.0 
137.441345 6635.0 
141.069702 29601.0 
145.027481 4050.0 
147.043991 75674.0 
153.069397 6644.0 
155.033218 24151.0 
155.085358 14807.0 
159.08017 18729.0 
159.136597 3028.0 
163.03891 439191.0 
165.069977 38494.0 
169.06424 55852.0 
183.080124 17271.0 
187.075256 35052.0 
197.060165 38696.0 
211.075272 19583.0 
212.200729 5947.0 
214.559799 3456.0 
215.07016 217555.0 
239.069946 613171.0 
251.982773 5108.0 
257.080475 479609.0 
END IONS

BEGIN IONS
NAME="(2E)-3-{3-[(2,3-dimethylphenoxy)methyl]-4-methoxyphenyl}-1-(4-methoxyphenyl)pr op-2-en-1-one CollisionEnergy:102040" M+Na
PRECURSOR_MZ=425.172
INCHI="InChI=1S/C26H26O4/c1-18-6-5-7-25(19(18)2)30-17-22-16-20(9-15-26(22)29-4)8-14-24(27)21-10-12-23(28-3)13-11-21/h5-16H,17H2,1-4H3/b14-8+"
SMILES=COc1ccc(C(=O)C=Cc2ccc(OC)c(COc3cccc(C)c3C)c2)cc1
SPECTRUMID=CCMSLIB00010109223
50.177219 2517.0 
53.451099 3002.0 
73.948532 2855.0 
82.391869 3234.0 
94.927322 2536.0 
143.580154 2856.0 
144.054565 5537.0 
171.041489 6338.0 
185.385101 3547.0 
216.7771 2811.0 
274.097229 3322.0 
275.10498 6794.0 
288.921051 3820.0 
303.098633 26436.0 
304.106049 14659.0 
305.113495 14060.0 
306.085541 27850.0 
336.09613 23176.0 
365.193024 6023.0 
410.148712 5194.0 
417.116241 3650.0 
425.171234 3263616.0 
END IONS

BEGIN IONS
NAME=2-methoxyethyl 1-(4-ethoxyphenyl)-5-hydroxy-2-methylbenzo[g]indole-3-carboxyla te CollisionEnergy:205060 M+Na
PRECURSOR_MZ=442.162
INCHI="InChI=1S/C25H25NO5/c1-4-30-18-11-9-17(10-12-18)26-16(2)23(25(28)31-14-13-29-3)21-15-22(27)19-7-5-6-8-20(19)24(21)26/h5-12,15,27H,4,13-14H2,1-3H3"
SMILES=CCOc1ccc(-n2c(C)c(C(=O)OCCOC)c3cc(O)c4ccccc4c32)cc1
SPECTRUMID=CCMSLIB00010122895
64.617653 2630.0 
66.7379 2634.0 
79.708504 2985.0 
100.352127 2378.0 
121.064629 15734.0 
127.034187 2377.0 
144.356995 2571.0 
152.678894 2690.0 
320.08725 2762.0 
321.09549 19983.0 
442.161255 1046940.0 
450.952484 3009.0 
460.172363 11661.0 
END IONS

BEGIN IONS
NAME=N4-Benzoylcytidine CollisionEnergy:102040 M-H
PRECURSOR_MZ=346.104
INCHI="InChI=1S/C16H17N3O6/c20-8-10-12(21)13(22)15(25-10)19-7-6-11(18-16(19)24)17-14(23)9-4-2-1-3-5-9/h1-7,10,12-13,15,20-22H,8H2,(H,17,18,23,24)"
SMILES=O=C(N=c1ccn(C2OC(CO)C(O)C2O)c(O)n1)c1ccccc1
SPECTRUMID=CCMSLIB00010109760
65.013527 3208.0 
66.034569 78585.0 
67.029877 6144.0 
68.013748 7791.0 
71.013412 12391.0 
81.045563 15740.0 
82.02964 7661.0 
82.410011 4722.0 
85.029243 4194.0 
91.029968 7974.0 
94.029747 28528.0 
96.008781 3034.0 
96.045532 15749.0 
104.299957 4888.0 
107.025108 94208.0 
108.033127 36851.0 
108.045464 69567.0 
109.032967 5783.0 
109.040833 103253.0 
110.024887 20914.0 
119.024811 4292.0 
120.045609 106937.0 
120.054283 4153.0 
121.029663 275681.0 
122.025009 27486.0 
124.040993 3189.0 
134.025009 6160.0 
134.078735 3312.0 
135.020233 416027.0 
136.226883 3819.0 
142.06665 5038.0 
144.045685 47093.0 
145.040741 35208.0 
148.040604 5896.0 
152.036209 3515.0 
158.061554 3880.0 
163.050919 3345.0 
164.034958 6130.0 
169.077026 35723.0 
171.056564 114111.0 
173.071991 21498.0 
181.076401 12147.0 
183.056686 16478.0 
185.07225 250586.0 
186.056015 33767.0 
195.056549 13942.0 
197.072998 5220.0 
198.067474 21231.0 
199.08786 4332.0 
201.06694 46611.0 
210.743576 3318.0 
212.083298 7843.0 
213.067245 1130190.0 
214.0625 608595.0 
225.06749 18982.0 
226.062134 4792.0 
228.079208 4039.0 
229.062302 34438.0 
242.094788 3800.0 
243.077927 19705.0 
254.094482 3215.0 
255.079025 6283.0 
256.073151 313552.0 
284.106293 3822.0 
286.084351 5613.0 
293.578796 3188.0 
303.098877 1985000.0 
328.095886 4636.0 
338.374054 3387.0 
346.104858 4889090.0 
END IONS

BEGIN IONS
NAME="2-(6-amino-4-hydroxypyrimidin-2-ylthio)-N,N-dimethylacetamide CollisionEnergy:205060" M+Na
PRECURSOR_MZ=251.057
INCHI="InChI=1S/C8H12N4O2S/c1-12(2)7(14)4-15-8-10-5(9)3-6(13)11-8/h3H,4H2,1-2H3,(H3,9,10,11,13)"
SMILES=CN(C)C(=O)CSc1nc(N)cc(O)n1
SPECTRUMID=CCMSLIB00010121379
72.12941 2348.0 
84.959671 5411.0 
85.102623 2763.0 
92.384331 3287.0 
98.98394 20952.0 
113.853897 2403.0 
180.374542 2425.0 
202.217194 2383.0 
205.99913 478496.0 
251.056763 496741.0 
END IONS

BEGIN IONS
NAME="(3,5-dimethoxyphenyl)-N-[2-(2-chlorophenyl)benzoxazol-5-yl]carboxamide CollisionEnergy:102040" M-H
PRECURSOR_MZ=407.08
INCHI="InChI=1S/C22H17ClN2O4/c1-27-15-9-13(10-16(12-15)28-2)21(26)24-14-7-8-20-19(11-14)25-22(29-20)17-5-3-4-6-18(17)23/h3-12H,1-2H3,(H,24,26)"
SMILES=COc1cc(OC)cc(C(O)=Nc2ccc3oc(-c4ccccc4Cl)nc3c2)c1
SPECTRUMID=CCMSLIB00010107478
67.018517 26117.0 
68.997833 4117.0 
84.597847 2884.0 
92.383568 3605.0 
95.013718 320876.0 
96.992943 28013.0 
110.000717 16642.0 
111.009102 10748.0 
121.078751 3522.0 
123.008636 41248.0 
125.024246 4097.0 
126.153816 2989.0 
137.060944 13794.0 
138.032089 72848.0 
139.003418 5734.0 
192.989975 4708.0 
208.983994 3649.0 
220.98468 2611.0 
242.985718 5653.0 
243.033844 13188.0 
254.986954 4793.0 
269.012146 51724.0 
270.981689 6132.0 
342.979767 77560.0 
350.350677 3293.0 
366.980957 22139.0 
386.975739 30322.0 
391.049438 38811.0 
392.057251 145273.0 
407.08078 2621763.0 
END IONS

BEGIN IONS
NAME="(6-bromoquinazolin-4-yl)(6-ethyl-2-methylphenyl)amine, chloride CollisionEnergy:205060" M+Cl
PRECURSOR_MZ=376.022
INCHI="InChI=1S/C17H16BrN3/c1-3-12-6-4-5-11(2)16(12)21-17-14-9-13(18)7-8-15(14)19-10-20-17/h4-10H,3H2,1-2H3,(H,19,20,21)"
SMILES=CCc1cccc(C)c1Nc1ncnc2ccc(Br)cc12
SPECTRUMID=CCMSLIB00010115268
55.967949 2322.0 
58.283859 2265.0 
63.923721 2320.0 
65.258331 2829.0 
78.913391 5850.0 
78.918617 148373.0 
83.222656 2194.0 
87.40493 2494.0 
104.295776 2713.0 
104.303963 2602.0 
107.716789 2322.0 
118.667999 2929.0 
181.897781 2968.0 
183.914001 4033.0 
195.781708 2686.0 
209.68634 4685.0 
313.035706 13985.0 
340.045593 139181.0 
END IONS

BEGIN IONS
NAME=1946-82-3 CollisionEnergy:102040 M-H
PRECURSOR_MZ=187.109
INCHI="InChI=1S/C8H16N2O3/c1-6(11)10-7(8(12)13)4-2-3-5-9/h7H,2-5,9H2,1H3,(H,10,11)(H,12,13)/t7-/m0/s1"
SMILES=CC(O)=N[C@@H](CCCCN)C(=O)O
SPECTRUMID=CCMSLIB00010102548
58.029301 2096720.0 
60.099701 190172.0 
66.777702 175488.0 
79.084198 164250.0 
92.407402 170327.0 
97.077103 328819.0 
126.092003 744231.0 
143.119003 7656740.0 
145.098007 66564600.0 
187.108994 15789900.0 
END IONS

BEGIN IONS
NAME="(2E)-3-(2,4-dichlorophenyl)-1-naphthylprop-2-en-1-one CollisionEnergy:205060" M+H
PRECURSOR_MZ=327.034
INCHI=InChI=1S/C19H12Cl2O/c20-15-10-8-14(18(21)12-15)9-11-19(22)17-7-3-5-13-4-1-2-6-16(13)17/h1-12H/b11-9+
SMILES=O=C(C=Cc1ccc(Cl)cc1Cl)c1cccc2ccccc12
SPECTRUMID=CCMSLIB00010120560
53.00275 6341.0 
54.937778 3220.0 
57.007252 2827.0 
57.838428 2877.0 
66.739906 2979.0 
71.791008 2928.0 
75.02314 49530.0 
82.396027 3598.0 
92.376007 4496.0 
98.984131 38226.0 
99.02317 12820.0 
103.053978 42675.0 
110.99939 11287.0 
117.847717 3038.0 
123.874207 3132.0 
125.015167 13770.0 
134.999847 12914.0 
136.00737 1219120.0 
141.069351 3601.0 
145.064438 16239.0 
152.007034 3137.0 
152.062241 7340.0 
153.009445 3548.0 
153.069565 92753.0 
155.048904 61595.0 
155.06076 18885.0 
158.976105 15557.0 
163.005585 64184.0 
170.976074 3601712.0 
174.971588 13501.0 
174.992004 7060.0 
181.064499 112927.0 
185.299057 3108.0 
188.986374 22499.0 
198.970978 3032458.0 
212.002563 149608.0 
215.084564 5740.0 
228.092484 21968.0 
229.101349 28732.0 
231.033813 6270.0 
239.084442 49001.0 
249.046448 5425.0 
254.172119 3023.0 
257.095581 12098.0 
264.070679 3748.0 
273.045898 12676.0 
274.680054 3068.0 
291.056091 28291.0 
292.063812 20578.0 
292.097565 3541.0 
295.570648 3934.0 
299.03891 14110.0 
308.980743 3263.0 
308.987701 2805.0 
309.022339 144494.0 
327.033081 1951658.0 
327.378418 3741.0 
END IONS

BEGIN IONS
NAME="Indolo[2,1-b]quinazoline-6,12-dione CollisionEnergy:102040" M+H
PRECURSOR_MZ=249.066
INCHI=InChI=1S/C15H8N2O2/c18-13-10-6-2-4-8-12(10)17-14(13)16-11-7-3-1-5-9(11)15(17)19/h1-8H
SMILES=O=C1c2ccccc2-n2c1nc1ccccc1c2=O
SPECTRUMID=CCMSLIB00010107771
55.979752 7359.0 
68.215088 7826.0 
72.515747 7258.0 
73.953217 7858.0 
102.034897 16497.0 
118.656174 8628.0 
121.028488 69740.0 
130.028732 313865.0 
130.039139 13067.0 
146.023438 90058.0 
206.06131 13290.0 
211.372131 9245.0 
221.070862 326823.0 
248.05603 48533.0 
249.065506 37086552.0 
250.085205 9781.0 
END IONS

BEGIN IONS
NAME=3-Nitro-L-tyrosine CollisionEnergy:102040 2M-H
PRECURSOR_MZ=451.111
INCHI="InChI=1S/C9H10N2O5/c10-6(9(13)14)3-5-1-2-8(12)7(4-5)11(15)16/h1-2,4,6,12H,3,10H2,(H,13,14)/t6-/m0/s1"
SMILES=N[C@@H](Cc1ccc(O)c([N+](=O)[O-])c1)C(=O)O
SPECTRUMID=CCMSLIB00010126420
54.771 5408.580078 
104.316002 7826.52002 
107.500999 6168.310059 
158.018997 7656.259766 
163.052002 41092.300781 
181.061996 7319.609863 
208.772003 11361.0 
208.792999 29709.300781 
223.020996 6530.180176 
225.052002 145970.0 
251.585999 7081.839844 
379.11499 7023.290039 
385.524994 5772.930176 
END IONS

BEGIN IONS
NAME="N-phenyl[(9,11,13-trimethyl-8,15-dioxatetracyclo[10.2.2.0<2,7>.0<9,14>]hexadec a-2(7),3,5-trien-12-yl)methoxy]carboxamide CollisionEnergy:102040" M+H
PRECURSOR_MZ=408.217
INCHI="InChI=1S/C25H29NO4/c1-16-13-24(3)21-17(2)25(16,15-29-23(27)26-18-9-5-4-6-10-18)14-28-22(21)19-11-7-8-12-20(19)30-24/h4-12,16-17,21-22H,13-15H2,1-3H3,(H,26,27)"
SMILES=CC1CC2(C)Oc3ccccc3C3OCC1(COC(O)=Nc1ccccc1)C(C)C32
SPECTRUMID=CCMSLIB00010111552
53.560219 3123.0 
57.07032 4446.0 
67.054688 6973.0 
69.070267 16044.0 
79.054451 12222.0 
81.070023 26116.0 
83.049179 16165.0 
83.085838 17849.0 
91.054237 15168.0 
92.365593 3069.0 
93.069862 24278.0 
94.065231 5239.0 
95.085564 77006.0 
97.064651 31610.0 
97.101021 7391.0 
101.059662 13693.0 
105.070023 25942.0 
107.049057 747210.0 
107.085381 112282.0 
107.093063 5972.0 
109.064751 6905.0 
109.101089 91523.0 
111.080032 5314.0 
111.116997 3739.0 
113.095741 7178.0 
115.075211 3568.0 
119.049263 21162.0 
119.08548 31845.0 
120.044197 28240.0 
121.064682 61464.0 
121.10099 72160.0 
123.080406 37570.0 
123.116661 100060.0 
125.095787 28251.0 
125.132233 4893.0 
131.049103 128644.0 
131.086075 5123.0 
133.064697 114279.0 
133.101517 29123.0 
135.043381 4828.0 
135.080261 16883.0 
135.116699 128097.0 
137.096146 21572.0 
137.121002 5060.0 
137.132416 114833.0 
137.144211 5442.0 
138.054825 86001.0 
139.111298 19868.0 
145.064728 141788.0 
145.101028 7028.0 
147.042923 4418.0 
147.080368 82022.0 
147.116638 93704.0 
147.129486 4116.0 
149.132477 24659.0 
151.111313 20460.0 
153.127182 17770.0 
157.064667 5616.0 
158.09668 4193.0 
159.08017 91357.0 
159.116776 36924.0 
161.095779 27041.0 
163.075073 5893.0 
163.112411 3750.0 
164.120178 3895.0 
165.127396 107657.0 
171.07991 20389.0 
173.095978 73388.0 
177.127502 24391.0 
180.063736 5519.0 
183.079849 17314.0 
183.137268 13252.0 
185.096909 23721.0 
186.415619 3736.0 
187.075287 4378.0 
187.11087 27916.0 
189.090302 3926.0 
197.096176 44899.0 
198.105927 3807.0 
199.111618 76831.0 
201.091293 5199.0 
201.12648 13199.0 
203.105865 4935.0 
211.111496 78915.0 
212.086899 3562.0 
213.127167 203011.0 
215.106827 13341.0 
215.142792 106550.0 
220.096985 27194.0 
224.120743 3290.0 
225.12735 7065.0 
227.142502 32718.0 
229.121887 125510.0 
229.157867 17935.0 
238.133575 3621.0 
241.158188 42298.0 
243.174026 147779.0 
253.158218 574369.0 
271.168793 469655.0 
289.179291 277657.0 
289.216431 7359.0 
302.174988 32727.0 
390.205536 98540.0 
408.216095 659741.0 
END IONS

BEGIN IONS
NAME=SYRINGALDEHYDE CollisionEnergy:205060 M+H
PRECURSOR_MZ=183.065
INCHI="InChI=1S/C9H10O4/c1-12-7-3-6(5-10)4-8(13-2)9(7)11/h3-5,11H,1-2H3"
SMILES=COc1cc(C=O)cc(OC)c1O
SPECTRUMID=CCMSLIB00010121266
50.015751 4401.0 
51.023418 20251.0 
53.00285 2834.0 
53.039101 181289.0 
53.45731 2516.0 
55.018341 34746.0 
55.934849 23712.0 
56.94273 139646.0 
65.039017 59411.0 
67.054672 158363.0 
68.997566 4619.0 
71.929489 2698.0 
72.937508 464989.0 
73.959778 3557.0 
74.952972 10104.0 
77.03878 6892.0 
81.033813 42373.0 
84.959671 3418.0 
88.93222 36081.0 
88.938042 3471.0 
89.939758 19107.0 
90.947899 226508.0 
92.383751 3254.0 
95.049278 1857258.0 
99.948036 26327.0 
104.294083 3617.0 
105.044891 42273.0 
106.942596 37931.0 
107.950462 27933.0 
108.958252 27790.0 
110.035721 4002.0 
111.043533 2998.0 
112.955887 5561.0 
113.963707 556882.0 
117.958328 6499.0 
118.942627 12418.0 
118.967194 6575.0 
121.039627 4473.0 
123.044037 1752587.0 
124.953087 20412.0 
125.023338 56611.0 
125.961403 27087.0 
129.958557 3177.0 
130.966293 42584.0 
131.974243 221078.0 
132.94519 3630.0 
136.953156 5735.0 
140.046768 662822.0 
141.05426 6329.0 
141.958618 187191.0 
148.976868 73338.0 
150.92569 2875.0 
150.956131 13411.0 
154.990051 37530.0 
155.07019 535609.0 
157.981644 3962.0 
159.969009 209398.0 
171.993057 5083.0 
181.959183 2975.0 
182.985275 41310.0 
183.065094 176581.0 
END IONS

BEGIN IONS
NAME="3,5-Diiodo-L-thyronine CollisionEnergy:205060" M+Cl
PRECURSOR_MZ=559.863
INCHI="InChI=1S/C15H13I2NO4/c16-11-5-8(7-13(18)15(20)21)6-12(17)14(11)22-10-3-1-9(19)2-4-10/h1-6,13,19H,7,18H2,(H,20,21)/t13-/m0/s1"
SMILES=NC(Cc1cc(I)c(Oc2ccc(O)cc2)c(I)c1)C(=O)O
SPECTRUMID=CCMSLIB00010119855
52.913471 3124.0 
54.291698 3075.0 
57.553139 3665.0 
59.54697 3590.0 
66.171204 2877.0 
72.008888 32780.0 
73.936111 3880.0 
76.647713 2974.0 
81.853363 3127.0 
82.052567 2990.0 
85.104736 2919.0 
126.905067 767355.0 
152.502274 3268.0 
206.283615 3069.0 
207.368912 15356.0 
303.446564 4715.0 
412.234009 3515.0 
506.860382 55867.0 
523.886475 230950.0 
527.08374 3642.0 
END IONS

BEGIN IONS
NAME="4,2',5'-TRIHYDROXYCHALCONE CollisionEnergy:102040" M-H
PRECURSOR_MZ=255.066
INCHI="InChI=1S/C15H12O4/c16-11-4-1-10(2-5-11)3-7-14(18)13-9-12(17)6-8-15(13)19/h1-9,16-17,19H/b7-3+"
SMILES=O=C(C=Cc1ccc(O)cc1)c1cc(O)ccc1O
SPECTRUMID=CCMSLIB00010106397
62.06757 2795.0 
66.758942 3067.0 
68.998047 2993.0 
69.034348 39568.0 
79.018753 35951.0 
92.995949 2654.0 
93.03479 3779.0 
95.013878 33079.0 
97.029381 24639.0 
107.013969 99724.0 
119.050323 906723.0 
123.00872 49143.0 
124.983582 2939.0 
125.024544 111095.0 
130.416656 2733.0 
135.008881 644886.0 
139.251465 2521.0 
151.004486 3601.0 
154.537018 2569.0 
161.024292 3170.0 
165.13768 2578.0 
175.902985 2837.0 
211.077194 6235.0 
213.05484 2924.0 
218.944672 3434.0 
244.151245 2538.0 
254.98671 66352.0 
255.066589 2068518.0 
END IONS

BEGIN IONS
NAME=Tomatidine CollisionEnergy:205060 M+H
PRECURSOR_MZ=416.352
INCHI="InChI=1S/C27H45NO2/c1-16-7-12-27(28-15-16)17(2)24-23(30-27)14-22-20-6-5-18-13-19(29)8-10-25(18,3)21(20)9-11-26(22,24)4/h16-24,28-29H,5-15H2,1-4H3/t16-,17-,18-,19-,20+,21-,22-,23-,24-,25-,26-,27-/m0/s1"
SMILES=CC1CCC2(NC1)OC1CC3C4CCC5CC(O)CCC5(C)C4CCC3(C)C1C2C
SPECTRUMID=CCMSLIB00010116398
55.054722 79973.0 
56.049961 8671.0 
57.034019 47853.0 
57.07048 8265.0 
58.06562 120790.0 
59.74073 4867.0 
61.23716 5304.0 
63.587891 4204.0 
65.03894 25262.0 
67.054604 397616.0 
68.049843 21351.0 
69.033829 23053.0 
69.070259 237826.0 
70.065483 1951880.0 
71.08577 10751.0 
72.080978 19808.0 
77.03891 7905.0 
79.054466 494790.0 
80.049713 26397.0 
81.070107 712448.0 
82.065483 35198.0 
83.049309 28195.0 
83.085716 86063.0 
84.080772 38796.0 
85.064888 10151.0 
86.096527 76773.0 
91.054329 430808.0 
92.372467 7878.0 
93.069977 670730.0 
93.452591 5122.0 
94.065193 39114.0 
95.049149 69450.0 
95.073021 40136.0 
95.085602 669184.0 
96.080879 177046.0 
97.064713 64069.0 
97.101288 23866.0 
98.096451 106151.0 
99.080421 29845.0 
103.054352 5859.0 
105.069847 1284670.0 
107.085449 1037311.0 
108.080383 17541.0 
109.064491 34667.0 
109.087959 24526.0 
109.10112 453566.0 
110.096527 11706.0 
111.079712 5985.0 
111.117149 5246.0 
114.09127 369992.0 
117.069778 169755.0 
119.085487 813331.0 
121.101067 513138.0 
122.095833 26207.0 
123.080109 55003.0 
123.116638 146354.0 
124.112007 855350.0 
125.096077 23969.0 
125.120171 8357.0 
126.127647 1003322.0 
127.111702 26968.0 
128.060837 5457.0 
129.069717 20706.0 
131.085419 347980.0 
133.101089 670768.0 
135.11673 519758.0 
136.112091 6289.0 
137.095963 23907.0 
137.132141 20907.0 
138.12793 19254.0 
143.085617 59112.0 
144.093369 22174.0 
144.137741 7940.0 
145.101089 777724.0 
147.116745 1582122.0 
148.111954 23408.0 
149.118881 12026.0 
149.132355 329490.0 
150.128235 58417.0 
151.111649 122749.0 
152.14296 25558.0 
153.127808 6992.0 
157.101151 86543.0 
158.108322 5273.0 
159.11676 1169878.0 
161.132339 7579323.0 
162.128143 23433.0 
163.111481 219884.0 
163.147171 42946.0 
163.484375 5013.0 
164.143341 130006.0 
165.126663 39618.0 
165.151291 6338.0 
166.158615 21063.0 
168.137451 6036.0 
171.116684 125074.0 
173.132355 653711.0 
175.14801 100832.0 
176.142181 7194.0 
177.127823 34629.0 
178.158752 25571.0 
179.142776 7557.0 
185.132477 225699.0 
186.139862 27880.0 
187.147873 201235.0 
189.162979 44472.0 
191.143265 19482.0 
197.130417 8199.0 
199.147888 360950.0 
200.156418 8879.0 
201.163467 62141.0 
213.163589 233254.0 
215.17926 163950.0 
226.170929 25136.0 
227.179352 105996.0 
240.187653 21929.0 
253.19165 8602.0 
255.210251 1700678.0 
273.220703 700533.0 
303.415863 9846.0 
356.29422 8711.0 
396.327148 8878.0 
398.340942 2195102.0 
416.351471 14318196.0 
END IONS

BEGIN IONS
NAME="3,4-DIHYDROXYBENZOIC ACID CollisionEnergy:102040" M+H
PRECURSOR_MZ=155.034
INCHI="InChI=1S/C7H6O4/c8-5-2-1-4(7(10)11)3-6(5)9/h1-3,8-9H,(H,10,11)"
SMILES=O=C(O)c1ccc(O)c(O)c1
SPECTRUMID=CCMSLIB00010113864
51.940731 18427.0 
52.1026 2968.0 
55.98851 3502.0 
64.265297 3443.0 
65.039253 314006.0 
67.935623 6471.0 
72.937721 4634.0 
81.034126 14577.0 
83.049477 4688.0 
83.930328 14746.0 
85.945953 4028.0 
89.765503 3501.0 
93.033974 628052.0 
102.948753 4932.0 
104.26442 4043.0 
109.028763 88432.0 
111.044373 2108561.0 
113.941841 3445.0 
113.964058 6605.0 
117.935402 8484.0 
118.943466 17237.0 
119.951347 8003.0 
131.950851 15816.0 
136.185715 4854.0 
137.023285 340177.0 
137.66803 3732.0 
140.950989 13332.0 
146.974762 3345.0 
149.961197 25008.0 
155.033737 411842.0 
155.153442 3948.0 
END IONS

BEGIN IONS
NAME=Citreoviridin CollisionEnergy:102040 M+Na
PRECURSOR_MZ=425.193
INCHI="InChI=1S/C23H30O6/c1-15(14-22(4)21(25)23(5,26)17(3)29-22)11-9-7-8-10-12-18-16(2)19(27-6)13-20(24)28-18/h7-14,17,21,25-26H,1-6H3/b8-7+,11-9+,12-10+,15-14+"
SMILES=COc1cc(=O)oc(C=CC=CC=CC(C)=CC2(C)OC(C)C(C)(O)C2O)c1C
SPECTRUMID=CCMSLIB00010111600
55.12846 6994.0 
73.957123 9513.0 
82.404411 8533.0 
111.041618 10536.0 
128.076492 9018.0 
136.221802 8803.0 
138.047592 7747.0 
155.165558 7942.0 
176.044174 13870.0 
202.060577 15215.0 
209.094193 28997.0 
228.07547 73217.0 
231.062943 44262.0 
265.083649 116283.0 
279.099365 66690.0 
281.115784 31405.0 
319.129822 169881.0 
333.129944 146551.0 
337.14035 1075933.0 
363.160645 9058.0 
409.162994 11039.0 
422.932281 38002.0 
425.192535 41425652.0 
427.470978 33509.0 
END IONS

BEGIN IONS
NAME=2-Fluoro-dl-phenylalanine CollisionEnergy:102040 M+H
PRECURSOR_MZ=184.077
INCHI="InChI=1S/C9H10FNO2/c10-7-4-2-1-3-6(7)5-8(11)9(12)13/h1-4,8H,5,11H2,(H,12,13)"
SMILES=NC(Cc1ccccc1F)C(=O)O
SPECTRUMID=CCMSLIB00010113373
72.9375 21857.0 
73.937714 5494.0 
82.390862 3691.0 
90.948051 4133.0 
91.054138 69355.0 
101.457764 3973.0 
109.045113 18756.0 
113.9636 13891.0 
114.966118 7138.0 
117.057091 5659.0 
118.065033 552682.0 
121.044327 33741.0 
125.039688 179976.0 
137.647751 5460.0 
138.071289 17779260.0 
138.496307 4321.0 
141.958267 6500.0 
142.960144 14929.0 
149.039917 33112.0 
156.974609 7648.0 
160.97081 6022.0 
166.067322 3677.0 
167.050156 92141.0 
184.076614 1446597.0 
END IONS

BEGIN IONS
NAME=3-[(4-ethylphenyl)indol-3-ylmethyl]indole CollisionEnergy:205060 M+formate
PRECURSOR_MZ=395.177
INCHI="InChI=1S/C25H22N2/c1-2-17-11-13-18(14-12-17)25(21-15-26-23-9-5-3-7-19(21)23)22-16-27-24-10-6-4-8-20(22)24/h3-16,25-27H,2H2,1H3"
SMILES=CCc1ccc(C(c2c[nH]c3ccccc23)c2c[nH]c3ccccc23)cc1
SPECTRUMID=CCMSLIB00010123252
50.937408 2266.0 
52.59354 2354.0 
54.198029 2377.0 
62.360241 2356.0 
66.502403 2110.0 
72.292381 2179.0 
82.412132 3497.0 
88.491623 2202.0 
92.395309 3221.0 
102.948334 4077.0 
116.050537 4355.0 
130.992508 3788.0 
133.015991 3453.0 
136.235046 2584.0 
146.938492 4926.0 
180.98822 3357.0 
190.928268 11809.0 
223.591141 2611.0 
272.017639 2536.0 
328.98114 3217.0 
330.979431 17433.0 
349.164642 3583.0 
349.241608 2671.0 
394.977966 15867.0 
395.139557 31310.0 
END IONS

BEGIN IONS
NAME="7-hydroxy-3-(4-hydroxyphenyl)-8-[3,4,5-trihydroxy-6-(hydroxymethyl)(2H-3,4,5,6 -tetrahydropyran-2-yl)]chromen-4-one CollisionEnergy:205060" 2M-H
PRECURSOR_MZ=831.214
INCHI="InChI=1S/C21H20O9/c22-7-14-17(26)18(27)19(28)21(30-14)15-13(24)6-5-11-16(25)12(8-29-20(11)15)9-1-3-10(23)4-2-9/h1-6,8,14,17-19,21-24,26-28H,7H2"
SMILES=O=c1c(-c2ccc(O)cc2)coc2c(C3OC(CO)C(O)C(O)C3O)c(O)ccc12
SPECTRUMID=CCMSLIB00010121812
73.96785 3615.0 
80.218773 3373.0 
92.39286 4184.0 
118.67778 3333.0 
136.235565 3563.0 
267.065948 154737.0 
274.931274 4131.0 
277.050049 6120.0 
295.061401 27704.0 
307.061615 4313.0 
415.103271 136171.0 
END IONS

BEGIN IONS
NAME=(2E)-1-(4-ethoxyphenyl)-3-(2-fluorophenyl)prop-2-en-1-one CollisionEnergy:102040 M+Na
PRECURSOR_MZ=293.095
INCHI="InChI=1S/C17H15FO2/c1-2-20-15-10-7-14(8-11-15)17(19)12-9-13-5-3-4-6-16(13)18/h3-12H,2H2,1H3/b12-9+"
SMILES=CCOc1ccc(C(=O)C=Cc2ccccc2F)cc1
SPECTRUMID=CCMSLIB00010104275
55.731258 2182.0 
58.91423 2207.0 
73.679626 2024.0 
83.482758 1863.0 
84.959747 16954.0 
87.487427 2235.0 
112.244507 2403.0 
129.763123 2244.0 
136.281296 2535.0 
157.955475 2473.0 
165.010345 26283.0 
220.617477 2764.0 
229.027725 3167.0 
251.10376 3621.0 
256.061432 2861.0 
258.564911 9941.0 
267.56955 4128.0 
293.064392 8678.0 
293.093567 66856.0 
293.134552 5826.0 
293.172363 12390.0 
293.207764 41354.0 
END IONS

BEGIN IONS
NAME=2-(6-amino-4-hydroxypyrimidin-2-ylthio)-N-methyl-N-phenylacetamide CollisionEnergy:102040 M+H
PRECURSOR_MZ=291.091
INCHI="InChI=1S/C13H14N4O2S/c1-17(9-5-3-2-4-6-9)12(19)8-20-13-15-10(14)7-11(18)16-13/h2-7H,8H2,1H3,(H3,14,15,16,18)"
SMILES=CN(C(=O)CSc1nc(N)cc(O)n1)c1ccccc1
SPECTRUMID=CCMSLIB00010107246
51.564751 2900.0 
51.586288 2613.0 
54.60416 3619.0 
56.845959 3602.0 
68.010117 4136.0 
68.013657 11009.0 
82.391243 3445.0 
91.053787 2989.0 
92.369743 4031.0 
93.057243 6491.0 
97.039581 167705.0 
104.278511 4966.0 
108.080612 199348.0 
113.792412 3732.0 
117.011551 106726.0 
118.646317 4769.0 
120.080788 13316.0 
121.655762 3571.0 
126.99585 288415.0 
130.043533 3866.0 
138.99559 52433.0 
144.022629 60129.0 
148.075134 5688.0 
156.022354 1745965.0 
184.017273 10337744.0 
291.090027 193257.0 
END IONS

BEGIN IONS
NAME=formononetin CollisionEnergy:102040 M+Na
PRECURSOR_MZ=291.063
INCHI="InChI=1S/C16H12O4/c1-19-12-5-2-10(3-6-12)14-9-20-15-8-11(17)4-7-13(15)16(14)18/h2-9,17H,1H3"
SMILES=COc1ccc(-c2coc3cc(O)ccc3c2=O)cc1
SPECTRUMID=CCMSLIB00010104955
62.951481 2265.0 
71.425308 2726.0 
71.481743 2336.0 
73.743599 2272.0 
104.285881 3781.0 
215.191055 2775.0 
291.062378 1707111.0 
309.072693 13461.0 
END IONS

BEGIN IONS
NAME="N-{4-[N-benzylcarbamoyl]phenyl}(3,4,5-trimethoxyphenyl)carboxamide CollisionEnergy:102040" M-H
PRECURSOR_MZ=419.161
INCHI="InChI=1S/C24H24N2O5/c1-29-20-13-18(14-21(30-2)22(20)31-3)24(28)26-19-11-9-17(10-12-19)23(27)25-15-16-7-5-4-6-8-16/h4-14H,15H2,1-3H3,(H,25,27)(H,26,28)"
SMILES=COc1cc(C(=O)Nc2ccc(C(=O)NCc3ccccc3)cc2)cc(OC)c1OC
SPECTRUMID=CCMSLIB00010108400
66.122391 2419.0 
75.096603 2722.0 
109.029846 3428.0 
120.581146 2504.0 
127.535828 2628.0 
135.032761 14308.0 
137.023895 20515.0 
147.161942 2497.0 
168.752808 2868.0 
236.979874 5908.0 
251.082703 59464.0 
305.408478 2797.0 
314.987152 3884.0 
334.094849 10341.0 
345.086853 5766.0 
361.119812 5553.0 
370.095001 3619.0 
371.103821 14294.0 
374.091522 46428.0 
375.134094 12652.0 
385.120575 10466.0 
388.106995 28960.0 
389.114319 405079.0 
403.129242 43772.0 
404.138275 64111.0 
419.161346 1423574.0 
END IONS

BEGIN IONS
NAME="methyl 2-{2-[(2,4-dimethoxyphenyl)(phenylsulfonyl)amino]acetylamino}acetate CollisionEnergy:102040" M+Na
PRECURSOR_MZ=445.104
INCHI="InChI=1S/C19H22N2O7S/c1-26-14-9-10-16(17(11-14)27-2)21(13-18(22)20-12-19(23)28-3)29(24,25)15-7-5-4-6-8-15/h4-11H,12-13H2,1-3H3,(H,20,22)"
SMILES=COC(=O)CN=C(O)CN(c1ccc(OC)cc1OC)S(=O)(=O)c1ccccc1
SPECTRUMID=CCMSLIB00010108418
50.711632 3336.0 
50.749439 2866.0 
56.289459 2964.0 
67.060913 2902.0 
70.766869 3202.0 
73.953987 3195.0 
82.406929 3163.0 
90.849457 3567.0 
92.379646 4515.0 
94.646828 2986.0 
96.018219 5972.0 
104.314827 3296.0 
125.661873 2820.0 
138.016037 164696.0 
144.034286 3540.0 
151.062744 13409.0 
166.086166 51037.0 
170.057175 6982.0 
171.065506 4755.0 
172.049194 13811.0 
174.052444 50010.0 
188.067917 918765.0 
199.046951 6918.0 
229.093338 6823.0 
236.059631 3480.0 
273.084961 31668.0 
276.108704 3715.0 
289.078674 202885.0 
303.094482 487019.0 
304.102325 1506436.0 
445.10318 3119286.0 
END IONS

BEGIN IONS
NAME=7-Hydroxy-4'-methoxyflavone CollisionEnergy:205060 M+H
PRECURSOR_MZ=269.081
INCHI="InChI=1S/C16H12O4/c1-19-12-5-2-10(3-6-12)15-9-14(18)13-7-4-11(17)8-16(13)20-15/h2-9,17H,1H3"
SMILES=COc1ccc(-c2cc(=O)c3ccc(O)cc3o2)cc1
SPECTRUMID=CCMSLIB00010116249
52.577801 2856.0 
68.997368 60376.0 
69.034103 3052.0 
79.054482 5588.0 
81.033928 11758.0 
92.375 3324.0 
95.012901 12302.0 
103.054428 5956.0 
105.069748 3821.0 
109.02816 12001.0 
111.044327 3683.0 
118.041351 7523.0 
133.064682 203341.0 
135.044052 16142.0 
136.208038 3078.0 
137.023117 189847.0 
153.070587 3523.0 
155.033722 76805.0 
158.073776 10163.0 
159.043945 159395.0 
169.063644 4516.0 
170.073349 4931.0 
183.079285 4130.0 
185.095245 3775.0 
186.067566 25719.0 
197.059418 3804.0 
198.067215 3713.0 
201.090149 5544.0 
216.174591 3304.0 
225.054855 15631.0 
226.062119 3284691.0 
241.051559 3228.0 
241.085144 33347.0 
254.05687 2088263.0 
267.93985 5631.0 
269.080292 6343834.0 
270.226379 5229.0 
END IONS

BEGIN IONS
NAME=Esculin CollisionEnergy:102040 2M-2H+Na
PRECURSOR_MZ=701.134
INCHI="InChI=1S/C15H16O9/c16-5-10-12(19)13(20)14(21)15(24-10)23-9-3-6-1-2-11(18)22-8(6)4-7(9)17/h1-4,10,12-17,19-21H,5H2/t10-,12-,13+,14-,15-/m1/s1"
SMILES=C1=CC(=O)OC2=CC(=C(C=C21)O[C@H]3[C@@H]([C@H]([C@@H]([C@H](O3)CO)O)O)O)O
SPECTRUMID=CCMSLIB00010102058
55.185139 4609.305664 
59.13015 4352.286133 
65.061378 3975.906494 
104.358543 5467.807617 
112.519066 4558.826172 
118.734749 5524.905273 
176.01088 8010.889648 
177.019363 577879.6875 
199.000626 7712.760742 
230.990082 12120.84668 
339.07196 482017.71875 
361.053802 66023.960938 
701.132935 82174.21875 
END IONS

BEGIN IONS
NAME="ethyl 3-indol-3-yl-2-(2,2,3,3-tetrafluoropropanoylamino)propanoate CollisionEnergy:102040" M+Cl
PRECURSOR_MZ=395.079
INCHI="InChI=1S/C16H16F4N2O3/c1-2-25-13(23)12(22-15(24)16(19,20)14(17)18)7-9-8-21-11-6-4-3-5-10(9)11/h3-6,8,12,14,21H,2,7H2,1H3,(H,22,24)"
SMILES=CCOC(=O)C(Cc1c[nH]c2ccccc12)N=C(O)C(F)(F)C(F)F
SPECTRUMID=CCMSLIB00010110836
66.737167 2695.0 
72.660713 2660.0 
76.653183 2218.0 
92.371651 2808.0 
105.212341 2323.0 
118.648354 2903.0 
128.035126 3695.0 
130.992569 14732.0 
146.938156 18451.0 
163.996277 5913.0 
168.989227 4280.0 
177.931961 2327.0 
180.989441 12938.0 
184.001968 3272.0 
190.928162 32943.0 
230.04422 20398.0 
242.987411 2750.0 
258.915863 10939.0 
280.982635 10150.0 
330.979919 178221.0 
350.985382 5778.0 
354.980347 39072.0 
359.102661 60013.0 
374.986359 28542.0 
394.979462 72500.0 
395.243042 2855.0 
456.713379 2612.0 
END IONS

BEGIN IONS
NAME="phenylmethyl 4-(6-chloro-4-oxochromen-3-yl)-2-methyl-5-oxo-1,4,6,7,8-pentahydr oquinoline-3-carboxylate CollisionEnergy:205060" M+Na
PRECURSOR_MZ=498.108
INCHI="InChI=1S/C27H22ClNO5/c1-15-23(27(32)34-13-16-6-3-2-4-7-16)24(25-20(29-15)8-5-9-21(25)30)19-14-33-22-11-10-17(28)12-18(22)26(19)31/h2-4,6-7,10-12,14,24,29H,5,8-9,13H2,1H3"
SMILES=CC1=C(C(=O)OCc2ccccc2)C(c2coc3ccc(Cl)cc3c2=O)C2=C(CCCC2=O)N1
SPECTRUMID=CCMSLIB00010118204
65.107452 2659.0 
78.72728 3078.0 
91.054283 67498.0 
119.900513 2803.0 
124.978493 2911.0 
136.22966 3571.0 
188.42804 2818.0 
193.072113 4416.0 
205.07074 7776.0 
252.137833 19323.0 
296.12735 21273.0 
337.092285 5938.0 
340.073029 16206.0 
362.055878 4960.0 
384.483856 2863.0 
498.10675 1470089.0 
END IONS

BEGIN IONS
NAME=3-methyl-N-[2-(2-methylindol-3-yl)ethyl]-2-(phenylcarbonylamino)but-2-enamide CollisionEnergy:102040 M-H
PRECURSOR_MZ=374.187
INCHI="InChI=1S/C23H25N3O2/c1-15(2)21(26-22(27)17-9-5-4-6-10-17)23(28)24-14-13-18-16(3)25-20-12-8-7-11-19(18)20/h4-12,25H,13-14H2,1-3H3,(H,24,28)(H,26,27)"
SMILES=CC(C)=C(N=C(O)c1ccccc1)C(O)=NCCc1c(C)[nH]c2ccccc12
SPECTRUMID=CCMSLIB00010106744
50.596451 2716.0 
67.116821 2565.0 
89.999313 3610.0 
96.045326 37764.0 
98.102654 2820.0 
104.321083 3874.0 
118.692612 3224.0 
120.045303 38509.0 
131.037338 13347.0 
132.630951 2827.0 
139.050949 24260.0 
147.081131 53852.0 
156.081482 19219.0 
171.092957 10847.0 
173.108109 713018.0 
174.092133 497468.0 
199.087357 190547.0 
200.071732 21511.0 
202.087341 11042.0 
209.237244 6687.0 
217.09761 62192.0 
224.54422 2702.0 
264.389008 2792.0 
277.135101 32815.0 
296.140259 4670.0 
356.176392 37962.0 
374.187286 3111896.0 
END IONS

BEGIN IONS
NAME="2-phenylethyl 4-(3-ethoxy-4-hydroxyphenyl)-7-(4-methoxyphenyl)-2-methyl-5-oxo- 1,4,6,7,8-pentahydroquinoline-3-carboxylate CollisionEnergy:205060" M+H
PRECURSOR_MZ=554.254
INCHI="InChI=1S/C34H35NO6/c1-4-40-30-20-24(12-15-28(30)36)32-31(34(38)41-17-16-22-8-6-5-7-9-22)21(2)35-27-18-25(19-29(37)33(27)32)23-10-13-26(39-3)14-11-23/h5-15,20,25,32,35-36H,4,16-19H2,1-3H3"
SMILES=CCOc1cc(C2C(C(=O)OCCc3ccccc3)=C(C)NC3=C2C(=O)CC(c2ccc(OC)cc2)C3)ccc1O
SPECTRUMID=CCMSLIB00010120437
53.03907 3172.0 
63.552731 2711.0 
70.336243 3419.0 
73.247269 3401.0 
79.05452 7598.0 
94.065117 7028.0 
103.054741 3809.0 
104.287361 3420.0 
105.070053 105893.0 
109.064728 4457.0 
117.058083 3508.0 
118.655884 3054.0 
121.064613 4521.0 
122.060043 96022.0 
132.044327 6744.0 
132.080612 13521.0 
150.055099 541695.0 
158.059891 4286.0 
160.039337 47128.0 
160.07663 5181.0 
176.071411 26286.0 
178.050018 1612393.0 
186.05455 11051.0 
204.065628 105911.0 
248.639008 3378.0 
266.118378 3990.0 
282.112427 18094.0 
294.113281 7774.0 
297.100372 4742.0 
312.122955 384640.0 
416.185547 1210160.0 
END IONS

BEGIN IONS
NAME=2-(5-iodo-2-methylindol-3-yl)ethylamine CollisionEnergy:205060 2M+H
PRECURSOR_MZ=601.032
INCHI="InChI=1S/C11H13IN2/c1-7-9(4-5-13)10-6-8(12)2-3-11(10)14-7/h2-3,6,14H,4-5,13H2,1H3"
SMILES=Cc1[nH]c2ccc(I)cc2c1CCN
SPECTRUMID=CCMSLIB00010116231
60.116119 2395.0 
66.080963 2707.0 
71.558746 2747.0 
75.513931 2518.0 
98.226357 2641.0 
104.297272 3721.0 
111.886101 2869.0 
129.071304 3337.0 
130.064972 15375.0 
144.681458 2950.0 
156.080688 49385.0 
157.08876 109510.0 
189.078308 32938.0 
283.60318 3149.0 
283.993042 192830.0 
301.019196 19622.0 
393.058258 3266.0 
457.945312 3982.0 
END IONS

BEGIN IONS
NAME=2-Aminoethyl dihydrogen phosphate CollisionEnergy:102040 M-H
PRECURSOR_MZ=140.012
INCHI="InChI=1S/C2H8NO4P/c3-1-2-7-8(4,5)6/h1-3H2,(H2,4,5,6)"
SMILES=NCCOP(=O)(O)O
SPECTRUMID=CCMSLIB00010126197
63.9221 3587.73999 
66.171204 2424.570068 
66.7052 2930.120117 
78.958801 1358470.0 
80.208298 2682.919922 
80.933098 3151.409912 
92.408501 3596.580078 
104.319 3407.22998 
117.718002 3275.389893 
137.294998 3284.52002 
140.011993 46013.699219 
END IONS

BEGIN IONS
NAME=4'-Hydroxychalcone CollisionEnergy:102040 M+H
PRECURSOR_MZ=225.091
INCHI="InChI=1S/C15H12O2/c16-14-9-7-13(8-10-14)15(17)11-6-12-4-2-1-3-5-12/h1-11,16H/b11-6+"
SMILES=O=C(C=Cc1ccccc1)c1ccc(O)cc1
SPECTRUMID=CCMSLIB00010104342
65.039337 14511.0 
77.03933 23254.0 
79.054588 115765.0 
79.647087 10839.0 
91.054604 24521.0 
92.360062 14535.0 
103.05426 1752003.0 
107.049217 520141.0 
111.044144 12232.0 
119.049347 369650.0 
121.028526 6841020.0 
131.049316 15351766.0 
147.044174 1965452.0 
165.069763 46913.0 
176.31871 15547.0 
178.079163 20909.0 
179.085556 711389.0 
193.098389 22999.0 
197.095993 163433.0 
201.97377 12420.0 
207.080658 1151142.0 
210.068359 115645.0 
224.081039 16877.0 
225.091141 35521380.0 
END IONS

BEGIN IONS
NAME=2-HYDROXYISOBUTYRIC ACID CollisionEnergy:102040 M-H
PRECURSOR_MZ=103.04
INCHI="InChI=1S/C4H8O3/c1-4(2,7)3(5)6/h7H,1-2H3,(H,5,6)"
SMILES=CC(C)(O)C(=O)O
SPECTRUMID=CCMSLIB00010102853
57.0341 3035440.0 
59.013401 114402.0 
64.760201 21085.699219 
66.761299 20147.800781 
73.970398 21557.0 
80.374298 19868.5 
82.418701 22751.300781 
85.029404 88531.203125 
92.401703 27939.800781 
92.412903 20472.5 
103.040001 2245280.0 
END IONS

BEGIN IONS
NAME=(2E)-3-[4-methoxy-3-(phenoxymethyl)phenyl]prop-2-enoic acid CollisionEnergy:205060 M+H-H2O
PRECURSOR_MZ=267.102
INCHI="InChI=1S/C17H16O4/c1-20-16-9-7-13(8-10-17(18)19)11-14(16)12-21-15-5-3-2-4-6-15/h2-11H,12H2,1H3,(H,18,19)/b10-8+"
SMILES=COc1ccc(C=CC(=O)O)cc1COc1ccccc1
SPECTRUMID=CCMSLIB00010124965
51.023399 2432.0 
53.039162 48372.0 
55.480148 2273.0 
56.96513 3367.0 
66.751457 2913.0 
69.371338 2329.0 
79.054588 110375.0 
80.276871 2312.0 
90.721497 2333.0 
91.054321 26172.0 
92.389664 2531.0 
95.04937 22102.0 
103.054108 4414.0 
103.62365 2684.0 
107.049171 555034.0 
113.567169 2638.0 
115.054268 243420.0 
116.062233 13964.0 
117.069901 109878.0 
118.077538 10241.0 
119.049187 4278.0 
128.062607 3317.0 
131.049042 30420.0 
133.064774 2868.0 
135.406113 2379.0 
143.049164 381005.0 
144.057053 18097.0 
145.064697 129727.0 
146.072235 28620.0 
155.047867 2482.0 
159.044815 4110.0 
161.059799 46610.0 
164.049057 10210.0 
164.113846 2604.0 
171.055618 44767.0 
173.059708 331848.0 
174.067413 4589.0 
174.902435 3300.0 
176.047272 4992.0 
191.070175 302656.0 
192.911667 14592.0 
210.920807 5395.0 
214.086426 5955.0 
220.906097 17708.0 
235.071823 3513.0 
244.076309 4501.0 
255.583832 3726.0 
267.101837 50535.0 
END IONS

BEGIN IONS
NAME=CCRIS 2382 CollisionEnergy:205060 M+Na
PRECURSOR_MZ=426.071
INCHI="InChI=1S/C20H18ClNO6/c1-10-7-12-14(21)9-13(17(23)16(12)20(27)28-10)18(24)22-15(19(25)26)8-11-5-3-2-4-6-11/h2-6,9-10,15,23H,7-8H2,1H3,(H,22,24)(H,25,26)/t10-,15?/m1/s1"
SMILES=CC1Cc2c(Cl)cc(C(O)=NC(Cc3ccccc3)C(=O)O)c(O)c2C(=O)O1
SPECTRUMID=CCMSLIB00010122984
69.784142 2289.0 
75.122002 2539.0 
80.834831 2496.0 
82.401756 3217.0 
101.681824 2873.0 
104.287682 3177.0 
113.992889 2706.0 
120.080254 5026.0 
140.926956 2773.0 
143.186874 2470.0 
155.326187 2751.0 
175.445526 2682.0 
184.24382 3362.0 
224.304596 2670.0 
234.220367 2734.0 
248.343063 2653.0 
260.992126 1363142.0 
279.002808 99150.0 
289.681824 2710.0 
302.019165 3475.0 
337.177124 2966.0 
426.070465 685668.0 
END IONS

BEGIN IONS
NAME=3-methoxy-4-propoxybenzaldehyde CollisionEnergy:205060 M+H
PRECURSOR_MZ=195.102
INCHI="InChI=1S/C11H14O3/c1-3-6-14-10-5-4-9(8-12)7-11(10)13-2/h4-5,7-8H,3,6H2,1-2H3"
SMILES=CCCOc1ccc(C=O)cc1OC
SPECTRUMID=CCMSLIB00010116031
53.000019 3282.0 
53.00259 5158.0 
56.133339 2908.0 
57.07045 4567.0 
63.208061 2959.0 
65.039017 1827150.0 
67.054703 4139.0 
68.791931 3151.0 
71.94059 6571.0 
71.952332 17015.0 
79.05442 7271.0 
82.392647 3723.0 
92.370049 3762.0 
93.033638 2306555.0 
95.048973 4715.0 
97.007721 3841.0 
97.064949 22793.0 
107.04882 23646.0 
109.028267 2904.0 
110.03624 364552.0 
110.742393 4246.0 
111.04406 3428158.0 
112.967247 6238.0 
118.427292 3331.0 
120.421173 3454.0 
125.059723 2747332.0 
134.060013 244901.0 
135.063004 5072.0 
138.065964 6932.0 
151.530594 3319.0 
153.054581 2645922.0 
157.011093 5977.0 
166.99527 4514.0 
167.107132 27395.0 
185.005768 6458.0 
195.101624 734819.0 
213.432022 4025.0 
END IONS

BEGIN IONS
NAME=2'-Hydroxy-.beta.-naphthoflavone CollisionEnergy:205060 2M-H
PRECURSOR_MZ=575.15
INCHI="InChI=1S/C19H12O3/c20-15-8-4-3-7-14(15)18-11-16(21)19-13-6-2-1-5-12(13)9-10-17(19)22-18/h1-11,20H"
SMILES=O=c1cc(-c2ccccc2O)oc2ccc3ccccc3c12
SPECTRUMID=CCMSLIB00010115260
78.926483 2594.0 
92.377197 2957.0 
104.283684 3009.0 
183.094925 2678.0 
250.577316 2837.0 
279.849243 3075.0 
300.270569 2607.0 
345.040314 2774.0 
433.589691 2708.0 
END IONS

BEGIN IONS
NAME=Osthole CollisionEnergy:205060 M+H
PRECURSOR_MZ=245.117
INCHI="InChI=1S/C15H16O3/c1-10(2)4-7-12-13(17-3)8-5-11-6-9-14(16)18-15(11)12/h4-6,8-9H,7H2,1-3H3"
SMILES=COc1ccc2ccc(=O)oc2c1CC=C(C)C
SPECTRUMID=CCMSLIB00010118827
51.023659 3642.0 
53.039021 6174.0 
55.195351 2353.0 
77.039047 12690.0 
79.054443 11222.0 
91.054367 5824.0 
95.049026 6014.0 
102.04631 5593.0 
103.054092 363142.0 
105.069794 80385.0 
115.054192 23699.0 
117.06971 13727.0 
128.061096 2992.0 
130.661789 3609.0 
131.049057 3328995.0 
133.064819 67400.0 
147.043594 3428.0 
159.043777 199018.0 
161.059494 182810.0 
185.394241 3261.0 
187.037552 3609.0 
188.045593 3269.0 
188.38591 2782.0 
189.054321 3075390.0 
203.070099 32101.0 
206.607712 3240.0 
245.116684 392178.0 
END IONS

BEGIN IONS
NAME="6,8-dichloro-4-hydroxychromen-2-one CollisionEnergy:102040" M+H
PRECURSOR_MZ=230.961
INCHI="InChI=1S/C9H4Cl2O3/c10-4-1-5-7(12)3-8(13)14-9(5)6(11)2-4/h1-3,12H"
SMILES=O=c1cc(O)c2cc(Cl)cc(Cl)c2o1
SPECTRUMID=CCMSLIB00010110552
67.516617 3030.0 
68.997459 107157.0 
69.001541 4340.0 
82.407288 3382.0 
92.016602 2628.0 
92.385681 2867.0 
105.053131 4853.0 
106.060478 5589.0 
108.346489 2520.0 
128.933823 3307.0 
158.977417 3285.0 
162.971069 75857.0 
183.975662 15727.0 
184.978973 97068.0 
188.950195 369847.0 
206.959976 7191.0 
211.970474 32096.0 
212.168121 3343.0 
212.973679 3863950.0 
213.969269 5119.0 
230.053436 4452.0 
230.960541 4800500.0 
231.141403 18558.0 
231.873047 4015.0 
271.987183 11965.0 
407.884888 3066.0 
END IONS

BEGIN IONS
NAME="N-[2-chloro-5-(trifluoromethyl)phenyl]-2-(2-1,2,3,4-tetrahydroisoquinolyl)acet amide CollisionEnergy:102040" M+H
PRECURSOR_MZ=369.098
INCHI="InChI=1S/C18H16ClF3N2O/c19-15-6-5-14(18(20,21)22)9-16(15)23-17(25)11-24-8-7-12-3-1-2-4-13(12)10-24/h1-6,9H,7-8,10-11H2,(H,23,25)"
SMILES=OC(CN1CCc2ccccc2C1)=Nc1cc(C(F)(F)F)ccc1Cl
SPECTRUMID=CCMSLIB00010104128
51.54401 3445.0 
55.535141 3226.0 
57.59029 3248.0 
66.74929 4906.0 
69.327904 3491.0 
70.966782 2950.0 
73.958252 3276.0 
75.567253 3488.0 
81.049683 3252.0 
84.95961 5535.0 
91.054657 3185.0 
92.384262 4945.0 
104.29641 4726.0 
105.069633 23857.0 
117.06971 20280.0 
117.91703 3377.0 
119.085747 29211.0 
129.070267 4893.0 
131.073044 19259.0 
134.096893 4066.0 
144.080048 6963.0 
146.096298 3764672.0 
149.455002 3696.0 
154.339386 3334.0 
167.308945 4023.0 
204.98024 5174.0 
208.013458 62498.0 
212.519775 3289.0 
214.047958 3203.0 
222.991638 5182.0 
241.004379 3796.0 
265.035461 22655.0 
325.009674 4557.0 
331.786102 3481.0 
341.070007 5694.0 
359.07962 7155.0 
369.032257 4305842.0 
369.097137 4360646.0 
370.933624 4495.0 
387.035126 4794.0 
410.056213 71409.0 
736.711609 4016.0 
END IONS

BEGIN IONS
NAME=N-(4-methylphenyl)-2-[9-(4-methylphenyl)-6-oxohydropurin-8-ylthio]acetamide CollisionEnergy:205060 M+H
PRECURSOR_MZ=406.133
INCHI="InChI=1S/C21H19N5O2S/c1-13-3-7-15(8-4-13)24-17(27)11-29-21-25-18-19(22-12-23-20(18)28)26(21)16-9-5-14(2)6-10-16/h3-10,12H,11H2,1-2H3,(H,24,27)(H,22,23,28)"
SMILES=Cc1ccc(NC(=O)CSc2nc3c(O)ncnc3n2-c2ccc(C)cc2)cc1
SPECTRUMID=CCMSLIB00010122145
54.114319 3281.0 
63.485802 3142.0 
68.130577 3705.0 
77.988136 3401.0 
91.054153 7369.0 
92.359589 4167.0 
93.070053 5003.0 
105.06987 8559.0 
113.001007 3606.0 
118.065071 15707.0 
119.384987 3738.0 
120.080742 25727.0 
123.026443 3603.0 
130.064987 70466.0 
131.072861 31894.0 
133.439148 3492.0 
135.026382 17145.0 
136.186401 4694.0 
145.075943 29219.0 
146.059738 18875.0 
146.084259 3632.0 
148.07576 25788.0 
150.037216 20259.0 
157.076202 28702.0 
158.059998 37470.0 
158.084198 13461.0 
159.067963 26161.0 
160.076355 5697.0 
162.037003 370897.0 
164.052933 42592.0 
169.076202 24249.0 
172.0867 107923.0 
174.037292 18422.0 
175.032516 54493.0 
182.071609 4556.0 
183.055176 5035.0 
184.087326 35622.0 
185.071365 8675.0 
185.094986 23171.0 
186.078781 5949.0 
189.028 6535.0 
189.047943 323399.0 
190.03186 386380.0 
193.042725 166052.0 
198.064987 34196.0 
200.079971 4068.0 
201.048767 4516.0 
202.043137 81529.0 
207.059784 7265.0 
208.564499 10106.0 
211.073868 23198.0 
212.081635 1246704.0 
213.089493 134690.0 
216.058807 228616.0 
217.04187 26462.0 
227.093384 4225.0 
228.058258 8517.0 
229.02832 3938.0 
230.037994 677823.0 
237.07724 39433.0 
238.084579 127288.0 
238.106216 3727.0 
239.09317 16220.0 
244.053543 3771564.0 
246.069077 5768.0 
253.054062 41004.0 
256.041168 17056.0 
257.048767 314676.0 
262.063782 111999.0 
271.064301 2272212.0 
299.059235 4956317.0 
406.132782 57270.0 
END IONS

BEGIN IONS
NAME="11-(6-{[2-(3,4-dimethoxyphenyl)ethyl]amino}-4-chloro-1,3,5-triazin-2-yl)-7,11- diazatricyclo[7.3.1.0<2,7>]trideca-2,4-dien-6-one CollisionEnergy:102040" M+Na
PRECURSOR_MZ=505.173
INCHI="InChI=1S/C24H27ClN6O3/c1-33-19-7-6-15(11-20(19)34-2)8-9-26-23-27-22(25)28-24(29-23)30-12-16-10-17(14-30)18-4-3-5-21(32)31(18)13-16/h3-7,11,16-17H,8-10,12-14H2,1-2H3,(H,26,27,28,29)"
SMILES=COc1ccc(CCN=c2nc(Cl)nc(N3CC4CC(C3)c3cccc(=O)n3C4)[nH]2)cc1OC
SPECTRUMID=CCMSLIB00010104989
50.6754 3336.0 
67.251534 3423.0 
77.059013 4109.0 
79.020973 3921.0 
82.388 3961.0 
92.367264 4135.0 
137.563782 3832.0 
150.067154 8368.0 
165.09082 156969.0 
185.382523 4301.0 
238.094711 41053.0 
305.111481 8513.0 
318.119659 19634.0 
341.088684 13555.0 
353.088623 25406.0 
354.0961 5647.0 
386.084991 73179.0 
439.137909 5027.0 
469.195282 249197.0 
475.123871 36295.0 
489.136841 6415.0 
490.148041 86441.0 
502.25119 24149.0 
505.171722 14129900.0 
508.118286 22949.0 
END IONS

BEGIN IONS
NAME="phenylmethyl 2-[(5-oxo-3-thioxo-2H,4H-1,2,4-triazin-6-yl)amino]propanoate CollisionEnergy:205060" M-H
PRECURSOR_MZ=305.071
INCHI="InChI=1S/C13H14N4O3S/c1-8(14-10-11(18)15-13(21)17-16-10)12(19)20-7-9-5-3-2-4-6-9/h2-6,8H,7H2,1H3,(H,14,16)(H2,15,17,18,21)"
SMILES=CC(Nc1nnc(S)nc1O)C(=O)OCc1ccccc1
SPECTRUMID=CCMSLIB00010124080
57.97525 428006.0 
65.99826 4948.0 
67.029831 30600.0 
67.093178 2586.0 
69.999847 2604.0 
71.978699 4288.0 
73.971069 3478.0 
82.843857 2416.0 
83.848618 2351.0 
83.991051 10732.0 
84.986473 162308.0 
93.020653 32133.0 
99.002563 4374.0 
99.52066 2638.0 
108.007607 3695.0 
109.015381 17403.0 
110.036102 106505.0 
112.98159 17170.0 
118.966202 13565.0 
120.020393 25213.0 
121.02832 12971.0 
122.036461 3335.0 
126.013519 4553.0 
126.998001 2951.0 
127.992447 11324.0 
135.031403 61290.0 
138.030869 5757.0 
141.995499 58157.0 
146.961411 51092.0 
154.008316 68051.0 
154.990387 5107.0 
155.00354 93617.0 
155.987595 5169.0 
158.006546 2841.0 
163.02626 48232.0 
169.019257 150834.0 
174.956635 46198.0 
182.003693 10302.0 
197.014221 110812.0 
197.034744 4077.0 
213.139374 2773.0 
216.991165 2776.0 
243.98616 2772.0 
252.800034 2705.0 
263.057495 2582.0 
271.08316 5052.0 
290.547729 2788.0 
304.986481 16598.0 
305.071747 827105.0 
319.427002 2451.0 
END IONS

BEGIN IONS
NAME=anthranilic acid CollisionEnergy:205060 M+H
PRECURSOR_MZ=138.055
INCHI="InChI=1S/C7H7NO2/c8-6-4-2-1-3-5(6)7(9)10/h1-4H,8H2,(H,9,10)"
SMILES=C1=CC=C(C(=C1)C(=O)O)N
SPECTRUMID=CCMSLIB00010102099
57.830475 3566.699707 
65.038635 10317.777344 
66.774239 4687.853516 
92.049377 72201.109375 
100.396301 4162.709961 
111.580307 3890.366943 
120.044327 250547.078125 
143.51001 4866.17041 
153.886261 4276.339844 
END IONS

BEGIN IONS
NAME=alpha-Solanine CollisionEnergy:102040 M+H
PRECURSOR_MZ=868.505
INCHI="InChI=1S/C45H73NO15/c1-19-6-9-27-20(2)31-28(46(27)16-19)15-26-24-8-7-22-14-23(10-12-44(22,4)25(24)11-13-45(26,31)5)57-43-40(61-41-37(54)35(52)32(49)21(3)56-41)39(34(51)30(18-48)59-43)60-42-38(55)36(53)33(50)29(17-47)58-42/h7,19-21,23-43,47-55H,6,8-18H2,1-5H3/t19-,20+,21-,23-,24+,25-,26-,27+,28-,29+,30+,31-,32-,33+,34-,35+,36-,37+,38+,39-,40+,41+,42-,43+,44-,45-/m0/s1"
SMILES=CC1CCC2C(C)C3C(CC4C5CC=C6CC(OC7OC(CO)C(O)C(OC8OC(CO)C(O)C(O)C8O)C7OC7OC(C)C(O)C(O)C7O)CCC6(C)C5CCC43C)N2C1
SPECTRUMID=CCMSLIB00010112993
67.221687 5851.0 
69.033974 5042.0 
71.049393 6486.0 
80.427338 4548.0 
81.070297 9306.0 
82.403862 6149.0 
85.028557 23794.0 
98.096443 381850.0 
104.290627 7596.0 
118.658157 5709.0 
126.127907 24829.0 
127.038589 5018.0 
132.286377 5563.0 
142.779938 5761.0 
158.536743 5566.0 
181.241074 5864.0 
261.071411 6344.0 
273.926697 6700.0 
380.333588 34577.0 
398.340912 298856.0 
398.399841 10573.0 
706.452087 151196.0 
722.447693 171954.0 
853.488586 9534.0 
861.928955 23425.0 
868.504578 25193580.0 
875.15564 27520.0 
END IONS

BEGIN IONS
NAME=Rauwolscine CollisionEnergy:102040 M+Na
PRECURSOR_MZ=377.184
INCHI="InChI=1S/C21H26N2O3/c1-26-21(25)19-15-10-17-20-14(13-4-2-3-5-16(13)22-20)8-9-23(17)11-12(15)6-7-18(19)24/h2-5,12,15,17-19,22,24H,6-11H2,1H3/t12-,15+,17+,18+,19+/m1/s1"
SMILES=COC(=O)C1C(O)CCC2CN3CCc4c([nH]c5ccccc45)C3CC21
SPECTRUMID=CCMSLIB00010105124
50.51231 2331.0 
66.735062 2661.0 
101.322227 2403.0 
104.273087 2974.0 
118.643753 2811.0 
127.134079 2425.0 
377.182922 1306735.0 
395.193909 4224.0 
END IONS

BEGIN IONS
NAME=Isoreserpine CollisionEnergy:205060 M+formate
PRECURSOR_MZ=653.272
INCHI="InChI=1S/C33H40N2O9/c1-38-19-7-8-20-21-9-10-35-16-18-13-27(44-32(36)17-11-25(39-2)30(41-4)26(12-17)40-3)31(42-5)28(33(37)43-6)22(18)15-24(35)29(21)34-23(20)14-19/h7-8,11-12,14,18,22,24,27-28,31,34H,9-10,13,15-16H2,1-6H3/t18-,22+,24+,27-,28+,31+/m1/s1"
SMILES=COC(=O)C1C2CC3c4[nH]c5cc(OC)ccc5c4CCN3CC2CC(OC(=O)c2cc(OC)c(OC)c(OC)c2)C1OC
SPECTRUMID=CCMSLIB00010120241
64.305962 2893.0 
65.902634 2769.0 
79.051903 3109.0 
92.391327 2843.0 
97.873016 2665.0 
104.297073 2782.0 
123.045059 4045.0 
125.99527 5205.0 
137.024002 18590.0 
137.994965 4507.0 
139.004883 3656.0 
153.018951 4356.0 
153.055725 41879.0 
165.980804 3092.0 
211.06131 32562.0 
233.209869 3143.0 
592.242615 6373.0 
607.266418 215616.0 
END IONS

BEGIN IONS
NAME="8-{[2-(3-chlorophenyl)-5-methyl(1,3-oxazol-4-yl)]methylthio}-2,9-dimethylhydro purin-6-one CollisionEnergy:102040" M+H
PRECURSOR_MZ=402.079
INCHI="InChI=1S/C18H16ClN5O2S/c1-9-13(22-17(26-9)11-5-4-6-12(19)7-11)8-27-18-23-14-15(24(18)3)20-10(2)21-16(14)25/h4-7H,8H2,1-3H3,(H,20,21,25)"
SMILES=Cc1nc(O)c2nc(SCc3nc(-c4cccc(Cl)c4)oc3C)n(C)c2n1
SPECTRUMID=CCMSLIB00010111872
68.583397 2863.0 
69.030228 4077.0 
69.033943 85128.0 
72.212173 3162.0 
80.025978 2992.0 
99.20475 3109.0 
104.281883 3592.0 
138.010422 224944.0 
151.67305 3375.0 
157.958954 3482.0 
168.228012 3266.0 
197.049072 1033247.0 
206.036591 4123771.0 
247.063522 22313.0 
248.845428 3559.0 
402.077972 2577571.0 
588.872742 3543.0 
END IONS

BEGIN IONS
NAME="2-amino-4-(4-bromophenyl)-6-(hydroxymethyl)-8-oxo-4H-pyrano[3,2-b]pyran-3-carb onitrile CollisionEnergy:205060" M+H
PRECURSOR_MZ=374.998
INCHI="InChI=1S/C16H11BrN2O4/c17-9-3-1-8(2-4-9)13-11(6-18)16(19)23-14-12(21)5-10(7-20)22-15(13)14/h1-5,13,20H,7,19H2"
SMILES=N#CC1=C(N)Oc2c(oc(CO)cc2=O)C1c1ccc(Br)cc1
SPECTRUMID=CCMSLIB00010122927
53.002628 2895.0 
55.01828 70942.0 
67.018158 55353.0 
68.99733 13700.0 
69.033699 3438.0 
71.012894 2722.0 
82.395203 2772.0 
83.012947 28414.0 
85.028503 4289.0 
89.839546 2787.0 
90.033783 4463.0 
93.27494 2683.0 
93.961273 2949.0 
94.028397 3512.0 
95.012756 37757.0 
101.023323 15530.0 
102.046448 3412.0 
104.279503 3690.0 
115.041161 3166.0 
118.041222 11576.0 
127.04174 18536.0 
128.061996 32837.0 
129.069412 21391.0 
131.048767 3485.0 
134.03569 5760.0 
140.049744 9852.0 
140.061844 12267.0 
141.057129 16112.0 
141.069809 4360.0 
151.04126 6592.0 
152.037186 4199.0 
152.062088 31436.0 
153.057053 47244.0 
154.064926 6197.0 
155.03653 24595.0 
155.06044 3007.0 
155.07338 3386.0 
156.056793 18277.0 
157.064636 11943.0 
165.057465 6105.0 
166.051727 4145.0 
166.064957 23199.0 
167.036331 5054.0 
167.072433 73869.0 
168.055969 10225.0 
168.069214 59858.0 
168.964539 33390.0 
169.051834 13555.0 
169.065475 11023.0 
170.060333 3041.0 
171.044312 3195.0 
171.691818 3344.0 
174.018341 11242.0 
175.039261 2903.0 
176.048187 2882.0 
177.0569 71864.0 
178.064896 38432.0 
179.073074 34984.0 
180.043671 6113.0 
180.964432 11109.0 
181.051468 29067.0 
181.076782 3495.0 
182.943542 77549.0 
183.068329 4934.0 
184.051041 42458.0 
185.05986 4451.0 
192.067352 16636.0 
192.964508 6022.0 
193.052063 19304.0 
193.074951 6176.0 
194.043091 3872.0 
194.059875 22743.0 
194.081253 7483.0 
195.031342 5685.0 
195.06871 47886.0 
196.0401 2945.0 
196.063248 21440.0 
196.959137 6639.0 
202.061096 3010.0 
204.067825 5528.0 
205.052505 21591.0 
205.07283 3247.0 
205.959457 40675.0 
206.059769 28800.0 
207.067444 14220.0 
208.959366 32643.0 
209.047058 88868.0 
209.070129 3764.0 
210.041046 5600.0 
211.064255 4643.0 
213.054214 18973.0 
216.964828 3550.0 
217.959518 220572.0 
218.98085 25782.0 
220.065002 4117.0 
221.070816 24002.0 
222.054764 71299.0 
222.077957 6798.0 
223.062332 38170.0 
223.969681 4929.0 
227.057831 3202.0 
230.056473 24366.0 
231.976395 5449.0 
232.063217 4215.0 
233.046722 5944.0 
233.953613 28619.0 
233.991699 4458.0 
234.055038 5907.0 
234.973785 10815.0 
235.062454 14045.0 
237.041794 3363.0 
243.975052 6621.0 
245.952835 44193.0 
247.970093 15596.0 
249.065689 5452.0 
250.048904 4868.0 
250.0755 3261.0 
251.057587 14416.0 
255.974243 4659.0 
257.955902 6364.0 
257.989563 4132.0 
258.982208 3376.0 
259.969788 30054.0 
261.041626 13200.0 
261.946869 10590.0 
262.048676 48544.0 
262.96875 4757.0 
263.977509 21924.0 
273.949677 99083.0 
273.984711 15104.0 
274.980927 42361.0 
275.960968 3473.0 
279.051147 55400.0 
283.969177 24116.0 
285.984741 49305.0 
287.965088 32476.0 
290.962158 3342.0 
291.971893 15250.0 
298.980652 21187.0 
300.998352 5133.0 
301.980499 99098.0 
302.988831 3577.0 
303.996857 5168.0 
304.982269 5208.0 
308.974915 18849.0 
309.982666 34422.0 
310.980682 6792.0 
311.965637 4282.0 
312.972717 12585.0 
313.981171 5389.0 
328.991089 7108.0 
329.975037 567138.0 
331.990326 11358.0 
356.986877 35688.0 
357.96933 53822.0 
374.996521 1121200.0 
END IONS

BEGIN IONS
NAME=L-4-hydroxy-proline CollisionEnergy:102040 M+H
PRECURSOR_MZ=132.066
INCHI="InChI=1S/C5H9NO3/c7-3-1-4(5(8)9)6-2-3/h3-4,6-7H,1-2H2,(H,8,9)/t3?,4-/m0/s1"
SMILES=O=C(O)[C@@H]1CC(O)CN1
SPECTRUMID=CCMSLIB00010103104
51.9622 31565.400391 
58.0658 125639.0 
59.0126 32443.599609 
68.050201 3875530.0 
73.857101 29884.599609 
73.8871 30861.300781 
73.967903 38284.300781 
82.415703 50848.300781 
84.811897 37013.5 
86.0606 11582500.0 
92.396797 33946.0 
97.142998 32186.5 
114.055 271744.0 
132.065994 4062270.0 
END IONS

BEGIN IONS
NAME=4'-Hydroxy-7-methoxyflavone CollisionEnergy:102040 2M-H
PRECURSOR_MZ=535.14
INCHI="InChI=1S/C16H12O4/c1-19-12-6-7-13-14(18)9-15(20-16(13)8-12)10-2-4-11(17)5-3-10/h2-9,17H,1H3"
SMILES=COc1ccc2c(=O)cc(-c3ccc(O)cc3)oc2c1
SPECTRUMID=CCMSLIB00010105459
50.873619 2490.0 
68.720741 2865.0 
71.117653 2369.0 
73.95359 2858.0 
80.020859 2798.0 
83.77346 2409.0 
96.123337 2475.0 
96.612762 2398.0 
96.928871 2648.0 
104.287941 3260.0 
106.805069 2389.0 
118.284264 2825.0 
118.654472 3560.0 
139.307632 2655.0 
157.958542 2495.0 
171.945358 2550.0 
185.398499 2685.0 
188.205978 2858.0 
252.041885 3639.0 
267.065674 24559.0 
398.904449 2751.0 
407.200562 2766.0 
466.820526 3975.0 
END IONS

BEGIN IONS
NAME="4,5,6-trimethoxy-7-nitro-3-hydroisobenzofuran-1-one CollisionEnergy:102040" M+Na
PRECURSOR_MZ=292.043
INCHI="InChI=1S/C11H11NO7/c1-16-8-5-4-19-11(13)6(5)7(12(14)15)9(17-2)10(8)18-3/h4H2,1-3H3"
SMILES=COc1c2c(c([N+](=O)[O-])c(OC)c1OC)C(=O)OC2
SPECTRUMID=CCMSLIB00010109075
50.51001 2486.0 
66.763168 2120.0 
92.379837 2319.0 
99.167824 2182.0 
104.288521 2517.0 
118.656723 2905.0 
136.21315 2287.0 
177.132202 2912.0 
185.404358 2992.0 
214.711136 2701.0 
266.544464 2273.0 
292.042511 906218.0 
306.224396 2872.0 
310.052307 13102.0 
END IONS

BEGIN IONS
NAME=Estrone-d4 CollisionEnergy:102040 M+H
PRECURSOR_MZ=271.169
INCHI="InChI=1S/C18H22O2/c1-18-9-8-14-13-5-3-12(19)10-11(13)2-4-15(14)16(18)6-7-17(18)20/h3,5,10,14-16,19H,2,4,6-9H2,1H3"
SMILES=CC12CCC3c4ccc(O)cc4CCC3C1CCC2=O
SPECTRUMID=CCMSLIB00010114140
57.785332 2305.0 
61.43169 2224.0 
67.054657 6335.0 
69.070084 3627.0 
71.049469 31557.0 
73.943619 3002.0 
77.797531 2659.0 
79.054482 11399.0 
81.070137 70507.0 
82.385368 3083.0 
84.959938 3946.0 
85.065033 21130.0 
93.069946 33913.0 
95.085541 18052.0 
97.7575 3253.0 
105.069687 4850.0 
107.049263 14614.0 
107.085419 50379.0 
109.100822 18679.0 
111.080528 18113.0 
121.064941 17673.0 
121.101357 6422.0 
125.097107 3682.0 
133.064758 551275.0 
145.064804 44478.0 
147.079971 13655.0 
157.064758 565631.0 
159.080414 476657.0 
159.091965 10184.0 
159.116364 4334.0 
159.258698 3120.0 
161.096207 6222.0 
171.080246 19666.0 
173.095993 34172.0 
183.080383 65384.0 
185.095947 20628.0 
197.095963 267258.0 
198.104004 22261.0 
201.127197 167602.0 
205.641418 3004.0 
211.111816 46107.0 
212.118835 4922.0 
213.127106 147324.0 
225.12709 17586.0 
238.135651 4189.0 
248.124786 3816.0 
253.158386 1295764.0 
271.168762 1232239.0 
END IONS

BEGIN IONS
NAME=methyl 2-(2-oxo-4-propylchromen-7-yloxy)-2-phenylacetate CollisionEnergy:102040 M-H
PRECURSOR_MZ=351.124
INCHI="InChI=1S/C21H20O5/c1-3-7-15-12-19(22)26-18-13-16(10-11-17(15)18)25-20(21(23)24-2)14-8-5-4-6-9-14/h4-6,8-13,20H,3,7H2,1-2H3"
SMILES=CCCc1cc(=O)oc2cc(OC(C(=O)OC)c3ccccc3)ccc12
SPECTRUMID=CCMSLIB00010104793
53.353481 2227.0 
54.030441 2334.0 
54.529419 2226.0 
54.879238 2077.0 
55.176231 2336.0 
71.400993 2215.0 
84.16362 2356.0 
104.313889 2823.0 
108.990219 3158.0 
109.130074 2739.0 
110.740013 2422.0 
146.960953 4606.0 
219.081894 3608.0 
232.054459 3976.0 
232.089355 4965.0 
247.112625 13184.0 
262.063843 5428.0 
264.989349 2742.0 
266.986176 2935.0 
275.107574 9090.0 
276.044708 3413.0 
290.058533 54151.0 
291.066559 4121.0 
291.102631 79701.0 
310.979462 5302.0 
319.097656 1083347.0 
330.979431 23110.0 
350.988922 67900.0 
351.123901 292247.0 
END IONS

BEGIN IONS
NAME="ethyl 4-(3-bromo-4-hydroxy-5-methoxyphenyl)-2-methyl-5-oxo-1,4,6,7,8-pentahydr oquinoline-3-carboxylate CollisionEnergy:102040" M-H
PRECURSOR_MZ=434.061
INCHI="InChI=1S/C20H22BrNO5/c1-4-27-20(25)16-10(2)22-13-6-5-7-14(23)18(13)17(16)11-8-12(21)19(24)15(9-11)26-3/h8-9,17,22,24H,4-7H2,1-3H3"
SMILES=CCOC(=O)C1=C(C)NC2=C(C(=O)CCC2)C1c1cc(Br)c(O)c(OC)c1
SPECTRUMID=CCMSLIB00010110109
58.815048 2769.0 
61.372231 2546.0 
69.68454 2552.0 
71.426903 2238.0 
73.577293 2600.0 
78.918739 544956.0 
79.768013 3405.0 
82.410606 3829.0 
87.036507 2686.0 
146.962112 3677.0 
148.039948 3677.0 
158.061172 3642.0 
160.077011 11605.0 
174.95787 3129.0 
185.93219 655000.0 
200.955688 214666.0 
203.059509 27036.0 
229.913269 3274.0 
232.097763 239591.0 
235.049362 16330.0 
293.068634 4893.0 
297.900818 14549.0 
342.379944 3133.0 
357.974884 3326.0 
365.888672 6643.0 
385.45224 2923.0 
388.017273 12435.0 
434.060791 1848938.0 
END IONS

BEGIN IONS
NAME=4alpha-PMA CollisionEnergy:102040 M+Cl
PRECURSOR_MZ=651.367
INCHI="InChI=1S/C36H56O8/c1-7-8-9-10-11-12-13-14-15-16-17-18-29(39)43-32-24(3)35(42)27(30-33(5,6)36(30,32)44-25(4)38)20-26(22-37)21-34(41)28(35)19-23(2)31(34)40/h19-20,24,27-28,30,32,37,41-42H,7-18,21-22H2,1-6H3/t24-,27+,28-,30-,32-,34+,35-,36-/m1/s1"
SMILES=CCCCCCCCCCCCCC(=O)OC1C(C)C2(O)C(C=C(CO)CC3(O)C(=O)C(C)=CC32)C2C(C)(C)C12OC(C)=O
SPECTRUMID=CCMSLIB00010112833
52.26228 3104.0 
56.14352 3043.0 
57.545212 3097.0 
59.398529 2607.0 
66.755913 3133.0 
68.231483 2516.0 
104.30146 2548.0 
125.313728 3290.0 
201.672867 2815.0 
273.409393 3222.0 
473.637909 3507.0 
651.365051 23025.0 
END IONS

BEGIN IONS
NAME="ethyl 2-(3-cyano-4,6-diphenyl-2-pyridylthio)propanoate CollisionEnergy:205060" M+H
PRECURSOR_MZ=389.132
INCHI="InChI=1S/C23H20N2O2S/c1-3-27-23(26)16(2)28-22-20(15-24)19(17-10-6-4-7-11-17)14-21(25-22)18-12-8-5-9-13-18/h4-14,16H,3H2,1-2H3"
SMILES=CCOC(=O)C(C)Sc1nc(-c2ccccc2)cc(-c2ccccc2)c1C#N
SPECTRUMID=CCMSLIB00010120730
52.851601 3298.0 
53.03896 5537.0 
58.995461 42328.0 
68.215858 2840.0 
76.910316 3042.0 
86.125427 2904.0 
95.048859 4851.0 
102.716454 2876.0 
131.01387 2920.0 
136.213165 3199.0 
140.049118 5484.0 
169.065308 3513.0 
178.064636 14979.0 
179.059601 5150.0 
184.021317 4720.0 
184.887802 6193.0 
196.075287 28370.0 
203.061127 4876.0 
203.083389 5449.0 
205.061951 4028.0 
210.036865 18812.0 
211.032883 3476.0 
212.05365 7339.0 
215.084808 13051.0 
216.092468 6156.0 
219.080139 6999.0 
221.070343 16616.0 
227.072021 41970.0 
228.080353 147780.0 
230.096039 30713.0 
237.047287 16167.0 
241.088257 5149.0 
253.07695 5912.0 
254.096802 43717.0 
255.091141 868459.0 
256.107574 3767.0 
257.10675 1109852.0 
261.063385 4338.0 
266.082031 5811.0 
269.106018 6906.0 
270.114716 18797.0 
271.121887 61721.0 
274.067749 80879.0 
275.074341 4210.0 
281.106964 292613.0 
282.114746 59911.0 
283.122162 48194.0 
287.063202 53782.0 
288.083649 190891.0 
289.078644 460301.0 
297.060303 17586.0 
298.067169 23064.0 
299.062897 33553.0 
300.070892 296171.0 
313.078674 95824.0 
314.086548 79162.0 
315.094299 3770564.0 
317.111725 5138.0 
343.089203 1012207.0 
361.100128 6787.0 
389.130951 1544715.0 
END IONS

BEGIN IONS
NAME="N-[2-(3,4-dimethoxyphenyl)ethyl]-2-(4-methylphenoxy)acetamide CollisionEnergy:205060" M-H
PRECURSOR_MZ=328.155
INCHI="InChI=1S/C19H23NO4/c1-14-4-7-16(8-5-14)24-13-19(21)20-11-10-15-6-9-17(22-2)18(12-15)23-3/h4-9,12H,10-11,13H2,1-3H3,(H,20,21)"
SMILES=COc1ccc(CCN=C(O)COc2ccc(C)cc2)cc1OC
SPECTRUMID=CCMSLIB00010116673
52.597832 2521.0 
57.4543 2095.0 
61.987801 5133.0 
67.462677 2417.0 
92.400223 2355.0 
107.050003 3720.0 
121.029137 4572.0 
121.065712 361591.0 
137.060211 3451.0 
147.045029 100762.0 
152.048126 2442.0 
164.07196 24264.0 
191.945221 4067.0 
209.597183 5037.0 
220.697876 2452.0 
231.979568 2656.0 
328.155243 223028.0 
END IONS

BEGIN IONS
NAME="2,2'-Dihydroxychalcone CollisionEnergy:102040" 2M-H
PRECURSOR_MZ=479.15
INCHI="InChI=1S/C15H12O3/c16-13-7-3-1-5-11(13)9-10-15(18)12-6-2-4-8-14(12)17/h1-10,16-17H/b10-9+"
SMILES=O=C(C=Cc1ccccc1O)c1ccccc1O
SPECTRUMID=CCMSLIB00010105250
51.48941 2420.0 
88.964996 2333.0 
93.034378 6208.0 
104.313797 3011.0 
112.573563 2327.0 
112.985657 5186.0 
113.95417 2429.0 
119.050293 20952.0 
136.242706 3439.0 
158.008316 2683.0 
210.938477 3034.0 
222.18924 2723.0 
239.071823 87397.0 
243.955597 2714.0 
478.983002 4765.0 
499.802185 2843.0 
END IONS

BEGIN IONS
NAME=corynanthine CollisionEnergy:205060 M+H
PRECURSOR_MZ=355.202
INCHI="InChI=1S/C21H26N2O3/c1-26-21(25)19-15-10-17-20-14(13-4-2-3-5-16(13)22-20)8-9-23(17)11-12(15)6-7-18(19)24/h2-5,12,15,17-19,22,24H,6-11H2,1H3/t12-,15-,17-,18-,19-/m0/s1"
SMILES=COC(=O)C1C(O)CCC2CN3CCc4c([nH]c5ccccc45)C3CC21
SPECTRUMID=CCMSLIB00010115758
53.77174 5336.0 
56.046909 5094.0 
56.049919 127904.0 
56.965172 4970.0 
64.508583 3721.0 
67.054604 16694.0 
70.065331 17246.0 
73.954132 5472.0 
75.039772 4016.0 
77.039146 5132.0 
79.054367 44859.0 
80.049629 76866.0 
81.033371 8091.0 
81.069946 7133.0 
82.065193 26917.0 
82.396561 4181.0 
91.054169 124201.0 
93.057259 9523.0 
93.069893 50690.0 
94.065102 148338.0 
95.049339 5136.0 
95.07296 6083.0 
95.085533 22930.0 
96.044273 22387.0 
99.043907 5291.0 
103.054092 90353.0 
105.062523 7381.0 
105.06971 116760.0 
106.064972 73022.0 
107.049026 8251.0 
107.072433 9419.0 
107.085403 70618.0 
108.044502 6991.0 
108.080566 18589.0 
109.065269 14427.0 
110.060059 7924.0 
110.096252 24596.0 
112.075737 6790.0 
115.045464 6006.0 
115.053978 113655.0 
117.069702 915089.0 
118.064751 34676.0 
119.048637 16424.0 
119.085419 42342.0 
120.08091 37484.0 
121.064407 9438.0 
122.096474 6480.0 
127.053673 7001.0 
128.0495 25776.0 
128.06192 17341.0 
129.069977 42389.0 
130.065018 290890.0 
131.048111 7069.0 
131.072662 31939.0 
131.085266 21145.0 
132.080505 84298.0 
133.064362 29766.0 
134.096237 408796.0 
135.0802 47183.0 
136.075073 24343.0 
136.111984 120169.0 
138.091248 50236.0 
142.065506 7379.0 
143.072922 308860.0 
143.084412 13267.0 
143.634537 7664.0 
144.080597 13340216.0 
144.528046 7862.0 
145.064621 126965.0 
146.059921 21545.0 
146.096115 94703.0 
147.103577 4741.0 
148.075562 8233.0 
148.11058 6403.0 
149.059113 10120.0 
149.095703 6436.0 
150.090759 19260.0 
151.075089 37932.0 
152.106689 109331.0 
154.085938 8481.0 
155.059723 45875.0 
155.072479 7444.0 
156.080688 59626.0 
157.088455 17853.0 
158.096237 140034.0 
160.075531 27945.0 
162.091034 733140.0 
163.07489 51466.0 
164.106567 15285.0 
166.08577 7353.0 
166.122513 8605.0 
167.071899 10290.0 
168.080414 52299.0 
169.088043 38421.0 
170.096313 49306.0 
174.091171 22710.0 
177.090714 30127.0 
178.086441 36394.0 
180.081482 41209.0 
180.10144 577341.0 
181.087723 19347.0 
182.096375 38730.0 
184.112885 4970.0 
192.101349 104124.0 
193.086151 6951.0 
194.096161 40502.0 
194.117111 161025.0 
195.103577 19296.0 
196.110977 10006.0 
198.007187 4800.0 
198.112198 21824.0 
204.080399 9271.0 
205.086777 6655.0 
206.096146 43045.0 
206.117203 45523.0 
207.103928 17660.0 
208.111496 64536.0 
209.119797 36605.0 
210.090698 9521.0 
210.112137 17017.0 
212.127686 2086854.0 
217.087555 7216.0 
218.09581 22884.0 
219.103836 24003.0 
220.111603 65025.0 
221.119507 25651.0 
222.126953 17880.0 
223.122955 4600.0 
224.127594 449561.0 
226.143524 17356.0 
228.017029 5828.0 
230.095779 17815.0 
231.103973 44742.0 
232.11116 41916.0 
233.119736 22056.0 
234.126877 51310.0 
244.111847 6331.0 
245.118896 20610.0 
246.12738 62989.0 
248.115112 7530.0 
248.142731 99532.0 
250.120605 5364.0 
254.527206 5114.0 
258.127289 7763.0 
260.142639 94811.0 
261.149963 4713.0 
262.121277 21473.0 
262.15152 5694.0 
264.138031 8809.0 
266.153198 8585.0 
274.121704 8924.0 
276.137878 29083.0 
277.167603 4759.0 
278.152893 18546.0 
280.1315 27853.0 
288.13681 27243.0 
292.131592 5830.0 
294.148651 57535.0 
295.181 5586.0 
305.165161 6918.0 
306.148071 31391.0 
308.16272 31212.0 
310.140106 4339.0 
312.157898 6261.0 
320.164093 43532.0 
323.17511 9793.0 
324.158722 16536.0 
326.174255 32616.0 
337.191711 8342.0 
338.173676 61917.0 
353.476349 5450.0 
355.200623 9080349.0 
356.934387 5055.0 
378.021057 5037.0 
END IONS

BEGIN IONS
NAME="(3,4-dimethoxyphenyl)-N-(1-ethyl-1-methylprop-2-ynyl)carboxamide CollisionEnergy:102040" M+H
PRECURSOR_MZ=262.144
INCHI="InChI=1S/C15H19NO3/c1-6-15(3,7-2)16-14(17)11-8-9-12(18-4)13(10-11)19-5/h1,8-10H,7H2,2-5H3,(H,16,17)"
SMILES=C#CC(C)(CC)N=C(O)c1ccc(OC)c(OC)c1
SPECTRUMID=CCMSLIB00010105679
53.039108 11210.0 
60.829689 2686.0 
65.038986 5081.0 
69.61499 2606.0 
79.054428 164481.0 
81.070068 169620.0 
107.049026 44757.0 
108.056763 7108.0 
109.028183 4578.0 
118.667267 4816.0 
122.036057 3629.0 
124.051773 522954.0 
126.030869 3951.0 
130.124191 3013.0 
133.234222 2652.0 
136.22438 4354.0 
139.075211 2296005.0 
145.78125 3480.0 
155.070374 5106.0 
164.070847 19403.0 
165.054428 1047437.0 
167.057419 6882.0 
182.080963 3029455.0 
182.715637 2842.0 
202.085342 7298.0 
204.097855 3906.0 
218.117386 4390.0 
219.1362 5126.0 
231.591263 2936.0 
233.104263 31461.0 
234.113144 6646.0 
246.112656 6190.0 
247.120499 13640.0 
262.14328 2578496.0 
END IONS

BEGIN IONS
NAME=4'-Hydroxychalcone CollisionEnergy:205060 2M-H
PRECURSOR_MZ=447.16
INCHI="InChI=1S/C15H12O2/c16-14-9-7-13(8-10-14)15(17)11-6-12-4-2-1-3-5-12/h1-11,16H/b11-6+"
SMILES=O=C(C=Cc1ccccc1)c1ccc(O)cc1
SPECTRUMID=CCMSLIB00010115676
66.84758 2673.0 
73.16835 2524.0 
73.974213 3682.0 
78.827316 2202.0 
92.401207 3088.0 
133.082642 2712.0 
136.247665 2735.0 
146.947876 4000.0 
146.961075 87163.0 
146.973602 3672.0 
154.560104 2256.0 
158.012177 2436.0 
174.955994 117779.0 
174.972427 4812.0 
179.360092 2207.0 
212.810532 2399.0 
223.07637 72213.0 
226.204987 2723.0 
242.943542 53211.0 
277.946381 3088.0 
310.931061 4745.0 
END IONS

BEGIN IONS
NAME=4-hydroxyphenylacetic acid CollisionEnergy:102040 M-H
PRECURSOR_MZ=151.04
INCHI="InChI=1S/C8H8O3/c9-7-3-1-6(2-4-7)5-8(10)11/h1-4,9H,5H2,(H,10,11)"
SMILES=O=C(O)Cc1ccc(O)cc1
SPECTRUMID=CCMSLIB00010126122
50.3591 87389.5 
55.982101 103642.0 
56.4692 93822.398438 
68.117699 86679.5 
68.699699 101355.0 
69.065598 101294.0 
79.019203 84663.796875 
79.055397 129288.0 
79.690399 100605.0 
81.034599 219276.0 
93.034698 1017310.0 
95.013496 101092.0 
95.050201 546830.0 
106.042999 923252.0 
107.050003 27580800.0 
108.022003 913004.0 
121.028999 706552.0 
123.044998 1773150.0 
136.248001 104803.0 
138.031998 183551.0 
150.988998 183344.0 
151.039993 8246080.0 
END IONS

BEGIN IONS
NAME=hexyl 2-[(4-hydroxy-2-oxo-3-hydroquinolyl)carbonylamino]benzoate CollisionEnergy:102040 M-H
PRECURSOR_MZ=407.161
INCHI="InChI=1S/C23H24N2O5/c1-2-3-4-9-14-30-23(29)16-11-6-8-13-18(16)25-22(28)19-20(26)15-10-5-7-12-17(15)24-21(19)27/h5-8,10-13H,2-4,9,14H2,1H3,(H,25,28)(H2,24,26,27)"
SMILES=CCCCCCOC(=O)c1ccccc1N=C(O)c1c(O)nc2ccccc2c1O
SPECTRUMID=CCMSLIB00010112366
65.998177 23906.0 
82.909569 3705.0 
92.050667 6744.0 
102.034882 5402.0 
104.289917 5256.0 
136.040222 49082.0 
136.211746 4795.0 
137.108337 4088.0 
140.577011 3810.0 
142.029877 1755998.0 
158.024963 10087.0 
160.040314 68674.0 
161.449844 3860.0 
185.035706 149313.0 
185.354675 4888.0 
186.019821 8754517.0 
204.030365 94666.0 
209.919342 5804.0 
220.134125 7010.0 
294.839264 4235.0 
303.223938 4597.0 
305.056763 255260.0 
342.979584 26946.0 
366.978485 9827.0 
386.984253 7223.0 
407.16156 12025334.0 
409.327118 5802.0 
END IONS

BEGIN IONS
NAME="2-methoxyethyl 4-(3-bromo-4-hydroxy-5-methoxyphenyl)-2-methyl-5-oxo-1,4,6,7,8- pentahydroquinoline-3-carboxylate CollisionEnergy:102040" M+Na
PRECURSOR_MZ=488.068
INCHI="InChI=1S/C21H24BrNO6/c1-11-17(21(26)29-8-7-27-2)18(19-14(23-11)5-4-6-15(19)24)12-9-13(22)20(25)16(10-12)28-3/h9-10,18,23,25H,4-8H2,1-3H3"
SMILES=COCCOC(=O)C1=C(C)NC2=C(C(=O)CCC2)C1c1cc(Br)c(O)c(OC)c1
SPECTRUMID=CCMSLIB00010110311
82.388153 3688.0 
139.611435 3603.0 
189.785706 3135.0 
252.79097 3191.0 
392.030243 5137.0 
488.067871 6554493.0 
490.859436 4061.0 
END IONS

BEGIN IONS
NAME=(N-phenylcarbamoyl)methyl (2E)-3-phenylprop-2-enoate CollisionEnergy:205060 M+H
PRECURSOR_MZ=282.112
INCHI="InChI=1S/C17H15NO3/c19-16(18-15-9-5-2-6-10-15)13-21-17(20)12-11-14-7-3-1-4-8-14/h1-12H,13H2,(H,18,19)/b12-11+"
SMILES=O=C(C=Cc1ccccc1)OCC(O)=Nc1ccccc1
SPECTRUMID=CCMSLIB00010124203
51.023621 2456.0 
52.750591 2292.0 
53.039101 20655.0 
59.42458 2233.0 
60.239361 2272.0 
77.038727 3596.0 
80.646446 2338.0 
92.371147 2571.0 
95.049332 3856.0 
101.842033 2648.0 
102.046928 4327.0 
103.054176 913807.0 
104.282707 3022.0 
105.045326 2793.0 
116.269707 2427.0 
131.049103 1686359.0 
134.096481 5868.0 
144.080688 5777.0 
188.541794 2554.0 
189.054016 42132.0 
282.22052 13764.0 
288.411713 3024.0 
293.661713 2715.0 
END IONS

BEGIN IONS
NAME="N-[2-(3,4-dimethylphenoxy)ethyl](3,4,5-trimethoxyphenyl)carboxamide CollisionEnergy:205060" M+H
PRECURSOR_MZ=360.181
INCHI="InChI=1S/C20H25NO5/c1-13-6-7-16(10-14(13)2)26-9-8-21-20(22)15-11-17(23-3)19(25-5)18(12-15)24-4/h6-7,10-12H,8-9H2,1-5H3,(H,21,22)"
SMILES=COc1cc(C(O)=NCCOc2ccc(C)c(C)c2)cc(OC)c1OC
SPECTRUMID=CCMSLIB00010117392
50.307209 2775.0 
51.02367 3955.0 
53.039082 61761.0 
65.03904 28663.0 
66.046967 5549.0 
67.018387 2769.0 
67.054497 17309.0 
68.9972 3397.0 
69.033836 11187.0 
71.049568 3160.0 
75.044388 18982.0 
78.046661 7067.0 
79.054581 179920.0 
80.283798 2849.0 
81.033791 101552.0 
81.065018 4764.0 
81.070236 100905.0 
82.004959 3305.0 
83.049393 11989.0 
85.028671 5121.0 
91.054153 15161.0 
92.025673 4267.0 
93.033623 12839.0 
94.041634 28111.0 
95.049377 26786.0 
96.057137 89759.0 
99.043823 3504.0 
105.033493 5440.0 
107.049149 14774.0 
108.056747 28738.0 
109.028793 21175.0 
109.056419 5746.0 
109.064888 140841.0 
111.044243 4245.0 
111.080544 41646.0 
113.023338 25487.0 
113.059792 34340.0 
121.028389 19911.0 
122.036377 110836.0 
123.0438 5190.0 
124.052032 200492.0 
125.059868 4020.0 
127.038261 4710.0 
128.046906 49368.0 
131.073105 26844.0 
134.036179 16399.0 
134.199936 3665.0 
137.023346 44123.0 
137.059738 4514.0 
139.039612 5676.0 
139.07547 319104.0 
141.018356 52841.0 
141.055161 3287.0 
143.070099 18092.0 
146.096848 52711.0 
148.075485 6788.0 
149.084976 5757.0 
151.038986 43987.0 
152.046844 438860.0 
153.055496 3704.0 
154.062576 4204.0 
155.034607 4848.0 
156.041763 92012.0 
162.031235 3058.0 
164.070465 5631.0 
165.017868 7148.0 
165.054596 12178.0 
166.027496 3811.0 
166.062149 19816.0 
167.070572 3692.0 
170.057755 5116.0 
174.091614 6998.0 
176.069931 6279.0 
177.078079 6866.0 
179.034225 3386.0 
180.042084 4179.0 
184.036804 39893.0 
185.081146 23248.0 
192.065811 135413.0 
192.099564 20766.0 
194.081223 19022.0 
195.065308 3587165.0 
204.065369 13681.0 
205.073502 15272.0 
208.060883 32600.0 
208.912155 4424.0 
208.931656 5030.0 
222.075439 35734.0 
238.107376 346817.0 
342.169403 6988.0 
360.180298 122937.0 
360.228149 6326.0 
END IONS

BEGIN IONS
NAME=ST024712 CollisionEnergy:205060 M+formate
PRECURSOR_MZ=491.12
INCHI="InChI=1S/C22H22O10/c1-29-11-4-2-10(3-5-11)13-9-30-15-7-12(6-14(24)17(15)18(13)25)31-22-21(28)20(27)19(26)16(8-23)32-22/h2-7,9,16,19-24,26-28H,8H2,1H3"
SMILES=COc1ccc(-c2coc3cc(OC4OC(CO)C(O)C(O)C4O)cc(O)c3c2=O)cc1
SPECTRUMID=CCMSLIB00010119952
53.296169 2774.0 
89.272499 2710.0 
92.387619 4046.0 
92.394127 2808.0 
132.021255 26828.0 
135.009567 4152.0 
144.31015 2980.0 
151.003555 3923.0 
180.05809 4393.0 
195.045624 3684.0 
196.053314 5037.0 
211.04039 17987.0 
211.321365 4113.0 
212.048065 16436.0 
223.040268 20081.0 
224.047852 36748.0 
226.027512 20847.0 
239.03476 69963.0 
240.042984 46647.0 
252.043121 25225.0 
267.030457 108176.0 
268.038025 1671019.0 
281.04599 3556.0 
283.061462 1999784.0 
305.082153 6056.0 
306.453644 3464.0 
325.07309 32733.0 
445.116028 3517.0 
458.255463 3317.0 
END IONS

BEGIN IONS
NAME="7a-methyl-5-oxo-2,3,6,7,7a-pentahydrothiapyrrolizine-3-carboxylic acid CollisionEnergy:205060" M+H
PRECURSOR_MZ=202.053
INCHI="InChI=1S/C8H11NO3S/c1-8-3-2-6(10)9(8)5(4-13-8)7(11)12/h5H,2-4H2,1H3,(H,11,12)"
SMILES=CC12CCC(=O)N1C(C(=O)O)CS2
SPECTRUMID=CCMSLIB00010120878
53.039139 3281.0 
55.050282 3497.0 
55.054741 99304.0 
55.934952 5592.0 
56.965279 18727.0 
58.97184 2682.0 
58.995499 206914.0 
59.798759 2419.0 
60.956429 2652.0 
70.065536 302934.0 
76.022003 4989.0 
80.049858 15185.0 
80.903458 2734.0 
81.033836 5411.0 
82.06562 11681.0 
84.959923 30865.0 
86.984261 6006.0 
86.990143 139209.0 
92.394707 3395.0 
94.065262 303225.0 
96.015221 3025.0 
96.044327 4180.0 
98.060158 4742141.0 
99.044296 13884.0 
100.991173 2928.0 
101.950073 17487.0 
102.091698 2951.0 
104.304138 3751.0 
105.000473 91448.0 
110.060349 16046.0 
114.956299 42044.0 
122.059853 60918.0 
123.06739 2941.0 
128.052841 203606.0 
128.951141 3793.0 
132.966812 26462.0 
133.017654 3891.0 
146.961655 3008.0 
150.055267 2956.0 
156.047729 962570.0 
161.012451 4565.0 
168.06633 4351.0 
178.957977 12548.0 
178.969513 13166.0 
179.022842 12472.0 
184.042801 12908.0 
196.979111 14179.0 
202.053192 742285.0 
231.380386 3096.0 
END IONS

BEGIN IONS
NAME=tubocurarine CollisionEnergy:102040 M-2H
PRECURSOR_MZ=607.281
INCHI="InChI=1S/C37H40N2O6/c1-38-14-12-24-19-32(42-4)33-21-27(24)28(38)16-22-6-9-26(10-7-22)44-37-35-25(20-34(43-5)36(37)41)13-15-39(2,3)29(35)17-23-8-11-30(40)31(18-23)45-33/h6-11,18-21,28-29H,12-17H2,1-5H3,(H-,40,41)/p+1/t28-,29+/m0/s1"
SMILES=COc1cc2c3cc1Oc1cc(ccc1O)CC1c4c(cc(OC)c(O)c4Oc4ccc(cc4)CC3N(C)CC2)CC[N+]1(C)C
SPECTRUMID=CCMSLIB00010112222
56.00354 2720.0 
61.447739 2475.0 
93.615067 2427.0 
94.182762 2657.0 
118.679893 3856.0 
120.150787 2749.0 
129.770569 2744.0 
134.190735 4190.0 
136.388474 3093.0 
168.188324 3371.0 
213.889526 2583.0 
236.544876 2913.0 
346.716949 3076.0 
412.117737 3839.0 
471.192535 12992.0 
534.192688 30870.0 
592.256653 10108.0 
607.281311 574455.0 
END IONS

BEGIN IONS
NAME="(3,4-dimethoxyphenyl)-N-(2-{N-[2-(3,4-dimethoxyphenyl)ethyl]carbamoyl}phenyl)c arboxamide CollisionEnergy:102040" M+Na
PRECURSOR_MZ=487.184
INCHI="InChI=1S/C26H28N2O6/c1-31-21-11-9-17(15-23(21)33-3)13-14-27-26(30)19-7-5-6-8-20(19)28-25(29)18-10-12-22(32-2)24(16-18)34-4/h5-12,15-16H,13-14H2,1-4H3,(H,27,30)(H,28,29)"
SMILES=COc1ccc(CCN=C(O)c2ccccc2N=C(O)c2ccc(OC)c(OC)c2)cc1OC
SPECTRUMID=CCMSLIB00010111336
52.021851 3240.0 
67.235077 2791.0 
73.940231 3576.0 
81.645554 2820.0 
82.384331 4306.0 
82.562408 3491.0 
104.268173 3711.0 
114.80822 3292.0 
120.922974 3721.0 
128.788788 3049.0 
148.927551 3072.0 
165.089966 4816.0 
213.824265 3527.0 
265.106567 4765.0 
335.100372 4576.0 
471.15152 20945.0 
472.159363 12049.0 
487.183044 5934878.0 
END IONS

BEGIN IONS
NAME="methyl 4-(5-chloro-4-hydroxy-3-methoxyphenyl)-2-methyl-5-oxo-1,4,6,7,8-pentahy droquinoline-3-carboxylate CollisionEnergy:102040" M-H
PRECURSOR_MZ=376.096
INCHI="InChI=1S/C19H20ClNO5/c1-9-15(19(24)26-3)16(17-12(21-9)5-4-6-13(17)22)10-7-11(20)18(23)14(8-10)25-2/h7-8,16,21,23H,4-6H2,1-3H3"
SMILES=COC(=O)C1=C(C)NC2=C(C(=O)CCC2)C1c1cc(Cl)c(O)c(OC)c1
SPECTRUMID=CCMSLIB00010111099
51.204681 2585.0 
78.995758 2582.0 
92.16259 2846.0 
92.411789 3477.0 
108.845177 2672.0 
111.266144 3041.0 
114.200844 2733.0 
118.698212 3014.0 
130.068405 2825.0 
136.266907 2899.0 
141.982895 757440.0 
148.077118 3638.0 
157.006363 235335.0 
158.060516 4726.0 
159.269775 2531.0 
160.077515 5918.0 
162.055222 2813.0 
170.812088 3269.0 
174.055939 3537.0 
203.059158 38842.0 
218.082489 404909.0 
232.057907 2886.0 
235.048676 14389.0 
239.902802 3980.0 
265.07547 3232.0 
293.069824 15472.0 
312.043549 3232.0 
314.021912 6007.0 
328.03894 6013.0 
329.044708 4979.0 
344.069641 16411.0 
361.070801 3243.0 
376.096161 2072944.0 
END IONS

BEGIN IONS
NAME=(+)-Bicuculline CollisionEnergy:205060 M+H
PRECURSOR_MZ=368.113
INCHI="InChI=1S/C20H17NO6/c1-21-5-4-10-6-14-15(25-8-24-14)7-12(10)17(21)18-11-2-3-13-19(26-9-23-13)16(11)20(22)27-18/h2-3,6-7,17-18H,4-5,8-9H2,1H3/t17-,18+/m0/s1"
SMILES=CN1CCc2cc3c(cc2C1C1OC(=O)c2c1ccc1c2OCO1)OCO3
SPECTRUMID=CCMSLIB00010116480
55.15147 3823.0 
58.563 3533.0 
65.03907 5603.0 
91.054123 45865.0 
103.054352 4806.0 
119.049049 54342.0 
121.028526 20042.0 
131.049011 22044.0 
131.072601 15027.0 
135.044159 47941.0 
137.059387 4371.0 
141.07103 4125.0 
146.059357 4144.0 
147.04393 24363.0 
149.023468 28610.0 
149.059631 152939.0 
152.062836 3825.0 
153.069473 7077.0 
159.044464 42953.0 
159.067551 40702.0 
160.051407 16364.0 
160.075699 21019.0 
161.059616 18447.0 
161.083572 5150.0 
163.039841 11155.0 
163.054932 52453.0 
165.069748 199116.0 
167.048477 6598.0 
167.08551 22357.0 
174.05394 20792.0 
175.040039 37820.0 
175.062286 7592.0 
176.070602 350170.0 
177.018082 138735.0 
177.069412 42899.0 
179.033463 22473.0 
179.049011 5678.0 
179.085922 9796.0 
181.064438 25534.0 
187.038559 16053.0 
187.057755 4503.0 
188.051895 8069.0 
188.07045 170203.0 
189.078354 238341.0 
190.086014 1140766.0 
191.048813 214237.0 
191.093506 20688.0 
193.064621 204199.0 
195.042984 8666.0 
195.080017 27494.0 
197.058701 6767.0 
203.050888 5306.0 
205.064651 149574.0 
205.085129 7430.0 
207.043472 6903.0 
207.079803 16529.0 
209.059662 50407.0 
211.075104 17838.0 
211.528061 5026.0 
211.548767 4826.0 
217.064835 5464.0 
219.043762 294221.0 
220.05162 14442.0 
221.059479 492831.0 
222.066681 15934.0 
223.038025 7063.0 
223.07515 204194.0 
225.053802 29609.0 
231.044235 8508.0 
233.059341 360139.0 
234.090775 4753.0 
235.075378 85259.0 
237.054611 83906.0 
238.062439 6044.0 
239.069885 26722.0 
247.038528 145446.0 
248.04483 8420.0 
249.05423 3763498.0 
251.069962 236068.0 
251.093567 5766.0 
251.09967 6688.0 
253.048645 9202.0 
259.036285 4675.0 
261.054199 724910.0 
262.061829 16376.0 
263.069611 76965.0 
264.042023 4686.0 
264.073761 4637.0 
265.049622 41047.0 
266.055359 36207.0 
267.064575 113749.0 
275.070465 15862.0 
277.049103 3556492.0 
278.058685 31865.0 
279.064636 1085080.0 
281.043304 31400.0 
281.079865 17938.0 
282.050232 13701.0 
289.048889 352248.0 
290.054596 6507.0 
291.06488 85923.0 
292.07132 34959.0 
293.044983 7613.0 
293.081177 14858.0 
295.059875 70411.0 
297.073212 5306.0 
303.064056 71098.0 
305.040039 5491.0 
306.050018 9035.0 
307.059448 2310838.0 
309.07663 31844.0 
311.052979 32378.0 
311.595337 4088.0 
317.043945 8069.0 
319.059052 261609.0 
320.055359 56282.0 
325.069702 155248.0 
332.08963 5667.0 
335.078888 44600.0 
337.06958 66191.0 
350.10379 32726.0 
368.112244 6100242.0 
END IONS

BEGIN IONS
NAME=501-36-0 CollisionEnergy:102040 M-H
PRECURSOR_MZ=227.071
INCHI="InChI=1S/C14H12O3/c15-12-5-3-10(4-6-12)1-2-11-7-13(16)9-14(17)8-11/h1-9,15-17H/b2-1+"
SMILES=Oc1ccc(C=Cc2cc(O)cc(O)c2)cc1
SPECTRUMID=CCMSLIB00010113177
59.01326 2923.0 
73.954147 2672.0 
90.106506 2597.0 
119.049698 3234.0 
130.983978 18645.0 
139.113174 3940.0 
141.071075 10928.0 
143.050232 81147.0 
145.030106 2740.0 
157.065933 28597.0 
158.978653 42662.0 
159.081665 38537.0 
159.103088 14678.0 
168.057693 2636.0 
180.911148 3290.0 
181.065979 11296.0 
182.07431 11316.0 
183.004349 5672.0 
183.081619 61723.0 
185.060989 247476.0 
208.428741 11236.0 
209.061951 2848.0 
212.046951 2986.0 
225.055893 3205.0 
226.058975 9064.0 
226.828339 2544.0 
227.071655 2226163.0 
END IONS

BEGIN IONS
NAME=cAMP CollisionEnergy:102040 2M+H
PRECURSOR_MZ=659.112
INCHI="InChI=1S/C10H12N5O6P/c11-8-5-9(13-2-12-8)15(3-14-5)10-6(16)7-4(20-10)1-19-22(17,18)21-7/h2-4,6-7,10,16H,1H2,(H,17,18)(H2,11,12,13)/t4-,6-,7-,10-/m1/s1"
SMILES=Nc1ncnc2c1ncn2[C@@H]1O[C@@H]2COP(=O)(O)O[C@H]2[C@H]1O
SPECTRUMID=CCMSLIB00010103241
92.398102 2827.050049 
97.028702 19715.599609 
113.661003 2800.850098 
118.677002 3673.02002 
136.061996 150813.0 
136.238007 3398.639893 
137.292999 2970.139893 
141.179001 3054.889893 
148.901993 2986.389893 
180.897995 2840.219971 
204.087006 3399.939941 
232.082993 5221.330078 
266.770996 3091.340088 
312.048004 23524.800781 
330.05899 583922.0 
388.470001 3004.889893 
491.316986 2975.75 
659.112 7128.580078 
END IONS

BEGIN IONS
NAME=3-indol-3-yl-N-(4-iodo-2-methylphenyl)-2-[(phenylmethoxy)carbonylamino]propana mide CollisionEnergy:205060 M-H
PRECURSOR_MZ=552.079
INCHI="InChI=1S/C26H24IN3O3/c1-17-13-20(27)11-12-22(17)29-25(31)24(14-19-15-28-23-10-6-5-9-21(19)23)30-26(32)33-16-18-7-3-2-4-8-18/h2-13,15,24,28H,14,16H2,1H3,(H,29,31)(H,30,32)"
SMILES=Cc1cc(I)ccc1NC(=O)C(Cc1c[nH]c2ccccc12)N=C(O)OCc1ccccc1
SPECTRUMID=CCMSLIB00010121865
78.282372 2449.0 
92.712379 2946.0 
95.225151 3095.0 
107.661774 3688.0 
116.763718 2850.0 
126.904961 325165.0 
136.206223 2608.0 
140.050293 25554.0 
142.066101 73386.0 
168.045303 56653.0 
186.978683 2524.0 
203.805862 2846.0 
215.166779 2637.0 
231.959534 2955.0 
234.473785 3313.0 
261.095032 2635.0 
313.956879 9940.0 
314.964752 23182.0 
401.014435 35106.0 
444.020844 182842.0 
444.090515 6039.0 
END IONS

BEGIN IONS
NAME="8-{[2-(4-ethoxyphenyl)-5-methyl(1,3-oxazol-4-yl)]methylthio}-9-methylhydropuri n-6-one CollisionEnergy:205060" M+H
PRECURSOR_MZ=398.128
INCHI="InChI=1S/C19H19N5O3S/c1-4-26-13-7-5-12(6-8-13)18-22-14(11(2)27-18)9-28-19-23-15-16(24(19)3)20-10-21-17(15)25/h5-8,10H,4,9H2,1-3H3,(H,20,21,25)"
SMILES=CCOc1ccc(-c2nc(CSc3nc4c(O)ncnc4n3C)c(C)o2)cc1
SPECTRUMID=CCMSLIB00010119632
56.965248 3805.0 
65.038963 16247.0 
69.033813 85383.0 
92.049583 17465.0 
92.372162 4274.0 
104.278938 5030.0 
119.036346 6158.0 
119.049171 59819.0 
120.044273 3657306.0 
121.028313 20551.0 
139.712463 4900.0 
147.080353 45322.0 
147.610016 4945.0 
148.075455 4586970.0 
149.060089 14669.0 
157.957077 4486.0 
161.071198 5798.0 
166.08606 5989.0 
173.084381 5736.0 
183.033096 26334.0 
187.062866 7736.0 
188.070282 1706195.0 
189.101791 7449.0 
215.281052 7159.0 
216.101578 10546188.0 
216.925873 8218.0 
257.127747 31863.0 
276.157562 7335.0 
281.896179 4476.0 
339.059937 7194.0 
375.080231 6173.0 
398.127441 362524.0 
END IONS

BEGIN IONS
NAME="methyl 5-cyano-2-methyl-6-methylthio-4-(3,4,5-trimethoxyphenyl)-1,4-dihydropyr idine-3-carboxylate CollisionEnergy:205060" M+NH4
PRECURSOR_MZ=408.159
INCHI="InChI=1S/C19H22N2O5S/c1-10-15(19(22)26-5)16(12(9-20)18(21-10)27-6)11-7-13(23-2)17(25-4)14(8-11)24-3/h7-8,16,21H,1-6H3"
SMILES=COC(=O)C1=C(C)NC(SC)=C(C#N)C1c1cc(OC)c(OC)c(OC)c1
SPECTRUMID=CCMSLIB00010120962
69.800873 2485.0 
92.377708 3376.0 
94.580688 2504.0 
119.060364 14538.0 
133.039536 3992.0 
136.021347 20292.0 
143.023849 3197.0 
145.039932 5434.0 
163.032364 106974.0 
164.0159 2947.0 
175.049973 2792.0 
176.003387 14546.0 
177.011108 3143.0 
191.02713 259490.0 
208.030197 41521.0 
221.516953 2795.0 
223.05336 677469.0 
278.109589 3927.0 
359.105927 3878.0 
388.117706 18781.0 
391.127106 3392.0 
END IONS

BEGIN IONS
NAME=Skimmianine CollisionEnergy:205060 M+H
PRECURSOR_MZ=260.092
INCHI="InChI=1S/C14H13NO4/c1-16-10-5-4-8-11(13(10)18-3)15-14-9(6-7-19-14)12(8)17-2/h4-7H,1-3H3"
SMILES=COc1ccc2c(OC)c3ccoc3nc2c1OC
SPECTRUMID=CCMSLIB00010114772
53.862789 4546.0 
64.124161 3878.0 
79.021202 7211.0 
80.114723 4141.0 
82.389 4487.0 
92.368088 4329.0 
99.560783 4171.0 
120.341682 4305.0 
128.049469 21953.0 
133.997589 4017.0 
136.194519 5267.0 
142.065063 25809.0 
143.07341 6579.0 
146.059357 5239.0 
148.634491 4058.0 
156.044205 131791.0 
157.957504 4920.0 
160.039215 20879.0 
169.051605 4790.0 
170.059814 117553.0 
171.067673 9468.0 
172.039124 4089.0 
173.046661 4394.0 
174.054688 51327.0 
176.979965 8981.0 
184.039032 1094989.0 
185.046692 15637.0 
186.054001 32979.0 
187.062531 8296.0 
188.070389 21334.0 
198.054459 122146.0 
199.062515 3115991.0 
200.034363 52260.0 
200.069 39035.0 
201.041702 190724.0 
202.049591 288224.0 
212.033783 228573.0 
213.041031 32247.0 
214.049454 503508.0 
215.057327 21051.0 
216.065186 2256494.0 
226.049347 120366.0 
227.057297 10763738.0 
228.028534 81556.0 
228.064835 132527.0 
229.036163 28963.0 
229.072952 21775.0 
230.044281 1302218.0 
231.052017 698787.0 
236.947693 49134.0 
236.982941 52524.0 
242.044479 33701.0 
244.059845 971658.0 
245.067703 1460331.0 
246.040909 6824.0 
254.957703 9575.0 
260.091217 10103634.0 
268.083527 23557.0 
END IONS

BEGIN IONS
NAME=N-(4-bromophenyl)-2-[2-oxo-4-(piperidylcarbonyl)hydroquinolyl]acetamide CollisionEnergy:102040 M+formate
PRECURSOR_MZ=512.083
INCHI="InChI=1S/C23H22BrN3O3/c24-16-8-10-17(11-9-16)25-21(28)15-27-20-7-3-2-6-18(20)19(14-22(27)29)23(30)26-12-4-1-5-13-26/h2-3,6-11,14H,1,4-5,12-13,15H2,(H,25,28)"
SMILES=O=C(Cn1c(=O)cc(C(=O)N2CCCCC2)c2ccccc21)Nc1ccc(Br)cc1
SPECTRUMID=CCMSLIB00010114458
61.425308 2206.0 
76.564461 2502.0 
95.185562 2594.0 
102.101532 2829.0 
110.958389 2658.0 
121.889236 2687.0 
240.757538 2820.0 
426.010345 3048.0 
466.078125 29772.0 
END IONS

BEGIN IONS
NAME=CHEMBL1565874 CollisionEnergy:102040 2M-H
PRECURSOR_MZ=575.119
INCHI="InChI=1S/C15H12O6/c16-8-4-9-14(20)10(6-21-15(9)13(19)5-8)7-1-2-11(17)12(18)3-7/h1-5,10,16-19H,6H2/t10-/m1/s1"
SMILES=O=C1c2cc(O)cc(O)c2OCC1c1ccc(O)c(O)c1
SPECTRUMID=CCMSLIB00010110041
52.5853 2643.0 
61.630791 2754.0 
65.002869 4181.0 
73.964394 3546.0 
104.298828 4313.0 
107.014076 24149.0 
125.024117 20576.0 
130.505768 2749.0 
135.045074 203151.0 
136.227509 3342.0 
151.003571 467881.0 
209.033188 9591.0 
256.22113 2801.0 
267.811157 3528.0 
281.209259 3362.0 
287.055969 973787.0 
371.008118 4191.0 
460.976501 7182.0 
528.964783 16132.0 
575.118225 3541.0 
END IONS

BEGIN IONS
NAME=Vanillic acid CollisionEnergy:205060 M+H-H2O
PRECURSOR_MZ=151.039
INCHI="InChI=1S/C8H8O4/c1-12-7-4-5(8(10)11)2-3-6(7)9/h2-4,9H,1H3,(H,10,11)"
SMILES=COc1cc(C(=O)O)ccc1O
SPECTRUMID=CCMSLIB00010125636
53.039101 36351.0 
55.018372 32692.0 
57.033932 5134.0 
65.039062 94467.0 
65.461777 2367.0 
67.018127 2054.0 
67.054718 90334.0 
68.943428 2342.0 
68.952469 33566.0 
68.982521 18627.0 
68.99765 4621.0 
71.013138 12859.0 
77.03891 9465.0 
79.018204 19227.0 
80.025993 10405.0 
80.954422 2331.0 
81.033546 3007.0 
82.014153 17187.0 
84.020844 9719.0 
85.028709 17264.0 
86.992844 27938.0 
92.363777 3458.0 
93.033623 3051.0 
95.012787 12354.0 
95.049332 36553.0 
98.470741 8943.0 
100.024384 52767.0 
105.003304 36613.0 
105.070053 3004.0 
107.476028 27998.0 
108.012329 4239.0 
108.020638 123986.0 
109.028412 10109.0 
110.008812 4428.0 
111.04409 4880.0 
112.01561 20054.0 
116.48114 16344.0 
118.034927 13126.0 
118.984032 4464.0 
121.040039 3159.0 
123.043861 3328.0 
123.195061 2647.0 
127.039513 4437.0 
127.990067 2227.0 
128.019241 64823.0 
129.938446 2037.0 
136.015503 22195.0 
141.054733 42163.0 
146.029694 14394.0 
151.038879 635108.0 
151.050751 120850.0 
154.026367 20170.0 
154.906967 2584.0 
157.949875 3353.0 
167.124069 2636.0 
END IONS

BEGIN IONS
NAME=6-fluorochromen-4-one CollisionEnergy:205060 M+H
PRECURSOR_MZ=165.035
INCHI=InChI=1S/C9H5FO2/c10-6-1-2-9-7(5-6)8(11)3-4-12-9/h1-5H
SMILES=O=c1ccoc2ccc(F)cc12
SPECTRUMID=CCMSLIB00010123491
51.02343 15501.0 
53.002621 11593.0 
56.964939 2336.0 
57.094311 2548.0 
68.997902 2097.0 
71.029373 11815.0 
73.968483 2193.0 
77.125603 2183.0 
95.029327 2529.0 
99.023903 3207.0 
104.306084 2541.0 
107.971764 2671.0 
109.044601 182799.0 
113.039703 10076.0 
115.834793 2443.0 
123.034859 10460.0 
123.080818 2522.0 
129.044022 3153.0 
137.039871 4278.0 
165.034332 3254050.0 
183.151291 2583.0 
END IONS

BEGIN IONS
NAME=N-(4-acetylphenyl)-2-(9-methyl-6-oxohydropurin-8-ylthio)acetamide CollisionEnergy:205060 M+H
PRECURSOR_MZ=358.097
INCHI="InChI=1S/C16H15N5O3S/c1-9(22)10-3-5-11(6-4-10)19-12(23)7-25-16-20-13-14(21(16)2)17-8-18-15(13)24/h3-6,8H,7H2,1-2H3,(H,19,23)(H,17,18,24)"
SMILES=CC(=O)c1ccc(NC(=O)CSc2nc3c(O)ncnc3n2C)cc1
SPECTRUMID=CCMSLIB00010123947
57.04512 6416.0 
57.6861 2932.0 
58.995369 4283.0 
62.461109 3584.0 
69.288132 2883.0 
73.951622 4030.0 
76.84227 2809.0 
77.892281 2946.0 
79.054367 3327.0 
79.908096 2798.0 
84.95977 3277.0 
84.985352 22802.0 
88.236328 3074.0 
94.065468 4696.0 
105.033188 5975.0 
106.040176 5869.0 
106.065086 45433.0 
107.023918 6522.0 
108.055496 16562.0 
110.035217 3849.0 
111.043213 2794.0 
117.057793 4875.0 
118.650108 4588.0 
124.050346 23726.0 
126.012161 5369.0 
132.044327 7190.0 
133.050934 7587.0 
134.03511 6035.0 
134.060165 64354.0 
136.076035 6539.0 
137.0457 101771.0 
139.991287 50955.0 
140.028244 4253.0 
144.044235 17190.0 
148.075607 94817.0 
149.045624 138826.0 
150.012863 6574.0 
150.053558 171751.0 
150.996216 39002.0 
151.06131 400407.0 
152.027512 20242.0 
153.022705 13851.0 
154.006912 4353.0 
157.965866 3826.0 
159.067627 3985.0 
161.04541 30346.0 
162.053513 85314.0 
163.061295 157227.0 
168.022308 98880.0 
168.037537 5189.0 
170.039185 22060.0 
177.022522 6610.0 
179.056808 7188.0 
181.017685 1221899.0 
182.024887 25969.0 
183.033447 22340.0 
186.032669 14688.0 
191.053131 3497.0 
195.033371 3131206.0 
213.043945 32900.0 
222.044571 17018.0 
223.028168 3639519.0 
236.059891 25401.0 
248.583374 3629.0 
261.592773 3232.0 
318.985107 3789.0 
340.082916 12916.0 
342.63504 2983.0 
358.096466 98965.0 
END IONS

BEGIN IONS
NAME="(6-azabicyclo[4.4.0]dec-2-yl)methyl 5,7-diphenyl-8-hydropyrazolo[1,5-a]pyrimid ine-2-carboxylate CollisionEnergy:102040" M+H
PRECURSOR_MZ=467.244
INCHI="InChI=1S/C29H30N4O2/c34-29(35-20-23-14-9-17-32-16-8-7-15-26(23)32)25-19-28-30-24(21-10-3-1-4-11-21)18-27(33(28)31-25)22-12-5-2-6-13-22/h1-6,10-13,18-19,23,26H,7-9,14-17,20H2"
SMILES=O=C(OCC1CCCN2CCCCC12)c1cc2nc(-c3ccccc3)cc(-c3ccccc3)n2n1
SPECTRUMID=CCMSLIB00010107582
56.049801 8323.0 
58.06559 58312.0 
60.236759 3394.0 
67.054558 21483.0 
69.070213 16842.0 
70.065376 29847.0 
79.054199 6390.0 
81.070221 8835.0 
82.06514 6351.0 
84.08107 71292.0 
92.369537 3792.0 
93.069809 8476.0 
96.08091 31980.0 
98.096474 372263.0 
107.085449 4114.0 
109.101318 8356.0 
110.096382 49712.0 
124.112068 127719.0 
137.119995 20325.0 
150.127457 18669.0 
150.29776 4553.0 
152.143311 7462508.0 
185.377975 4341.0 
316.107849 89506.0 
320.033356 4738.0 
466.244385 4672.0 
467.243622 12019041.0 
END IONS

BEGIN IONS
NAME=Tangeretin CollisionEnergy:102040 M+Na
PRECURSOR_MZ=395.11
INCHI="InChI=1S/C20H20O7/c1-22-12-8-6-11(7-9-12)14-10-13(21)15-16(23-2)18(24-3)20(26-5)19(25-4)17(15)27-14/h6-10H,1-5H3"
SMILES=COc1ccc(-c2cc(=O)c3c(OC)c(OC)c(OC)c(OC)c3o2)cc1
SPECTRUMID=CCMSLIB00010104067
57.94532 2914.0 
69.563957 2742.0 
83.685593 3526.0 
104.26593 3732.0 
170.82988 2862.0 
208.902771 8577.0 
256.745819 3104.0 
303.397675 4672.0 
350.041809 3882.0 
365.062683 852986.0 
380.086182 295290.0 
395.109772 4023097.0 
395.25885 204946.0 
413.118744 18565.0 
436.135284 54716.0 
644.940308 3559.0 
END IONS

BEGIN IONS
NAME=Purine CollisionEnergy:102040 M-H
PRECURSOR_MZ=119.036
INCHI="InChI=1S/C5H4N4/c1-4-5(8-2-6-1)9-3-7-4/h1-3H,(H,6,7,8,9)"
SMILES=c1ncc2nc[nH]c2n1
SPECTRUMID=CCMSLIB00010106584
58.789261 2564.0 
63.714668 2658.0 
65.014107 79819.0 
66.743874 3236.0 
67.029823 26870.0 
68.024902 15151.0 
73.955048 3110.0 
90.009506 11143.0 
92.025307 223875.0 
101.92411 6063.0 
104.285088 4550.0 
109.487129 2974.0 
118.696213 3596.0 
118.926102 68746.0 
119.036293 7697266.0 
119.37796 3770.0 
131.762634 3333.0 
END IONS

BEGIN IONS
NAME=scopoletin CollisionEnergy:102040 M+H
PRECURSOR_MZ=193.05
INCHI="InChI=1S/C10H8O4/c1-13-9-4-6-2-3-10(12)14-8(6)5-7(9)11/h2-5,11H,1H3"
SMILES=COc1cc2ccc(=O)oc2cc1O
SPECTRUMID=CCMSLIB00010108236
50.468021 3109.0 
89.038818 12078.0 
100.659187 3255.0 
117.033127 16295.0 
122.035461 4688.0 
125.387009 2905.0 
133.028336 1341393.0 
134.03624 6328.0 
136.20787 3302.0 
137.059586 231004.0 
146.974686 4728.0 
147.618073 2679.0 
149.059555 168343.0 
150.031189 7372.0 
152.007904 3687.0 
157.976822 3970.0 
161.022781 32025.0 
164.865631 3829.0 
165.054504 299381.0 
169.98996 12909.0 
178.025894 603655.0 
192.340256 3467.0 
192.35791 11831.0 
193.049347 13152828.0 
193.743942 13701.0 
END IONS

BEGIN IONS
NAME=Galangin CollisionEnergy:102040 M+H
PRECURSOR_MZ=271.06
INCHI="InChI=1S/C15H10O5/c16-9-6-10(17)12-11(7-9)20-15(14(19)13(12)18)8-4-2-1-3-5-8/h1-7,16-17,19H"
SMILES=O=c1c(O)c(-c2ccccc2)oc2cc(O)cc(O)c12
SPECTRUMID=CCMSLIB00010107537
52.859558 2372.0 
79.077377 2461.0 
82.421349 2614.0 
86.861931 2913.0 
105.03344 23716.0 
109.946518 2572.0 
122.655121 2699.0 
124.090843 3076.0 
153.018173 33276.0 
165.01828 26852.0 
174.417877 3100.0 
197.058365 4467.0 
215.070038 20113.0 
225.052734 3126.0 
228.396255 3332.0 
236.386658 2961.0 
245.390732 3779.0 
269.907928 5393.0 
270.049316 4521.0 
271.060059 5826235.0 
272.219086 5887.0 
288.931244 2797.0 
END IONS

BEGIN IONS
NAME="2H-benzo[3,4-d]1,3-dioxolen-5-yl-N-[2-(3,4-dimethoxyphenyl)-isopropyl]carboxam ide CollisionEnergy:102040" M+H
PRECURSOR_MZ=344.149
INCHI="InChI=1S/C19H21NO5/c1-12(8-13-4-6-15(22-2)17(9-13)23-3)20-19(21)14-5-7-16-18(10-14)25-11-24-16/h4-7,9-10,12H,8,11H2,1-3H3,(H,20,21)"
SMILES=COc1ccc(CC(C)N=C(O)c2ccc3c(c2)OCO3)cc1OC
SPECTRUMID=CCMSLIB00010104638
50.671181 3175.0 
50.743851 3273.0 
53.64011 2718.0 
66.071716 2695.0 
66.510918 2946.0 
68.997513 2885.0 
91.054367 12172.0 
95.012741 3463.0 
95.346809 3065.0 
119.085533 6860.0 
121.064102 4496.0 
123.044197 3781.0 
136.051514 26457.0 
138.067215 29400.0 
139.075912 5006.0 
147.080399 26936.0 
148.088593 6085.0 
148.554016 3921.0 
149.023315 4466800.0 
151.075195 274276.0 
159.064377 4079.0 
164.083054 41943.0 
166.049698 32455.0 
179.106567 1850909.0 
194.116745 4765.0 
216.101746 5187.0 
235.745468 3225.0 
264.631592 4400.0 
286.644318 3787.0 
298.082458 5161.0 
299.653351 21243.0 
300.153656 7541.0 
309.914032 2998.0 
313.159607 4735.0 
321.665375 38883.0 
322.168793 6127.0 
326.137054 13951.0 
327.121521 38981.0 
343.678955 217900.0 
343.72644 7404.0 
344.147827 1506748.0 
344.825104 3303.0 
424.87851 3604.0 
486.126404 3149.0 
488.16629 3161.0 
513.489868 3417.0 
600.601868 3462.0 
END IONS

BEGIN IONS
NAME=2-(4-hydroxyquinazolin-2-ylthio)-N-(3-phenylpropyl)acetamide CollisionEnergy:205060 M-H
PRECURSOR_MZ=352.112
INCHI="InChI=1S/C19H19N3O2S/c23-17(20-12-6-9-14-7-2-1-3-8-14)13-25-19-21-16-11-5-4-10-15(16)18(24)22-19/h1-5,7-8,10-11H,6,9,12-13H2,(H,20,23)(H,21,22,24)"
SMILES=OC(CSc1nc(O)c2ccccc2n1)=NCCCc1ccccc1
SPECTRUMID=CCMSLIB00010118046
56.49324 2327.0 
57.975231 48367.0 
65.317146 2353.0 
73.957176 3721.0 
79.925613 2348.0 
83.939941 2543.0 
92.38282 3038.0 
117.045883 19905.0 
118.661041 2679.0 
142.041565 3864.0 
145.040787 49869.0 
159.092712 23982.0 
160.051666 393931.0 
161.035431 16528.0 
172.051071 3887.0 
176.004791 12468.0 
177.013016 56130.0 
189.013062 30453.0 
190.021774 2628.0 
190.038773 9100.0 
191.028442 73531.0 
207.800003 13733.0 
210.874329 2436.0 
217.007492 17389.0 
220.651306 2499.0 
261.103516 2929.0 
276.113617 4186.0 
278.129974 448237.0 
318.125824 3546.0 
344.200775 2581.0 
351.986511 3084.0 
352.112762 162653.0 
END IONS

BEGIN IONS
NAME=N-[2-(2-methylindol-3-yl)ethyl](4-methylphenyl)carboxamide CollisionEnergy:205060 M+H
PRECURSOR_MZ=293.165
INCHI="InChI=1S/C19H20N2O/c1-13-7-9-15(10-8-13)19(22)20-12-11-16-14(2)21-18-6-4-3-5-17(16)18/h3-10,21H,11-12H2,1-2H3,(H,20,22)"
SMILES=Cc1ccc(C(=O)NCCc2c(C)[nH]c3ccccc23)cc1
SPECTRUMID=CCMSLIB00010115411
50.562149 2763.0 
54.5714 3606.0 
55.018311 3811.0 
65.039047 140451.0 
67.054642 69977.0 
69.896423 2903.0 
74.836594 3295.0 
75.999863 3399.0 
80.049789 3644.0 
82.420547 3009.0 
91.054428 406360.0 
93.069794 15896.0 
95.049141 19663.0 
109.064941 110979.0 
115.054337 24307.0 
116.062103 3993.0 
117.05761 39505.0 
117.070068 83803.0 
119.049232 3589981.0 
120.052368 6985.0 
129.070068 4651.0 
130.065201 73077.0 
131.073914 9320.0 
131.085266 61277.0 
132.080719 22049.0 
136.076141 37298.0 
141.069656 54393.0 
142.065872 7773.0 
143.073044 1168594.0 
146.095901 7841.0 
156.080872 15304.0 
157.088791 36215.0 
157.582581 3643.0 
158.096466 8568178.0 
162.091248 129266.0 
258.12851 12549.0 
276.138763 47234.0 
293.164551 555590.0 
END IONS

BEGIN IONS
NAME=acacetin CollisionEnergy:205060 M-H
PRECURSOR_MZ=283.061
INCHI="InChI=1S/C16H12O5/c1-20-11-4-2-9(3-5-11)14-8-13(19)16-12(18)6-10(17)7-15(16)21-14/h2-8,17-18H,1H3"
SMILES=COc1ccc(-c2cc(=O)c3c(O)cc(O)cc3o2)cc1
SPECTRUMID=CCMSLIB00010119042
50.199902 2454.0 
56.843369 2242.0 
66.754066 2691.0 
71.220039 2274.0 
80.344482 2305.0 
83.013977 4686.0 
91.943733 2237.0 
98.077927 2184.0 
107.014221 13091.0 
110.001297 5626.0 
148.017883 2626.0 
149.995682 3809.0 
151.003845 21158.0 
157.994232 2469.0 
163.003723 37701.0 
165.991379 13145.0 
169.015182 3358.0 
171.045349 12753.0 
184.052765 4816.0 
195.04628 4029.0 
196.05304 5314.0 
198.032227 5092.0 
211.040161 21027.0 
212.048645 5219.0 
223.040176 3642.0 
224.047836 2543.0 
239.034775 32995.0 
240.042419 37291.0 
267.029907 19057.0 
268.037598 674772.0 
283.060913 382849.0 
END IONS

BEGIN IONS
NAME="(3,4-dimethoxyphenyl)-N-(2-phenyl(2-hydrobenzotriazol-5-yl))carboxamide CollisionEnergy:205060" M+Cl
PRECURSOR_MZ=409.107
INCHI="InChI=1S/C21H18N4O3/c1-27-19-11-8-14(12-20(19)28-2)21(26)22-15-9-10-17-18(13-15)24-25(23-17)16-6-4-3-5-7-16/h3-13H,1-2H3,(H,22,26)"
SMILES=COc1ccc(C(O)=Nc2ccc3nn(-c4ccccc4)nc3c2)cc1OC
SPECTRUMID=CCMSLIB00010120494
66.754982 2211.0 
68.155807 2164.0 
68.995506 5819.0 
78.00042 2661.0 
80.080467 2177.0 
92.390953 3385.0 
92.995483 4250.0 
98.075653 2343.0 
105.022346 3061.0 
112.985786 2511.0 
116.996498 3434.0 
118.033531 2652.0 
136.224518 2559.0 
169.468826 2774.0 
172.859406 2954.0 
180.990067 2858.0 
192.990692 2796.0 
193.801849 2758.0 
212.18927 4598.0 
304.984192 13965.0 
324.988373 3579.0 
342.073944 2572.0 
342.980988 3769.0 
343.083862 12635.0 
357.098694 5412.0 
373.131409 36899.0 
408.975311 22689.0 
END IONS

BEGIN IONS
NAME=Asiatic acid CollisionEnergy:205060 M-H
PRECURSOR_MZ=487.343
INCHI="InChI=1S/C30H48O5/c1-17-9-12-30(25(34)35)14-13-28(5)19(23(30)18(17)2)7-8-22-26(3)15-20(32)24(33)27(4,16-31)21(26)10-11-29(22,28)6/h7,17-18,20-24,31-33H,8-16H2,1-6H3,(H,34,35)/t17-,18+,20-,21-,22-,23+,24+,26+,27+,28-,29-,30+/m1/s1"
SMILES=CC1CCC2(C(=O)O)CCC3(C)C(=CCC4C5(C)CC(O)C(O)C(C)(CO)C5CCC43C)C2C1C
SPECTRUMID=CCMSLIB00010125039
51.26096 3283.0 
61.493721 3474.0 
73.029007 4556.0 
73.96801 3339.0 
92.397179 4697.0 
146.511475 3223.0 
151.260925 3781.0 
334.982178 4159.0 
363.269897 4746.0 
374.131104 3874.0 
377.287598 13612.0 
379.300598 22861.0 
391.299988 18913.0 
393.315125 6830.0 
407.30014 6122.0 
409.311218 60714.0 
421.312378 8278.0 
430.394104 4508.0 
439.314026 4052.0 
487.342957 9532824.0 
488.353546 4058.0 
END IONS

BEGIN IONS
NAME=DL-Thyroxine CollisionEnergy:205060 M+H
PRECURSOR_MZ=777.694
INCHI="InChI=1S/C15H11I4NO4/c16-8-4-7(5-9(17)13(8)21)24-14-10(18)1-6(2-11(14)19)3-12(20)15(22)23/h1-2,4-5,12,21H,3,20H2,(H,22,23)"
SMILES=NC(Cc1cc(I)c(Oc2cc(I)c(O)c(I)c2)c(I)c1)C(=O)O
SPECTRUMID=CCMSLIB00010118795
63.023361 80655.0 
64.031197 21427.0 
65.038887 57051.0 
66.046806 83255.0 
67.041962 7104.0 
68.997452 22337.0 
74.023949 44795.0 
77.002327 9417.0 
77.038834 9993.0 
78.046677 71803.0 
79.018051 38150.0 
79.041931 6775.0 
80.049667 68527.0 
81.03373 11181.0 
89.038773 132815.0 
90.040443 9510.0 
90.046494 172743.0 
91.018059 148988.0 
91.054413 66610.0 
91.743752 5886.0 
92.019287 9889.0 
92.025742 217280.0 
92.04966 24337.0 
93.033669 50711.0 
95.036308 8804.0 
102.046494 27196.0 
103.054237 56840.0 
104.049423 401482.0 
105.033546 85130.0 
105.057281 450449.0 
106.041206 12756.0 
107.012733 9740.0 
107.049072 13463.0 
108.044144 37758.0 
109.028236 8912.0 
111.031487 59516.0 
115.054153 290925.0 
116.049461 31347.0 
116.06192 27112.0 
117.057259 1049380.0 
118.041161 9052.0 
118.065086 328854.0 
119.013039 40128.0 
119.036591 6350.0 
126.046623 29814.0 
127.053902 44971.0 
128.062012 13377.0 
129.069595 39881.0 
130.064651 11822.0 
131.048965 27002.0 
132.019943 9216.0 
132.044418 85582.0 
133.052246 93019.0 
134.059952 26662.0 
139.054153 157901.0 
140.050934 10988.0 
140.062103 158790.0 
141.069824 656024.0 
142.064758 6701.0 
143.049118 29411.0 
144.056229 12540.0 
145.028275 30557.0 
145.064484 41000.0 
150.0466 22138.0 
151.027405 7970.0 
151.054047 10530.0 
152.062027 138172.0 
153.057266 18566.0 
153.069901 76091.0 
153.914993 8460.0 
154.041092 10090.0 
154.064667 69944.0 
155.049011 786942.0 
156.056488 7182.0 
156.921448 5694.0 
158.035431 6266.0 
160.015686 11319.0 
161.023544 7826.0 
166.064545 43046.0 
167.048218 17765.0 
167.072891 406991.0 
168.056763 668407.0 
168.08075 353831.0 
169.064713 1671542.0 
170.035324 10671.0 
170.059525 22741.0 
172.052078 8063.0 
176.919922 12609.0 
177.927124 26497.0 
178.064896 101693.0 
179.048798 408620.0 
180.058289 10116.0 
180.080872 9649.0 
181.064774 320661.0 
182.036346 171455.0 
182.057007 14856.0 
183.044052 316193.0 
184.052383 23382.0 
186.030884 34342.0 
187.038651 31558.0 
190.934631 25415.0 
194.060425 45376.0 
195.044144 84721.0 
195.067719 134071.0 
196.032242 7816.0 
196.052246 239582.0 
196.075562 932732.0 
197.059677 2204282.0 
198.030701 7828.0 
199.038177 11073.0 
200.046097 10187.0 
203.942719 28625.0 
204.914551 32871.0 
205.922455 31561.0 
206.059265 62928.0 
207.022858 10179.0 
207.04393 186249.0 
207.067612 81968.0 
208.051788 99804.0 
209.059464 49060.0 
210.031021 9655.0 
210.054565 24113.0 
211.03891 249459.0 
211.062027 12219.0 
212.047104 10703.0 
216.95079 496060.0 
217.922073 322960.0 
218.929657 8092.0 
219.936905 29425.0 
222.054962 100545.0 
223.062683 1878344.0 
224.046463 60154.0 
224.069946 417923.0 
225.054367 150702.0 
228.041214 30542.0 
230.928833 6537.0 
231.937698 30941.0 
231.961685 27108.0 
232.945633 482875.0 
233.91597 25075.0 
234.924133 20896.0 
235.038605 34644.0 
236.046692 56303.0 
238.048767 22506.0 
239.033661 8023.0 
239.058151 34039.0 
242.953583 161590.0 
243.937912 7752.0 
243.961945 66500.0 
244.909058 9432.0 
244.96962 27931.0 
245.940842 32451.0 
253.049072 111447.0 
259.956543 1326403.0 
260.964233 89141.0 
263.928406 6008.0 
266.966827 44497.0 
272.941071 7936.0 
277.958313 45443.0 
280.945465 88632.0 
281.951874 8792.0 
293.951721 59461.0 
294.961151 128528.0 
295.969116 92158.0 
304.830872 6313.0 
304.944305 12006.0 
305.953918 27354.0 
306.960785 64514.0 
308.939972 105785.0 
309.948029 726238.0 
312.935547 59289.0 
316.833435 20778.0 
320.940521 32916.0 
321.972565 48488.0 
322.955841 2544814.0 
323.963806 1871441.0 
324.935394 35938.0 
326.950592 11100.0 
332.82843 48345.0 
332.966888 8139.0 
333.946808 217029.0 
334.955109 75885.0 
335.961334 90221.0 
336.935059 620018.0 
337.943542 161860.0 
338.950928 9633.0 
345.834015 190953.0 
348.961182 54904.0 
349.96701 436139.0 
350.973755 691291.0 
351.958801 98433.0 
353.936981 61067.0 
354.944946 9167.0 
358.840637 46317.0 
360.821045 81864.0 
361.942841 24920.0 
362.951385 70046.0 
370.865936 9127.0 
378.944458 92234.0 
379.953461 274215.0 
383.946716 8175.0 
414.829437 8084.0 
421.866943 12050.0 
432.858704 33312.0 
435.843903 12521.0 
439.400085 5980.0 
448.787231 6818.0 
448.85257 178714.0 
449.860962 31794.0 
450.867737 111850.0 
450.933411 7584.0 
460.856232 24398.0 
461.858032 23700.0 
464.84787 48525.0 
475.863434 26267.0 
476.870453 101889.0 
477.879608 32580.0 
478.865356 42106.0 
488.845947 43410.0 
506.856781 25807.0 
576.763977 138602.0 
577.772827 10403.0 
591.751038 51478.0 
603.772522 6835.0 
604.783386 231799.0 
605.762817 6463.0 
615.749695 7088.0 
633.762085 893525.0 
718.657288 162231.0 
731.688171 4312030.0 
741.67749 7372.0 
760.662964 72406.0 
772.713867 32578.0 
777.694031 183812.0 
END IONS

BEGIN IONS
NAME=Podofilox CollisionEnergy:102040 M+H-H2O
PRECURSOR_MZ=397.128
INCHI="InChI=1S/C22H22O8/c1-25-16-4-10(5-17(26-2)21(16)27-3)18-11-6-14-15(30-9-29-14)7-12(11)20(23)13-8-28-22(24)19(13)18/h4-7,13,18-20,23H,8-9H2,1-3H3/t13-,18+,19-,20-/m0/s1"
SMILES=COc1cc(C2c3cc4c(cc3C(O)C3COC(=O)C23)OCO4)cc(OC)c1OC
SPECTRUMID=CCMSLIB00010110720
50.869591 3558.0 
56.255661 3469.0 
57.80439 3255.0 
58.827278 4215.0 
60.927231 3075.0 
61.62714 3346.0 
69.703667 3133.0 
73.135338 3300.0 
75.044357 7983.0 
79.587517 3380.0 
85.028603 161090.0 
92.371101 3503.0 
104.279503 5347.0 
104.696243 3448.0 
107.526482 4052.0 
118.648659 5455.0 
119.049316 5135.0 
119.325897 3388.0 
128.803482 3467.0 
135.043884 34995.0 
136.206161 3855.0 
143.048813 5183.0 
147.04393 115836.0 
148.052368 4431.0 
149.023087 28333.0 
149.059586 4636.0 
153.055267 3743.0 
154.062637 4428.0 
159.044601 5405.0 
166.06221 24336.0 
167.070099 5429.0 
169.085434 22095.0 
173.059631 21174.0 
175.038559 8934.0 
177.054794 53804.0 
181.085693 94520.0 
185.059723 120989.0 
192.0784 7302.0 
195.065216 203473.0 
199.038925 4927.0 
201.053848 34392.0 
210.452835 6577.0 
223.095993 7597.0 
229.049271 331486.0 
231.103516 11436.0 
233.079483 6139.0 
237.054321 5644.0 
239.069748 71051.0 
246.067657 5352.0 
247.096954 7736.0 
252.079468 4436.0 
253.086487 18103.0 
259.074768 4540.0 
260.065552 5483.0 
261.091095 13751.0 
262.098022 6761.0 
263.070862 18820.0 
263.106323 6595.0 
264.113251 4252.0 
267.064728 70027.0 
268.070557 4244.0 
269.080017 36889.0 
274.061493 5379.0 
275.095428 59152.0 
276.078003 6519.0 
277.086151 58489.0 
278.09259 15289.0 
279.099915 7152.0 
282.088226 1217507.0 
283.059845 120265.0 
283.096161 52416.0 
285.111816 4949.0 
288.078156 9089.0 
289.085388 90562.0 
290.058563 7905.0 
290.092438 59127.0 
291.065125 64889.0 
291.101349 51945.0 
292.073853 7868.0 
292.109711 19972.0 
293.081329 17810.0 
293.117126 31600.0 
296.105347 4643.0 
297.075409 137142.0 
298.083069 481306.0 
303.064819 7873.0 
304.073059 16974.0 
305.080383 122356.0 
306.088074 369591.0 
307.058868 7617.0 
307.096039 103888.0 
308.104767 17654.0 
309.076263 5247.0 
311.091675 5616.0 
312.098724 287646.0 
313.106384 1497335.0 
316.073517 6394.0 
317.080566 17408.0 
318.088348 19702.0 
319.05835 7153.0 
319.096466 94647.0 
320.10376 341733.0 
321.07431 46687.0 
321.111664 321262.0 
322.08197 10002.0 
322.118744 76026.0 
323.090576 58219.0 
323.127716 6087.0 
324.099609 7456.0 
326.114471 7852.0 
327.122467 4288.0 
332.065765 12806.0 
333.075806 78365.0 
334.082062 15369.0 
335.089783 37341.0 
336.09848 98662.0 
337.0672 6417.0 
337.107483 29506.0 
338.113403 77390.0 
339.084015 17675.0 
339.122528 18355.0 
346.080963 12700.0 
347.091034 50757.0 
348.098633 154830.0 
348.1474 6418.0 
349.068268 88851.0 
349.107147 14502.0 
351.085327 27339.0 
351.122833 473728.0 
353.139099 56047.0 
354.110199 8286.0 
355.117279 167055.0 
363.083923 7698.0 
364.09314 85396.0 
365.101166 16719.0 
366.109375 176167.0 
367.078125 7156.0 
367.119781 14721.0 
369.131653 54139.0 
379.116913 351273.0 
382.102753 35430.0 
397.127716 8525548.0 
END IONS

BEGIN IONS
NAME="6-(dimethylamino)-2H,4H-1,2,4-triazine-3,5-dione CollisionEnergy:205060" M-e
PRECURSOR_MZ=156.064
INCHI="InChI=1S/C5H8N4O2/c1-9(2)3-4(10)6-5(11)8-7-3/h1-2H3,(H2,6,8,10,11)"
SMILES=CN(C)c1nnc(O)nc1O
SPECTRUMID=CCMSLIB00010117248
55.935032 2595.0 
56.037479 12174.0 
56.0499 2444.0 
56.697449 2139.0 
56.965328 5098.0 
57.045311 4188.0 
62.270279 1905.0 
63.331478 2002.0 
69.045113 40378.0 
69.425552 2141.0 
70.029083 22091.0 
70.04039 83018.0 
70.05294 14899.0 
70.37001 2420.0 
71.060852 4703.0 
72.045082 2987.0 
72.863113 2492.0 
72.937477 66134.0 
73.938004 29940.0 
84.032089 38466.0 
84.055939 24157.0 
85.039864 2500.0 
85.063828 10831.0 
86.071907 2798.0 
90.611359 2013.0 
90.947998 28627.0 
91.05761 4947.0 
91.948334 11612.0 
98.034973 95160.0 
99.042763 3610.0 
112.051247 6573.0 
113.058319 4875.0 
113.963837 36297.0 
114.066383 19939.0 
114.965919 29723.0 
116.045593 41626.0 
127.037621 203648.0 
129.077774 2188.0 
131.973984 16394.0 
132.959717 2970.0 
132.975845 22205.0 
141.04068 525312.0 
142.048416 3472.0 
150.675842 2313.0 
155.055969 24109.0 
156.042435 3477.0 
156.064056 132236.0 
157.071945 21266.0 
196.448288 2218.0 
204.425278 2179.0 
219.128235 2309.0 
END IONS

BEGIN IONS
NAME="(3,4-dimethoxyphenyl)-N-(2-phenyl(2-hydrobenzotriazol-5-yl))carboxamide CollisionEnergy:102040" M+Na
PRECURSOR_MZ=397.127
INCHI="InChI=1S/C21H18N4O3/c1-27-19-11-8-14(12-20(19)28-2)21(26)22-15-9-10-17-18(13-15)24-25(23-17)16-6-4-3-5-7-16/h3-13H,1-2H3,(H,22,26)"
SMILES=COc1ccc(C(O)=Nc2ccc3nn(-c4ccccc4)nc3c2)cc1OC
SPECTRUMID=CCMSLIB00010109152
51.747051 2251.0 
52.641201 2964.0 
63.174252 2316.0 
64.900223 2346.0 
73.258507 2646.0 
111.02549 2497.0 
118.649292 3298.0 
119.085533 4247.0 
153.386871 2445.0 
212.731659 2490.0 
397.126617 1256135.0 
415.137726 55180.0 
END IONS

BEGIN IONS
NAME="2-[5-(5-bromo-2-oxo(1H-benzo[d]azolin-3-ylidene))-4-oxo-2-thioxo(1,3-thiazolid in-3-yl)]-3-phenylpropanoic acid CollisionEnergy:102040" M-H
PRECURSOR_MZ=486.943
INCHI="InChI=1S/C20H13BrN2O4S2/c21-11-6-7-13-12(9-11)15(17(24)22-13)16-18(25)23(20(28)29-16)14(19(26)27)8-10-4-2-1-3-5-10/h1-7,9,14H,8H2,(H,22,24)(H,26,27)/b16-15-"
SMILES=O=C(O)C(Cc1ccccc1)N1C(=O)C(=C2C(O)=Nc3ccc(Br)cc32)SC1=S
SPECTRUMID=CCMSLIB00010114333
78.918633 77941.0 
86.452522 3271.0 
87.593719 2845.0 
92.396538 3201.0 
115.997864 2694.0 
116.6278 2788.0 
131.275299 2880.0 
158.001328 3058.0 
178.999603 13589.0 
181.478699 3282.0 
183.360016 3456.0 
190.033585 5819.0 
194.010071 13979.0 
209.956192 460701.0 
219.940948 35625.0 
221.955734 23352.0 
222.005127 3908.0 
239.966995 4377.0 
247.935516 71003.0 
251.912415 124184.0 
252.919739 4006.0 
253.927521 31495.0 
254.986969 4311.0 
266.987976 5174.0 
279.907501 147325.0 
279.939301 5450.0 
281.923859 67653.0 
287.95343 34771.0 
291.93161 57964.0 
292.914581 17020.0 
308.891388 6042.0 
308.934326 3101.0 
316.98114 14980.0 
338.890686 28077.0 
348.997986 6735.0 
351.850708 5223.0 
351.898285 124127.0 
354.978027 4057.0 
366.967865 3856.0 
367.009827 51626.0 
380.971375 3029.0 
382.983978 42417.0 
383.971893 37906.0 
399.946838 32863.0 
402.980804 6777.0 
408.965179 4723.0 
442.953186 371182.0 
446.973969 4910.0 
466.975922 17393.0 
486.941559 844211.0 
END IONS

BEGIN IONS
NAME=Xanthaline CollisionEnergy:205060 M+Na
PRECURSOR_MZ=376.116
INCHI="InChI=1S/C20H19NO5/c1-23-15-6-5-13(10-16(15)24-2)20(22)19-14-11-18(26-4)17(25-3)9-12(14)7-8-21-19/h5-11H,1-4H3"
SMILES=COc1ccc(C(=O)c2nccc3cc(OC)c(OC)cc23)cc1OC
SPECTRUMID=CCMSLIB00010115197
50.12677 2271.0 
69.474419 2011.0 
76.147728 2362.0 
104.282341 2631.0 
257.48465 2464.0 
272.745605 2532.0 
337.657471 2314.0 
376.114655 399161.0 
END IONS

BEGIN IONS
NAME=N-Choloylglycine CollisionEnergy:102040 M-H
PRECURSOR_MZ=464.302
INCHI="InChI=1S/C26H43NO6/c1-14(4-7-22(31)27-13-23(32)33)17-5-6-18-24-19(12-21(30)26(17,18)3)25(2)9-8-16(28)10-15(25)11-20(24)29/h14-21,24,28-30H,4-13H2,1-3H3,(H,27,31)(H,32,33)"
SMILES=CC(CCC(O)=NCC(=O)O)C1CCC2C3C(O)CC4CC(O)CCC4(C)C3CC(O)C12C
SPECTRUMID=CCMSLIB00010107856
50.595329 3487.0 
73.943787 3523.0 
74.024544 1909822.0 
82.387787 3916.0 
92.365242 4308.0 
95.050293 6339.0 
100.118401 3212.0 
104.271263 4575.0 
141.321091 3471.0 
175.620987 3678.0 
196.605698 3425.0 
204.824448 3746.0 
336.113586 3568.0 
353.248016 4768.0 
382.277283 13769.0 
384.289612 8159.0 
400.286102 52512.0 
402.301147 221897.0 
418.299805 4689.0 
420.312622 27353.0 
446.290283 7028.0 
464.301849 9044280.0 
END IONS

BEGIN IONS
NAME=Ribitol///ribitol///D-ribitol CollisionEnergy:102040 M-H
PRECURSOR_MZ=151.061
INCHI="InChI=1S/C5H12O5/c6-1-3(8)5(10)4(9)2-7/h3-10H,1-2H2/t3-,4+,5-"
SMILES=OC[C@H](O)[C@H](O)[C@H](O)CO
SPECTRUMID=CCMSLIB00010102762
55.018398 457808.0 
57.033798 166584.0 
58.005501 581478.0 
59.013302 6526920.0 
71.013496 15514200.0 
72.992699 566104.0 
73.029198 1660680.0 
73.979401 115811.0 
75.008301 176896.0 
82.428497 145542.0 
83.013603 1698670.0 
84.120697 117598.0 
85.029503 1455650.0 
87.008499 1016110.0 
87.077301 109565.0 
89.0243 15872000.0 
92.412102 153144.0 
99.008797 141930.0 
101.024002 16218500.0 
103.039001 153637.0 
113.024002 918935.0 
118.691002 113782.0 
119.035004 1998520.0 
131.035004 539094.0 
133.050003 586646.0 
136.255005 132050.0 
149.044998 198984.0 
151.061005 4339180.0 
END IONS

BEGIN IONS
NAME=2'-Hydroxyflavanone CollisionEnergy:102040 M+H
PRECURSOR_MZ=241.086
INCHI="InChI=1S/C15H12O3/c16-12-7-3-1-5-10(12)15-9-13(17)11-6-2-4-8-14(11)18-15/h1-8,15-16H,9H2"
SMILES=O=C1CC(c2ccccc2O)Oc2ccccc21
SPECTRUMID=CCMSLIB00010104242
60.521389 2493.0 
61.80064 2468.0 
65.038567 2948.0 
66.509903 2471.0 
84.959969 303532.0 
92.360863 2449.0 
102.970207 38923.0 
114.824997 2524.0 
121.028526 1175646.0 
125.986771 3983.0 
134.979767 3023.0 
147.044418 25193.0 
162.973694 358525.0 
180.984283 929606.0 
181.046402 10312.0 
195.082336 3306.0 
198.994766 111585.0 
199.075592 54730.0 
200.161652 2365.0 
204.000458 80519.0 
218.00885 2549.0 
222.011703 4294.0 
223.031296 11591.0 
223.075226 60851.0 
240.988068 15851.0 
241.086685 184730.0 
241.177078 12912.0 
END IONS

BEGIN IONS
NAME="(3,5-dimethoxyphenyl)-N-{3-[(4-chlorophenyl)sulfonyl]-5-methoxyphenyl}carboxam ide CollisionEnergy:205060" M+H
PRECURSOR_MZ=462.077
INCHI="InChI=1S/C22H20ClNO6S/c1-28-17-8-14(9-18(12-17)29-2)22(25)24-16-10-19(30-3)13-21(11-16)31(26,27)20-6-4-15(23)5-7-20/h4-13H,1-3H3,(H,24,25)"
SMILES=COc1cc(OC)cc(C(O)=Nc2cc(OC)cc(S(=O)(=O)c3ccc(Cl)cc3)c2)c1
SPECTRUMID=CCMSLIB00010121620
65.038742 6952.0 
66.0466 14276.0 
68.02597 19304.0 
69.033897 3612.0 
77.038673 16997.0 
79.017998 36033.0 
79.054413 88087.0 
81.033577 7881.0 
81.069977 21518.0 
83.049202 4151.0 
86.999512 15200.0 
88.675713 3262.0 
91.053993 16042.0 
92.02565 41127.0 
93.069832 68360.0 
94.041283 43043.0 
95.049156 37911.0 
98.036469 3715.0 
103.05407 15364.0 
104.287453 4988.0 
105.033333 13644.0 
105.044502 6153.0 
105.069313 5595.0 
107.012627 33044.0 
107.048813 15997.0 
107.895203 3135.0 
108.056648 14071.0 
109.064522 113157.0 
109.978218 3596.0 
121.064529 145695.0 
122.035957 686752.0 
122.134438 3260.0 
123.079201 4448.0 
124.051689 114991.0 
125.059464 137085.0 
129.010468 6220.0 
135.055008 50094.0 
137.059326 45367.0 
139.00563 11948.0 
139.075119 267361.0 
149.04689 5335.0 
149.095779 30400.0 
155.069946 1768797.0 
158.966309 18093.0 
165.054337 2498560.0 
174.961166 25575.0 
178.085754 31802.0 
198.066895 17285.0 
209.082748 33956.0 
210.054901 7214.0 
210.090134 6973.0 
227.056641 5496.0 
238.049454 24658.0 
239.056198 3879.0 
250.048294 6877.0 
256.059235 7389.0 
264.064972 4613.0 
266.080292 7600.0 
270.111725 6074.0 
282.075348 152569.0 
287.114014 7461.0 
324.007751 16233.0 
330.148346 3918.0 
386.137573 180156.0 
387.939484 3883.0 
404.14798 275337.0 
444.063721 7495.0 
462.075867 2064660.0 
497.721558 3319.0 
891.857483 3790.0 
END IONS

BEGIN IONS
NAME="(3,4,5-trimethoxyphenyl)-N-{2-[(3,4,5-trimethoxyphenyl)carbonylamino]cyclohexy l}carboxamide CollisionEnergy:205060" M+formate
PRECURSOR_MZ=547.23
INCHI="InChI=1S/C26H34N2O8/c1-31-19-11-15(12-20(32-2)23(19)35-5)25(29)27-17-9-7-8-10-18(17)28-26(30)16-13-21(33-3)24(36-6)22(14-16)34-4/h11-14,17-18H,7-10H2,1-6H3,(H,27,29)(H,28,30)"
SMILES=COc1cc(C(O)=NC2CCCCC2N=C(O)c2cc(OC)c(OC)c(OC)c2)cc(OC)c1OC
SPECTRUMID=CCMSLIB00010118432
66.254303 2733.0 
66.729057 2643.0 
82.759422 2904.0 
97.593269 2580.0 
118.678932 2940.0 
136.239792 3168.0 
137.025146 4796.0 
137.995697 3423.0 
149.169678 2895.0 
153.019363 5271.0 
158.416733 3398.0 
164.047592 6111.0 
177.478012 2997.0 
179.071655 31453.0 
181.037903 18528.0 
192.030655 3159.0 
196.062592 5062.0 
206.898468 3711.0 
207.053711 3891.0 
208.842514 5282.0 
208.863983 5039.0 
210.076294 20921.0 
233.071625 3718.0 
281.041016 2684.0 
347.064117 3250.0 
486.202515 3668.0 
497.188721 3312.0 
501.224701 690829.0 
END IONS

BEGIN IONS
NAME=3-Indoleacrylic acid CollisionEnergy:102040 M+H
PRECURSOR_MZ=188.071
INCHI="InChI=1S/C11H9NO2/c13-11(14)6-5-8-7-12-10-4-2-1-3-9(8)10/h1-7,12H,(H,13,14)/b6-5+"
SMILES=O=C(O)C=Cc1c[nH]c2ccccc12
SPECTRUMID=CCMSLIB00010111723
71.072029 3299.0 
82.39978 3438.0 
89.038849 5309.0 
115.054123 130247.0 
116.049011 4165.0 
118.064613 7041.0 
118.655281 3472.0 
130.52034 3676.0 
136.213135 3907.0 
140.050812 5740.0 
142.065231 582905.0 
143.072403 3939.0 
144.08075 18349.0 
146.060257 78842.0 
164.963531 6390.0 
164.983307 23907.0 
169.052948 4355.0 
169.484482 6902.0 
170.060059 14392174.0 
170.639496 4590.0 
185.404205 4308.0 
188.07048 1145192.0 
END IONS

BEGIN IONS
NAME="4-{[5-(3-bromophenyl)-4-prop-2-enyl-1,2,4-triazol-3-ylthio]methyl}hydroquinoli n-2-one CollisionEnergy:102040" M+H
PRECURSOR_MZ=453.038
INCHI="InChI=1S/C21H17BrN4OS/c1-2-10-26-20(14-6-5-7-16(22)11-14)24-25-21(26)28-13-15-12-19(27)23-18-9-4-3-8-17(15)18/h2-9,11-12H,1,10,13H2,(H,23,27)"
SMILES=C=CCn1c(SCc2cc(O)nc3ccccc23)nnc1-c1cccc(Br)c1
SPECTRUMID=CCMSLIB00010107437
66.735817 4807.0 
74.605293 3624.0 
75.821548 3806.0 
77.661774 4126.0 
96.157707 3685.0 
113.016632 5817.0 
114.024673 3725.0 
125.120087 3942.0 
129.069534 4752.0 
130.064941 272941.0 
130.996231 4074.0 
132.044174 17929.0 
143.085388 4020.0 
145.075745 6280.0 
146.060043 32029.0 
153.069443 5833.0 
155.072067 5831.0 
158.05986 418552.0 
159.067642 476862.0 
160.075333 21708.0 
162.036896 7073.0 
170.059143 18019.0 
170.072571 8047.0 
170.095917 97803.0 
172.062393 37463.0 
173.070709 44599.0 
180.080597 115308.0 
181.9599 6907.0 
183.067612 99123.0 
184.074478 93033.0 
185.093872 12289.0 
188.016098 36735.0 
189.024033 118039.0 
190.031738 1321429.0 
192.047485 16540.0 
196.075348 88277.0 
197.083023 18161.0 
198.090973 1211468.0 
199.099075 150300.0 
202.031555 34131.0 
204.048218 4921.0 
218.0634 14132.0 
221.990067 4601.0 
223.981293 97987.0 
230.062927 286621.0 
231.045685 17386.0 
235.981277 51277.0 
252.026382 3693.0 
255.953308 73769.0 
261.997864 32146.0 
264.012451 1238747.0 
276.012604 6620.0 
279.953125 197332.0 
280.973053 5375.0 
293.968628 70814.0 
294.976685 44579.0 
295.986145 6608.0 
326.966797 6696.0 
341.138 5626.0 
378.011139 7950.0 
379.017548 104758.0 
391.016754 16360.0 
405.032257 4626.0 
410.989868 81033.0 
412.000092 16465.0 
413.008942 12591.0 
419.047943 111761.0 
420.057739 19217.0 
453.036896 9981897.0 
455.548615 5986.0 
467.461884 4310.0 
END IONS

BEGIN IONS
NAME=D-ornithine CollisionEnergy:102040 M-H
PRECURSOR_MZ=131.083
INCHI="InChI=1S/C5H12N2O2/c6-3-1-2-4(7)5(8)9/h4H,1-3,6-7H2,(H,8,9)/t4-/m1/s1"
SMILES=NCCC[C@@H](N)C(=O)O
SPECTRUMID=CCMSLIB00010126489
64.252998 7840.140137 
77.304298 6155.879883 
83.061302 25351.300781 
85.077003 10426.900391 
87.0448 26877.699219 
87.576103 4959.620117 
92.416603 5959.069824 
104.329002 6737.149902 
113.071999 20994.0 
114.056 6615.839844 
118.702003 7270.560059 
131.082001 1630300.0 
END IONS

BEGIN IONS
NAME="1,2,6,6,10,17,20-heptamethyl-17-[(2-methylcyclohexyl)oxycarbonyl]-12-oxopentac yclo[12.8.0.0<2,11>.0<5,10>.0<15,20>]docos-13-en-7-yl acetate CollisionEnergy:102040" M+H
PRECURSOR_MZ=609.451
INCHI="InChI=1S/C39H60O5/c1-24-12-10-11-13-29(24)44-33(42)36(6)19-18-35(5)20-21-38(8)26(27(35)23-36)22-28(41)32-37(7)16-15-31(43-25(2)40)34(3,4)30(37)14-17-39(32,38)9/h22,24,27,29-32H,10-21,23H2,1-9H3"
SMILES=CC(=O)OC1CCC2(C)C(CCC3(C)C2C(=O)C=C2C4CC(C)(C(=O)OC5CCCCC5C)CCC4(C)CCC23C)C1(C)C
SPECTRUMID=CCMSLIB00010114629
55.054729 56471.0 
55.057541 5468.0 
60.529091 3734.0 
62.13942 3010.0 
69.070343 12489.0 
71.461258 3011.0 
73.942978 4310.0 
81.069977 12847.0 
82.921532 2938.0 
83.04908 3529.0 
92.365257 4124.0 
93.070152 3858.0 
95.085426 46176.0 
97.101227 125985.0 
105.069267 4263.0 
107.085472 22239.0 
109.101097 14549.0 
119.08532 20895.0 
121.101067 31497.0 
123.116676 13323.0 
133.100876 15213.0 
135.080536 5526.0 
135.116791 39893.0 
136.18895 4348.0 
147.11647 5091.0 
149.096405 25999.0 
149.132538 7151.0 
151.14772 3693.0 
159.11618 4772.0 
161.095901 3960.0 
161.132401 14299.0 
163.149185 4310.0 
173.132416 11705.0 
175.14798 36598.0 
177.164169 20493.0 
187.148163 4560.0 
189.163712 74270.0 
191.180603 6275.0 
199.147842 16353.0 
215.142822 4055.0 
215.178131 4795.0 
217.158585 35666.0 
219.17485 4094.0 
235.168991 34065.0 
245.153778 4684.0 
245.191345 5975.0 
257.188965 4656.0 
259.208435 4227.0 
263.164032 16770.0 
271.205322 11908.0 
277.180267 14508.0 
299.200073 4151.0 
317.211609 31007.0 
341.340271 3505.0 
389.32608 4513.0 
407.329926 27067.0 
420.455048 3039.0 
435.32663 14661.0 
453.336121 52292.0 
467.351074 6262.0 
509.800781 3444.0 
513.357239 190662.0 
609.450745 1885418.0 
END IONS

BEGIN IONS
NAME=2-(methoxycarbonylamino)-4-phenylbutanoic acid CollisionEnergy:205060 M-H
PRECURSOR_MZ=236.093
INCHI="InChI=1S/C12H15NO4/c1-17-12(16)13-10(11(14)15)8-7-9-5-3-2-4-6-9/h2-6,10H,7-8H2,1H3,(H,13,16)(H,14,15)"
SMILES=COC(O)=NC(CCc1ccccc1)C(=O)O
SPECTRUMID=CCMSLIB00010124720
52.018749 3308.0 
82.41703 2365.0 
87.919456 2807.0 
87.925148 61132.0 
102.034752 8564.0 
102.94883 47684.0 
103.920189 137893.0 
104.30925 2555.0 
104.321251 2404.0 
104.928047 15652.0 
105.93557 9914.0 
117.070702 25021.0 
119.04969 9697.0 
119.914749 5150.0 
123.946259 20894.0 
128.050507 26189.0 
130.066071 48324.0 
144.044983 3042.0 
146.938339 33998.0 
161.060608 66958.0 
190.928116 5080.0 
204.066238 434831.0 
210.188416 5021.0 
235.925262 2986.0 
240.053528 2265.0 
355.527222 2093.0 
END IONS

BEGIN IONS
NAME="4-(2,3-dimethoxy-9-phenyl(7-hydropyrrolo[2,1-a]isoquinolin-10-yl))-1,2-dimetho xybenzene CollisionEnergy:205060" M+H
PRECURSOR_MZ=440.186
INCHI="InChI=1S/C28H25NO4/c1-30-23-11-10-20(15-24(23)31-2)27-22(18-8-6-5-7-9-18)17-29-13-12-19-14-25(32-3)26(33-4)16-21(19)28(27)29/h5-17H,1-4H3"
SMILES=COc1ccc(-c2c(-c3ccccc3)cn3ccc4cc(OC)c(OC)cc4c23)cc1OC
SPECTRUMID=CCMSLIB00010120424
52.643452 3574.0 
62.98415 4378.0 
66.760872 3669.0 
71.890793 3951.0 
73.94957 3833.0 
88.143661 3728.0 
91.054466 8792.0 
91.396759 4198.0 
103.054237 15494.0 
105.03392 8607.0 
113.407242 3887.0 
138.071411 16419.0 
139.074707 6943.0 
142.895538 3586.0 
146.060272 9522.0 
158.059326 5156.0 
174.054749 38179.0 
175.649811 3730.0 
188.033905 4744.0 
188.069443 8365.0 
190.086563 32525.0 
202.085419 14453.0 
203.095444 6203.0 
204.06543 18359.0 
206.082214 4452.0 
207.07991 8943.0 
208.088165 4477.0 
230.097412 6688.0 
233.081848 5981.0 
234.091263 5704.0 
235.07547 5877.0 
241.088181 5415.0 
246.091019 8189.0 
248.069229 4402.0 
249.07756 6230.0 
250.086624 16517.0 
256.111725 16625.0 
257.083618 18153.0 
258.090668 69400.0 
259.099304 36102.0 
260.105957 68778.0 
261.078674 6471.0 
262.086182 7379.0 
263.093597 5322.0 
270.091614 6533.0 
271.097443 7458.0 
272.074188 4958.0 
272.106628 21981.0 
273.078339 8291.0 
273.114655 8381.0 
274.086151 43829.0 
276.099915 7498.0 
277.073486 7493.0 
277.109863 16633.0 
278.08139 32530.0 
278.115295 10777.0 
279.089325 15977.0 
284.10141 4506.0 
286.085907 35808.0 
287.09259 42310.0 
288.101044 72256.0 
289.1091 16100.0 
290.082123 8618.0 
290.117157 37618.0 
291.091583 3707.0 
292.109039 7365.0 
293.104218 33905.0 
294.112488 41954.0 
296.105164 6470.0 
302.080536 5844.0 
302.117432 22513.0 
303.088562 12907.0 
303.125092 50368.0 
304.060028 5576.0 
304.097382 40009.0 
304.134277 8452.0 
305.113159 19827.0 
306.077179 14809.0 
306.118958 5664.0 
307.017059 4209.0 
307.086395 6427.0 
308.102783 16575.0 
309.113403 17028.0 
310.122192 22351.0 
316.099548 6535.0 
317.110657 5888.0 
318.075043 22853.0 
318.116974 21248.0 
319.090637 6186.0 
320.101898 49321.0 
321.110565 78922.0 
322.107239 169044.0 
323.127594 71335.0 
324.098541 7730.0 
324.137268 23629.0 
331.097321 19629.0 
332.092255 48997.0 
333.110016 50565.0 
334.121277 106520.0 
335.095428 4535.0 
335.129028 59880.0 
336.099945 23608.0 
336.138947 50834.0 
337.100281 29445.0 
337.145813 5966.0 
338.116058 78112.0 
339.12265 37839.0 
340.133972 6339.0 
345.116089 6057.0 
346.116608 8377.0 
347.127808 27481.0 
348.103333 34087.0 
348.138641 56309.0 
349.10614 112550.0 
349.147003 17325.0 
350.115387 198829.0 
351.122711 179565.0 
352.092163 10433.0 
352.132568 200010.0 
353.136566 83396.0 
354.148254 60222.0 
360.100586 17010.0 
361.107727 38640.0 
362.117126 156846.0 
363.123688 106677.0 
364.132874 192041.0 
365.140472 193491.0 
366.1091 85581.0 
366.148285 411458.0 
367.113037 86622.0 
367.157776 24768.0 
368.166626 7526.0 
374.1185 7406.0 
375.121735 17884.0 
376.09082 17339.0 
376.133057 25663.0 
377.096466 79483.0 
377.142639 27638.0 
378.102692 87904.0 
378.150787 53500.0 
379.115906 134046.0 
380.126648 678752.0 
381.132477 274146.0 
382.059204 5704.0 
382.143066 330767.0 
390.108276 30669.0 
391.116577 28609.0 
392.127197 117726.0 
393.134674 307051.0 
394.145416 566371.0 
395.105835 23311.0 
395.156921 121475.0 
396.158966 846718.0 
397.164032 37684.0 
406.144196 84702.0 
407.154114 29708.0 
408.11972 580505.0 
409.118591 189634.0 
409.174377 60440.0 
410.136963 380488.0 
410.199921 7216.0 
411.145844 37008.0 
422.138824 47195.0 
423.144897 9136.0 
424.153351 3565983.0 
425.159424 94244.0 
439.175812 6092.0 
440.184387 7237920.0 
END IONS

BEGIN IONS
NAME=ABSCISIC ACID CollisionEnergy:102040 M+Na
PRECURSOR_MZ=287.125
INCHI="InChI=1S/C15H20O4/c1-10(7-13(17)18)5-6-15(19)11(2)8-12(16)9-14(15,3)4/h5-8,19H,9H2,1-4H3,(H,17,18)/b6-5+,10-7-"
SMILES=CC(C=CC1(O)C(C)=CC(=O)CC1(C)C)=CC(=O)O
SPECTRUMID=CCMSLIB00010108259
88.261948 2830.0 
101.953484 2698.0 
106.936081 2255.0 
117.116386 2653.0 
118.648857 3686.0 
123.190521 3184.0 
245.929672 5931.0 
263.907104 6073.0 
263.942078 18636.0 
269.114014 17386.0 
285.868652 3722.0 
287.124939 5455790.0 
288.388885 4981.0 
305.133453 4037.0 
END IONS

BEGIN IONS
NAME=4-hydroxybenzaldehyde CollisionEnergy:205060 M+H-H2O
PRECURSOR_MZ=105.033
INCHI="InChI=1S/C7H6O2/c8-5-6-1-3-7(9)4-2-6/h1-5,9H"
SMILES=O=Cc1ccc(O)cc1
SPECTRUMID=CCMSLIB00010118513
50.01577 210563.0 
51.023689 820637.0 
53.03928 10911852.0 
55.018509 450778.0 
57.38839 56848.0 
58.17012 54683.0 
60.52203 62604.0 
60.58268 58476.0 
69.273666 54669.0 
77.039207 858444.0 
81.034042 1128709.0 
82.376053 62836.0 
95.049553 4816868.0 
95.874077 56667.0 
105.033813 9877655.0 
105.045143 1275580.0 
117.951347 64595.0 
120.616333 57130.0 
END IONS

BEGIN IONS
NAME=Convolamine CollisionEnergy:102040 M+H
PRECURSOR_MZ=306.17
INCHI="InChI=1S/C17H23NO4/c1-18-12-5-6-13(18)10-14(9-12)22-17(19)11-4-7-15(20-2)16(8-11)21-3/h4,7-8,12-14H,5-6,9-10H2,1-3H3"
SMILES=COc1ccc(C(=O)OC2CC3CCC(C2)N3C)cc1OC
SPECTRUMID=CCMSLIB00010106970
53.039181 5527.0 
56.050362 4146.0 
65.039421 3025.0 
67.054703 65118.0 
68.050041 6085.0 
70.065392 5179.0 
71.438927 4055.0 
81.033333 4394.0 
81.070549 5219.0 
82.065407 8352.0 
91.054443 114804.0 
92.36927 3995.0 
93.070068 1283886.0 
95.049187 4557.0 
95.073029 8096.0 
95.085541 73158.0 
96.080704 28514.0 
107.086647 4289.0 
117.552429 3525.0 
122.096489 4758.0 
124.112167 4514462.0 
165.054504 82934.0 
193.650787 4017.0 
217.642303 3466.0 
290.137543 6015.0 
291.144531 32304.0 
304.7854 13544.0 
306.169678 11553763.0 
307.563049 10045.0 
END IONS

BEGIN IONS
NAME="3-[(3,4-dimethoxyphenyl)(4-hydroxy-2-oxo-1-phenyl(3-hydroquinolyl))methyl]-4-h ydroxy-1-phenylhydroquinolin-2-one CollisionEnergy:102040" M+Na
PRECURSOR_MZ=645.2
INCHI="InChI=1S/C39H30N2O6/c1-46-31-22-21-24(23-32(31)47-2)33(34-36(42)27-17-9-11-19-29(27)40(38(34)44)25-13-5-3-6-14-25)35-37(43)28-18-10-12-20-30(28)41(39(35)45)26-15-7-4-8-16-26/h3-23,33,42-43H,1-2H3"
SMILES=COc1ccc(C(c2c(O)c3ccccc3n(-c3ccccc3)c2=O)c2c(O)c3ccccc3n(-c3ccccc3)c2=O)cc1OC
SPECTRUMID=CCMSLIB00010112838
60.5448 4199.0 
89.600899 3994.0 
169.349701 4364.0 
260.067566 7262923.0 
278.077454 53675.0 
301.09375 228998.0 
393.094818 3825.0 
408.119415 2386736.0 
426.129608 8062.0 
449.145355 55484.0 
645.197937 1918177.0 
END IONS

BEGIN IONS
NAME="[2-(5-fluoro-2-methylindol-3-yl)ethyl][(2-methoxy-4,5-dimethylphenyl)sulfonyl] amine CollisionEnergy:102040" M+formate
PRECURSOR_MZ=435.14
INCHI="InChI=1S/C20H23FN2O3S/c1-12-9-19(26-4)20(10-13(12)2)27(24,25)22-8-7-16-14(3)23-18-6-5-15(21)11-17(16)18/h5-6,9-11,22-23H,7-8H2,1-4H3"
SMILES=COc1cc(C)c(C)cc1S(=O)(=O)NCCc1c(C)[nH]c2ccc(F)cc12
SPECTRUMID=CCMSLIB00010110954
56.35215 2947.0 
64.630463 2628.0 
76.652939 2807.0 
82.446274 3480.0 
92.430908 3592.0 
93.881821 3089.0 
104.346992 2978.0 
108.239014 2949.0 
118.722878 3759.0 
128.155884 3022.0 
135.068756 35354.0 
168.794556 2714.0 
182.028046 3573.0 
210.474335 5262.0 
214.054153 1478908.0 
220.984558 3198.0 
228.893326 2932.0 
304.985016 9887.0 
328.983459 4306.0 
389.134308 2088830.0 
394.973602 5621.0 
414.98172 13286.0 
434.982269 29323.0 
435.135559 3180.0 
END IONS

BEGIN IONS
NAME=(2Z)-2-cyano-3-(4-hydroxy-3-methoxyphenyl)-N-(4-hydroxyphenyl)prop-2-enamide CollisionEnergy:102040 M-H
PRECURSOR_MZ=309.088
INCHI="InChI=1S/C17H14N2O4/c1-23-16-9-11(2-7-15(16)21)8-12(10-18)17(22)19-13-3-5-14(20)6-4-13/h2-9,20-21H,1H3,(H,19,22)/b12-8-"
SMILES=COc1cc(C=C(C#N)C(=O)Nc2ccc(O)cc2)ccc1O
SPECTRUMID=CCMSLIB00010109462
65.998123 24963.0 
73.954277 3557.0 
104.524307 2729.0 
104.953011 15441.0 
118.657303 3011.0 
126.157013 2553.0 
128.470596 2519.0 
131.036438 2891.0 
134.024811 24982.0 
136.016998 3418.0 
137.024521 61249.0 
140.793716 2819.0 
146.023926 4705.0 
148.015976 5247.0 
159.032562 191129.0 
160.016953 54806.0 
160.040329 87199.0 
170.024277 13962.0 
174.056015 156948.0 
177.820801 2522.0 
186.019669 22612.0 
187.027573 189006.0 
200.366913 2862.0 
204.989838 27008.0 
224.996323 19722.0 
227.058273 4522.0 
242.081894 9776.0 
242.987732 4480.0 
250.050751 6157.0 
251.058899 14412.0 
252.055161 2939.0 
293.057404 48921.0 
294.06485 576956.0 
309.088318 2815535.0 
356.703247 2927.0 
END IONS

BEGIN IONS
NAME="N-(2H-benzo[3,4-d]1,3-dioxolen-5-yl)-2-{2-oxo-4-[N-benzylcarbamoyl]hydroquinol yl}acetamide CollisionEnergy:102040" M-H
PRECURSOR_MZ=454.141
INCHI="InChI=1S/C26H21N3O5/c30-24(28-18-10-11-22-23(12-18)34-16-33-22)15-29-21-9-5-4-8-19(21)20(13-25(29)31)26(32)27-14-17-6-2-1-3-7-17/h1-13H,14-16H2,(H,27,32)(H,28,30)"
SMILES=O=c1cc(C(O)=NCc2ccccc2)c2ccccc2n1CC(O)=Nc1ccc2c(c1)OCO2
SPECTRUMID=CCMSLIB00010112297
65.998016 3903.0 
66.746559 3361.0 
73.78878 3358.0 
73.956833 3583.0 
73.969383 2863.0 
82.401093 3592.0 
92.050697 12317.0 
94.029556 17838.0 
104.050087 3665.0 
108.045547 63768.0 
115.05526 14270.0 
116.050667 38576.0 
118.03019 4446.0 
120.045509 6053.0 
122.024834 554948.0 
124.040497 11124.0 
128.050598 62003.0 
130.066071 66911.0 
132.045441 19785.0 
133.028946 10508.0 
134.024643 37853.0 
135.070267 3489.0 
136.040314 139088.0 
142.030182 4202.0 
142.066071 14275.0 
143.061523 5756.0 
144.045517 188042.0 
144.058289 6548.0 
144.08197 4173.0 
145.076859 3620.0 
146.024765 4426.0 
147.032318 5708.0 
148.040405 36283.0 
148.077011 3664.0 
149.012329 4557.0 
156.069763 33834.0 
158.048264 82266.0 
158.061279 156422.0 
160.040298 39775.0 
169.076965 19195.0 
172.040649 14286.0 
176.071472 24585.0 
184.040482 65030.0 
186.056076 15769.0 
198.056137 355983.0 
202.051147 29745.0 
209.914642 7198.0 
221.840698 3636.0 
245.108749 21102.0 
247.124069 448500.0 
249.103287 14287.0 
261.103455 98839.0 
263.119293 45670.0 
275.083527 6913.0 
277.098175 122448.0 
277.130127 7482.0 
291.113586 136657.0 
291.149445 6302.0 
293.093475 29489.0 
317.09314 108445.0 
321.087952 559387.0 
323.103638 350153.0 
454.141144 2845473.0 
END IONS

BEGIN IONS
NAME=2H-chromen-3-yl-N-(2-fluorophenyl)carboxamide CollisionEnergy:205060 M+H
PRECURSOR_MZ=270.092
INCHI="InChI=1S/C16H12FNO2/c17-13-6-2-3-7-14(13)18-16(19)12-9-11-5-1-4-8-15(11)20-10-12/h1-9H,10H2,(H,18,19)"
SMILES=OC(=Nc1ccccc1F)C1=Cc2ccccc2OC1
SPECTRUMID=CCMSLIB00010119237
53.039108 4811.0 
58.894939 2547.0 
58.993511 2786.0 
62.464149 2770.0 
63.02343 3558.0 
65.03907 3846.0 
77.03923 3892.0 
79.054626 24934.0 
80.043953 2770.0 
83.029427 19724.0 
89.038628 14650.0 
90.033951 21133.0 
91.054512 10699.0 
103.054131 469375.0 
105.033287 3659.0 
105.06974 89163.0 
107.048943 98912.0 
110.039963 188774.0 
112.05542 14299.0 
115.054153 1376748.0 
121.02877 4025.0 
122.040077 64181.0 
124.055473 77551.0 
128.049789 12391.0 
131.049072 1189891.0 
133.064682 104725.0 
138.034851 73358.0 
146.039566 6997.0 
148.05545 116574.0 
149.06369 12444.0 
150.03508 14364.0 
159.043915 2889803.0 
164.050461 75903.0 
176.050308 278955.0 
177.054504 163959.0 
177.068497 7436.0 
194.06102 23077.0 
198.070892 4911.0 
199.054855 3966.0 
200.069809 12913.0 
204.080353 15329.0 
205.064392 3298.0 
216.081543 198251.0 
217.076782 4992.0 
218.28952 3035.0 
219.10112 4468.0 
223.080475 3687.0 
224.085846 37133.0 
227.073212 14630.0 
228.08139 3979.0 
232.074753 41795.0 
234.071762 5601.0 
242.097061 54928.0 
251.072968 18998.0 
252.081665 86825.0 
270.091888 1049042.0 
END IONS

BEGIN IONS
NAME=2-(hydroxymethyl)-5-[6-hydroxy-2-(2-methylpropanoylamino)purin-9-yl]oxolan-3-y l 2-methylpropanoate CollisionEnergy:205060 2M+H
PRECURSOR_MZ=815.368
INCHI="InChI=1S/C18H25N5O6/c1-8(2)15(25)21-18-20-14-13(16(26)22-18)19-7-23(14)12-5-10(11(6-24)28-12)29-17(27)9(3)4/h7-12,24H,5-6H2,1-4H3,(H2,20,21,22,25,26)"
SMILES=CC(C)C(=O)OC1CC(n2cnc3c(O)nc(N=C(O)C(C)C)nc32)OC1CO
SPECTRUMID=CCMSLIB00010115934
58.404049 5507.0 
60.150051 6602.0 
61.143341 5517.0 
69.033943 5345553.0 
69.070686 5692.0 
70.065643 5765.0 
71.045242 9482.0 
71.049538 138555.0 
81.033821 782959.0 
82.434242 9072.0 
89.059952 325937.0 
99.044167 1803195.0 
104.330811 8254.0 
108.922394 7387.0 
109.050873 24128.0 
110.034981 104663.0 
128.045181 74371.0 
130.089417 6523.0 
135.03006 276013.0 
136.015167 5996.0 
136.269485 7179.0 
151.049118 12891.0 
151.574203 8782.0 
152.056702 14541846.0 
153.040649 885815.0 
154.024673 121968.0 
162.041092 34651.0 
180.051529 44945.0 
187.096146 138348.0 
204.088043 1418208.0 
212.256378 7476.0 
221.246597 9517.0 
222.098495 17792614.0 
222.955902 9278.0 
222.979431 7324.0 
267.157837 9394.0 
408.187469 409015.0 
422.604309 7243.0 
END IONS

BEGIN IONS
NAME="N-((1E)-2-(4-pyridyl)-1-azavinyl)-2-[(3,5-dioxo(2H,4H-1,2,4-triazin-6-yl))amin o]propanamide CollisionEnergy:205060" M+H
PRECURSOR_MZ=304.115
INCHI="InChI=1S/C12H13N7O3/c1-7(15-9-11(21)16-12(22)19-17-9)10(20)18-14-6-8-2-4-13-5-3-8/h2-7H,1H3,(H,15,17)(H,18,20)(H2,16,19,21,22)/b14-6+"
SMILES=CC(Nc1nnc(O)nc1O)C(O)=NN=Cc1ccncc1
SPECTRUMID=CCMSLIB00010121685
50.015732 10039.0 
56.798321 8716.0 
57.04509 18442.0 
65.038979 49955.0 
68.049843 343836.0 
69.008713 48453.0 
69.045097 189110.0 
69.992767 51010.0 
70.029129 43135.0 
71.01297 65562.0 
71.02449 13054.0 
72.93737 21651.0 
78.033997 213121.0 
79.041656 265818.0 
80.049721 333688.0 
82.401466 11073.0 
83.024002 10787.0 
84.055817 1257119.0 
85.039932 13801.0 
86.071358 35901.0 
87.019272 10640.0 
92.049583 275913.0 
92.381897 10787.0 
93.044662 10217.0 
93.057266 359817.0 
94.065201 20368.0 
95.023956 104823.0 
95.060371 373727.0 
96.044487 57532.0 
104.765289 15641.0 
105.04467 22603138.0 
105.326012 13779.0 
106.052399 744572.0 
106.065163 37936.0 
107.060226 1560796.0 
108.068024 188091.0 
110.03492 48530.0 
111.031372 1218378.0 
112.050461 104930.0 
113.03466 32467.0 
114.029991 15940.0 
120.045891 13735.0 
120.055672 40564.0 
120.080551 89535.0 
121.039619 41666.0 
122.071136 19121884.0 
126.699883 8424.0 
127.06147 11463.0 
128.045441 46070.0 
130.025192 32965.0 
130.061295 17312.0 
133.076019 46806.0 
134.083664 95333.0 
138.029541 280880.0 
148.086746 243250.0 
153.040985 87482.0 
155.056168 7196144.0 
156.040054 14940.0 
176.08168 71498.0 
179.88179 10604.0 
180.887131 40031.0 
181.035233 52168.0 
183.051254 178103.0 
190.870819 10578.0 
197.891205 79689.0 
208.88269 78861.0 
226.893402 93564.0 
266.984406 10465.0 
280.866821 80968.0 
304.114594 11652459.0 
END IONS

BEGIN IONS
NAME="methylethyl 2-amino-4-(2-chloro-6-fluorophenyl)-6-(hydroxymethyl)-8-oxo-4H-pyr ano[3,2-b]pyran-3-carboxylate CollisionEnergy:102040" M+Na
PRECURSOR_MZ=432.062
INCHI="InChI=1S/C19H17ClFNO6/c1-8(2)26-19(25)15-14(13-10(20)4-3-5-11(13)21)17-16(28-18(15)22)12(24)6-9(7-23)27-17/h3-6,8,14,23H,7,22H2,1-2H3"
SMILES=CC(C)OC(=O)C1=C(N)Oc2c(oc(CO)cc2=O)C1c1c(F)cccc1Cl
SPECTRUMID=CCMSLIB00010109380
50.549801 2818.0 
50.990429 2842.0 
71.004593 2527.0 
82.385307 4724.0 
92.360626 2994.0 
136.187927 3129.0 
215.341629 3130.0 
246.791626 3024.0 
259.770416 2954.0 
304.998566 36914.0 
372.004028 644412.0 
390.014526 57123.0 
409.070709 6150.0 
427.079956 13460.0 
431.045624 3884.0 
432.061493 2917893.0 
450.071716 117019.0 
END IONS

BEGIN IONS
NAME=N-(2-methylphenyl)-2-[2-oxo-4-(N-propylcarbamoyl)hydroquinolyl]acetamide CollisionEnergy:205060 M+H
PRECURSOR_MZ=378.181
INCHI="InChI=1S/C22H23N3O3/c1-3-12-23-22(28)17-13-21(27)25(19-11-7-5-9-16(17)19)14-20(26)24-18-10-6-4-8-15(18)2/h4-11,13H,3,12,14H2,1-2H3,(H,23,28)(H,24,26)"
SMILES=CCCN=C(O)c1cc(=O)n(CC(O)=Nc2ccccc2C)c2ccccc12
SPECTRUMID=CCMSLIB00010125233
65.497322 2653.0 
69.975479 2777.0 
70.065407 3983.0 
78.308746 2228.0 
86.060112 10968.0 
118.990143 2889.0 
128.049332 72592.0 
130.065063 237344.0 
133.052002 12437.0 
142.261398 2712.0 
144.044388 24722.0 
146.059967 112339.0 
155.060287 3139.0 
156.043991 14069.0 
157.075897 13759.0 
158.05983 117955.0 
162.628693 2203.0 
173.070847 17737.0 
174.054825 3145.0 
186.054962 15117.0 
201.065857 20995.0 
208.267105 2848.0 
215.117554 11649.0 
231.112366 205162.0 
243.112473 166072.0 
260.891846 3127.0 
271.107178 567955.0 
284.138794 10510.0 
378.154388 9637.0 
END IONS

BEGIN IONS
NAME="1-(2H-benzo[3,4-d]1,3-dioxolen-5-yl)-5-[(4-piperidylphenyl)methylene]-1,3-dihy dropyrimidine-2,4,6-trione CollisionEnergy:205060" M+H
PRECURSOR_MZ=420.155
INCHI="InChI=1S/C23H21N3O5/c27-21-18(12-15-4-6-16(7-5-15)25-10-2-1-3-11-25)22(28)26(23(29)24-21)17-8-9-19-20(13-17)31-14-30-19/h4-9,12-13H,1-3,10-11,14H2,(H,24,27,29)/b18-12+"
SMILES=O=C1N=C(O)C(=Cc2ccc(N3CCCCC3)cc2)C(=O)N1c1ccc2c(c1)OCO2
SPECTRUMID=CCMSLIB00010123509
51.470161 2852.0 
53.002701 7143.0 
65.03894 3942.0 
67.05452 6815.0 
69.070213 83164.0 
71.74527 2814.0 
73.680397 3076.0 
82.39521 2471.0 
89.583122 2794.0 
92.374939 4114.0 
103.05442 6004.0 
104.515038 3275.0 
106.028313 6496.0 
106.064941 13915.0 
108.043991 3935.0 
111.043739 3996.0 
117.056923 6155.0 
118.06424 10792.0 
120.044243 5500.0 
121.028236 7509.0 
121.075607 3922.0 
122.459122 4095.0 
128.049408 4728.0 
130.065094 72796.0 
132.080978 4508.0 
133.076263 15455.0 
134.023544 71681.0 
134.059616 4660.0 
135.091095 3736.0 
136.039032 55909.0 
137.046875 5706.0 
142.06543 4110.0 
143.060394 12026.0 
143.072784 12082.0 
144.044373 3287.0 
144.068008 26265.0 
144.080765 10804.0 
145.051773 4843.0 
146.05986 42293.0 
147.055145 52438.0 
148.038681 4058.0 
155.059891 6989.0 
156.044098 4622.0 
157.075485 25646.0 
158.05986 130605.0 
159.055099 66663.0 
160.041779 4980.0 
160.075516 45657.0 
162.018372 408031.0 
163.026184 149006.0 
164.033875 53155.0 
169.075836 32602.0 
170.059952 5075.0 
170.083771 21068.0 
171.054413 57667.0 
171.067764 8820.0 
172.038666 26440.0 
172.075256 17276.0 
172.111359 5785.0 
173.071289 23168.0 
183.055206 69658.0 
186.127579 26148.0 
188.035034 4537.0 
188.057983 15181.0 
189.065659 35602.0 
189.13858 19901.0 
190.013138 4056.0 
190.04982 15855.0 
197.071609 6918.0 
199.049423 4797.0 
201.065704 175317.0 
202.050781 26031.0 
203.079834 9579.0 
206.045563 3967.0 
211.122894 20063.0 
212.107483 6426.0 
214.073685 22771.0 
214.122131 96991.0 
215.045029 39617.0 
215.081161 15468.0 
215.116928 50123.0 
216.064331 4090.0 
218.043808 22854.0 
225.101547 17176.0 
227.020081 3760.0 
227.04451 77726.0 
239.116974 50622.0 
240.101959 6328.0 
241.059769 25402.0 
241.097641 3371.0 
247.088089 6215.0 
249.102722 6226.0 
251.082092 3931.0 
253.096069 5195.0 
257.128113 28023.0 
258.112488 15353.0 
263.081726 7536.0 
265.07074 4768.0 
275.081451 20396.0 
277.096893 15933.0 
279.075958 6525.0 
283.107849 47348.0 
291.074249 22390.0 
292.058228 5576.0 
293.091888 42408.0 
303.076111 7404.0 
307.069 4828.0 
309.085602 49866.0 
309.15744 7263.0 
319.142334 4703.0 
321.08606 67481.0 
333.1586 5730.0 
335.10202 6589.0 
347.138336 3754.0 
352.091614 14107.0 
352.431091 3569.0 
359.137085 4283.0 
364.092041 455815.0 
377.148621 48514.0 
378.10788 13814.0 
420.15448 2406689.0 
END IONS

BEGIN IONS
NAME="4-({2-[4-(tert-butyl)phenyl]quinazolin-4-yl}amino)benzoic acid, chloride CollisionEnergy:102040" M+Cl
PRECURSOR_MZ=432.148
INCHI="InChI=1S/C25H23N3O2/c1-25(2,3)18-12-8-16(9-13-18)22-27-21-7-5-4-6-20(21)23(28-22)26-19-14-10-17(11-15-19)24(29)30/h4-15H,1-3H3,(H,29,30)(H,26,27,28)"
SMILES=CC(C)(C)c1ccc(-c2nc(Nc3ccc(C(=O)O)cc3)c3ccccc3n2)cc1
SPECTRUMID=CCMSLIB00010103792
50.44125 2251.0 
57.428741 2058.0 
80.940018 2121.0 
82.183159 2242.0 
87.822273 2127.0 
89.070396 2472.0 
92.37838 3042.0 
100.464867 2489.0 
104.290779 2522.0 
125.010101 2585.0 
125.232323 2412.0 
157.975876 2429.0 
164.397614 2719.0 
187.081467 3007.0 
307.193787 2211.0 
396.172028 59882.0 
END IONS

BEGIN IONS
NAME="N-(2H-benzo[3,4-d]1,3-dioxolen-5-yl)-2-[4-(N,N-diethylcarbamoyl)-2-oxohydroqui nolyl]acetamide CollisionEnergy:102040" M+Na
PRECURSOR_MZ=444.153
INCHI="InChI=1S/C23H23N3O5/c1-3-25(4-2)23(29)17-12-22(28)26(18-8-6-5-7-16(17)18)13-21(27)24-15-9-10-19-20(11-15)31-14-30-19/h5-12H,3-4,13-14H2,1-2H3,(H,24,27)"
SMILES=CCN(CC)C(=O)c1cc(=O)n(CC(O)=Nc2ccc3c(c2)OCO3)c2ccccc12
SPECTRUMID=CCMSLIB00010114239
56.08297 2853.0 
56.109169 2608.0 
66.400558 3890.0 
68.791603 2741.0 
82.499352 3011.0 
85.036278 3242.0 
100.298889 3144.0 
122.013344 2944.0 
200.777374 3030.0 
209.35405 3434.0 
313.190918 3246.0 
426.142609 16929.0 
444.152161 5345792.0 
END IONS

BEGIN IONS
NAME=ethyl 3-{N-[2-(N-phenylcarbamoyl)phenyl]carbamoyl}propanoate CollisionEnergy:205060 M+Na
PRECURSOR_MZ=363.132
INCHI="InChI=1S/C19H20N2O4/c1-2-25-18(23)13-12-17(22)21-16-11-7-6-10-15(16)19(24)20-14-8-4-3-5-9-14/h3-11H,2,12-13H2,1H3,(H,20,24)(H,21,22)"
SMILES=CCOC(=O)CCC(O)=Nc1ccccc1C(O)=Nc1ccccc1
SPECTRUMID=CCMSLIB00010116959
55.316341 2847.0 
66.742119 3062.0 
68.171013 2236.0 
73.781822 2729.0 
75.163094 2576.0 
81.798439 2588.0 
82.39856 2996.0 
88.675499 2413.0 
90.976852 20773.0 
91.926697 2650.0 
104.286034 2954.0 
158.963913 10947.0 
166.278061 2855.0 
184.817917 2785.0 
195.091614 5027.0 
221.741943 3090.0 
226.951965 3480.0 
241.427444 2877.0 
270.072571 11063.0 
335.100433 3214.0 
345.118927 20334.0 
363.130402 3504343.0 
380.430206 2733.0 
END IONS

BEGIN IONS
NAME="2,5-diphenyl-3-thioxo-4,5,11,11a-tetrahydro-11aH-1,3-diazolidino[1,5-b]beta-ca rbolin-1-one CollisionEnergy:205060" M+H
PRECURSOR_MZ=410.132
INCHI="InChI=1S/C25H19N3OS/c29-24-21-15-19-18-13-7-8-14-20(18)26-22(19)23(16-9-3-1-4-10-16)28(21)25(30)27(24)17-11-5-2-6-12-17/h1-14,21,23,26H,15H2"
SMILES=O=C1C2Cc3c([nH]c4ccccc34)C(c3ccccc3)N2C(=S)N1c1ccccc1
SPECTRUMID=CCMSLIB00010123267
53.039082 7261.0 
57.5518 3435.0 
65.039078 6947.0 
71.509117 2947.0 
91.054314 355505.0 
92.049698 32609.0 
92.391121 3570.0 
93.057167 5943.0 
94.065376 3918.0 
104.049179 24872.0 
105.044609 3387.0 
106.064934 15865.0 
115.054123 169425.0 
117.056763 12015.0 
118.064613 5450.0 
120.044456 22010.0 
121.010246 4875.0 
129.884079 3186.0 
130.054764 4810.0 
130.065186 91545.0 
130.246384 3757.0 
132.04422 3672.0 
136.0215 62387.0 
136.232513 3260.0 
142.064392 4745.0 
143.0728 4425.0 
144.080856 46310.0 
146.060135 4603.0 
154.06459 16604.0 
155.060471 5287.0 
156.068283 25881.0 
161.070694 17265.0 
165.046936 4822.0 
169.075714 137799.0 
173.029251 12028.0 
178.078033 5306.0 
179.084991 15309.0 
182.095871 7480.0 
191.026962 13256.0 
191.858597 3503.0 
192.055481 3458.0 
193.043106 56424.0 
199.032684 5225.0 
200.040207 72973.0 
201.048843 4176.0 
202.077698 5585.0 
203.08461 18686.0 
204.080521 243903.0 
205.086868 25857.0 
206.096207 136210.0 
206.119339 3493.0 
213.047791 6139.0 
215.08551 6530.0 
216.079666 5760.0 
217.088394 427440.0 
218.096222 3170820.0 
219.103897 532538.0 
219.129013 7763.0 
220.111588 158070.0 
228.080734 4238.0 
230.096008 345636.0 
231.104004 23799.0 
232.112137 122780.0 
245.106918 13379.0 
247.122421 76568.0 
250.06871 7071.0 
256.09845 12324.0 
257.106476 13753.0 
258.090515 248963.0 
262.067627 22615.0 
274.34317 3522.0 
275.118073 12504.0 
281.07373 12731.0 
289.078644 19929.0 
291.060059 6388.0 
291.094482 114172.0 
300.112732 18157.0 
317.073212 19569.0 
319.076385 13888.0 
332.084442 144479.0 
348.149689 3800.0 
350.165283 3658.0 
351.148773 55518.0 
376.142975 19053.0 
377.149628 5057.0 
382.137543 14034.0 
410.131287 1065425.0 
END IONS

BEGIN IONS
NAME="4-[(3,5-dimethoxyphenyl)carbonyl]piperazinyl 2-methoxyphenyl ketone CollisionEnergy:205060" M+Na
PRECURSOR_MZ=407.158
INCHI="InChI=1S/C21H24N2O5/c1-26-16-12-15(13-17(14-16)27-2)20(24)22-8-10-23(11-9-22)21(25)18-6-4-5-7-19(18)28-3/h4-7,12-14H,8-11H2,1-3H3"
SMILES=COc1cc(OC)cc(C(=O)N2CCN(C(=O)c3ccccc3OC)CC2)c1
SPECTRUMID=CCMSLIB00010116942
73.959862 2865.0 
77.098839 2765.0 
92.38501 3664.0 
104.293037 4035.0 
108.745354 3018.0 
137.665161 3637.0 
158.425461 3258.0 
210.299347 5107.0 
380.575653 3662.0 
392.129852 5248.0 
404.184265 3164.0 
405.038361 5015.0 
407.157379 5659400.0 
409.293243 4369.0 
END IONS

BEGIN IONS
NAME=3a-hydroxy-5b-cholan-24-oate CollisionEnergy:102040 M+H-H2O
PRECURSOR_MZ=359.294
INCHI="InChI=1S/C24H40O3/c1-15(4-9-22(26)27)19-7-8-20-18-6-5-16-14-17(25)10-12-23(16,2)21(18)11-13-24(19,20)3/h15-21,25H,4-14H2,1-3H3,(H,26,27)/t15-,16?,17-,18+,19-,20+,21+,23+,24-/m1/s1"
SMILES=CC(CCC(=O)O)C1CCC2C3CCC4CC(O)CCC4(C)C3CCC12C
SPECTRUMID=CCMSLIB00010110164
55.05492 234128.0 
67.054932 1140041.0 
68.762703 116689.0 
69.070717 947117.0 
69.880661 93418.0 
79.05484 549528.0 
81.070503 4529922.0 
82.384071 142002.0 
83.085983 1124735.0 
92.35997 160506.0 
93.070442 1989999.0 
95.086052 5473546.0 
97.065163 181874.0 
97.10157 554918.0 
99.044594 194145.0 
101.060059 234810.0 
101.09095 110948.0 
104.265892 125890.0 
105.070229 394961.0 
107.078461 184822.0 
107.085953 2911681.0 
109.10157 3360884.0 
115.07576 206091.0 
115.618179 109228.0 
118.630348 134173.0 
119.085663 571256.0 
121.101387 4530428.0 
123.11705 1504333.0 
127.075722 129785.0 
131.085953 126845.0 
133.101318 710198.0 
135.080597 190136.0 
135.116898 6310247.0 
136.180893 136757.0 
137.132477 502874.0 
139.075684 134825.0 
145.100922 156430.0 
147.117508 962473.0 
149.096085 215613.0 
149.118896 229836.0 
149.132431 5838156.0 
151.148178 590274.0 
153.090958 710059.0 
159.116821 185837.0 
161.132553 806816.0 
163.112167 580593.0 
163.148102 3173737.0 
165.128357 146213.0 
165.163284 122440.0 
167.106705 852074.0 
169.120804 128436.0 
171.11763 110968.0 
173.131897 250143.0 
175.148407 845249.0 
177.127029 1157167.0 
177.163925 2566825.0 
181.122498 1685716.0 
187.148193 459660.0 
189.126755 148665.0 
189.163208 1049654.0 
191.142303 441164.0 
191.179428 568631.0 
193.121719 166221.0 
195.137833 3231192.0 
201.163483 130922.0 
203.179459 1066793.0 
205.159286 216759.0 
205.196121 519148.0 
207.137451 262143.0 
209.153809 1696259.0 
213.164581 205811.0 
217.194489 836669.0 
221.153641 688991.0 
223.170197 561147.0 
231.176437 108027.0 
231.210892 667932.0 
235.168762 1437015.0 
237.184662 164072.0 
245.189941 152224.0 
245.226685 813480.0 
249.184387 1855745.0 
263.200531 1623009.0 
275.200073 117149.0 
277.214264 430090.0 
289.212494 177054.0 
299.27298 243120.0 
303.231079 621541.0 
323.272614 1084281.0 
341.283539 2575726.0 
359.294037 36625428.0 
END IONS

BEGIN IONS
NAME="N-((1E)-2-phenyl-1-azavinyl)-2-[(3,5-dioxo(2H,4H-1,2,4-triazin-6-yl))amino]pro panamide CollisionEnergy:102040" M+Na
PRECURSOR_MZ=325.102
INCHI="InChI=1S/C13H14N6O3/c1-8(15-10-12(21)16-13(22)19-17-10)11(20)18-14-7-9-5-3-2-4-6-9/h2-8H,1H3,(H,15,17)(H,18,20)(H2,16,19,21,22)/b14-7+"
SMILES=CC(Nc1nnc(O)nc1O)C(O)=NN=Cc1ccccc1
SPECTRUMID=CCMSLIB00010111423
60.57217 2178.0 
73.956741 3072.0 
104.291313 2800.0 
131.579254 2248.0 
146.882828 2750.0 
183.984634 2453.0 
325.101715 742378.0 
END IONS

BEGIN IONS
NAME="10-methyl-3,10-dihydrobenzo[g]pteridine-2,4-dione CollisionEnergy:205060" M+H
PRECURSOR_MZ=229.072
INCHI="InChI=1S/C11H8N4O2/c1-15-7-5-3-2-4-6(7)12-8-9(15)13-11(17)14-10(8)16/h2-5H,1H3,(H,14,16,17)"
SMILES=Cn1c2nc(=O)nc(O)c-2nc2ccccc21
SPECTRUMID=CCMSLIB00010121294
75.890297 2833.0 
77.03437 3352.0 
77.038948 5389.0 
82.410019 4299.0 
84.959892 3431.0 
90.033791 28126.0 
90.466621 4184.0 
92.394173 3569.0 
104.049469 134335.0 
104.301003 4029.0 
106.06514 6843.0 
112.112083 15808.0 
116.049377 89564.0 
117.044746 199923.0 
117.057243 77477.0 
118.052589 17812.0 
129.044922 81060.0 
131.060455 984065.0 
133.075851 7513.0 
134.060043 61890.0 
135.055313 21759.0 
143.047806 186934.0 
143.060043 17302.0 
147.055206 251463.0 
156.056717 30039.0 
157.062592 23042.0 
158.071335 6427068.0 
159.055862 8152.0 
172.050232 22742.0 
174.065811 4746.0 
176.08226 20747.0 
185.08194 36266.0 
186.066193 1739825.0 
187.074203 14332.0 
229.07196 5282307.0 
END IONS

BEGIN IONS
NAME=2-[2-oxo-4-(piperidylcarbonyl)hydroquinolyl]-N-phenylacetamide CollisionEnergy:205060 M-H
PRECURSOR_MZ=388.167
INCHI="InChI=1S/C23H23N3O3/c27-21(24-17-9-3-1-4-10-17)16-26-20-12-6-5-11-18(20)19(15-22(26)28)23(29)25-13-7-2-8-14-25/h1,3-6,9-12,15H,2,7-8,13-14,16H2,(H,24,27)"
SMILES=O=C(c1cc(=O)n(CC(O)=Nc2ccccc2)c2ccccc12)N1CCCCC1
SPECTRUMID=CCMSLIB00010124559
51.477501 2352.0 
66.585678 2656.0 
77.198517 2983.0 
92.050407 37270.0 
118.683159 2587.0 
128.050522 199895.0 
133.904312 2331.0 
142.066238 4853.0 
144.045441 20068.0 
146.060669 19268.0 
150.868103 2265.0 
156.04567 31036.0 
157.053268 63862.0 
158.011444 3132.0 
158.024338 4209.0 
158.061249 3714.0 
172.040527 49990.0 
174.055984 5765.0 
184.040405 170658.0 
185.048187 5939.0 
227.119736 20969.0 
237.103134 15466.0 
241.134735 26130.0 
252.838806 2744.0 
255.114197 146220.0 
269.129791 47753.0 
271.109436 25936.0 
295.109192 57448.0 
360.174255 3800.0 
388.166626 163444.0 
END IONS

BEGIN IONS
NAME=3-methyl-5-(phenylmethoxy)indol-2-yl piperidyl ketone CollisionEnergy:205060 2M+H
PRECURSOR_MZ=697.375
INCHI="InChI=1S/C22H24N2O2/c1-16-19-14-18(26-15-17-8-4-2-5-9-17)10-11-20(19)23-21(16)22(25)24-12-6-3-7-13-24/h2,4-5,8-11,14,23H,3,6-7,12-13,15H2,1H3"
SMILES=Cc1c(C(=O)N2CCCCC2)[nH]c2ccc(OCc3ccccc3)cc12
SPECTRUMID=CCMSLIB00010116386
53.002869 18301.0 
66.752228 4566.0 
67.054604 29406.0 
67.440063 4264.0 
69.034027 5126.0 
69.070267 1404380.0 
70.028923 6057.0 
70.0653 33256.0 
84.081017 116392.0 
86.096626 538961.0 
89.038872 5061.0 
90.046501 5904.0 
91.054314 262742.0 
92.390297 5181.0 
93.05722 5207.0 
101.657921 4281.0 
104.049423 34573.0 
106.221367 4844.0 
107.036079 4513.0 
112.075653 1611102.0 
117.057137 30103.0 
132.044144 50816.0 
136.228928 6280.0 
144.044769 15481.0 
145.051987 128366.0 
160.039215 1070156.0 
161.046844 20827.0 
166.077408 5185.0 
167.085495 5592.0 
173.047012 3169063.0 
181.100815 5457.0 
190.049393 5818.0 
191.086182 7199.0 
193.088638 18032.0 
194.095993 6312.0 
207.103561 6858.0 
208.112106 58575.0 
218.095474 24195.0 
218.332535 4901.0 
221.083893 10213.0 
235.098892 27755.0 
236.106674 82934.0 
246.091309 9574.0 
249.077911 8735.0 
264.101562 5575041.0 
339.310699 4553.0 
349.19046 4687374.0 
350.93454 5324.0 
END IONS

BEGIN IONS
NAME="N-[4,5-dihydroxy-6-(hydroxymethyl)-2-(phenylmethoxy)-2H-3,4,5,6-tetrahydropyra n-3-yl]acetamide CollisionEnergy:102040" M-H
PRECURSOR_MZ=310.13
INCHI="InChI=1S/C15H21NO6/c1-9(18)16-12-14(20)13(19)11(7-17)22-15(12)21-8-10-5-3-2-4-6-10/h2-6,11-15,17,19-20H,7-8H2,1H3,(H,16,18)"
SMILES=CC(O)=NC1C(OCc2ccccc2)OC(CO)C(O)C1O
SPECTRUMID=CCMSLIB00010108792
55.018459 14367.0 
58.029388 49190.0 
59.013371 72071.0 
71.013573 37878.0 
72.008568 4055.0 
72.992897 2855.0 
73.960617 3006.0 
79.643806 2361.0 
82.02964 15967.0 
83.013657 88146.0 
84.045326 12410.0 
85.029266 10967.0 
86.024521 26214.0 
89.024277 23964.0 
89.925652 3056.0 
94.029877 6398.0 
97.02951 2630.0 
99.009064 11471.0 
100.040413 726586.0 
101.024521 31366.0 
103.920776 6390.0 
107.050621 2769.0 
110.024681 6699.0 
112.040443 1016738.0 
113.024612 19931.0 
114.055969 25082.0 
123.137733 2670.0 
124.040382 14895.0 
125.024513 4966.0 
126.055763 5832.0 
128.035309 252129.0 
136.040359 15697.0 
140.035217 12426.0 
142.050888 92717.0 
154.050659 44115.0 
154.524933 2429.0 
157.491302 3039.0 
166.051559 4334.0 
184.061996 12543.0 
196.17215 2866.0 
202.072296 1203056.0 
203.075165 2637.0 
215.666245 2885.0 
310.129974 556832.0 
END IONS

BEGIN IONS
NAME="ethyl 2-amino-4-(2,4-difluorophenyl)-5-oxo-4H-pyrano[3,2-c]chromene-3-carboxyl ate CollisionEnergy:205060" M+Na
PRECURSOR_MZ=422.081
INCHI="InChI=1S/C21H15F2NO5/c1-2-27-20(25)17-15(11-8-7-10(22)9-13(11)23)16-18(29-19(17)24)12-5-3-4-6-14(12)28-21(16)26/h3-9,15H,2,24H2,1H3"
SMILES=CCOC(=O)C1=C(N)Oc2c(c(=O)oc3ccccc23)C1c1ccc(F)cc1F
SPECTRUMID=CCMSLIB00010120388
82.398918 2486.0 
99.85791 2497.0 
136.036621 136434.0 
136.211273 2331.0 
177.062927 3168.0 
193.899109 2665.0 
253.905151 2514.0 
267.044281 46742.0 
307.036682 21117.0 
309.03299 13637.0 
320.406494 2779.0 
344.061676 2753.0 
378.150879 2684.0 
382.073059 3235.0 
422.079712 792744.0 
END IONS

BEGIN IONS
NAME=Vindoline CollisionEnergy:102040 M+H
PRECURSOR_MZ=457.233
INCHI="InChI=1S/C25H32N2O6/c1-6-23-10-7-12-27-13-11-24(19(23)27)17-9-8-16(31-4)14-18(17)26(3)20(24)25(30,22(29)32-5)21(23)33-15(2)28/h7-10,14,19-21,30H,6,11-13H2,1-5H3/t19-,20+,21+,23+,24+,25-/m0/s1"
SMILES=CCC12C=CCN3CCC4(c5ccc(OC)cc5N(C)C4C(O)(C(=O)OC)C1OC(C)=O)C32
SPECTRUMID=CCMSLIB00010104309
56.072128 3952.0 
73.951958 4999.0 
80.049637 5132.0 
93.070213 31057.0 
108.080551 22749.0 
119.036186 57092.0 
122.09613 99989.0 
133.053024 6898.0 
133.064743 31478.0 
134.059769 49981.0 
134.096237 7506.0 
136.112152 39483.0 
147.080124 6793.0 
148.075272 62043.0 
150.091095 6474.0 
152.229599 4154.0 
157.088348 21592.0 
161.083313 76537.0 
162.091125 234508.0 
166.124405 4575.0 
167.070465 16006.0 
173.08342 101996.0 
174.090866 87025.0 
176.106674 17936.0 
179.057266 149357.0 
180.101486 5506.0 
187.099167 9671.0 
188.106766 9199853.0 
188.774414 6724.0 
189.114456 112401.0 
190.122482 51968.0 
193.069656 37656.0 
193.088913 7310.0 
194.080978 134681.0 
200.106842 27054.0 
202.085068 5221.0 
202.121826 4975.0 
207.088013 42268.0 
212.105957 17346.0 
213.114914 5330.0 
214.084412 14564.0 
215.116989 25466.0 
216.102554 6084.0 
216.1259 16819.0 
220.09758 7021.0 
220.705841 4999.0 
222.088837 9591.0 
222.112122 197606.0 
225.062866 9606.0 
228.101242 35254.0 
230.117523 32113.0 
231.113693 5839.0 
232.096725 62809.0 
239.078827 70768.0 
253.132339 21855.0 
256.096069 46956.0 
258.112427 73080.0 
266.95578 4829.0 
272.12915 31772.0 
274.106171 9367.0 
276.124054 7119.0 
281.164185 6500.0 
282.172394 25558.0 
283.181152 31806.0 
288.120392 30648.0 
290.14035 10490.0 
295.178955 57720.0 
309.193726 35016.0 
317.129028 4654.0 
319.18045 21759.0 
337.190002 164174.0 
347.173737 35312.0 
353.151001 10296.0 
355.200226 119623.0 
365.185028 130332.0 
367.16391 7484.0 
368.171265 29403.0 
379.201233 96725.0 
383.193024 5083.0 
397.211426 2639286.0 
415.221313 20842.0 
439.221588 192104.0 
442.211121 18113.0 
454.720825 16421.0 
457.232483 14712835.0 
459.763794 18200.0 
459.833801 5464.0 
END IONS

BEGIN IONS
NAME=l-isoleucine CollisionEnergy:102040 M+H
PRECURSOR_MZ=132.102
INCHI="InChI=1S/C6H13NO2/c1-3-4(2)5(7)6(8)9/h4-5H,3,7H2,1-2H3,(H,8,9)/t4-,5-/m0/s1"
SMILES=CCC(C)C(N)C(=O)O
SPECTRUMID=CCMSLIB00010109479
56.131001 64596.0 
69.070602 842339.0 
86.097038 15446866.0 
104.287354 69940.0 
132.101791 272128.0 
END IONS

BEGIN IONS
NAME=3-(benzimidazol-2-ylthiomethyl)-4-methoxybenzaldehyde CollisionEnergy:205060 M-H
PRECURSOR_MZ=297.07
INCHI="InChI=1S/C16H14N2O2S/c1-20-15-7-6-11(9-19)8-12(15)10-21-16-17-13-4-2-3-5-14(13)18-16/h2-9H,10H2,1H3,(H,17,18)"
SMILES=COc1ccc(C=O)cc1CSc1nc2ccccc2[nH]1
SPECTRUMID=CCMSLIB00010115406
57.975101 8695.0 
63.390011 2180.0 
68.995071 2959.0 
87.771782 2204.0 
92.376831 2594.0 
93.61393 2185.0 
104.286873 2595.0 
112.985451 3057.0 
134.520309 2090.0 
136.208817 3147.0 
137.516129 2080.0 
148.010071 315592.0 
163.033493 13396.0 
205.076843 4697.0 
233.072174 51528.0 
236.042053 4061.0 
237.049545 10280.0 
264.036041 50688.0 
265.044159 251980.0 
283.053467 4455.0 
292.129456 2148.0 
296.979767 2572.0 
297.068726 15627.0 
END IONS

BEGIN IONS
NAME="ethyl 8-chloro-1,2,3,4-tetrahydropyridino[4,3-b]indole-2-carboxylate CollisionEnergy:102040" M-H
PRECURSOR_MZ=277.075
INCHI="InChI=1S/C14H15ClN2O2/c1-2-19-14(18)17-6-5-13-11(8-17)10-7-9(15)3-4-12(10)16-13/h3-4,7,16H,2,5-6,8H2,1H3"
SMILES=CCOC(=O)N1CCc2[nH]c3ccc(Cl)cc3c2C1
SPECTRUMID=CCMSLIB00010108397
59.572788 2554.0 
88.040092 3677.0 
92.40229 2448.0 
110.021561 2570.0 
117.94519 2792.0 
176.027374 1853457.0 
185.436981 3185.0 
185.550217 3334.0 
192.989395 37483.0 
203.016479 8993.0 
203.038025 168120.0 
205.054428 4892.0 
208.341629 3871.0 
208.360779 9693.0 
212.995636 6265.0 
231.033508 30796.0 
233.04985 16725.0 
234.73407 3115.0 
248.227676 2828.0 
255.626709 3466.0 
256.983521 4509.0 
277.075104 2892164.0 
END IONS

BEGIN IONS
NAME=CCG-208215 CollisionEnergy:102040 M+H
PRECURSOR_MZ=425.144
INCHI="InChI=1S/C20H24O10/c1-6-12(23)28-11-9(21)18-8-5-7(16(2,3)4)17(18)10(22)13(24)29-15(17)30-20(18,14(25)27-8)19(6,11)26/h6-11,15,21-22,26H,5H2,1-4H3/t6-,7+,8?,9+,10+,11+,15-,17+,18+,19-,20?/m1/s1"
SMILES=CC1C(=O)OC2C(O)C34C5CC(C(C)(C)C)C36C(OC(=O)C6O)OC4(C(=O)O5)C12O
SPECTRUMID=CCMSLIB00010112654
57.07024 27324.0 
59.04945 6461.0 
68.86882 2761.0 
69.033791 3769.0 
69.070267 5712.0 
71.085838 5834.0 
73.933487 3762.0 
79.054031 3285.0 
82.859047 2869.0 
83.01268 14264.0 
83.085716 5440.0 
92.355629 3004.0 
95.085449 26958.0 
97.028191 3589.0 
104.262619 3273.0 
109.064949 3747.0 
111.080269 4289.0 
113.095917 33963.0 
118.02977 3313.0 
119.084663 3473.0 
122.869957 2911.0 
127.039108 6114.0 
129.069595 4633.0 
131.085083 4098.0 
133.065079 4238.0 
136.176804 4515.0 
143.085449 6585.0 
145.064392 28893.0 
145.100876 17979.0 
147.080124 3857.0 
149.023621 3907.0 
155.084442 3590.0 
157.10141 14544.0 
159.044037 3856.0 
159.08049 5108.0 
159.116623 6421.0 
161.05925 5640.0 
163.038818 4401.0 
169.101593 5620.0 
171.080414 16258.0 
171.115387 3934.0 
173.060791 3343.0 
173.095901 23497.0 
175.039871 3865.0 
175.075226 12119.0 
175.111649 6131.0 
177.054581 22330.0 
179.033218 3618.0 
181.100128 3060.0 
183.080597 4938.0 
185.060547 5426.0 
185.095749 40543.0 
187.074905 11531.0 
187.111374 21953.0 
189.054535 7496.0 
189.090363 6117.0 
191.033585 12150.0 
191.070099 4518.0 
191.105743 3475.0 
193.049026 4616.0 
195.08017 3833.0 
197.09552 17356.0 
197.132294 12020.0 
199.075668 13973.0 
199.111725 7074.0 
201.054108 13526.0 
201.090317 26255.0 
203.069977 6512.0 
203.107056 6024.0 
205.049057 5052.0 
207.028168 17158.0 
207.116135 4995.0 
210.352112 6984.0 
211.075485 6874.0 
213.054321 4434.0 
213.090958 46874.0 
213.126953 7453.0 
215.069992 13652.0 
215.106888 18710.0 
217.049484 11455.0 
217.085587 16428.0 
219.027786 3957.0 
219.064117 4027.0 
219.10141 23954.0 
221.043793 17901.0 
223.111649 15103.0 
225.090698 21452.0 
225.127029 26872.0 
227.032715 11805.0 
227.069977 5900.0 
227.10614 19696.0 
227.142258 5078.0 
229.049271 15740.0 
229.085541 46840.0 
231.064117 5142.0 
231.10112 40162.0 
233.081894 3868.0 
233.15155 3165.0 
235.056747 4239.0 
235.110825 4720.0 
239.06813 4042.0 
239.107254 3516.0 
241.085526 29380.0 
241.122314 23486.0 
243.064804 5432.0 
243.101089 24355.0 
243.137085 15600.0 
245.043671 19511.0 
245.080353 32696.0 
245.113525 3272.0 
247.060181 7238.0 
247.095673 26911.0 
251.106262 23033.0 
253.084488 3191.0 
253.122314 36969.0 
255.06723 4112.0 
255.100571 12874.0 
255.13681 14054.0 
257.049377 5117.0 
257.080658 63985.0 
257.111816 6546.0 
259.061523 5236.0 
259.095581 48254.0 
259.131866 15653.0 
261.076263 3910.0 
261.110474 12249.0 
261.143982 9245.0 
265.10611 4197.0 
269.082031 10354.0 
269.116364 39454.0 
271.065125 3965.0 
271.095673 25083.0 
271.131866 32704.0 
273.038513 23012.0 
273.069885 4783.0 
273.110718 4200.0 
275.057098 9210.0 
275.090759 95522.0 
277.106018 13731.0 
279.101074 20633.0 
281.117981 30007.0 
283.095581 3906.0 
283.132324 6077.0 
285.07428 10849.0 
287.091339 12586.0 
287.126801 29674.0 
289.10611 34405.0 
289.142365 21754.0 
292.653534 3435.0 
293.101685 4179.0 
297.111176 47011.0 
299.126434 40328.0 
301.035248 5271.0 
301.105621 7088.0 
301.140869 9437.0 
303.085297 16132.0 
303.120331 5947.0 
305.101776 105499.0 
305.138428 10918.0 
307.094635 13336.0 
309.11203 6250.0 
315.085449 7815.0 
315.12149 80536.0 
317.139099 15343.0 
319.043671 20825.0 
321.095947 55212.0 
325.105804 42662.0 
327.12204 35878.0 
333.094482 4922.0 
333.132721 38252.0 
337.054993 27776.0 
343.11676 98147.0 
345.133301 25483.0 
347.111572 7255.0 
350.654694 3669.0 
351.142792 19709.0 
353.09903 16201.0 
361.127563 234971.0 
363.143097 12192.0 
371.11264 44530.0 
379.138275 239021.0 
389.122253 108164.0 
407.132446 122572.0 
425.143341 1224845.0 
443.154053 688706.0 
443.21167 9584.0 
END IONS

BEGIN IONS
NAME=D-Glucosamine CollisionEnergy:102040 M+H-H2O
PRECURSOR_MZ=162.076
INCHI="InChI=1S/C6H13NO5/c7-3-5(10)4(9)2(1-8)12-6(3)11/h2-6,8-11H,1,7H2/t2-,3-,4-,5-,6?/m1/s1"
SMILES=N[C@H]1C(O)O[C@H](CO)[C@@H](O)[C@@H]1O
SPECTRUMID=CCMSLIB00010103168
56.050201 149112.0 
57.034302 38546.898438 
58.0294 17905.699219 
60.045101 805962.0 
61.029099 40825.300781 
61.6959 8600.570312 
68.050102 70243.703125 
69.034103 145491.0 
70.065804 98397.203125 
71.049698 11560.400391 
72.044998 1875220.0 
73.028999 15033.400391 
80.050102 37639.898438 
81.033997 22726.5 
82.413803 14695.700195 
82.418999 9384.019531 
84.044899 1033580.0 
85.0289 545944.0 
86.060501 92411.203125 
90.055496 52831.800781 
92.395599 13139.200195 
96.0448 117078.0 
96.981201 10029.799805 
97.028702 109715.0 
98.060402 227274.0 
99.044296 15131.900391 
102.055 68217.101562 
108.044998 20499.400391 
109.028 15064.900391 
114.055 139532.0 
115.039001 48394.601562 
120.964996 9576.839844 
126.055 272338.0 
127.039001 119675.0 
132.065002 11755.799805 
144.065002 422682.0 
145.048996 36074.601562 
162.076004 1228320.0 
END IONS

BEGIN IONS
NAME="2-(6,8-dimethyl-4-oxochromen-2-yl)benzoic acid CollisionEnergy:205060" 2M-H
PRECURSOR_MZ=587.171
INCHI="InChI=1S/C18H14O4/c1-10-7-11(2)17-14(8-10)15(19)9-16(22-17)12-5-3-4-6-13(12)18(20)21/h3-9H,1-2H3,(H,20,21)"
SMILES=Cc1cc(C)c2oc(-c3ccccc3C(=O)O)cc(=O)c2c1
SPECTRUMID=CCMSLIB00010116661
101.039711 780989.0 
107.811592 2979.0 
109.494873 2972.0 
145.029144 4211.0 
157.98439 3168.0 
221.097229 17018.0 
249.091995 458222.0 
277.020782 3065.0 
293.081909 310387.0 
378.745941 3147.0 
END IONS

BEGIN IONS
NAME=7-Hydroxy-3'-methoxyflavone CollisionEnergy:102040 M-H
PRECURSOR_MZ=267.066
INCHI="InChI=1S/C16H12O4/c1-19-12-4-2-3-10(7-12)15-9-14(18)13-6-5-11(17)8-16(13)20-15/h2-9,17H,1H3"
SMILES=COc1cccc(-c2cc(=O)c3ccc(O)cc3o2)c1
SPECTRUMID=CCMSLIB00010105060
52.270329 2015.0 
56.004589 2051.0 
57.239712 1926.0 
73.954323 2745.0 
76.791924 2124.0 
76.864052 2246.0 
92.378273 2511.0 
97.706047 2492.0 
107.678337 2687.0 
111.471184 2052.0 
162.222946 2169.0 
177.885147 2442.0 
252.012314 4187.0 
252.042999 187953.0 
267.066528 460896.0 
276.483215 2196.0 
END IONS

BEGIN IONS
NAME=Eriocitrin CollisionEnergy:205060 M-H
PRECURSOR_MZ=595.167
INCHI="InChI=1S/C27H32O15/c1-9-20(32)22(34)24(36)26(39-9)38-8-18-21(33)23(35)25(37)27(42-18)40-11-5-14(30)19-15(31)7-16(41-17(19)6-11)10-2-3-12(28)13(29)4-10/h2-6,9,16,18,20-30,32-37H,7-8H2,1H3/t9-,16-,18+,20-,21+,22+,23-,24+,25+,26+,27+/m0/s1"
SMILES=CC1OC(OCC2OC(Oc3cc(O)c4c(c3)OC(c3ccc(O)c(O)c3)CC4=O)C(O)C(O)C2O)C(O)C(O)C1O
SPECTRUMID=CCMSLIB00010124323
62.62434 2910.0 
63.02364 6670.0 
65.002937 126533.0 
68.950661 2631.0 
79.019279 3125.0 
83.013733 59923.0 
92.383492 5010.0 
95.013397 3468.0 
107.014008 253068.0 
109.029701 21346.0 
120.998497 3435.0 
121.029579 3358.0 
123.239761 2935.0 
125.024773 33276.0 
125.280167 3243.0 
131.013885 17734.0 
133.028946 4071.0 
134.037994 10917.0 
135.045303 713843.0 
137.024384 6103.0 
149.024704 3626.0 
151.003784 693905.0 
161.025116 12105.0 
165.018692 6788.0 
169.014297 7232.0 
175.004105 36427.0 
177.019714 6303.0 
193.014297 6552.0 
272.753052 3082.0 
287.056335 821777.0 
343.06723 3435.0 
387.545563 3204.0 
459.114746 34110.0 
595.067993 6301.0 
595.167603 121158.0 
END IONS

BEGIN IONS
NAME=solasodine CollisionEnergy:205060 M+H
PRECURSOR_MZ=414.337
INCHI="InChI=1S/C27H43NO2/c1-16-7-12-27(28-15-16)17(2)24-23(30-27)14-22-20-6-5-18-13-19(29)8-10-25(18,3)21(20)9-11-26(22,24)4/h5,16-17,19-24,28-29H,6-15H2,1-4H3/t16?,17-,19-,20+,21-,22-,23-,24-,25-,26-,27+/m0/s1"
SMILES=CC1CCC2(NC1)OC1CC3C4CC=C5CC(O)CCC5(C)C4CCC3(C)C1C2C
SPECTRUMID=CCMSLIB00010121363
51.71323 8621.0 
54.587471 9390.0 
55.054699 101718.0 
56.049831 17144.0 
57.034039 78190.0 
58.065609 181689.0 
60.526161 10586.0 
65.038788 38948.0 
67.054558 849645.0 
68.049744 20390.0 
69.033867 14976.0 
69.07019 258982.0 
70.065437 2793779.0 
71.085838 17756.0 
72.081177 10360.0 
73.940536 10411.0 
75.019562 12326.0 
79.054413 493567.0 
80.049713 20461.0 
81.070091 910829.0 
82.065262 55426.0 
83.049301 47200.0 
83.08577 91378.0 
84.080788 20204.0 
86.096741 112530.0 
91.054283 508638.0 
91.060799 20643.0 
93.069939 839157.0 
94.06501 21598.0 
95.049217 78014.0 
95.073502 21222.0 
95.085503 742820.0 
95.606003 9538.0 
96.080681 257239.0 
97.064857 103184.0 
97.101097 23806.0 
98.096413 114545.0 
105.069771 710647.0 
107.085426 1037141.0 
108.080559 12004.0 
109.064751 47079.0 
109.101097 1147312.0 
114.091301 509340.0 
115.054123 18245.0 
116.061539 10360.0 
117.069809 223805.0 
119.085426 622779.0 
121.101059 1348991.0 
122.096359 18945.0 
123.08004 40805.0 
123.116791 130020.0 
124.111954 914463.0 
125.09597 13131.0 
125.120087 18361.0 
126.127609 1002616.0 
127.111313 41906.0 
128.061951 41364.0 
129.069748 261695.0 
131.085419 805030.0 
133.101044 1579052.0 
135.116623 302498.0 
136.187531 10052.0 
137.095688 20778.0 
138.12767 20934.0 
141.06929 83047.0 
142.077469 197643.0 
143.085403 556883.0 
144.093124 48883.0 
145.101028 1180322.0 
147.116684 1645004.0 
148.111557 17342.0 
149.096237 101047.0 
149.119598 14748.0 
149.13208 50194.0 
150.12735 84348.0 
151.11145 249264.0 
152.142517 13452.0 
154.077026 12688.0 
155.085266 170107.0 
156.093155 41117.0 
157.101044 3588842.0 
158.108673 14780.0 
159.116669 1960995.0 
161.09584 63247.0 
161.132217 156271.0 
162.127548 44763.0 
163.111694 147322.0 
164.142792 108370.0 
165.127548 17125.0 
166.159317 10229.0 
168.092728 13364.0 
169.101059 272729.0 
170.107834 10785.0 
171.116547 782990.0 
173.132019 372639.0 
175.111603 805007.0 
176.142715 11146.0 
177.127258 102435.0 
178.158966 13648.0 
181.100525 22519.0 
182.108398 44408.0 
183.116608 425194.0 
184.124115 50105.0 
185.132065 406456.0 
186.140656 13049.0 
187.148163 91652.0 
189.125961 17218.0 
195.117386 22052.0 
196.124252 49061.0 
197.132172 660770.0 
198.139923 62495.0 
199.148071 116365.0 
201.163803 15466.0 
209.131668 61593.0 
210.140747 9751.0 
211.147766 638165.0 
211.170776 22615.0 
212.153839 70614.0 
213.163406 199736.0 
223.146927 74199.0 
224.155579 211865.0 
225.163223 316083.0 
227.17865 49676.0 
229.157776 17514.0 
238.171097 168393.0 
242.165161 56537.0 
251.178223 35247.0 
253.194595 2741330.0 
271.205017 640739.0 
361.85614 10499.0 
366.277985 17521.0 
378.315552 12453.0 
380.292633 46714.0 
396.325287 2302073.0 
412.151367 16152.0 
414.335724 22070490.0 
END IONS

BEGIN IONS
NAME=Salicylate///Bismuth Subsalicylate///Salicylate-sodium///Q4499058///SALICYLATE///Salicylic acid///salicylate///Sodium salicylate///Trolamine salicylate///salicylic acid///Magnesium salicylate///Trisalicylate-choline CollisionEnergy:205060 M-H
PRECURSOR_MZ=137.024
INCHI="InChI=1S/C7H6O3/c8-6-4-2-1-3-5(6)7(9)10/h1-4,8H,(H,9,10)"
SMILES=O=C(O)c1ccccc1O
SPECTRUMID=CCMSLIB00010121185
54.724892 9696.0 
61.410179 7779.0 
65.039413 41551.0 
93.034576 4395942.0 
120.263519 8666.0 
137.024643 581019.0 
137.036606 18786.0 
157.979889 10870.0 
END IONS

BEGIN IONS
NAME=N-Acetyl-D-Glucosamine CollisionEnergy:102040 M+H-H2O
PRECURSOR_MZ=204.087
INCHI="InChI=1S/C8H15NO6/c1-3(11)9-5-7(13)6(12)4(2-10)15-8(5)14/h4-8,10,12-14H,2H2,1H3,(H,9,11)/t4-,5-,6-,7-,8?/m1/s1"
SMILES=CC(O)=N[C@H]1C(O)O[C@H](CO)[C@@H](O)[C@@H]1O
SPECTRUMID=CCMSLIB00010102907
55.018799 9012.69043 
56.050301 27464.699219 
56.639801 4953.22998 
56.968601 5274.779785 
60.045101 176695.0 
60.547798 5590.660156 
61.029099 214584.0 
68.050102 24729.199219 
69.034103 68920.398438 
70.066002 25512.199219 
71.050003 25886.400391 
72.045197 62966.5 
72.227203 5241.5 
73.029099 6205.75 
79.740799 5909.060059 
80.049896 57356.199219 
81.034103 142050.0 
82.065697 10818.299805 
83.049896 28145.800781 
84.044998 2266980.0 
85.0289 35370.300781 
96.044899 513842.0 
97.0289 235234.0 
97.036102 6350.97998 
98.024101 7215.240234 
98.060501 646974.0 
99.044601 87926.296875 
100.040001 27877.199219 
101.024002 12115.400391 
104.303001 7599.790039 
108.043999 42242.101562 
109.028999 289370.0 
113.372002 5668.790039 
114.055 77839.703125 
116.070999 28339.0 
124.040001 57712.5 
126.055 4892160.0 
127.039001 208902.0 
132.798996 5503.850098 
138.054993 8007410.0 
140.070999 33595.199219 
144.065994 2384220.0 
145.050003 11093.5 
156.065002 33431.101562 
162.076004 90921.601562 
168.065994 1274750.0 
186.076004 569270.0 
186.091003 10153.099609 
204.087006 704249.0 
END IONS

BEGIN IONS
NAME=methyl 2-(3-oxo-2-pentylcyclopentyl)acetate CollisionEnergy:205060 M+H
PRECURSOR_MZ=227.164
INCHI="InChI=1S/C13H22O3/c1-3-4-5-6-11-10(7-8-12(11)14)9-13(15)16-2/h10-11H,3-9H2,1-2H3"
SMILES=CCCCCC1C(CCC1=O)CC(=O)OC
SPECTRUMID=CCMSLIB00010102397
55.054462 6754.222168 
57.070229 3719.767822 
65.764305 3351.148193 
67.054405 8988.771484 
69.070061 12516.539062 
79.054321 33128.902344 
81.069923 13143.68457 
83.049248 13792.095703 
83.085587 6508.567383 
90.976753 127340.4375 
91.054298 6179.679688 
93.036629 6109.958496 
93.070045 50359.695312 
95.049026 4592.510742 
95.085609 3992.751465 
97.064995 37576.253906 
107.085449 17747.615234 
107.727501 3375.205811 
108.439041 3145.384277 
133.101547 18036.9375 
135.116882 72754.5 
149.13205 23851.642578 
151.111313 8394.361328 
153.127686 34350.339844 
158.065491 4319.855469 
158.964096 9909.374023 
167.143219 12863.641602 
177.127258 11119.494141 
191.375397 3468.269531 
195.137833 7585.007324 
209.15387 6467.782715 
217.265503 3528.616943 
221.903168 4232.933105 
321.490234 3595.643066 
END IONS

BEGIN IONS
NAME=[2-(5-methoxyindol-3-yl)ethyl](phenylsulfonyl)amine CollisionEnergy:205060 M-H
PRECURSOR_MZ=329.097
INCHI="InChI=1S/C17H18N2O3S/c1-22-14-7-8-17-16(11-14)13(12-18-17)9-10-19-23(20,21)15-5-3-2-4-6-15/h2-8,11-12,18-19H,9-10H2,1H3"
SMILES=COc1ccc2[nH]cc(CCNS(=O)(=O)c3ccccc3)c2c1
SPECTRUMID=CCMSLIB00010120649
61.97023 17149.0 
63.961971 39217.0 
68.995323 3983.0 
77.965179 7488.0 
78.972687 42427.0 
79.980942 112072.0 
82.42746 3228.0 
84.27121 2512.0 
87.554764 2713.0 
90.241386 2828.0 
90.933456 18448.0 
92.050491 1593047.0 
93.034332 25375.0 
93.960403 44610.0 
98.02597 3104.0 
118.336449 2721.0 
118.698227 3999.0 
132.045151 22792.0 
136.040741 4447.0 
141.00148 196138.0 
144.045334 39189.0 
145.053131 37056.0 
156.012421 4717843.0 
159.032135 15991.0 
160.040237 191647.0 
169.625992 3398.0 
173.302261 2945.0 
192.928177 4903.0 
198.419632 2949.0 
209.461334 11809.0 
242.985504 3993.0 
254.114471 3807.0 
274.37735 3497.0 
328.986633 24795.0 
329.060242 31531.0 
329.096527 425886.0 
END IONS

BEGIN IONS
NAME="6-amino-1-phenyl-1,3-dihydropyrimidine-2,4-dione CollisionEnergy:102040" M+Na
PRECURSOR_MZ=226.059
INCHI="InChI=1S/C10H9N3O2/c11-8-6-9(14)12-10(15)13(8)7-4-2-1-3-5-7/h1-6H,11H2,(H,12,14,15)"
SMILES=Nc1cc(O)nc(=O)n1-c1ccccc1
SPECTRUMID=CCMSLIB00010112056
66.735252 2054.0 
67.184067 1832.0 
73.945831 2981.0 
100.906181 2170.0 
113.022888 2270.0 
142.003113 2056.0 
157.958206 2576.0 
202.972458 2625.0 
220.906326 9734.0 
226.036682 3906.0 
226.058975 56723.0 
226.09642 4194.0 
226.140686 9851.0 
226.159683 9989.0 
228.043793 3796.0 
END IONS

BEGIN IONS
NAME=patulin CollisionEnergy:205060 M+H
PRECURSOR_MZ=155.034
INCHI="InChI=1S/C7H6O4/c8-6-3-4-5(11-6)1-2-10-7(4)9/h1,3,7,9H,2H2"
SMILES=O=C1C=C2C(=CCOC2O)O1
SPECTRUMID=CCMSLIB00010125850
51.02343 10291.0 
51.940529 17203.0 
52.733559 1961.0 
53.002571 3009.0 
53.03907 323754.0 
53.47776 2067.0 
55.018299 27202.0 
55.054779 5632.0 
55.140781 2153.0 
57.033951 47578.0 
65.039047 29255.0 
66.740646 2640.0 
67.018387 3687.0 
67.054543 12500.0 
67.935249 16884.0 
68.997223 2062.0 
71.013184 9188.0 
71.049507 526431.0 
72.937233 3536.0 
73.076187 2807.0 
81.033737 572571.0 
83.012939 62134.0 
83.049423 5392.0 
83.92984 2787.0 
85.02845 15083.0 
85.945824 3199.0 
86.310623 2643.0 
90.744759 2321.0 
99.044037 267023.0 
104.282639 2501.0 
109.028374 224201.0 
111.007584 14966.0 
117.738243 2360.0 
117.935349 3075.0 
118.942841 11991.0 
119.950813 3907.0 
127.038834 88240.0 
136.206024 2661.0 
137.023285 16865.0 
140.950821 3889.0 
149.9617 4235.0 
154.907211 8943.0 
155.012238 2897.0 
155.033722 103929.0 
172.951202 2943.0 
END IONS

BEGIN IONS
NAME=3-Hydroxy-7-methoxyflavone CollisionEnergy:102040 M+H
PRECURSOR_MZ=269.081
INCHI="InChI=1S/C16H12O4/c1-19-11-7-8-12-13(9-11)20-16(15(18)14(12)17)10-5-3-2-4-6-10/h2-9,18H,1H3"
SMILES=COc1ccc2c(=O)c(O)c(-c3ccccc3)oc2c1
SPECTRUMID=CCMSLIB00010105972
51.644009 2352.0 
70.551277 2907.0 
92.361031 3516.0 
95.085312 3079.0 
104.268219 4708.0 
105.033592 20420.0 
135.045319 3848.0 
151.038666 13515.0 
152.628067 3375.0 
163.039139 11346.0 
170.074203 3484.0 
172.744934 2899.0 
177.86853 3790.0 
185.094894 4762.0 
193.153351 3188.0 
213.089951 15857.0 
223.075882 3602.0 
226.06102 25206.0 
241.085495 5085.0 
251.069397 11740.0 
251.200317 14804.0 
254.057144 74186.0 
268.071411 4350.0 
269.080292 9917717.0 
270.224792 5135.0 
489.539093 3230.0 
END IONS

BEGIN IONS
NAME="10-[2-(3-methylphenoxy)ethyl]-7-(trifluoromethyl)-3,10-dihydrobenzo[g]pteridin e-2,4-dione CollisionEnergy:102040" M+Na
PRECURSOR_MZ=439.099
INCHI="InChI=1S/C20H15F3N4O3/c1-11-3-2-4-13(9-11)30-8-7-27-15-6-5-12(20(21,22)23)10-14(15)24-16-17(27)25-19(29)26-18(16)28/h2-6,9-10H,7-8H2,1H3,(H,26,28,29)"
SMILES=Cc1cccc(OCCn2c3nc(=O)nc(O)c-3nc3cc(C(F)(F)F)ccc32)c1
SPECTRUMID=CCMSLIB00010111069
58.70752 2359.0 
60.546139 2586.0 
68.632736 2290.0 
73.96209 3129.0 
77.253593 2389.0 
85.802834 2324.0 
242.010605 3155.0 
244.12561 2853.0 
267.008972 2662.0 
328.001099 2735.0 
438.589996 4268.0 
439.097931 722456.0 
END IONS

BEGIN IONS
NAME=4-(purin-6-ylthiomethyl)benzoic acid CollisionEnergy:102040 M+H
PRECURSOR_MZ=287.06
INCHI="InChI=1S/C13H10N4O2S/c18-13(19)9-3-1-8(2-4-9)5-20-12-10-11(15-6-14-10)16-7-17-12/h1-4,6-7H,5H2,(H,18,19)(H,14,15,16,17)"
SMILES=O=C(O)c1ccc(CSc2ncnc3[nH]cnc23)cc1
SPECTRUMID=CCMSLIB00010110707
51.081779 3029.0 
52.410431 2777.0 
58.401951 2755.0 
66.007568 2415.0 
98.143623 3030.0 
107.049072 304930.0 
127.55088 2938.0 
135.04393 3285982.0 
152.014709 28779.0 
176.070969 33544.0 
208.072876 4418.0 
210.065491 3470.0 
215.463669 3054.0 
224.876709 2891.0 
228.077057 22702.0 
241.053818 3264.0 
246.086731 5085.0 
250.918213 2830.0 
255.372803 3525.0 
266.991486 3356.0 
269.048248 56098.0 
287.059235 3859450.0 
288.320465 4225.0 
END IONS

BEGIN IONS
NAME=D-Mannosamine CollisionEnergy:102040 M+H
PRECURSOR_MZ=180.087
INCHI="InChI=1S/C6H13NO5/c7-3-5(10)4(9)2(1-8)12-6(3)11/h2-6,8-11H,1,7H2/t2-,3+,4-,5-,6?/m1/s1"
SMILES=N[C@@H]1C(O)O[C@H](CO)[C@@H](O)[C@@H]1O
SPECTRUMID=CCMSLIB00010103173
56.050201 6397.549805 
60.041599 4488.140137 
60.045101 113654.0 
60.081501 26470.400391 
61.028999 6651.169922 
68.050003 6760.390137 
69.030403 3150.149902 
69.034103 27387.5 
70.065697 23753.599609 
72.044899 181589.0 
73.029099 4099.529785 
80.050003 7358.609863 
81.033699 3771.439941 
82.417702 3918.669922 
84.0448 344150.0 
85.028801 69747.898438 
86.060402 4117.02002 
96.0448 34529.398438 
96.995499 63041.398438 
97.028801 60015.300781 
98.060402 80635.5 
99.0448 4042.290039 
102.055 10767.599609 
108.044998 6559.799805 
114.055 51042.300781 
115.039001 6585.359863 
116.070999 3066.51001 
117.706001 2841.570068 
118.681 3087.620117 
126.055 83687.601562 
127.039001 26220.699219 
129.867996 3365.879883 
131.447006 3010.689941 
144.065002 128496.0 
145.048996 4620.080078 
162.076004 552494.0 
162.091003 18309.800781 
179.285004 3078.51001 
180.085999 81990.398438 
180.104996 352603.0 
END IONS

BEGIN IONS
NAME="methyl 7-(4-chlorophenyl)-4-(4-hydroxy-3-methoxyphenyl)-2-methyl-5-oxo-1,4,6,7 ,8-pentahydroquinoline-3-carboxylate CollisionEnergy:205060" M+formate
PRECURSOR_MZ=498.133
INCHI="InChI=1S/C25H24ClNO5/c1-13-22(25(30)32-3)23(15-6-9-19(28)21(12-15)31-2)24-18(27-13)10-16(11-20(24)29)14-4-7-17(26)8-5-14/h4-9,12,16,23,27-28H,10-11H2,1-3H3"
SMILES=COC(=O)C1=C(C)NC2=C(C(=O)CC(c3ccc(Cl)cc3)C2)C1c1ccc(O)c(OC)c1
SPECTRUMID=CCMSLIB00010120067
51.86063 2302.0 
60.260578 2702.0 
61.495682 2265.0 
82.410019 2777.0 
91.018753 2419.0 
104.304619 2758.0 
118.673561 2507.0 
136.231628 2350.0 
139.198364 2659.0 
146.874954 2779.0 
157.995438 2419.0 
164.071442 2654.0 
208.196045 8109.0 
227.173798 2601.0 
248.552383 2929.0 
270.949005 2819.0 
378.090027 12115.0 
452.127716 78541.0 
END IONS

BEGIN IONS
NAME=2-[2-(4-methylphenoxy)acetylamino]-3-phenylpropanoic acid CollisionEnergy:102040 M+Na
PRECURSOR_MZ=336.121
INCHI="InChI=1S/C18H19NO4/c1-13-7-9-15(10-8-13)23-12-17(20)19-16(18(21)22)11-14-5-3-2-4-6-14/h2-10,16H,11-12H2,1H3,(H,19,20)(H,21,22)"
SMILES=Cc1ccc(OCC(O)=NC(Cc2ccccc2)C(=O)O)cc1
SPECTRUMID=CCMSLIB00010107408
58.99268 2098.0 
59.496052 2313.0 
62.758018 2858.0 
69.669937 2339.0 
118.650032 2947.0 
130.018387 2312.0 
136.206436 3434.0 
138.368698 2703.0 
142.062637 129252.0 
161.801315 2592.0 
188.067902 30763.0 
189.051971 223985.0 
230.080017 3797.0 
336.120026 2100680.0 
END IONS

BEGIN IONS
NAME="1,3-bisbenzyl-4-hydroxyhydroquinolin-2-one CollisionEnergy:102040" M+Na
PRECURSOR_MZ=364.131
INCHI="InChI=1S/C23H19NO2/c25-22-19-13-7-8-14-21(19)24(16-18-11-5-2-6-12-18)23(26)20(22)15-17-9-3-1-4-10-17/h1-14,25H,15-16H2"
SMILES=O=c1c(Cc2ccccc2)c(O)c2ccccc2n1Cc1ccccc1
SPECTRUMID=CCMSLIB00010106207
76.007912 2859.0 
104.265282 3774.0 
127.024673 3361.0 
131.075317 3350.0 
143.31102 3104.0 
268.557648 3727.0 
362.341461 14862.0 
363.121765 4537.0 
364.129974 9450938.0 
365.932037 15215.0 
END IONS

BEGIN IONS
NAME=3-indol-3-yl-2-({2-[(4-methylphenyl)carbonylamino]phenyl}carbonylamino)propano ic acid CollisionEnergy:205060 M+Na
PRECURSOR_MZ=464.158
INCHI="InChI=1S/C26H23N3O4/c1-16-10-12-17(13-11-16)24(30)28-22-9-5-3-7-20(22)25(31)29-23(26(32)33)14-18-15-27-21-8-4-2-6-19(18)21/h2-13,15,23,27H,14H2,1H3,(H,28,30)(H,29,31)(H,32,33)"
SMILES=Cc1ccc(C(=O)Nc2ccccc2C(O)=NC(Cc2c[nH]c3ccccc23)C(=O)O)cc1
SPECTRUMID=CCMSLIB00010122797
69.485283 3200.0 
91.054176 12421.0 
92.384857 3339.0 
92.487534 2790.0 
96.005417 27927.0 
113.883392 2539.0 
116.251442 2854.0 
118.064987 4307.0 
118.659187 3235.0 
119.04921 155708.0 
119.05912 5511.0 
120.044197 20317.0 
120.556442 2814.0 
130.065567 4027.0 
132.080566 4832.0 
144.081009 4398.0 
146.023712 84824.0 
146.059921 28359.0 
147.055176 11420.0 
159.091782 4726.0 
165.590103 2992.0 
181.073761 12448.0 
182.057129 22664.0 
188.070099 3153.0 
201.832062 2852.0 
210.052933 30829.0 
227.07901 459301.0 
238.085983 62574.0 
259.084686 15216.0 
260.067627 13091.0 
277.096863 3801.0 
278.078583 250527.0 
328.107117 13144.0 
464.158051 2437692.0 
END IONS

BEGIN IONS
NAME="(+)-Nootkatone, crystalline, 98+% CollisionEnergy:205060" M+H
PRECURSOR_MZ=219.174
INCHI="InChI=1S/C15H22O/c1-10(2)12-5-6-13-8-14(16)7-11(3)15(13,4)9-12/h8,11-12H,1,5-7,9H2,2-4H3/t11-,12-,15+/m0/s1"
SMILES=C=C(C)C1CCC2=CC(=O)CC(C)C2(C)C1
SPECTRUMID=CCMSLIB00010118708
53.00293 2949.0 
53.039131 14393.0 
55.01833 6224.0 
55.054741 34381.0 
56.965462 4294.0 
57.033821 4162.0 
57.070358 26227.0 
58.49102 2526.0 
59.049671 2445.0 
64.895653 3666.0 
65.039223 5441.0 
67.054626 164388.0 
67.058723 6623.0 
69.033897 103244.0 
69.037376 3786.0 
69.070267 116792.0 
69.074303 5189.0 
70.161583 2553.0 
71.0495 5117.0 
79.054497 138124.0 
79.330292 2820.0 
81.033791 6377.0 
81.070137 624698.0 
82.379608 3093.0 
82.944687 3240.0 
83.049309 22328.0 
83.085762 43893.0 
89.246597 3107.0 
91.054291 55074.0 
93.069992 254802.0 
95.049248 15380.0 
95.085617 202537.0 
97.064842 156282.0 
97.072052 5115.0 
97.101158 4916.0 
105.06987 91126.0 
106.041527 3804.0 
107.049393 26682.0 
107.08548 180544.0 
109.064796 37437.0 
109.101158 185308.0 
111.080383 244108.0 
117.070053 30088.0 
119.085541 117001.0 
121.064751 71894.0 
121.101173 151301.0 
123.080452 75222.0 
123.116814 146032.0 
125.096092 32440.0 
128.191833 2628.0 
129.069855 3097.0 
130.077606 6095.0 
131.085678 56576.0 
131.198654 2910.0 
133.064987 2827.0 
133.101059 59857.0 
133.959976 3237.0 
135.080429 153535.0 
135.116791 82028.0 
137.0961 95720.0 
139.11232 4329.0 
143.086227 10266.0 
143.326904 2914.0 
144.093201 5310.0 
145.101227 128801.0 
147.117035 14860.0 
148.088898 3445.0 
149.096085 184915.0 
149.13266 36355.0 
151.112076 13387.0 
157.101242 4450.0 
159.116943 86602.0 
161.096161 39194.0 
161.13237 89661.0 
161.146713 4994.0 
162.102844 4475.0 
163.111679 348672.0 
171.11676 3626.0 
173.132294 30345.0 
175.148743 27730.0 
176.119263 31464.0 
176.980469 2919.0 
177.127487 41047.0 
177.163742 24744.0 
184.206924 2690.0 
191.179749 6487.0 
201.163742 102334.0 
204.150955 3850.0 
208.541031 9269.0 
219.174271 1199524.0 
END IONS

BEGIN IONS
NAME=N-(2-chloro-4-methylphenyl)-2-(9-methyl-6-oxohydropurin-8-ylthio)acetamide CollisionEnergy:102040 M+Na
PRECURSOR_MZ=386.045
INCHI="InChI=1S/C15H14ClN5O2S/c1-8-3-4-10(9(16)5-8)19-11(22)6-24-15-20-12-13(21(15)2)17-7-18-14(12)23/h3-5,7H,6H2,1-2H3,(H,19,22)(H,17,18,23)"
SMILES=Cc1ccc(N=C(O)CSc2nc3c(O)ncnc3n2C)c(Cl)c1
SPECTRUMID=CCMSLIB00010109581
53.75264 2963.0 
73.955681 2692.0 
82.399551 3490.0 
92.377083 3806.0 
132.269058 2637.0 
142.752151 2660.0 
143.273758 2895.0 
173.042984 12061.0 
204.007462 90242.0 
213.038223 3652.0 
217.014801 4872.0 
235.991028 4461.0 
245.01004 37934.0 
386.04425 4595855.0 
405.611664 2818.0 
END IONS

BEGIN IONS
NAME=2-(4-ethoxyphenyl)-4-oxochromen-3-yl 4-methylbenzenesulfonate CollisionEnergy:102040 M+H
PRECURSOR_MZ=437.105
INCHI="InChI=1S/C24H20O6S/c1-3-28-18-12-10-17(11-13-18)23-24(22(25)20-6-4-5-7-21(20)29-23)30-31(26,27)19-14-8-16(2)9-15-19/h4-15H,3H2,1-2H3"
SMILES=CCOc1ccc(-c2oc3ccccc3c(=O)c2OS(=O)(=O)c2ccc(C)cc2)cc1
SPECTRUMID=CCMSLIB00010106302
55.018108 4324.0 
65.03894 42397.0 
67.054497 24264.0 
88.667442 3109.0 
89.326424 2968.0 
91.049004 3882.0 
91.054413 62991.0 
95.049408 3207.0 
109.064934 33408.0 
119.059853 40653.0 
121.028168 5110.0 
126.177368 3171.0 
139.021469 8243.0 
148.951431 3338.0 
155.015945 91017.0 
181.063919 6941.0 
197.059631 4044.0 
210.06778 3613.0 
225.054413 69075.0 
226.061325 39801.0 
232.251175 3339.0 
237.054062 13326.0 
249.815002 3537.0 
253.049133 359979.0 
253.084915 122596.0 
254.056915 1388056.0 
281.08017 101309.0 
282.088165 4390354.0 
437.104584 3739906.0 
END IONS

BEGIN IONS
NAME="N,N-dimethyl(4-{[3-oxo-3-(2-oxochromen-3-yl)propyl]amino}phenyl)carboxamide CollisionEnergy:205060" M-H
PRECURSOR_MZ=363.135
INCHI="InChI=1S/C21H20N2O4/c1-23(2)20(25)14-7-9-16(10-8-14)22-12-11-18(24)17-13-15-5-3-4-6-19(15)27-21(17)26/h3-10,13,22H,11-12H2,1-2H3"
SMILES=CN(C)C(=O)c1ccc(NCCC(=O)c2cc3ccccc3oc2=O)cc1
SPECTRUMID=CCMSLIB00010119474
51.346741 2106.0 
59.976589 2589.0 
73.982224 2530.0 
97.926323 2433.0 
99.926102 2913.0 
104.325821 4067.0 
113.045563 2162.0 
117.034561 101329.0 
119.050163 134226.0 
120.153503 2612.0 
138.08522 2329.0 
143.050613 9546.0 
145.029282 46887.0 
145.065613 5134.0 
147.05661 12672.0 
148.064163 58578.0 
148.076019 3459.0 
154.157272 3048.0 
163.087509 424642.0 
164.927887 2426.0 
173.060455 3260.0 
187.039871 126681.0 
209.356522 10171.0 
237.912003 2341.0 
264.577057 2449.0 
300.774048 2767.0 
362.988068 6037.0 
363.137939 3824.0 
END IONS

BEGIN IONS
NAME="6-ethoxy-4-[(4-{[2-(2-methoxyphenyl)-5-methyl(1,3-oxazol-4-yl)]methyl}piperazi nyl)methyl]chromen-2-one CollisionEnergy:102040" M+H
PRECURSOR_MZ=490.234
INCHI="InChI=1S/C28H31N3O5/c1-4-34-21-9-10-26-23(16-21)20(15-27(32)36-26)17-30-11-13-31(14-12-30)18-24-19(2)35-28(29-24)22-7-5-6-8-25(22)33-3/h5-10,15-16H,4,11-14,17-18H2,1-3H3"
SMILES=CCOc1ccc2oc(=O)cc(CN3CCN(Cc4nc(-c5ccccc5OC)oc4C)CC3)c2c1
SPECTRUMID=CCMSLIB00010105849
65.133141 5098.0 
68.620323 5054.0 
69.033852 32983.0 
73.959457 5688.0 
74.945976 16194.0 
79.054237 10775.0 
83.060791 19206.0 
84.068169 10430.0 
85.075859 5801.0 
91.0541 69175.0 
92.377083 6114.0 
96.044899 6260.0 
97.076149 28322.0 
97.460892 6181.0 
99.986023 4365.0 
103.054192 9958.0 
105.069946 153125.0 
106.065033 31426.0 
107.049042 442837.0 
117.057037 5888.0 
118.06498 26519.0 
119.036568 11045.0 
119.048393 11961.0 
126.451141 6651.0 
129.069702 35024.0 
131.049149 236041.0 
132.045105 12682.0 
132.056503 115013.0 
132.080948 47291.0 
133.053055 13063.0 
133.064819 123110.0 
134.059921 2349902.0 
135.044373 53108.0 
145.064575 63268.0 
147.080246 45559.0 
150.085419 6709.0 
157.065445 18609.0 
158.059113 45990.0 
159.068237 42317.0 
160.075546 1027335.0 
172.075119 76556.0 
173.059097 11010.0 
174.054153 5552.0 
174.090591 21361.0 
175.073776 7975.0 
187.060745 38982.0 
201.340271 49215.0 
202.086044 31906862.0 
202.8358 46836.0 
204.100433 40299.0 
243.11496 46513.0 
287.139801 24636.0 
289.155548 100141.0 
301.155853 13269.0 
404.149475 9702.0 
487.423065 23903.0 
490.232758 15623709.0 
493.068329 23605.0 
END IONS

BEGIN IONS
NAME=chenodeoxycholic acid CollisionEnergy:205060 M+H-H2O
PRECURSOR_MZ=375.289
INCHI="InChI=1S/C24H40O4/c1-14(4-7-21(27)28)17-5-6-18-22-19(9-11-24(17,18)3)23(2)10-8-16(25)12-15(23)13-20(22)26/h14-20,22,25-26H,4-13H2,1-3H3,(H,27,28)/t14-,15+,16-,17-,18+,19+,20-,22+,23+,24-/m1/s1"
SMILES=CC(CCC(=O)O)C1CCC2C3C(O)CC4CC(O)CCC4(C)C3CCC12C
SPECTRUMID=CCMSLIB00010121719
55.054741 21775.0 
55.057201 2691.0 
67.054497 26962.0 
69.070061 17213.0 
71.355324 2335.0 
79.054413 21716.0 
81.070061 72277.0 
83.048897 3036.0 
83.085709 17717.0 
85.064743 3082.0 
91.054253 18891.0 
92.382698 2973.0 
93.069923 57942.0 
95.085533 69046.0 
97.100273 2728.0 
99.043739 5436.0 
101.05938 5468.0 
104.993217 2332.0 
105.069687 47115.0 
107.085274 57775.0 
109.065308 3308.0 
109.101158 29038.0 
119.085373 44584.0 
121.101082 55563.0 
123.116386 3991.0 
131.085312 4525.0 
133.10112 52471.0 
135.079544 2881.0 
135.105438 3531.0 
135.116638 59840.0 
145.100739 13962.0 
147.116608 65203.0 
149.132477 62986.0 
157.101257 3451.0 
159.116486 17971.0 
161.132477 38262.0 
163.11116 5830.0 
163.147842 5808.0 
171.115646 3162.0 
173.132416 6038.0 
175.111694 3413.0 
175.147873 31844.0 
177.126434 10101.0 
177.162979 2876.0 
181.120895 9759.0 
187.147049 3248.0 
189.163651 5987.0 
193.12056 4267.0 
195.137482 13686.0 
201.162979 10137.0 
203.175873 2794.0 
207.137054 27057.0 
209.15239 5932.0 
211.144821 2632.0 
212.096069 4934.0 
215.178314 5856.0 
217.193848 3097.0 
229.193909 4785.0 
247.169052 5634.0 
261.183594 2486.0 
275.200958 5519.0 
321.257538 4507.0 
337.996429 2490.0 
339.266235 22727.0 
357.278137 248770.0 
375.290039 31827.0 
END IONS

BEGIN IONS
NAME="(3,5-dimethoxyphenyl)-N-(2-phenoxyethyl)carboxamide CollisionEnergy:102040" M+Na
PRECURSOR_MZ=324.121
INCHI="InChI=1S/C17H19NO4/c1-20-15-10-13(11-16(12-15)21-2)17(19)18-8-9-22-14-6-4-3-5-7-14/h3-7,10-12H,8-9H2,1-2H3,(H,18,19)"
SMILES=COc1cc(OC)cc(C(O)=NCCOc2ccccc2)c1
SPECTRUMID=CCMSLIB00010106200
50.128731 2793.0 
62.427341 2429.0 
79.601097 2622.0 
96.024811 2283.0 
127.91156 2264.0 
136.241791 2808.0 
148.585403 2496.0 
324.120239 1987845.0 
END IONS

BEGIN IONS
NAME="4-hydroxy-5,7-dimethyl-3-phenylhydroquinolin-2-one CollisionEnergy:205060" M-H
PRECURSOR_MZ=264.103
INCHI="InChI=1S/C17H15NO2/c1-10-8-11(2)14-13(9-10)18-17(20)15(16(14)19)12-6-4-3-5-7-12/h3-9H,1-2H3,(H2,18,19,20)"
SMILES=Cc1cc(C)c2c(O)c(-c3ccccc3)c(O)nc2c1
SPECTRUMID=CCMSLIB00010114916
51.348301 29374.0 
72.235237 33049.0 
73.970154 28781.0 
82.419868 26755.0 
82.763802 26052.0 
92.398567 30271.0 
102.035011 251932.0 
105.071297 48114.0 
116.050743 7810621.0 
117.034752 14120805.0 
120.082169 107756.0 
146.061356 1838450.0 
209.09787 73320.0 
218.09816 61234.0 
219.105865 650083.0 
220.113449 21689750.0 
221.097961 493137.0 
234.092529 38368.0 
235.099686 40531.0 
236.108124 450931.0 
246.092789 115546.0 
249.0802 233043.0 
251.095383 1380018.0 
262.983032 48277.0 
263.092804 192204.0 
264.103241 123647280.0 
275.999176 32765.0 
END IONS

BEGIN IONS
NAME="N-(2,4-difluorophenyl)-2-(9-ethyl-6-oxohydropurin-8-ylthio)acetamide CollisionEnergy:205060" M+H
PRECURSOR_MZ=366.083
INCHI="InChI=1S/C15H13F2N5O2S/c1-2-22-13-12(14(24)19-7-18-13)21-15(22)25-6-11(23)20-10-4-3-8(16)5-9(10)17/h3-5,7H,2,6H2,1H3,(H,20,23)(H,18,19,24)"
SMILES=CCn1c(SCC(O)=Nc2ccc(F)cc2F)nc2c(O)ncnc21
SPECTRUMID=CCMSLIB00010120546
53.23904 3221.0 
58.995491 32511.0 
68.300629 2953.0 
78.732162 3216.0 
92.366241 4202.0 
97.229736 2988.0 
101.700043 3554.0 
102.571953 3045.0 
110.034813 13627.0 
110.047432 5778.0 
114.028038 3694.0 
115.03566 3233.0 
120.056396 3907.0 
120.661873 3148.0 
122.040047 6546.0 
124.050583 19161.0 
125.01667 17588.0 
126.001266 3112.0 
126.01194 17653.0 
127.035294 32876.0 
129.038391 21224.0 
137.045685 481175.0 
138.012634 3348.0 
140.028458 26078.0 
142.046204 125458.0 
143.027145 3898.0 
144.022919 3377.0 
148.050552 19380.0 
149.045761 55386.0 
150.036041 4777.0 
150.053528 26527.0 
150.996109 12583.0 
151.06134 84158.0 
152.027374 46307.0 
153.02272 19471.0 
153.036942 7793.0 
154.006927 84869.0 
161.045715 17046.0 
163.060013 6453.0 
164.06955 5709.0 
165.077148 15340.0 
167.001938 17299.0 
167.038574 3247.0 
168.009384 15857.0 
168.022812 139798.0 
169.018326 14081.0 
172.017548 20255.0 
175.061234 192909.0 
175.915207 3185.0 
176.069214 49703.0 
177.022812 4377.0 
177.076889 16400.0 
178.006516 3367.0 
181.017639 2124664.0 
182.038177 3976.0 
193.017761 7716.0 
194.025497 12951.0 
195.033279 813137.0 
196.040634 22167.0 
197.049118 5198.0 
209.012558 81382.0 
209.048859 1625291.0 
222.748001 3991.0 
227.058533 22162.0 
236.060959 4496.0 
237.043625 3236917.0 
250.074448 23999.0 
348.070923 4484.0 
366.082306 117141.0 
END IONS

BEGIN IONS
NAME="6-(morpholin-4-ylsulfonyl)-3-(2-oxo-2-(2-1,2,3,4-tetrahydroisoquinolyl)ethyl)- 3-hydrobenzothiazol-2-one CollisionEnergy:102040" M+H
PRECURSOR_MZ=474.115
INCHI="InChI=1S/C22H23N3O5S2/c26-21(23-8-7-16-3-1-2-4-17(16)14-23)15-25-19-6-5-18(13-20(19)31-22(25)27)32(28,29)24-9-11-30-12-10-24/h1-6,13H,7-12,14-15H2"
SMILES=O=C(Cn1c(=O)sc2cc(S(=O)(=O)N3CCOCC3)ccc21)N1CCc2ccccc2C1
SPECTRUMID=CCMSLIB00010110692
70.065468 5533.0 
82.389442 3201.0 
86.060249 185317.0 
87.068161 4890.0 
87.68866 3194.0 
92.362106 4723.0 
96.240677 3150.0 
98.04303 2832.0 
105.069962 14318.0 
117.069504 7455.0 
132.080688 143268.0 
134.09642 1853584.0 
134.429214 3578.0 
135.014954 9957.0 
136.021576 20618.0 
145.088409 20311.0 
151.008728 7087.0 
152.01619 29394.0 
162.012756 5738.0 
167.003036 29128.0 
173.08374 17078.0 
180.011505 5835.0 
184.135468 3345.0 
197.967606 102069.0 
199.983414 32048.0 
221.074326 13888.0 
284.962158 5301.0 
285.035858 1350773.0 
313.03064 1397659.0 
326.065094 5675.0 
339.082458 5591.0 
339.538544 3298.0 
341.025574 851279.0 
354.05899 21459.0 
387.045685 95767.0 
474.114655 1957814.0 
END IONS

BEGIN IONS
NAME=SYRINGIC ACID CollisionEnergy:102040 M-H
PRECURSOR_MZ=197.046
INCHI="InChI=1S/C9H10O5/c1-13-6-3-5(9(11)12)4-7(14-2)8(6)10/h3-4,10H,1-2H3,(H,11,12)"
SMILES=COc1cc(C(=O)O)cc(OC)c1O
SPECTRUMID=CCMSLIB00010126078
65.002602 7664.040039 
67.0187 12659.599609 
68.9981 10008.0 
83.013802 33078.398438 
83.899902 6074.180176 
89.003403 43073.5 
91.018799 14410.0 
92.408096 8778.759766 
95.014 101206.0 
97.029602 28190.599609 
104.315002 7224.129883 
106.005997 41141.601562 
110.000999 10959.0 
110.196999 5819.399902 
111.009003 37698.101562 
112.987999 11268.299805 
116.929001 10992.099609 
120.510002 6195.459961 
120.992996 25511.699219 
121.029999 1882770.0 
123.009003 1515310.0 
123.044998 8049.740234 
127.003998 44101.5 
132.197998 6889.669922 
136.016998 7797.560059 
136.988007 33489.601562 
137.024994 31600.900391 
138.031998 2063050.0 
139.003998 49893.800781 
139.039993 14537.099609 
153.056 3163220.0 
153.128006 28853.400391 
154.026993 26919.300781 
154.998993 44782.898438 
166.998993 3343680.0 
169.013 7325.689941 
178.891998 9968.55957 
181.014008 104491.0 
181.382004 9709.110352 
182.022003 14620300.0 
182.664993 9204.280273 
197.046005 5763690.0 
END IONS

BEGIN IONS
NAME=morin CollisionEnergy:205060 M-H
PRECURSOR_MZ=301.035
INCHI="InChI=1S/C15H10O7/c16-6-1-2-8(9(18)3-6)15-14(21)13(20)12-10(19)4-7(17)5-11(12)22-15/h1-5,16-19,21H"
SMILES=O=c1c(O)c(-c2ccc(O)cc2O)oc2cc(O)cc(O)c12
SPECTRUMID=CCMSLIB00010122826
57.03418 37335.0 
63.02367 77517.0 
65.002953 250864.0 
66.151039 2423.0 
66.739197 2544.0 
77.500381 2920.0 
81.034309 23425.0 
83.013763 256976.0 
91.018669 5182.0 
92.372452 3451.0 
93.034363 12380.0 
95.013687 6621.0 
101.381767 3315.0 
107.013893 310187.0 
108.97316 2757.0 
109.029716 29493.0 
114.226173 2872.0 
118.649696 3585.0 
119.013786 15417.0 
121.029427 30782.0 
123.045326 11341.0 
124.016876 4801.0 
125.024406 285307.0 
128.641968 2667.0 
133.029037 3534.0 
135.008301 21043.0 
135.045227 16410.0 
136.932144 15636.0 
139.040405 6462.0 
145.029312 22057.0 
146.960358 2600.0 
147.008774 83129.0 
147.044891 6041.0 
148.016541 130625.0 
149.024353 378129.0 
151.003647 361021.0 
151.023819 4533.0 
152.01004 4154.0 
153.01767 3311.0 
157.066254 4119.0 
159.045502 38283.0 
161.024414 6149.0 
161.060883 4598.0 
163.003647 103783.0 
164.011017 6619.0 
164.927094 19637.0 
169.013763 11578.0 
171.045227 11890.0 
173.024307 28138.0 
175.002899 5783.0 
177.055466 12900.0 
183.04599 4307.0 
185.060974 11553.0 
187.039505 28128.0 
189.056107 3536.0 
192.005112 6048.0 
195.044296 6415.0 
196.877533 2588.0 
201.055634 15651.0 
203.03566 10419.0 
211.040115 14013.0 
214.914383 31380.0 
227.035263 4323.0 
229.050049 30186.0 
232.925415 22138.0 
239.034653 10162.0 
245.045319 11370.0 
254.906769 16556.0 
257.045929 17696.0 
272.032928 4622.0 
273.040131 25200.0 
283.023865 19183.0 
284.03009 10664.0 
301.035217 1236909.0 
END IONS

BEGIN IONS
NAME=2-[2-(phenylcarbonyl)benzimidazolyl]-N-(2-phenylethyl)acetamide CollisionEnergy:205060 M+H
PRECURSOR_MZ=384.171
INCHI="InChI=1S/C24H21N3O2/c28-22(25-16-15-18-9-3-1-4-10-18)17-27-21-14-8-7-13-20(21)26-24(27)23(29)19-11-5-2-6-12-19/h1-14H,15-17H2,(H,25,28)"
SMILES=O=C(c1ccccc1)c1nc2ccccc2n1CC(O)=NCCc1ccccc1
SPECTRUMID=CCMSLIB00010115363
50.015511 272818.0 
51.023281 238351.0 
53.039009 257691.0 
53.41254 26489.0 
55.01823 110514.0 
66.734619 26140.0 
77.038559 537366.0 
77.042671 32005.0 
79.054489 842039.0 
81.03363 511780.0 
91.054237 1256830.0 
93.070168 64908.0 
95.049103 1670466.0 
101.321823 25198.0 
103.054108 741057.0 
103.061928 35132.0 
104.049393 152326.0 
104.755013 66249.0 
105.033363 74010568.0 
105.069649 12047247.0 
105.313148 65671.0 
115.054039 463193.0 
117.069618 1621357.0 
118.064758 129588.0 
119.060013 50705.0 
119.072807 144312.0 
120.080513 292248.0 
121.064278 345597.0 
131.060165 875462.0 
132.068085 310743.0 
133.064255 44049.0 
134.096283 630971.0 
144.080673 168981.0 
145.064667 214378.0 
157.062897 114259.0 
158.070908 431730.0 
159.054962 485688.0 
162.055099 38453.0 
162.090744 46425.0 
163.049866 1334943.0 
168.473373 27547.0 
177.065231 449877.0 
198.662354 28215.0 
202.061249 281929.0 
206.083679 252343.0 
207.091202 2122146.0 
208.478638 64187.0 
219.091492 40260.0 
223.086044 3248863.0 
234.078308 438350.0 
235.085953 13866921.0 
237.101624 158199.0 
262.132629 61621.0 
263.08075 1832794.0 
306.122955 48532.0 
380.558136 29765.0 
382.223083 35910.0 
384.169464 45697280.0 
386.129669 43468.0 
END IONS

BEGIN IONS
NAME=phenylmethyl (2S)-3-hydroxy-2-[(phenylmethoxy)carbonylamino]propanoate CollisionEnergy:102040 M+formate
PRECURSOR_MZ=374.125
INCHI="InChI=1S/C18H19NO5/c20-11-16(17(21)23-12-14-7-3-1-4-8-14)19-18(22)24-13-15-9-5-2-6-10-15/h1-10,16,20H,11-13H2,(H,19,22)/t16-/m0/s1"
SMILES=O=C(OCc1ccccc1)C(CO)N=C(O)OCc1ccccc1
SPECTRUMID=CCMSLIB00010111169
59.338631 2008.0 
60.432732 2236.0 
72.214592 2320.0 
82.40332 2758.0 
85.221733 2199.0 
85.228157 2995.0 
92.38369 2512.0 
104.286987 3272.0 
113.248672 2228.0 
144.5858 2584.0 
190.05069 3572.0 
204.341614 3284.0 
218.592545 2326.0 
220.061737 3965.0 
232.50473 2699.0 
233.185669 2499.0 
243.987442 3671.0 
END IONS

BEGIN IONS
NAME="4',7-Dimethoxy-3-hydroxyflavone CollisionEnergy:102040" M-H
PRECURSOR_MZ=297.077
INCHI="InChI=1S/C17H14O5/c1-20-11-5-3-10(4-6-11)17-16(19)15(18)13-8-7-12(21-2)9-14(13)22-17/h3-9,19H,1-2H3"
SMILES=COc1ccc(-c2oc3cc(OC)ccc3c(=O)c2O)cc1
SPECTRUMID=CCMSLIB00010104325
55.162491 2171.0 
55.792252 2592.0 
60.682388 2628.0 
81.02092 2176.0 
92.927963 2866.0 
112.985703 18394.0 
134.538101 2181.0 
157.9823 2381.0 
166.923569 2422.0 
211.039734 31841.0 
225.056015 71804.0 
229.180954 4555.0 
239.03447 13765.0 
250.987671 3275.0 
253.050446 24706.0 
254.058853 57195.0 
282.054047 34803.0 
297.076935 405932.0 
297.153107 275404.0 
298.323029 2658.0 
517.854187 2351.0 
533.377563 2289.0 
END IONS

BEGIN IONS
NAME="2-(4-ethoxy-3-methoxyphenyl)-6,8-dimethylchromen-4-one CollisionEnergy:205060" M+Na
PRECURSOR_MZ=347.125
INCHI="InChI=1S/C20H20O4/c1-5-23-17-7-6-14(10-19(17)22-4)18-11-16(21)15-9-12(2)8-13(3)20(15)24-18/h6-11H,5H2,1-4H3"
SMILES=CCOc1ccc(-c2cc(=O)c3cc(C)cc(C)c3o2)cc1OC
SPECTRUMID=CCMSLIB00010116041
92.374283 2432.0 
107.958794 2675.0 
129.750687 2563.0 
347.080963 2866.0 
347.124969 66838.0 
347.220276 33127.0 
END IONS

BEGIN IONS
NAME=C6-ceramide CollisionEnergy:205060 M+Na
PRECURSOR_MZ=420.345
INCHI="InChI=1S/C24H47NO3/c1-3-5-7-8-9-10-11-12-13-14-15-16-18-19-23(27)22(21-26)25-24(28)20-17-6-4-2/h18-19,22-23,26-27H,3-17,20-21H2,1-2H3,(H,25,28)/b19-18+/t22-,23+/m0/s1"
SMILES=CCCCCCCCCCCCCC=CC(O)C(CO)N=C(O)CCCCC
SPECTRUMID=CCMSLIB00010119217
74.632591 2261.0 
88.654747 2585.0 
89.161682 2477.0 
104.284447 3689.0 
126.343117 2543.0 
160.493912 2605.0 
213.485168 3402.0 
278.596588 2395.0 
339.169098 2968.0 
420.344421 1562044.0 
END IONS

BEGIN IONS
NAME="4-{[4-(2,3-dimethylphenyl)piperazinyl]methyl}-5,7-dimethylchromen-2-one CollisionEnergy:102040" M+H
PRECURSOR_MZ=377.222
INCHI="InChI=1S/C24H28N2O2/c1-16-12-18(3)24-20(14-23(27)28-22(24)13-16)15-25-8-10-26(11-9-25)21-7-5-6-17(2)19(21)4/h5-7,12-14H,8-11,15H2,1-4H3"
SMILES=Cc1cc(C)c2c(CN3CCN(c4cccc(C)c4C)CC3)cc(=O)oc2c1
SPECTRUMID=CCMSLIB00010111467
70.065498 34437.0 
77.610863 2436.0 
82.406303 2839.0 
104.410973 2553.0 
107.137787 2979.0 
131.085587 13751.0 
132.081039 4685.0 
133.088257 15586.0 
134.096527 11132.0 
135.103516 2995.0 
136.223495 2912.0 
145.100845 6077.0 
146.0961 5963.0 
147.080887 3850.0 
147.103958 3906.0 
148.111923 548104.0 
159.080414 116901.0 
159.103897 3772.0 
160.112045 42744.0 
161.095825 49322.0 
174.127853 2996.0 
175.075043 45558.0 
187.075226 279858.0 
187.122955 19720.0 
188.130524 227908.0 
189.09079 33645.0 
189.138748 30114.0 
190.146301 82883.0 
191.153946 76178.0 
201.138794 4867.0 
202.121475 2980.0 
202.144287 4154.0 
203.15419 24377.0 
218.174393 3269.0 
230.116898 23352.0 
244.13562 2764.0 
250.181824 3074.0 
256.133453 2900.0 
261.440765 2808.0 
329.630402 3044.0 
333.523804 3229.0 
377.22168 2268960.0 
394.334442 3240.0 
END IONS

BEGIN IONS
NAME="methyl 3-[5-(methoxycarbonyl)-6,7-diazaspiro[2.4]hept-6-en-5-yl]propanoate CollisionEnergy:205060" M+H
PRECURSOR_MZ=241.118
INCHI="InChI=1S/C11H16N2O4/c1-16-8(14)3-4-11(9(15)17-2)7-10(5-6-10)12-13-11/h3-7H2,1-2H3"
SMILES=COC(=O)CCC1(C(=O)OC)CC2(CC2)N=N1
SPECTRUMID=CCMSLIB00010118156
51.02356 13333.0 
53.03904 141774.0 
55.018318 96830.0 
55.021252 4394.0 
55.054741 3580.0 
59.049591 4617.0 
63.447651 2196.0 
65.038857 8311.0 
67.054749 19143.0 
71.0495 3765.0 
77.038857 6248.0 
78.046562 2963.0 
79.054497 307040.0 
81.033623 27672.0 
81.070107 28924.0 
84.960007 3065.0 
91.054329 493449.0 
92.399063 3989.0 
92.40522 2566.0 
93.069977 1050389.0 
95.049149 69824.0 
95.085678 26378.0 
103.054176 298823.0 
105.044777 15662.0 
105.069656 2845.0 
107.049316 26206.0 
109.064827 19599.0 
111.08036 115001.0 
111.089027 4735.0 
113.059372 30641.0 
121.064682 901702.0 
123.080276 26559.0 
125.059853 3587.0 
125.096001 66864.0 
137.059723 13463.0 
139.075211 55393.0 
141.054428 13711.0 
149.05954 112843.0 
153.076706 6233.0 
153.09079 159816.0 
174.552841 2542.0 
181.0858 80537.0 
187.938202 2813.0 
195.044968 4270.0 
241.117996 38401.0 
END IONS

BEGIN IONS
NAME="8-{[2-(2-chlorophenyl)-5-methyl(1,3-oxazol-4-yl)]methylthio}-9-(4-methylphenyl )hydropurin-6-one CollisionEnergy:205060" M+H
PRECURSOR_MZ=464.094
INCHI="InChI=1S/C23H18ClN5O2S/c1-13-7-9-15(10-8-13)29-20-19(21(30)26-12-25-20)28-23(29)32-11-18-14(2)31-22(27-18)16-5-3-4-6-17(16)24/h3-10,12H,11H2,1-2H3,(H,25,26,30)"
SMILES=Cc1ccc(-n2c(SCc3nc(-c4ccccc4Cl)oc3C)nc3c(O)ncnc32)cc1
SPECTRUMID=CCMSLIB00010120637
50.015671 6315.0 
51.023479 7250.0 
66.734917 4367.0 
68.644363 4288.0 
69.033867 1313036.0 
69.974907 7397.0 
75.023354 8214.0 
78.034142 45891.0 
79.018044 4641.0 
82.984749 4193.0 
91.054428 6961.0 
102.033478 30886.0 
105.069542 5880.0 
105.454628 4594.0 
112.124077 5411.0 
120.044373 9788.0 
128.062592 5525.0 
130.040573 44771.0 
137.003815 4378.0 
137.014603 9296.0 
138.010452 9618274.0 
138.994339 121825.0 
139.990814 7576.0 
143.060776 22363.0 
156.020767 173690.0 
157.952881 5622.0 
167.002182 96975.0 
179.036606 128620.0 
180.056946 9245.0 
187.031677 53763.0 
198.067963 5353.0 
206.036545 9497932.0 
215.026291 59087.0 
232.053162 45637.0 
233.039139 6356.0 
247.063187 173234.0 
259.064362 1019670.0 
266.093842 27092.0 
327.092621 18809.0 
464.093506 1647531.0 
END IONS

BEGIN IONS
NAME=N-[2-(5-bromo-2-methylindol-3-yl)ethyl](8-methoxy-2-oxochromen-3-yl)carboxamid e CollisionEnergy:102040 M-H
PRECURSOR_MZ=453.046
INCHI="InChI=1S/C22H19BrN2O4/c1-12-15(16-11-14(23)6-7-18(16)25-12)8-9-24-21(26)17-10-13-4-3-5-19(28-2)20(13)29-22(17)27/h3-7,10-11,25H,8-9H2,1-2H3,(H,24,26)"
SMILES=COc1cccc2cc(C(=O)NCCc3c(C)[nH]c4ccc(Br)cc34)c(=O)oc12
SPECTRUMID=CCMSLIB00010113213
70.659019 2570.0 
74.280602 3084.0 
78.91848 12470.0 
80.216003 2484.0 
104.310257 3652.0 
112.985443 81834.0 
132.021378 59958.0 
146.137115 2849.0 
147.044891 228629.0 
158.000076 3109.0 
159.032318 35220.0 
160.016495 10413.0 
161.02446 5976.0 
173.046814 3840.0 
174.055771 74925.0 
175.039871 207963.0 
180.973282 22601.0 
191.034348 3248.0 
209.207092 3747.0 
209.226807 5669.0 
217.037476 19099.0 
232.061951 11936.0 
248.96048 53252.0 
249.003494 4838.0 
274.983307 12266.0 
276.99826 76167.0 
282.106506 2824.0 
304.982971 5982.0 
316.947906 36819.0 
316.990234 11602.0 
328.985077 12298.0 
348.987305 3448.0 
366.978943 6596.0 
383.622925 2897.0 
384.935455 4696.0 
392.982605 2879.0 
409.05603 12368.0 
432.975891 12623.0 
452.98703 46785.0 
453.045807 1222973.0 
END IONS

BEGIN IONS
NAME=methoxsalen CollisionEnergy:102040 M+H
PRECURSOR_MZ=217.05
INCHI="InChI=1S/C12H8O4/c1-14-12-10-8(4-5-15-10)6-7-2-3-9(13)16-11(7)12/h2-6H,1H3"
SMILES=COc1c2occc2cc2ccc(=O)oc12
SPECTRUMID=CCMSLIB00010106297
56.080441 2823.0 
64.109009 2736.0 
68.970657 3004.0 
74.232803 3252.0 
82.109932 2589.0 
82.404984 3202.0 
91.054573 5406.0 
92.384323 3003.0 
94.444107 2933.0 
105.034073 4622.0 
115.054047 48981.0 
117.06955 35005.0 
123.381088 4046.0 
131.048782 15771.0 
133.064774 6041.0 
143.049042 2900.0 
145.064743 21330.0 
146.036057 4714.0 
157.028656 3911.0 
158.035797 41256.0 
161.059555 305068.0 
173.059494 119138.0 
174.030777 82052.0 
185.023132 198246.0 
189.054199 208906.0 
189.073608 4707.0 
202.025787 1188058.0 
217.049301 7522213.0 
END IONS

BEGIN IONS
NAME="2-{4-[(1,3-dioxocyclopenta[3,4-a]benzen-2-ylidene)methyl]phenoxy}acetic acid CollisionEnergy:205060" M+H-H2O
PRECURSOR_MZ=291.065
INCHI="InChI=1S/C18H12O5/c19-16(20)10-23-12-7-5-11(6-8-12)9-15-17(21)13-3-1-2-4-14(13)18(15)22/h1-9H,10H2,(H,19,20)"
SMILES=O=C(O)COc1ccc(C=C2C(=O)c3ccccc3C2=O)cc1
SPECTRUMID=CCMSLIB00010123463
54.529469 2181.0 
73.96357 2891.0 
74.938179 2025.0 
86.652817 2121.0 
172.723251 2477.0 
252.84642 2631.0 
291.062225 614977.0 
291.157104 10218.0 
309.073822 20006.0 
310.14856 2412.0 
END IONS

BEGIN IONS
NAME=N-(2-chloro-4-methylphenyl)-2-(9-methyl-6-oxohydropurin-8-ylthio)acetamide CollisionEnergy:205060 M+Na
PRECURSOR_MZ=386.045
INCHI="InChI=1S/C15H14ClN5O2S/c1-8-3-4-10(9(16)5-8)19-11(22)6-24-15-20-12-13(21(15)2)17-7-18-14(12)23/h3-5,7H,6H2,1-2H3,(H,19,22)(H,17,18,23)"
SMILES=Cc1ccc(N=C(O)CSc2nc3c(O)ncnc3n2C)c(Cl)c1
SPECTRUMID=CCMSLIB00010120922
82.407219 4312.0 
92.386147 2902.0 
143.380753 2703.0 
166.818726 3242.0 
173.0439 4019.0 
175.427216 2748.0 
195.033859 4291.0 
204.007172 71686.0 
228.822891 3066.0 
245.009735 13229.0 
280.447937 3721.0 
284.849457 2908.0 
321.783447 3039.0 
350.075256 2547.0 
385.531586 4046.0 
386.044312 3498064.0 
END IONS

BEGIN IONS
NAME=RAFFINOSE CollisionEnergy:102040 M+Cl
PRECURSOR_MZ=539.138
INCHI="InChI=1S/C18H32O16/c19-1-5-8(22)11(25)13(27)16(31-5)30-3-7-9(23)12(26)14(28)17(32-7)34-18(4-21)15(29)10(24)6(2-20)33-18/h5-17,19-29H,1-4H2/t5-,6-,7-,8+,9-,10-,11+,12+,13-,14-,15+,16+,17-,18+/m1/s1"
SMILES=OC[C@H]1O[C@@](CO)(O[C@H]2O[C@H](CO[C@H]3O[C@H](CO)[C@H](O)[C@H](O)[C@H]3O)[C@@H](O)[C@H](O)[C@H]2O)[C@@H](O)[C@@H]1O
SPECTRUMID=CCMSLIB00010126302
56.377602 2904.689941 
59.013199 10333.799805 
60.7696 2740.47998 
66.765701 3072.469971 
71.013603 14687.299805 
85.593399 3524.600098 
87.008598 3948.159912 
89.0242 39518.101562 
101.024002 21917.900391 
113.024002 7237.459961 
119.035004 5664.859863 
131.759995 3242.649902 
161.044998 5957.490234 
174.649994 2868.719971 
179.056 53137.101562 
220.718002 3195.300049 
221.065994 25983.300781 
341.109009 6250.77002 
377.088013 24604.900391 
469.03299 3109.199951 
503.161987 120565.0 
539.138977 257142.0 
END IONS

BEGIN IONS
NAME="ethyl 5-[(3,5-dimethoxyphenyl)carbonylamino]-4-cyano-3-methylthiophene-2-carbo xylate CollisionEnergy:102040" M-e
PRECURSOR_MZ=374.093
INCHI="InChI=1S/C18H18N2O5S/c1-5-25-18(22)15-10(2)14(9-19)17(26-15)20-16(21)11-6-12(23-3)8-13(7-11)24-4/h6-8H,5H2,1-4H3,(H,20,21)"
SMILES=CCOC(=O)c1sc(N=C(O)c2cc(OC)cc(OC)c2)c(C#N)c1C
SPECTRUMID=CCMSLIB00010109188
55.33157 2690.0 
104.328873 2526.0 
155.07045 27385.0 
165.054596 313056.0 
215.846008 2750.0 
221.012115 10972.0 
276.102142 12759.0 
288.397552 2464.0 
329.057953 4795.0 
350.072418 3055.0 
353.578766 37857.0 
354.082336 2610.0 
362.585144 93338.0 
363.085846 14560.0 
368.078308 9726.0 
371.590088 14017.0 
374.093964 47833.0 
374.596375 11832.0 
383.098328 2872.0 
417.315704 2408.0 
449.069824 3122.0 
END IONS

BEGIN IONS
NAME=1-ethyl-2(1H)-quinolone CollisionEnergy:102040 M+Na
PRECURSOR_MZ=196.073
INCHI="InChI=1S/C11H11NO/c1-2-12-10-6-4-3-5-9(10)7-8-11(12)13/h3-8H,2H2,1H3"
SMILES=CCN1C(=O)C=CC2=CC=CC=C21
SPECTRUMID=CCMSLIB00010102291
52.555542 3194.26001 
62.141869 2933.761963 
72.712807 2937.915527 
78.718178 2912.962646 
82.60302 3335.375977 
92.435471 3583.724609 
163.359268 3250.809082 
196.073288 19729.130859 
END IONS

BEGIN IONS
NAME=xylitol CollisionEnergy:102040 M+Cl
PRECURSOR_MZ=187.038
INCHI="InChI=1S/C5H12O5/c6-1-3(8)5(10)4(9)2-7/h3-10H,1-2H2/t3-,4+,5?"
SMILES=OC[C@H](O)C(O)[C@H](O)CO
SPECTRUMID=CCMSLIB00010126381
54.846401 1829.630005 
57.120499 1905.670044 
59.0135 7911.129883 
59.914902 2121.370117 
73.986702 2380.090088 
75.291 2048.679932 
75.8321 2150.189941 
77.127602 1867.26001 
82.433899 2810.5 
85.736504 1909.040039 
89.0242 17283.199219 
95.399101 1951.719971 
100.926003 4907.040039 
104.333 2051.360107 
114.902 2217.070068 
125.097 90128.203125 
142.932999 3224.909912 
143.072006 2300.790039 
169.087997 3093.48999 
186.923004 3360.889893 
187.041 3814.699951 
187.098007 49091.5 
END IONS

BEGIN IONS
NAME="2-amino-21-methyl-5,16-dioxospiro[4H-pyrano[3,2-c]chromene-4,3'-indoline]-3-ca rbonitrile CollisionEnergy:205060" M+H
PRECURSOR_MZ=372.098
INCHI="InChI=1S/C21H13N3O4/c1-10-5-4-7-12-16(10)24-20(26)21(12)13(9-22)18(23)28-17-11-6-2-3-8-14(11)27-19(25)15(17)21/h2-8H,23H2,1H3,(H,24,26)"
SMILES=Cc1cccc2c1N=C(O)C21C(C#N)=C(N)Oc2c1c(=O)oc1ccccc21
SPECTRUMID=CCMSLIB00010120862
52.812859 3148.0 
53.619888 3308.0 
55.01836 3199.0 
61.379169 3147.0 
61.464489 2955.0 
65.038834 44400.0 
86.207787 3050.0 
91.054153 12415.0 
93.033257 21104.0 
95.048851 13951.0 
106.064598 4782.0 
111.043457 12135.0 
116.049332 4944.0 
120.044617 6249.0 
121.028259 588307.0 
140.049438 14578.0 
141.056885 50297.0 
154.064804 6174.0 
157.945145 3614.0 
159.067764 3601.0 
167.059998 50713.0 
169.075745 115977.0 
170.059723 21423.0 
179.059998 200753.0 
180.042328 4060.0 
181.062943 49662.0 
181.079514 4343.0 
185.070038 4518.0 
194.071014 200984.0 
195.054688 46234.0 
196.086731 89630.0 
197.070404 20384.0 
202.078796 5362.0 
203.085007 7386.0 
205.063751 3769.0 
206.070847 103858.0 
207.054764 43779.0 
211.073166 13638.0 
217.089386 3831.0 
218.095062 6165.0 
222.065506 72999.0 
223.049683 11871.0 
223.073395 28869.0 
224.08136 992523.0 
225.065338 14106.0 
227.072067 6333.0 
228.081467 23876.0 
230.097244 26073.0 
231.081329 4506.0 
233.059433 4351.0 
233.083252 35342.0 
239.044434 15046.0 
240.078354 18573.0 
241.059372 16646.0 
242.084457 5699.0 
243.091354 19143.0 
244.075058 4007.0 
245.106369 22080.0 
246.091873 25741.0 
250.060501 314148.0 
251.043045 5026.0 
252.074966 4084.0 
253.07547 5568.0 
255.091309 56910.0 
256.074951 41878.0 
256.100403 4853.0 
257.106689 14143.0 
258.081238 14481.0 
260.070038 13112.0 
260.123291 4225.0 
261.077759 14801.0 
265.073883 4431.0 
268.071045 648831.0 
270.102661 28243.0 
271.085266 71104.0 
271.110291 3452.0 
272.093872 4644.0 
273.102631 42422.0 
274.085541 18539.0 
277.096619 15916.0 
278.080597 183417.0 
279.089172 7040.0 
280.086426 14695.0 
281.071106 14010.0 
282.104584 32095.0 
283.084564 35703.0 
284.077209 18805.0 
286.070435 4774.0 
288.113098 12533.0 
289.088989 5469.0 
293.067688 41692.0 
297.089233 14663.0 
298.097473 79265.0 
299.0802 66367.0 
300.118378 25759.0 
301.095795 77374.0 
302.091583 195034.0 
308.08136 5270.0 
311.068665 7465.0 
316.107056 63972.0 
324.07605 6485.0 
325.084808 15881.0 
326.091583 166880.0 
327.072998 44167.0 
328.07077 5205.0 
343.09137 3773.0 
344.102112 2978696.0 
372.097015 127171.0 
END IONS

BEGIN IONS
NAME=2-(6-fluoroindol-3-yl)-N-(4-methoxyphenyl)-2-oxoacetamide CollisionEnergy:102040 M+H
PRECURSOR_MZ=313.098
INCHI="InChI=1S/C17H13FN2O3/c1-23-12-5-3-11(4-6-12)20-17(22)16(21)14-9-19-15-8-10(18)2-7-13(14)15/h2-9,19H,1H3,(H,20,22)"
SMILES=COc1ccc(N=C(O)C(=O)c2c[nH]c3cc(F)ccc23)cc1
SPECTRUMID=CCMSLIB00010106271
52.093601 2714.0 
55.6483 2761.0 
58.35186 2802.0 
73.951897 3471.0 
74.042343 2508.0 
78.823196 2935.0 
84.959808 6291.0 
91.054398 22344.0 
104.286003 2826.0 
107.029022 10660.0 
122.059822 6033.0 
134.040482 12960.0 
136.055939 32738.0 
149.0233 16502.0 
162.035019 6417386.0 
162.572952 3125.0 
163.038422 36726.0 
174.900925 3138.0 
192.909973 4147.0 
230.8927 3282.0 
233.14325 2927.0 
240.003448 3030.0 
248.900803 34979.0 
266.911072 21309.0 
268.264221 5255.0 
271.916656 3586.0 
295.82309 3437.0 
313.098083 70069.0 
313.321075 10295.0 
END IONS

BEGIN IONS
NAME=N-(3-chlorophenyl)-2-{2-oxo-4-[N-benzylcarbamoyl]hydroquinolyl}acetamide CollisionEnergy:102040 M+H
PRECURSOR_MZ=446.127
INCHI="InChI=1S/C25H20ClN3O3/c26-18-9-6-10-19(13-18)28-23(30)16-29-22-12-5-4-11-20(22)21(14-24(29)31)25(32)27-15-17-7-2-1-3-8-17/h1-14H,15-16H2,(H,27,32)(H,28,30)"
SMILES=O=c1cc(C(O)=NCc2ccccc2)c2ccccc2n1CC(O)=Nc1cccc(Cl)c1
SPECTRUMID=CCMSLIB00010112659
69.239067 3003.0 
69.633087 2609.0 
73.946091 2851.0 
91.054329 625063.0 
101.023743 2909.0 
136.197586 3441.0 
147.441345 2827.0 
158.059509 3870.0 
180.080322 31936.0 
199.049911 3009.0 
206.059402 4567.0 
218.095993 90388.0 
220.112442 3550.0 
232.075882 4471.0 
233.107468 18634.0 
261.102356 18932.0 
279.112274 28545.0 
291.081818 4798.0 
291.112061 411136.0 
319.107086 2251258.0 
332.138214 21558.0 
374.192535 3178.0 
446.126892 3684.0 
END IONS

BEGIN IONS
NAME=2-(acetylamino)-3-indol-3-yl-N-{2-[5-methyl-2-(methylethyl)phenoxy]ethyl}propa namide CollisionEnergy:102040 M+H
PRECURSOR_MZ=422.244
INCHI="InChI=1S/C25H31N3O3/c1-16(2)20-10-9-17(3)13-24(20)31-12-11-26-25(30)23(28-18(4)29)14-19-15-27-22-8-6-5-7-21(19)22/h5-10,13,15-16,23,27H,11-12,14H2,1-4H3,(H,26,30)(H,28,29)"
SMILES=CC(O)=NC(Cc1c[nH]c2ccccc12)C(O)=NCCOc1cc(C)ccc1C(C)C
SPECTRUMID=CCMSLIB00010108719
58.810219 2645.0 
62.526329 2980.0 
67.913063 2732.0 
109.064552 27791.0 
130.064819 64225.0 
132.080841 32873.0 
135.081253 3323.0 
143.081238 17709.0 
144.080902 4661.0 
151.110947 30769.0 
152.106689 17059.0 
155.081467 12417.0 
156.0793 3153.0 
158.08342 3749.0 
159.091385 588235.0 
160.075424 16755.0 
167.08754 3246.0 
169.075699 46429.0 
170.05957 67094.0 
170.074539 4980.0 
183.091461 31962.0 
184.074966 23947.0 
187.086258 244859.0 
188.070602 26803.0 
194.15361 1981525.0 
201.101837 764475.0 
211.086502 38214.0 
229.096664 922591.0 
235.180099 6600.0 
272.138824 17407.0 
283.873444 3918.0 
347.780975 3016.0 
352.528351 3760.0 
363.203613 5706.0 
380.230438 11387.0 
404.233002 5524.0 
422.242615 291992.0 
END IONS

BEGIN IONS
NAME="2-[2-oxo-4-(2-1,2,3,4-tetrahydroisoquinolylcarbonyl)hydroquinolyl]-N-(2,4,6-tr imethylphenyl)acetamide CollisionEnergy:205060" M+formate
PRECURSOR_MZ=524.219
INCHI="InChI=1S/C30H29N3O3/c1-19-14-20(2)29(21(3)15-19)31-27(34)18-33-26-11-7-6-10-24(26)25(16-28(33)35)30(36)32-13-12-22-8-4-5-9-23(22)17-32/h4-11,14-16H,12-13,17-18H2,1-3H3,(H,31,34)"
SMILES=Cc1cc(C)c(N=C(O)Cn2c(=O)cc(C(=O)N3CCc4ccccc4C3)c3ccccc32)c(C)c1
SPECTRUMID=CCMSLIB00010125476
71.403374 2691.0 
86.712067 2624.0 
104.292503 3263.0 
107.721382 2663.0 
128.050735 5255.0 
144.04567 2835.0 
158.061447 13119.0 
186.056702 10506.0 
209.837662 4556.0 
303.115173 4708.0 
317.130798 3426.0 
400.210846 2662.0 
478.212158 34363.0 
END IONS

BEGIN IONS
NAME=kinetin CollisionEnergy:205060 M+H
PRECURSOR_MZ=216.088
INCHI="InChI=1S/C10H9N5O/c1-2-7(16-3-1)4-11-9-8-10(13-5-12-8)15-6-14-9/h1-3,5-6H,4H2,(H2,11,12,13,14,15)"
SMILES=c1coc(CNc2nc[nH]c3ncnc2-3)c1
SPECTRUMID=CCMSLIB00010116417
50.015709 2636.0 
51.02351 6441.0 
53.039021 99502.0 
53.14011 2560.0 
61.819778 3132.0 
81.033707 4808188.0 
119.035316 12449.0 
121.050926 18144.0 
125.465714 3459.0 
135.066376 15304.0 
136.061646 104403.0 
137.045319 5054.0 
148.061554 693016.0 
161.082062 6591.0 
171.066101 29355.0 
173.06926 65616.0 
188.092697 126106.0 
198.077423 5006.0 
198.464767 3291.0 
216.087692 1544527.0 
END IONS

BEGIN IONS
NAME="2',5-Dimethoxyflavone CollisionEnergy:205060" M+H
PRECURSOR_MZ=283.096
INCHI="InChI=1S/C17H14O4/c1-19-13-7-4-3-6-11(13)16-10-12(18)17-14(20-2)8-5-9-15(17)21-16/h3-10H,1-2H3"
SMILES=COc1ccccc1-c1cc(=O)c2c(OC)cccc2o1
SPECTRUMID=CCMSLIB00010114785
55.018341 4608.0 
55.640148 3856.0 
65.039093 5812.0 
67.054497 4632.0 
68.997414 14930.0 
78.046837 4967.0 
79.054657 6934.0 
81.033707 61577.0 
91.054283 25598.0 
92.02581 18999.0 
92.359497 5093.0 
92.495308 4033.0 
93.985626 4222.0 
94.041443 22848.0 
95.049133 9854.0 
103.054077 19233.0 
103.403503 3679.0 
104.061798 23256.0 
105.033302 10018.0 
105.069778 61624.0 
107.012489 59539.0 
107.048843 23089.0 
107.328117 3985.0 
108.020302 77361.0 
109.028183 37322.0 
115.054169 7646.0 
118.041191 140165.0 
119.04863 28823.0 
120.0205 18352.0 
121.02832 105402.0 
122.036057 164154.0 
123.04409 6029.0 
131.032761 5825.0 
131.049011 456816.0 
132.05687 498115.0 
133.028137 17289.0 
133.064957 53191.0 
134.036041 43236.0 
135.044434 22815.0 
136.015488 70682.0 
136.609116 6765.0 
137.023224 8165129.0 
137.439178 5502.0 
138.030838 17023.0 
145.028046 10120.0 
146.03685 6108.0 
147.043793 113267.0 
149.023422 5519.0 
150.030945 288793.0 
151.038742 169795.0 
153.069855 7469.0 
154.025864 130110.0 
155.033661 110879.0 
158.035858 37603.0 
159.044189 22210.0 
161.023422 5607.0 
162.031036 22068.0 
165.069351 29390.0 
166.077591 23150.0 
168.041595 210332.0 
168.05777 7120.0 
169.049576 26008.0 
171.043671 4531.0 
173.022537 8410.0 
174.031219 4165.0 
175.038742 88830.0 
181.064651 110428.0 
189.017731 15959.0 
193.064575 14715.0 
194.072418 70885.0 
195.07959 13780.0 
197.059265 211734.0 
205.064346 35761.0 
206.074081 7699.0 
209.059433 18379.0 
210.067307 8463.0 
211.074661 25991.0 
221.059296 188743.0 
222.067215 157084.0 
223.074875 71256.0 
225.05394 131718.0 
226.062988 8935.0 
233.058929 22048.0 
236.046768 41291.0 
236.948074 6126.0 
237.054276 209294.0 
238.06221 18750.0 
239.041214 7611.0 
239.069885 496965.0 
240.077576 1207983.0 
249.054169 1731997.0 
250.061707 198381.0 
251.069733 852649.0 
252.040787 69601.0 
253.049347 152776.0 
254.057007 107892.0 
255.100037 28658.0 
267.064636 915802.0 
268.07251 6373104.0 
281.867767 9313.0 
283.095947 13130266.0 
284.332947 9206.0 
END IONS

BEGIN IONS
NAME=(3-methoxyphenyl)purin-6-ylamine CollisionEnergy:205060 M+Na
PRECURSOR_MZ=264.086
INCHI="InChI=1S/C12H11N5O/c1-18-9-4-2-3-8(5-9)17-12-10-11(14-6-13-10)15-7-16-12/h2-7H,1H3,(H2,13,14,15,16,17)"
SMILES=COc1cccc(Nc2ncnc3[nH]cnc23)c1
SPECTRUMID=CCMSLIB00010116171
50.16613 2328.0 
51.333111 2376.0 
64.705597 2074.0 
84.959763 2314.0 
88.199547 2206.0 
92.37059 3062.0 
184.456802 2446.0 
264.085266 1121309.0 
END IONS

BEGIN IONS
NAME="11-(2,5-dimethoxyphenyl)-3-(4-chlorophenyl)-2,3,4-trihydro-5H,10H,11H-benzo[b] benzo[2,1-f]1,4-diazepin-1-one CollisionEnergy:102040" M+Na
PRECURSOR_MZ=483.145
INCHI="InChI=1S/C27H25ClN2O3/c1-32-19-11-12-25(33-2)20(15-19)27-26-23(29-21-5-3-4-6-22(21)30-27)13-17(14-24(26)31)16-7-9-18(28)10-8-16/h3-12,15,17,27,29-30H,13-14H2,1-2H3"
SMILES=COc1ccc(OC)c(C2Nc3ccccc3NC3=C2C(=O)CC(c2ccc(Cl)cc2)C3)c1
SPECTRUMID=CCMSLIB00010107426
50.381809 2652.0 
57.43055 2900.0 
61.97501 2680.0 
82.394302 3296.0 
104.279251 4287.0 
151.546707 2858.0 
159.381897 2596.0 
173.610962 2818.0 
254.235687 3164.0 
278.970734 3075.0 
332.068329 5136.0 
345.076172 5990.0 
351.075073 6160.0 
375.909821 3240.0 
429.134583 5085.0 
468.12207 6896.0 
469.123962 4633.0 
483.144043 3391002.0 
END IONS

BEGIN IONS
NAME=medrysone CollisionEnergy:102040 M+Cl
PRECURSOR_MZ=379.205
INCHI="InChI=1S/C22H32O3/c1-12-9-15-17-6-5-16(13(2)23)22(17,4)11-19(25)20(15)21(3)8-7-14(24)10-18(12)21/h10,12,15-17,19-20,25H,5-9,11H2,1-4H3/t12-,15-,16+,17-,19-,20+,21-,22+/m0/s1"
SMILES=CC(=O)C1CCC2C3CC(C)C4=CC(=O)CCC4(C)C3C(O)CC12C
SPECTRUMID=CCMSLIB00010107941
61.096149 2536.0 
67.926147 2545.0 
70.191254 2147.0 
73.460121 2463.0 
77.568542 3122.0 
82.391144 3306.0 
92.371971 2796.0 
94.036491 2410.0 
97.330963 2490.0 
104.27578 3954.0 
112.159859 1958.0 
119.859497 2383.0 
144.321548 2564.0 
146.961411 56281.0 
174.956299 541846.0 
175.959427 5431.0 
242.943787 309792.0 
310.931824 43487.0 
379.209412 9533.0 
END IONS

BEGIN IONS
NAME=2-{[(4-methylphenyl)sulfonyl]amino}-3-phenylpropanoic acid CollisionEnergy:205060 2M-H
PRECURSOR_MZ=637.168
INCHI="InChI=1S/C16H17NO4S/c1-12-7-9-14(10-8-12)22(20,21)17-15(16(18)19)11-13-5-3-2-4-6-13/h2-10,15,17H,11H2,1H3,(H,18,19)"
SMILES=Cc1ccc(S(=O)(=O)NC(Cc2ccccc2)C(=O)O)cc1
SPECTRUMID=CCMSLIB00010120634
63.962151 266359.0 
66.746834 3634.0 
71.128326 2590.0 
72.008827 15696.0 
78.91909 6020.0 
78.925728 3450.0 
92.383263 3126.0 
96.811172 3303.0 
104.290802 3227.0 
106.066399 41834.0 
107.050491 39719.0 
108.022247 4539.0 
112.489822 3239.0 
116.797493 3233.0 
147.045197 15860.0 
155.01741 903184.0 
157.978287 3940.0 
170.028397 221745.0 
231.753174 3710.0 
318.080841 986267.0 
494.311432 3734.0 
569.036133 5209.0 
END IONS

BEGIN IONS
NAME=2-{2-oxo-4-[N-benzylcarbamoyl]hydroquinolyl}-N-phenylacetamide CollisionEnergy:205060 M+formate
PRECURSOR_MZ=456.156
INCHI="InChI=1S/C25H21N3O3/c29-23(27-19-11-5-2-6-12-19)17-28-22-14-8-7-13-20(22)21(15-24(28)30)25(31)26-16-18-9-3-1-4-10-18/h1-15H,16-17H2,(H,26,31)(H,27,29)"
SMILES=O=c1cc(C(O)=NCc2ccccc2)c2ccccc2n1CC(O)=Nc1ccccc1
SPECTRUMID=CCMSLIB00010123474
52.264778 2554.0 
66.293243 2451.0 
66.745689 2834.0 
71.104134 2444.0 
73.957329 4200.0 
80.145653 3178.0 
80.548943 2349.0 
92.050507 33530.0 
92.383728 3629.0 
98.685127 2679.0 
98.694389 2712.0 
102.035004 3237.0 
104.960854 2664.0 
115.055161 3662.0 
116.050491 26781.0 
118.029457 4578.0 
119.654137 2524.0 
128.050644 56214.0 
130.066177 48004.0 
132.045242 5035.0 
134.060822 3770.0 
142.030228 13761.0 
142.066177 5418.0 
144.045364 102168.0 
144.05835 3804.0 
146.024429 15702.0 
156.045471 3898.0 
156.068909 3327.0 
158.048355 21221.0 
158.06102 157545.0 
160.039932 11948.0 
169.076614 4836.0 
172.040115 10412.0 
176.071686 15784.0 
184.040359 39405.0 
188.148392 2897.0 
202.050873 10631.0 
231.093796 4339.0 
243.093338 2893.0 
245.109879 2989.0 
247.124435 38195.0 
258.396301 3070.0 
261.103424 15396.0 
274.738678 2785.0 
277.098267 116715.0 
291.113892 5681.0 
317.093689 10386.0 
323.103455 38698.0 
410.150848 537219.0 
468.474731 2846.0 
END IONS

BEGIN IONS
NAME="N-(3,4-dimethylphenyl)-2-(9-methyl-6-oxohydropurin-8-ylthio)acetamide CollisionEnergy:102040" M+H
PRECURSOR_MZ=344.118
INCHI="InChI=1S/C16H17N5O2S/c1-9-4-5-11(6-10(9)2)19-12(22)7-24-16-20-13-14(21(16)3)17-8-18-15(13)23/h4-6,8H,7H2,1-3H3,(H,19,22)(H,17,18,23)"
SMILES=Cc1ccc(NC(=O)CSc2nc3c(O)ncnc3n2C)cc1C
SPECTRUMID=CCMSLIB00010109821
66.748421 3108.0 
67.547997 2732.0 
68.940643 3033.0 
107.085297 6141.0 
117.069847 4569.0 
119.085403 6263.0 
134.096481 67844.0 
137.225693 3307.0 
145.088806 60100.0 
147.068222 17542.0 
149.045441 4590.0 
150.054474 5998.0 
151.061813 14947.0 
160.075485 15712.0 
162.091476 22753.0 
163.061569 5753.0 
181.017731 270067.0 
183.034042 5538.0 
195.033569 1336539.0 
213.044617 15430.0 
222.170395 3927.0 
223.028381 7171308.0 
223.891907 4811.0 
226.122147 3639.0 
236.060852 5439.0 
301.345245 4452.0 
307.092072 3346.0 
311.083923 5562.0 
326.106262 50757.0 
335.31131 3293.0 
344.117126 561578.0 
END IONS

BEGIN IONS
NAME="3-bromophenyl 1-(4-ethoxyphenyl)(1,2,3,4-tetrahydrobeta-carbolin-2-yl) ketone CollisionEnergy:102040" M+Na
PRECURSOR_MZ=497.083
INCHI="InChI=1S/C26H23BrN2O2/c1-2-31-20-12-10-17(11-13-20)25-24-22(21-8-3-4-9-23(21)28-24)14-15-29(25)26(30)18-6-5-7-19(27)16-18/h3-13,16,25,28H,2,14-15H2,1H3"
SMILES=CCOc1ccc(C2c3[nH]c4ccccc4c3CCN2C(=O)c2cccc(Br)c2)cc1
SPECTRUMID=CCMSLIB00010111762
102.446892 2852.0 
107.049118 4055.0 
127.823441 2954.0 
135.080261 11168.0 
213.41095 2578.0 
233.951538 30272.0 
286.11972 18332.0 
496.574677 15770.0 
497.082886 1718878.0 
515.091431 12395.0 
538.110535 105488.0 
947.087402 3804.0 
END IONS

BEGIN IONS
NAME=2-[1-benzylindol-2-yl]acetamide CollisionEnergy:102040 M+Na
PRECURSOR_MZ=287.115
INCHI="InChI=1S/C17H16N2O/c18-17(20)11-15-10-14-8-4-5-9-16(14)19(15)12-13-6-2-1-3-7-13/h1-10H,11-12H2,(H2,18,20)"
SMILES=N=C(O)Cc1cc2ccccc2n1Cc1ccccc1
SPECTRUMID=CCMSLIB00010107313
54.370739 2122.0 
54.416939 2373.0 
73.953583 2769.0 
80.482567 2224.0 
82.398727 2734.0 
91.054131 3136.0 
164.171814 2214.0 
181.566315 2810.0 
287.115112 1487117.0 
305.123932 3184.0 
END IONS

BEGIN IONS
NAME=2-(6-aminopurin-8-ylthio)-N-(4-methylphenyl)acetamide CollisionEnergy:205060 M+H
PRECURSOR_MZ=315.102
INCHI="InChI=1S/C14H14N6OS/c1-8-2-4-9(5-3-8)18-10(21)6-22-14-19-11-12(15)16-7-17-13(11)20-14/h2-5,7H,6H2,1H3,(H,18,21)(H3,15,16,17,19,20)"
SMILES=Cc1ccc(NC(=O)CSc2nc3c(N)ncnc3[nH]2)cc1
SPECTRUMID=CCMSLIB00010116371
57.044971 4914.0 
66.75074 3247.0 
82.040398 4020.0 
82.411888 3850.0 
91.054291 13061.0 
93.057243 3790.0 
93.07 19174.0 
93.181297 3898.0 
94.039963 37198.0 
97.764732 3122.0 
99.001122 6714.0 
105.069611 16918.0 
108.080406 31206.0 
108.985558 4156.0 
109.051033 25076.0 
109.373642 3557.0 
119.035072 8470.0 
120.080688 109331.0 
120.821953 3452.0 
121.05069 17802.0 
122.058662 3621.0 
126.011803 17033.0 
131.073105 23409.0 
136.061676 595315.0 
137.045288 8440.0 
138.011978 8362.0 
139.007385 23067.0 
146.045853 20366.0 
146.060181 16191.0 
148.061661 19544.0 
148.075272 7090.0 
151.006958 12826.0 
153.022705 208956.0 
154.007156 6406.0 
156.022446 5014.0 
163.00708 88713.0 
164.056458 16551.0 
166.01796 157038.0 
166.033859 6306.0 
167.02565 69848.0 
168.033859 38545.0 
179.410461 7845.0 
180.0336 7629998.0 
180.660522 6901.0 
181.017487 48744.0 
208.028519 3940193.0 
297.091888 56451.0 
315.101471 1859863.0 
END IONS

BEGIN IONS
NAME=4-methoxy-3-[(4-methoxyphenoxy)methyl]benzaldehyde CollisionEnergy:102040 M+2H]
PRECURSOR_MZ=137.06
INCHI="InChI=1S/C16H16O4/c1-18-14-4-6-15(7-5-14)20-11-13-9-12(10-17)3-8-16(13)19-2/h3-10H,11H2,1-2H3"
SMILES=COc1ccc(OCc2cc(C=O)ccc2OC)cc1
SPECTRUMID=CCMSLIB00010111340
51.023529 3633.0 
53.039051 61022.0 
55.01841 5445.0 
55.05481 3233.0 
57.070221 2463.0 
57.72147 2223.0 
65.03904 11310.0 
66.046982 4197.0 
67.054863 4079.0 
68.997551 12016.0 
69.033867 15676.0 
69.070312 8911.0 
77.038879 3063.0 
78.386978 2107.0 
79.054489 249855.0 
81.033707 8655.0 
81.070107 146235.0 
91.054298 8965.0 
91.316803 2270.0 
94.041397 33781.0 
95.049103 26600.0 
95.08551 43386.0 
96.099663 2947.0 
105.03347 80241.0 
105.042587 3366.0 
105.044853 3847.0 
107.049057 638545.0 
109.064728 363638.0 
109.101044 3691.0 
120.667053 2103.0 
122.036034 55791.0 
122.158951 2520.0 
123.043892 14387.0 
125.059677 71148.0 
135.05542 33213.0 
137.059647 735636.0 
137.13237 17953.0 
140.046371 2624.0 
179.053253 2206.0 
192.995544 2054.0 
203.275589 2294.0 
208.518753 5111.0 
211.48584 2344.0 
END IONS

BEGIN IONS
NAME="2',6-Dihydroxyflavone CollisionEnergy:205060" 2M-H
PRECURSOR_MZ=507.109
INCHI="InChI=1S/C15H10O4/c16-9-5-6-14-11(7-9)13(18)8-15(19-14)10-3-1-2-4-12(10)17/h1-8,16-17H"
SMILES=O=c1cc(-c2ccccc2O)oc2ccc(O)cc12
SPECTRUMID=CCMSLIB00010116447
53.829929 2640.0 
96.077263 2452.0 
121.980629 2401.0 
152.462448 2528.0 
205.860016 3109.0 
253.050232 9562.0 
378.259521 3395.0 
409.627808 2653.0 
END IONS

BEGIN IONS
NAME=2-(acetylamino)-N-cyclopropyl-3-indol-3-ylpropanamide CollisionEnergy:205060 M+formate
PRECURSOR_MZ=330.146
INCHI="InChI=1S/C16H19N3O2/c1-10(20)18-15(16(21)19-12-6-7-12)8-11-9-17-14-5-3-2-4-13(11)14/h2-5,9,12,15,17H,6-8H2,1H3,(H,18,20)(H,19,21)"
SMILES=CC(O)=NC(Cc1c[nH]c2ccccc12)C(O)=NC1CC1
SPECTRUMID=CCMSLIB00010122170
50.536041 2160.0 
51.296909 2190.0 
58.02932 5179.0 
66.753899 2940.0 
70.029587 16559.0 
70.112427 2520.0 
73.96814 3205.0 
86.060822 15677.0 
98.024597 26801.0 
99.925987 17954.0 
104.303291 3234.0 
105.242523 2739.0 
111.056519 21179.0 
113.072083 646926.0 
142.065948 5561.0 
155.082611 70579.0 
201.415955 2507.0 
205.861191 3572.0 
207.692703 16388.0 
242.128632 2914.0 
261.850952 3515.0 
284.140442 442161.0 
303.222382 4243.0 
344.669128 2411.0 
END IONS

BEGIN IONS
NAME="N-(3-{N-[4-((1E)-3-oxo-3-phenylprop-1-enyl)phenyl]carbamoyl}-5-(2,2-diphenylac etylamino)phenyl)-2,2-diphenylacetamide CollisionEnergy:102040" M+formate
PRECURSOR_MZ=790.292
INCHI="InChI=1S/C50H39N3O4/c54-45(36-16-6-1-7-17-36)31-28-35-26-29-42(30-27-35)51-48(55)41-32-43(52-49(56)46(37-18-8-2-9-19-37)38-20-10-3-11-21-38)34-44(33-41)53-50(57)47(39-22-12-4-13-23-39)40-24-14-5-15-25-40/h1-34,46-47H,(H,51,55)(H,52,56)(H,53,57)/b31-28+"
SMILES=O=C(C=Cc1ccc(NC(=O)c2cc(N=C(O)C(c3ccccc3)c3ccccc3)cc(N=C(O)C(c3ccccc3)c3ccccc3)c2)cc1)c1ccccc1
SPECTRUMID=CCMSLIB00010114106
61.98798 4436.0 
66.750427 4239.0 
75.693314 3293.0 
78.207817 3292.0 
84.997917 3681.0 
92.386726 5670.0 
94.960808 3497.0 
128.832932 3504.0 
133.040848 41538.0 
159.019882 9067.0 
165.071609 5092.0 
167.086792 470322.0 
248.072159 19118.0 
339.117462 5196.0 
356.140167 8703.0 
382.119324 90238.0 
408.099091 567647.0 
550.211914 5209.0 
576.193481 576170.0 
656.521179 4582.0 
744.28772 1403640.0 
END IONS

BEGIN IONS
NAME="11-(2,5-dimethoxyphenyl)-3-(4-chlorophenyl)-2,3,4-trihydro-5H,10H,11H-benzo[b] benzo[2,1-f]1,4-diazepin-1-one CollisionEnergy:102040" M-H
PRECURSOR_MZ=459.148
INCHI="InChI=1S/C27H25ClN2O3/c1-32-19-11-12-25(33-2)20(15-19)27-26-23(29-21-5-3-4-6-22(21)30-27)13-17(14-24(26)31)16-7-9-18(28)10-8-16/h3-12,15,17,27,29-30H,13-14H2,1-2H3"
SMILES=COc1ccc(OC)c(C2Nc3ccccc3NC3=C2C(=O)CC(c2ccc(Cl)cc2)C3)c1
SPECTRUMID=CCMSLIB00010107425
63.95853 3391.0 
67.920013 3532.0 
68.283943 2664.0 
69.942078 2693.0 
75.202461 3180.0 
82.413162 3049.0 
94.34832 2637.0 
111.000427 12143.0 
112.985443 4268.0 
117.045418 12080.0 
121.028816 4621.0 
123.044113 3089.0 
131.061447 134149.0 
143.061386 17920.0 
145.04071 76587.0 
154.991348 3430.0 
157.998291 3422.0 
162.997726 5380.0 
163.051773 26441.0 
167.060867 27207.0 
174.954697 5172.0 
176.047501 4486.0 
200.994888 5347.0 
253.053757 12278.0 
261.103943 13833.0 
264.045319 18018.0 
265.054047 4583.0 
267.069244 30391.0 
270.982483 3204.0 
273.0672 18790.0 
277.053192 27053.0 
279.11618 3469.0 
282.079651 34432.0 
283.086914 4427.0 
288.089874 18963.0 
289.095154 5405.0 
290.061462 19565.0 
290.097534 3179.0 
290.987061 4590.0 
291.069519 6401.0 
295.065094 3893.0 
297.102661 49359.0 
299.084229 13743.0 
301.098328 5184.0 
303.06958 94702.0 
303.108643 7511.0 
304.981812 4954.0 
305.091949 4202.0 
307.064301 14510.0 
308.071869 15547.0 
314.105499 33078.0 
315.115631 27211.0 
320.046814 46596.0 
321.080139 28922.0 
322.885651 3828.0 
324.99057 3419.0 
329.130157 17711.0 
334.06369 4702.0 
354.97998 102578.0 
372.987854 3649.0 
374.985809 54133.0 
377.088745 3922.0 
393.079315 27658.0 
394.087616 78838.0 
394.993134 3533.0 
397.112213 4780.0 
407.097778 5522.0 
408.1026 5918.0 
409.111145 70214.0 
411.0914 60575.0 
412.09729 15079.0 
418.975647 6864.0 
425.107361 4443.0 
426.114868 19319.0 
427.120972 57242.0 
438.983093 7379.0 
439.121429 4782.0 
441.137238 331430.0 
458.998505 70590.0 
459.148193 2664924.0 
483.284088 3118.0 
END IONS

BEGIN IONS
NAME=6559-91-7 CollisionEnergy:102040 M+H
PRECURSOR_MZ=401.123
INCHI="InChI=1S/C21H20O8/c1-25-15-3-9(4-16(26-2)20(15)23)17-10-5-13-14(29-8-28-13)6-11(10)19(22)12-7-27-21(24)18(12)17/h3-6,12,17-19,22-23H,7-8H2,1-2H3/t12-,17+,18-,19+/m0/s1"
SMILES=COc1cc(C2c3cc4c(cc3C(O)C3COC(=O)C23)OCO4)cc(OC)c1O
SPECTRUMID=CCMSLIB00010112444
52.21574 2536.0 
57.154919 2715.0 
57.484699 2928.0 
77.191643 2818.0 
97.272682 2966.0 
141.875351 2976.0 
143.048599 3231.0 
145.064026 3925.0 
153.275436 2724.0 
155.070145 14313.0 
160.511337 3230.0 
167.070663 5054.0 
173.058716 10963.0 
185.05957 2687759.0 
199.038544 72725.0 
201.051956 3741.0 
229.049225 862729.0 
247.059601 452778.0 
247.090393 4295.0 
265.781647 2833.0 
334.193512 2920.0 
355.402344 3127.0 
383.111847 86223.0 
401.120361 88843.0 
401.173828 5637.0 
END IONS

BEGIN IONS
NAME="2-(4-cyclohexylphenoxy)-N-[(3,4,5-trimethoxyphenyl)methyl]acetamide CollisionEnergy:205060" M-H
PRECURSOR_MZ=412.213
INCHI="InChI=1S/C24H31NO5/c1-27-21-13-17(14-22(28-2)24(21)29-3)15-25-23(26)16-30-20-11-9-19(10-12-20)18-7-5-4-6-8-18/h9-14,18H,4-8,15-16H2,1-3H3,(H,25,26)"
SMILES=COc1cc(CN=C(O)COc2ccc(C3CCCCC3)cc2)cc(OC)c1OC
SPECTRUMID=CCMSLIB00010119761
60.49226 2156.0 
73.965759 2504.0 
77.97377 2792.0 
81.910217 2231.0 
82.410896 2668.0 
92.397293 2620.0 
93.258881 2413.0 
104.306808 3586.0 
106.570183 2547.0 
146.073517 54712.0 
148.053207 3252.0 
151.027405 16102.0 
152.047775 3133.0 
164.035324 3020.0 
165.043564 10945.0 
166.050354 15096.0 
172.052811 3197.0 
175.112198 14954.0 
180.065964 5341.0 
189.128494 391944.0 
209.883987 5069.0 
213.115845 14159.0 
215.107498 190243.0 
231.12648 53225.0 
244.336243 2630.0 
382.165039 4012.0 
385.789795 2459.0 
412.212769 416678.0 
END IONS

BEGIN IONS
NAME=(2-methylbenzoxazol-7-yl)-N-{2-[2-methyl-5-(trifluoromethoxy)indol-3-yl]ethyl} carboxamide CollisionEnergy:102040 M-H
PRECURSOR_MZ=416.123
INCHI="InChI=1S/C21H18F3N3O3/c1-11-14(16-10-13(30-21(22,23)24)6-7-17(16)26-11)8-9-25-20(28)15-4-3-5-18-19(15)29-12(2)27-18/h3-7,10,26H,8-9H2,1-2H3,(H,25,28)"
SMILES=Cc1nc2cccc(C(O)=NCCc3c(C)[nH]c4ccc(OC(F)(F)F)cc34)c2o1
SPECTRUMID=CCMSLIB00010107062
56.841671 2694.0 
73.729492 3739.0 
73.974091 2783.0 
76.257477 2285.0 
84.990463 38796.0 
108.88868 2977.0 
113.366249 2532.0 
132.045593 38122.0 
175.051331 85090.0 
194.333618 2958.0 
214.048477 5862.0 
240.063889 4311.0 
247.106659 9698.0 
254.696289 2782.0 
416.123108 2171881.0 
END IONS

BEGIN IONS
NAME="[4-(2H,3H-benzo[e]1,4-dioxan-6-ylcarbonylamino)-1-ethylpyrazol-3-yl]-N-propylc arboxamide CollisionEnergy:102040" M+H
PRECURSOR_MZ=359.171
INCHI="InChI=1S/C18H22N4O4/c1-3-7-19-18(24)16-13(11-22(4-2)21-16)20-17(23)12-5-6-14-15(10-12)26-9-8-25-14/h5-6,10-11H,3-4,7-9H2,1-2H3,(H,19,24)(H,20,23)"
SMILES=CCCNC(=O)c1nn(CC)cc1N=C(O)c1ccc2c(c1)OCCO2
SPECTRUMID=CCMSLIB00010105512
50.757301 2599.0 
53.31102 2889.0 
54.772419 2746.0 
60.081089 17667.0 
79.054359 3938.0 
89.464104 3470.0 
107.013138 9107.0 
119.694794 2921.0 
124.101486 3122.0 
137.081818 6453.0 
163.038696 2815032.0 
164.045105 133856.0 
179.128723 36969.0 
182.055725 96060.0 
228.600967 3218.0 
256.10849 5321.0 
271.082397 5553.0 
272.065033 3648.0 
284.102356 15657.0 
299.113342 65996.0 
300.097137 1370640.0 
341.160034 609371.0 
359.170471 1596425.0 
END IONS

BEGIN IONS
NAME="4-hydroxy-5,7-dimethyl-3-benzylhydroquinolin-2-one CollisionEnergy:102040" M-H
PRECURSOR_MZ=278.119
INCHI="InChI=1S/C18H17NO2/c1-11-8-12(2)16-15(9-11)19-18(21)14(17(16)20)10-13-6-4-3-5-7-13/h3-9H,10H2,1-2H3,(H2,19,20,21)"
SMILES=Cc1cc(C)c2c(O)c(Cc3ccccc3)c(O)nc2c1
SPECTRUMID=CCMSLIB00010104443
52.162731 2689.0 
82.436996 3341.0 
82.858978 3296.0 
118.708366 2703.0 
158.042282 2811.0 
159.068771 62054.0 
165.139221 3037.0 
172.077744 3465.0 
187.06395 27483.0 
200.070709 6290.0 
211.56662 4986.0 
234.126953 20901.0 
263.094604 5078.0 
278.118378 5884416.0 
END IONS

BEGIN IONS
NAME=GA7 CollisionEnergy:205060 M-2H2O+H
PRECURSOR_MZ=295.133
INCHI="InChI=1S/C19H22O5/c1-9-7-18-8-10(9)3-4-11(18)19-6-5-12(20)17(2,16(23)24-19)14(19)13(18)15(21)22/h5-6,10-14,20H,1,3-4,7-8H2,2H3,(H,21,22)/t10-,11-,12+,13-,14-,17-,18+,19-/m1/s1"
SMILES=C[C@@]12[C@H](C=C[C@@]3([C@@H]1[C@@H]([C@]45[C@H]3CC[C@H](C4)C(=C)C5)C(=O)O)OC2=O)O
SPECTRUMID=CCMSLIB00010102334
50.677368 5694.550293 
53.038879 12479.316406 
53.848289 6502.185059 
55.05471 6474.080566 
65.038742 7910.828613 
67.054359 27003.542969 
67.237724 5900.004395 
68.311226 5651.622559 
69.03363 6812.89502 
79.054352 98917.953125 
81.069916 63459.363281 
83.049438 7132.874512 
91.054253 125496.359375 
92.417549 7170.826172 
93.06987 96581.71875 
95.049011 18211.095703 
95.08564 8464.268555 
103.054291 14156.788086 
105.033607 59185.242188 
105.069901 109822.734375 
105.07782 9261.224609 
111.044106 97842.570312 
115.054283 538301.5 
116.061966 16043.055664 
117.069901 28014.28125 
119.049309 9519.484375 
119.085228 15963.864258 
121.064651 7783.040527 
128.062088 93668.304688 
129.033279 9765.69043 
129.069855 502151.59375 
130.040741 7672.428223 
131.049667 9213.849609 
131.085617 125128.945312 
141.069839 70553.476562 
142.077774 166570.4375 
143.049286 155866.265625 
143.085556 140032.828125 
144.056305 7730.394531 
145.064651 23904.199219 
145.101532 13535.59375 
147.079971 11148.977539 
152.062271 14331.611328 
153.06987 48161.328125 
154.077499 12124.542969 
155.085602 121562.671875 
157.064789 107232.75 
157.101135 121543.453125 
159.080215 67657.351562 
161.059647 58406.296875 
165.070007 142701.859375 
166.077728 138797.4375 
167.085587 110416.710938 
168.092957 10799.151367 
169.064713 24254.658203 
169.101013 33157.808594 
170.072083 8367.875 
171.080429 29894.591797 
178.077682 105732.039062 
179.085571 296743.40625 
180.093262 113802.625 
181.064514 22535.333984 
181.101166 239004.78125 
182.072723 8111.901855 
182.108734 15010.763672 
182.786591 6446.484375 
183.080688 31001.689453 
185.096146 839722.25 
187.075699 58077.3125 
191.085571 47633.59375 
192.093292 29880.193359 
193.101334 269592.3125 
194.072906 16640.412109 
194.108719 16091.612305 
195.081482 46054.773438 
195.117004 120381.796875 
195.908905 6314.862793 
196.088287 47393.15625 
197.096008 31665.419922 
199.074692 12294.861328 
201.09166 7371.472168 
205.100906 28208.052734 
206.109283 67279.242188 
207.079346 35609.023438 
207.116379 12153.986328 
208.088486 37096.121094 
208.125549 14442.112305 
209.09552 37079.925781 
210.104446 11008.513672 
211.0755 10636.163086 
211.111923 11636.264648 
219.117203 9125.771484 
221.095566 28302.277344 
221.132095 100509.679688 
223.112259 37440.917969 
223.1474 62407.0 
225.090332 19597.4375 
225.126282 10163.291016 
231.464676 7319.922852 
239.106384 22465.755859 
239.141373 17328.21875 
249.126221 161485.75 
251.141861 355058.59375 
253.086411 7772.870605 
267.136139 93849.742188 
277.119965 12920.459961 
295.130707 1322550.875 
313.140289 52652.394531 
END IONS

BEGIN IONS
NAME=N-(3-chloro-4-fluorophenyl)-2-(6-oxo-9-phenylhydropurin-8-ylthio)acetamide CollisionEnergy:205060 M+Na
PRECURSOR_MZ=452.035
INCHI="InChI=1S/C19H13ClFN5O2S/c20-13-8-11(6-7-14(13)21)24-15(27)9-29-19-25-16-17(22-10-23-18(16)28)26(19)12-4-2-1-3-5-12/h1-8,10H,9H2,(H,24,27)(H,22,23,28)"
SMILES=OC(CSc1nc2c(O)ncnc2n1-c1ccccc1)=Nc1ccc(F)c(Cl)c1
SPECTRUMID=CCMSLIB00010123449
60.563358 2534.0 
69.855782 3314.0 
88.622101 3589.0 
92.368492 5009.0 
104.276398 3515.0 
106.274391 2842.0 
213.669022 2922.0 
215.944702 3163.0 
235.058182 3356.0 
247.584045 2805.0 
265.015137 21101.0 
266.023071 6121.0 
307.028046 3025.0 
452.034851 2959266.0 
END IONS

BEGIN IONS
NAME=MLS000877024 CollisionEnergy:102040 2M-H
PRECURSOR_MZ=575.119
INCHI="InChI=1S/C15H12O6/c16-8-4-11(19)15-12(20)6-13(21-14(15)5-8)7-1-2-9(17)10(18)3-7/h1-5,13,16-19H,6H2"
SMILES=O=C1CC(c2ccc(O)c(O)c2)Oc2cc(O)cc(O)c21
SPECTRUMID=CCMSLIB00010109095
54.968891 3280.0 
54.97205 2897.0 
59.88588 2738.0 
65.002808 2611.0 
69.076447 2558.0 
73.475838 3357.0 
75.538696 2664.0 
82.392303 3593.0 
83.013786 6498.0 
107.013977 35666.0 
109.029602 3000.0 
125.024208 25276.0 
135.045166 281353.0 
139.808563 2828.0 
151.003647 653763.0 
161.024841 3516.0 
169.013016 6379.0 
208.483765 11394.0 
218.999084 4044.0 
269.046631 3878.0 
287.056091 1481939.0 
304.803467 3345.0 
356.990631 12789.0 
371.008209 22494.0 
392.988495 15694.0 
438.994873 5754.0 
460.976746 37582.0 
506.979248 6345.0 
528.963562 39225.0 
575.121826 4262.0 
END IONS

BEGIN IONS
NAME="methylethyl 2-amino-6-(hydroxymethyl)-4-[4-(methoxycarbonyl)phenyl]-8-oxo-4H-p yrano[3,2-b]pyran-3-carboxylate CollisionEnergy:205060" M-H
PRECURSOR_MZ=414.119
INCHI="InChI=1S/C21H21NO8/c1-10(2)28-21(26)16-15(11-4-6-12(7-5-11)20(25)27-3)18-17(30-19(16)22)14(24)8-13(9-23)29-18/h4-8,10,15,23H,9,22H2,1-3H3"
SMILES=COC(=O)c1ccc(C2C(C(=O)OC(C)C)=C(N)Oc3c2oc(CO)cc3=O)cc1
SPECTRUMID=CCMSLIB00010124333
50.464062 2381.0 
65.998138 383938.0 
73.03727 2304.0 
82.391747 2377.0 
99.008476 2946.0 
104.276978 3083.0 
126.056053 283905.0 
141.018997 20312.0 
141.130524 2353.0 
200.070587 2655.0 
209.151062 6266.0 
354.06424 3340.0 
414.121552 3484.0 
END IONS

BEGIN IONS
NAME="2-[4-(N,N-diethylcarbamoyl)-2-oxohydroquinolyl]-N-(2-fluorophenyl)acetamide CollisionEnergy:102040" M-H
PRECURSOR_MZ=394.157
INCHI="InChI=1S/C22H22FN3O3/c1-3-25(4-2)22(29)16-13-21(28)26(19-12-8-5-9-15(16)19)14-20(27)24-18-11-7-6-10-17(18)23/h5-13H,3-4,14H2,1-2H3,(H,24,27)"
SMILES=CCN(CC)C(=O)c1cc(=O)n(CC(O)=Nc2ccccc2F)c2ccccc12
SPECTRUMID=CCMSLIB00010113421
51.738579 1940.0 
60.922508 2084.0 
66.754631 2763.0 
71.145721 2175.0 
82.412567 2596.0 
104.302727 3480.0 
110.040894 4785.0 
128.050888 11487.0 
157.053513 10268.0 
184.040146 16455.0 
229.135544 4224.0 
243.113998 11472.0 
257.130524 15359.0 
259.108582 4575.0 
283.110168 11101.0 
374.151642 13430.0 
394.157898 135169.0 
END IONS

BEGIN IONS
NAME=vanillin CollisionEnergy:205060 M+H
PRECURSOR_MZ=153.055
INCHI="InChI=1S/C8H8O3/c1-11-8-4-6(5-9)2-3-7(8)10/h2-5,10H,1H3"
SMILES=COc1cc(C=O)ccc1O
SPECTRUMID=CCMSLIB00010122676
52.22422 19368.0 
63.657261 19499.0 
65.039124 3925816.0 
66.32206 19224.0 
70.942078 90760.0 
70.958527 27968.0 
75.575607 19765.0 
92.378326 27918.0 
93.033783 3868610.0 
97.065208 28293.0 
104.283287 22487.0 
110.036438 588764.0 
111.044243 3988979.0 
111.96888 48461.0 
125.059937 2536429.0 
134.060272 393753.0 
153.054855 1097337.0 
170.814194 26560.0 
END IONS

BEGIN IONS
NAME="8-[(2,6-dimethylpiperidyl)methyl]-7-hydroxy-4-phenylchromen-2-one CollisionEnergy:205060" M+Na
PRECURSOR_MZ=386.173
INCHI="InChI=1S/C23H25NO3/c1-15-7-6-8-16(2)24(15)14-20-21(25)12-11-18-19(13-22(26)27-23(18)20)17-9-4-3-5-10-17/h3-5,9-13,15-16,25H,6-8,14H2,1-2H3"
SMILES=CC1CCCC(C)N1Cc1c(O)ccc2c(-c3ccccc3)cc(=O)oc12
SPECTRUMID=CCMSLIB00010114739
51.51049 2622.0 
57.935669 2388.0 
59.819019 2217.0 
74.048409 2675.0 
75.483917 2481.0 
82.933357 2300.0 
90.464989 2540.0 
110.822319 2685.0 
118.653809 2950.0 
132.897034 2669.0 
134.43837 2411.0 
136.109741 40690.0 
144.344116 2564.0 
162.406143 2494.0 
232.199799 2898.0 
273.05188 935017.0 
291.062317 70201.0 
314.078064 39103.0 
333.11145 2672.0 
363.033203 2993.0 
381.010223 5146.0 
386.173401 21976.0 
END IONS

BEGIN IONS
NAME="1-(2,4-dihydroxyphenyl)-2-(4-ethylphenoxy)ethan-1-one CollisionEnergy:205060" M+H
PRECURSOR_MZ=273.112
INCHI="InChI=1S/C16H16O4/c1-2-11-3-6-13(7-4-11)20-10-16(19)14-8-5-12(17)9-15(14)18/h3-9,17-18H,2,10H2,1H3"
SMILES=CCc1ccc(OCC(=O)c2ccc(O)cc2O)cc1
SPECTRUMID=CCMSLIB00010116070
51.02346 2911.0 
53.039009 34002.0 
55.018509 12123.0 
63.262241 3027.0 
65.038933 28641.0 
67.054588 110567.0 
68.997383 10096.0 
77.03891 3908.0 
78.046738 3370.0 
79.054451 189138.0 
81.033752 13195.0 
87.796257 3087.0 
91.054253 41189.0 
93.033623 5671.0 
93.070137 5057.0 
93.707336 3012.0 
94.041542 4906.0 
95.049156 503429.0 
98.670227 2710.0 
103.054077 52527.0 
105.033432 5101.0 
105.044144 3614.0 
105.069809 75175.0 
106.04129 3258.0 
107.04895 86088.0 
107.085487 81209.0 
109.064598 6004.0 
111.043961 13870.0 
115.054207 6398.0 
117.069946 28851.0 
121.028259 3818.0 
121.064789 3885.0 
122.072678 6188.0 
123.043922 2138271.0 
123.079803 59620.0 
131.085571 3760.0 
133.028152 51826.0 
133.075729 47812.0 
134.024414 6801.0 
134.036118 263587.0 
135.080292 433075.0 
136.213242 2757.0 
137.023193 545593.0 
138.026642 3716.0 
145.0634 3945.0 
149.023331 12152.0 
151.038803 960640.0 
152.046478 44904.0 
153.069839 5018.0 
161.059296 3756.0 
163.075195 35942.0 
171.080231 4414.0 
181.065155 4861.0 
197.059631 12271.0 
198.067612 16493.0 
199.075211 13522.0 
212.083069 5603.0 
213.551697 3910.0 
226.062973 18573.0 
227.10614 103914.0 
255.100967 156771.0 
273.111542 126250.0 
273.165771 5824.0 
END IONS

BEGIN IONS
NAME=Robinetin CollisionEnergy:102040 M-H
PRECURSOR_MZ=301.035
INCHI="InChI=1S/C15H10O7/c16-7-1-2-8-11(5-7)22-15(14(21)12(8)19)6-3-9(17)13(20)10(18)4-6/h1-5,16-18,20-21H"
SMILES=O=c1c(O)c(-c2cc(O)c(O)c(O)c2)oc2cc(O)ccc12
SPECTRUMID=CCMSLIB00010111732
54.0406 2199.0 
55.15638 2384.0 
77.817307 2153.0 
78.039719 2352.0 
82.395531 3312.0 
91.01857 17222.0 
92.37326 3150.0 
95.398804 2324.0 
108.136032 2583.0 
109.029358 37766.0 
120.172279 2305.0 
125.023193 3061.0 
135.008575 227773.0 
137.02417 248298.0 
153.01915 60470.0 
155.034653 9773.0 
163.003555 216260.0 
164.927292 28078.0 
165.019043 74495.0 
165.035004 4860.0 
184.558746 2775.0 
187.01767 3327.0 
214.913971 3990.0 
227.033646 3417.0 
232.925262 42735.0 
245.046112 9067.0 
254.906479 18410.0 
255.028732 10395.0 
257.046326 3309.0 
273.040863 21466.0 
274.475555 2508.0 
301.0354 1374429.0 
311.569916 2619.0 
END IONS

BEGIN IONS
NAME=3-(2-chlorophenyl)-7-hydroxy-4-methylchromen-2-one CollisionEnergy:102040 M-H
PRECURSOR_MZ=285.032
INCHI="InChI=1S/C16H11ClO3/c1-9-11-7-6-10(18)8-14(11)20-16(19)15(9)12-4-2-3-5-13(12)17/h2-8,18H,1H3"
SMILES=Cc1c(-c2ccccc2Cl)c(=O)oc2cc(O)ccc12
SPECTRUMID=CCMSLIB00010107336
57.97522 3912.0 
73.958847 3295.0 
94.35453 3020.0 
107.941963 3230.0 
118.515007 2940.0 
148.956482 6302.0 
165.981293 2968.0 
171.030563 3798.0 
184.031387 4084.0 
185.033203 5630.0 
221.060394 79557.0 
241.040527 3507.0 
243.021072 5032.0 
244.983765 3616.0 
248.047806 24129.0 
249.055573 372501.0 
264.989441 11845.0 
285.032379 7448895.0 
END IONS

BEGIN IONS
NAME=(2E)-3-{3-[(4-chlorophenoxy)methyl]-4-methoxyphenyl}-1-phenylprop-2-en-1-one CollisionEnergy:205060 M+H
PRECURSOR_MZ=379.11
INCHI="InChI=1S/C23H19ClO3/c1-26-23-14-8-17(7-13-22(25)18-5-3-2-4-6-18)15-19(23)16-27-21-11-9-20(24)10-12-21/h2-15H,16H2,1H3/b13-7+"
SMILES=COc1ccc(C=CC(=O)c2ccccc2)cc1COc1ccc(Cl)cc1
SPECTRUMID=CCMSLIB00010123927
50.015572 4454.0 
51.023441 4173.0 
53.039051 59121.0 
55.018318 38452.0 
60.535461 2966.0 
61.97612 2747.0 
69.033737 4213.0 
79.054413 19706.0 
79.143593 2952.0 
81.033623 6496.0 
82.395714 4092.0 
91.054298 169295.0 
91.94207 2992.0 
92.374001 4100.0 
93.069939 3815.0 
95.049118 23318.0 
103.054047 19959.0 
104.282219 3451.0 
105.033409 610335.0 
105.069977 3982.0 
107.049309 5157.0 
113.015068 18868.0 
115.054108 162830.0 
117.069633 70790.0 
119.048882 6908.0 
119.085541 72814.0 
121.064774 6359.0 
128.061691 12485.0 
129.06987 6656.0 
131.048798 33594.0 
133.06488 5196.0 
141.009964 57500.0 
141.069595 12117.0 
143.048904 12557.0 
145.064636 123083.0 
147.080444 47585.0 
149.059784 11983.0 
152.061661 23854.0 
152.091324 3148.0 
153.069794 18154.0 
157.064224 4703.0 
161.059692 19640.0 
165.069656 170995.0 
165.085449 5669.0 
166.077393 23531.0 
167.08548 37748.0 
173.059784 17310.0 
176.061813 16156.0 
177.06929 41081.0 
178.07753 1181499.0 
179.085297 419990.0 
179.098755 9614.0 
180.092575 53440.0 
181.064911 12633.0 
181.100601 5375.0 
183.658447 3131.0 
184.334412 3034.0 
189.069794 18653.0 
190.077332 61834.0 
191.085297 170484.0 
192.092773 59415.0 
193.064972 6411.0 
193.100616 77864.0 
194.071899 13699.0 
195.080368 51344.0 
195.11702 23351.0 
197.095657 14273.0 
202.077332 101375.0 
203.085236 185578.0 
204.092834 3647.0 
205.065338 31197.0 
205.101334 34186.0 
206.071899 35068.0 
207.080627 32838.0 
208.088058 90084.0 
209.095856 13819.0 
211.912613 2983.0 
218.071808 33457.0 
219.079498 42263.0 
220.087997 30742.0 
221.095779 632796.0 
222.103455 6373.0 
223.111206 104420.0 
233.095779 102315.0 
234.10347 6798.0 
235.074829 17020.0 
236.083038 32557.0 
239.106506 37848.0 
251.106216 2574531.0 
379.109131 39065.0 
END IONS

BEGIN IONS
NAME=2-[(2-ethoxyphenyl)methylene]benzo[b]thiophen-3-one CollisionEnergy:102040 M+Na
PRECURSOR_MZ=305.061
INCHI="InChI=1S/C17H14O2S/c1-2-19-14-9-5-3-7-12(14)11-16-17(18)13-8-4-6-10-15(13)20-16/h3-11H,2H2,1H3/b16-11+"
SMILES=CCOc1ccccc1C=C1Sc2ccccc2C1=O
SPECTRUMID=CCMSLIB00010104702
52.11985 2330.0 
65.743202 2275.0 
66.859528 2179.0 
68.86615 2488.0 
74.020042 2402.0 
90.976753 10051.0 
92.374817 2557.0 
94.693321 2290.0 
104.283096 2282.0 
105.199371 2294.0 
118.650101 2964.0 
164.5616 2556.0 
164.612518 2622.0 
237.036301 3346.0 
240.868988 2641.0 
277.029968 21337.0 
305.060364 1145919.0 
305.15451 69801.0 
305.208862 16113.0 
305.244019 151600.0 
305.305542 10667.0 
END IONS

BEGIN IONS
NAME=indol-3-yl 4-(4-methoxyphenyl)piperazinyl ketone CollisionEnergy:102040 M-H
PRECURSOR_MZ=334.156
INCHI="InChI=1S/C20H21N3O2/c1-25-16-8-6-15(7-9-16)22-10-12-23(13-11-22)20(24)18-14-21-19-5-3-2-4-17(18)19/h2-9,14,21H,10-13H2,1H3"
SMILES=COc1ccc(N2CCN(C(=O)c3c[nH]c4ccccc34)CC2)cc1
SPECTRUMID=CCMSLIB00010103593
53.818829 2533.0 
54.015148 2886.0 
70.69059 2390.0 
76.885117 2804.0 
92.392067 3958.0 
107.036568 12235.0 
108.653488 2897.0 
116.050461 39604.0 
120.045464 124274.0 
129.974411 12687.0 
131.035965 4603.0 
133.053299 21682.0 
142.06636 7021.0 
147.056305 20448.0 
171.055527 5248.0 
175.087952 22402.0 
176.095108 24220.0 
183.056244 10045.0 
185.070557 13351.0 
197.055115 3209.0 
197.072144 61704.0 
203.081909 6429.0 
207.84877 15606.0 
211.086395 4011.0 
319.132477 852536.0 
334.156281 2545709.0 
END IONS

BEGIN IONS
NAME="2',5'-dihydroxychalcone CollisionEnergy:102040" M-H
PRECURSOR_MZ=239.071
INCHI="InChI=1S/C15H12O3/c16-12-7-9-15(18)13(10-12)14(17)8-6-11-4-2-1-3-5-11/h1-10,16,18H/b8-6+"
SMILES=O=C(C=Cc1ccccc1)c1cc(O)ccc1O
SPECTRUMID=CCMSLIB00010110398
52.807289 2274.0 
59.116402 2723.0 
60.48019 2284.0 
65.039062 2582.0 
66.405617 2247.0 
66.757591 3482.0 
69.034172 14851.0 
73.970093 3074.0 
77.097252 2635.0 
79.0186 4843.0 
85.029472 4853.0 
88.663406 2655.0 
93.034157 3707.0 
95.01368 12020.0 
97.029327 13573.0 
102.956734 34945.0 
105.847519 2778.0 
107.013672 29673.0 
108.021637 80646.0 
109.029411 47889.0 
112.985764 2647.0 
117.034439 17708.0 
118.681808 3592.0 
121.029282 15149.0 
123.008293 17316.0 
125.02404 25622.0 
130.99234 5069.0 
131.049911 26442.0 
135.008591 58051.0 
136.242325 3956.0 
137.023911 17646.0 
143.050247 4923.0 
147.044891 37462.0 
148.384918 3368.0 
157.065048 4758.0 
161.024353 313872.0 
167.086655 4432.0 
169.065155 4464.0 
180.898743 2968.0 
182.036896 3892.0 
183.080887 12439.0 
193.065628 26235.0 
195.045654 6284.0 
195.08165 38550.0 
196.052948 4689.0 
197.060532 19036.0 
209.850845 4530.0 
210.068512 33252.0 
211.076248 295991.0 
220.053909 3894.0 
221.060669 97928.0 
224.047409 35840.0 
237.055511 148682.0 
238.062668 26749.0 
239.071289 3402099.0 
END IONS

BEGIN IONS
NAME="Pregn-4-en-18-al, 11,21-dihydroxy-3,20-dioxo-, (11.beta.)- CollisionEnergy:205060" M+H-H2O
PRECURSOR_MZ=343.19
INCHI="InChI=1S/C21H28O5/c1-20-7-6-13(24)8-12(20)2-3-14-15-4-5-16(18(26)10-22)21(15,11-23)9-17(25)19(14)20/h8,11,14-17,19,22,25H,2-7,9-10H2,1H3"
SMILES=CC12CCC(=O)C=C1CCC1C2C(O)CC2(C=O)C(C(=O)CO)CCC12
SPECTRUMID=CCMSLIB00010122714
50.314468 2901.0 
53.039009 7610.0 
55.01825 7256.0 
55.054619 6904.0 
60.970951 3962.0 
61.028629 16611.0 
65.038551 5464.0 
67.054573 67217.0 
69.033707 14596.0 
69.070183 22280.0 
71.012947 2968.0 
71.049606 3912.0 
79.054543 104833.0 
81.033287 5315.0 
81.070084 85514.0 
83.049347 69925.0 
85.064827 4989.0 
87.044052 13343.0 
91.048393 5053.0 
91.054321 128322.0 
92.353043 3356.0 
93.063637 4096.0 
93.069946 102458.0 
95.048973 20938.0 
95.08564 64517.0 
97.028061 3150.0 
97.064796 213255.0 
99.043732 4668.0 
103.054031 12198.0 
104.258041 3637.0 
105.069778 141124.0 
105.077591 5573.0 
105.961166 3094.0 
107.049187 37227.0 
107.085388 72608.0 
109.064789 141281.0 
109.101067 13364.0 
111.079803 3522.0 
115.053932 13080.0 
116.0625 4300.0 
117.061172 4722.0 
117.069893 88419.0 
119.085472 97890.0 
121.064697 91220.0 
121.101379 31301.0 
123.080383 102746.0 
128.062057 41688.0 
129.069839 125256.0 
130.077255 5323.0 
131.049347 2984.0 
131.085495 199304.0 
133.064667 39220.0 
133.101059 82191.0 
135.080292 59816.0 
135.116562 6749.0 
137.059418 16552.0 
137.09581 16647.0 
141.06987 98932.0 
142.077744 26741.0 
143.08548 182408.0 
144.092834 5724.0 
145.065186 24624.0 
145.101151 129186.0 
147.080612 66029.0 
147.116364 26947.0 
149.096207 43191.0 
149.696625 3811.0 
151.075104 3457.0 
153.069305 25312.0 
154.077576 25579.0 
155.085571 173013.0 
156.092896 15328.0 
157.064896 4166.0 
157.101135 128404.0 
159.080353 45726.0 
159.116806 54397.0 
161.096069 86180.0 
163.075302 5506.0 
163.111984 28042.0 
163.199951 3354.0 
165.069656 25509.0 
165.091049 19305.0 
166.07753 16654.0 
167.085495 57518.0 
168.09317 19095.0 
169.100998 104739.0 
170.107468 4367.0 
171.080673 29450.0 
171.116852 50219.0 
173.0961 104296.0 
173.132126 19768.0 
175.07518 3732.0 
175.111908 50393.0 
177.126328 3220.0 
178.077332 17197.0 
179.085754 49189.0 
179.102661 5122.0 
180.093109 19281.0 
181.101044 106882.0 
182.109116 17100.0 
183.08049 22576.0 
183.116684 69972.0 
184.123734 4417.0 
185.096466 40845.0 
185.131851 22136.0 
187.074692 11910.0 
187.111603 30299.0 
187.148849 5143.0 
189.090424 7244.0 
189.126984 17455.0 
191.086243 23862.0 
191.104141 5046.0 
192.093094 27472.0 
193.10112 58363.0 
194.108383 16114.0 
195.08046 4967.0 
195.116516 92313.0 
196.124191 6868.0 
197.097137 29977.0 
197.132065 52499.0 
199.11203 32138.0 
199.147934 6866.0 
200.118896 4055.0 
201.090591 12049.0 
201.126678 28062.0 
203.085007 18978.0 
203.10614 11753.0 
204.093094 16507.0 
205.101151 49708.0 
206.108948 24504.0 
207.116959 73618.0 
208.124207 14998.0 
209.097061 21650.0 
209.132019 77102.0 
210.103836 4838.0 
211.112213 22574.0 
211.147903 54008.0 
212.118607 4175.0 
212.155838 4043.0 
213.128006 29806.0 
213.163315 15615.0 
215.085953 6078.0 
215.106094 13698.0 
215.142426 17434.0 
216.094284 12367.0 
217.100494 27428.0 
217.121384 8271.0 
218.109528 24969.0 
219.11644 40211.0 
220.124435 7312.0 
221.13208 49442.0 
222.140213 14355.0 
223.110886 30802.0 
223.148193 54903.0 
224.117981 5735.0 
224.155273 12239.0 
225.127487 39833.0 
225.163605 26217.0 
227.10553 3479.0 
227.143051 16330.0 
229.099533 3492.0 
229.122192 13651.0 
230.107712 17102.0 
231.116333 20477.0 
232.123581 34697.0 
233.13324 32171.0 
235.111099 5442.0 
235.147736 41638.0 
236.119919 7626.0 
236.155807 4733.0 
237.126877 22486.0 
237.163742 76570.0 
238.134811 17632.0 
238.170486 7438.0 
239.142548 47781.0 
239.180679 4084.0 
240.150986 31484.0 
241.098633 5880.0 
241.158401 24168.0 
245.131958 27870.0 
246.139679 15989.0 
247.148132 49203.0 
248.118347 5347.0 
249.128418 13172.0 
249.163116 22720.0 
250.135208 17041.0 
251.142639 56519.0 
251.178833 22684.0 
252.15094 4527.0 
253.157898 55117.0 
254.166962 4622.0 
255.142517 9037.0 
255.174057 220811.0 
259.148529 12797.0 
261.130219 4841.0 
261.163177 55815.0 
263.142548 18653.0 
264.152161 3891.0 
265.158661 63134.0 
266.165955 18905.0 
267.138611 14867.0 
267.174011 48821.0 
269.153046 13878.0 
269.188324 6520.0 
277.158539 16431.0 
279.138611 15389.0 
279.17392 137752.0 
281.154053 26664.0 
283.168945 36456.0 
284.17688 3764.0 
285.184479 27157.0 
287.204865 3473.0 
289.158234 22051.0 
292.146179 5680.0 
295.167664 7576.0 
297.149109 16467.0 
297.184174 181886.0 
297.222473 6054.0 
299.164337 63555.0 
307.168854 78630.0 
308.983337 3675.0 
310.156097 7290.0 
313.177063 6797.0 
315.154266 5867.0 
315.194977 200171.0 
325.179382 425567.0 
343.189972 1189683.0 
END IONS

BEGIN IONS
NAME="8-{[2-(2-ethoxyphenyl)-5-methyl(1,3-oxazol-4-yl)]methylthio}-9-methylhydropuri n-6-one CollisionEnergy:102040" M+H
PRECURSOR_MZ=398.128
INCHI="InChI=1S/C19H19N5O3S/c1-4-26-14-8-6-5-7-12(14)18-22-13(11(2)27-18)9-28-19-23-15-16(24(19)3)20-10-21-17(15)25/h5-8,10H,4,9H2,1-3H3,(H,20,21,25)"
SMILES=CCOc1ccccc1-c1nc(CSc2nc3c(O)ncnc3n2C)c(C)o1
SPECTRUMID=CCMSLIB00010107808
91.054077 13025.0 
96.044327 14354.0 
97.66996 2974.0 
100.061363 3114.0 
107.049179 6527.0 
108.10466 3448.0 
118.648453 3981.0 
120.044724 12998.0 
122.059967 14759.0 
124.314423 3213.0 
129.069412 4384.0 
131.049088 2659644.0 
145.064697 16255.0 
146.874115 3257.0 
147.079865 14583.0 
151.38707 3312.0 
157.064682 4475.0 
172.075378 21149.0 
173.059647 33225.0 
173.08313 19555.0 
174.055496 4706.0 
174.091187 52707.0 
188.070099 4763.0 
198.091614 18907.0 
208.601562 14231.0 
216.101715 4205742.0 
348.09903 3229.0 
398.127411 1526492.0 
END IONS

BEGIN IONS
NAME=2-{1-[(4-chlorophenyl)carbonyl]-5-methoxy-2-methylindol-3-yl}-N-(phenylethyl)a cetamide CollisionEnergy:102040 M+formate
PRECURSOR_MZ=505.154
INCHI="InChI=1S/C27H25ClN2O3/c1-17(19-7-5-4-6-8-19)29-26(31)16-23-18(2)30(25-14-13-22(33-3)15-24(23)25)27(32)20-9-11-21(28)12-10-20/h4-15,17H,16H2,1-3H3,(H,29,31)"
SMILES=COc1ccc2c(c1)c(CC(O)=NC(C)c1ccccc1)c(C)n2C(=O)c1ccc(Cl)cc1
SPECTRUMID=CCMSLIB00010108831
61.9879 10421.0 
62.24271 2130.0 
65.175941 2428.0 
66.984901 2428.0 
73.976952 2850.0 
81.765869 2609.0 
112.985367 3275.0 
147.768509 2482.0 
154.990387 101190.0 
196.020691 2449.0 
210.776642 5538.0 
219.61087 2804.0 
238.642914 2656.0 
241.30957 3152.0 
297.054718 15684.0 
302.533844 2666.0 
306.136749 14564.0 
312.078949 12120.0 
321.160553 116508.0 
459.147369 74506.0 
504.979431 17003.0 
505.152252 24665.0 
528.612915 2937.0 
END IONS

BEGIN IONS
NAME=Daphnin CollisionEnergy:102040 2M-H
PRECURSOR_MZ=679.152
INCHI="InChI=1S/C15H16O9/c16-5-8-10(18)12(20)13(21)15(23-8)22-7-3-1-6-2-4-9(17)24-14(6)11(7)19/h1-4,8,10,12-13,15-16,18-21H,5H2"
SMILES=O=c1ccc2ccc(OC3OC(CO)C(O)C(O)C3O)c(O)c2o1
SPECTRUMID=CCMSLIB00010112139
63.636379 3121.0 
64.907066 2793.0 
70.570396 2886.0 
73.958076 3195.0 
81.378433 3044.0 
112.985779 16700.0 
160.305725 3013.0 
168.279312 3144.0 
177.019272 348781.0 
208.106247 7163.0 
208.128586 10126.0 
230.991791 5662.0 
248.961685 5137.0 
266.989532 25864.0 
303.406799 4772.0 
334.970947 3543.0 
339.072113 355381.0 
361.054199 6063.0 
424.250977 3226.0 
429.04126 6519.0 
447.824005 3268.0 
475.039642 4779.0 
497.02597 26229.0 
543.03656 5270.0 
565.014954 6489.0 
633.008301 27759.0 
END IONS

BEGIN IONS
NAME="N-[4-(trifluoromethyl)phenyl](3,4,5-trimethoxyphenyl)carboxamide CollisionEnergy:102040" M-H
PRECURSOR_MZ=354.096
INCHI="InChI=1S/C17H16F3NO4/c1-23-13-8-10(9-14(24-2)15(13)25-3)16(22)21-12-6-4-11(5-7-12)17(18,19)20/h4-9H,1-3H3,(H,21,22)"
SMILES=COc1cc(C(=O)Nc2ccc(C(F)(F)F)cc2)cc(OC)c1OC
SPECTRUMID=CCMSLIB00010106294
50.746559 2728.0 
57.008228 2734.0 
58.385609 3161.0 
66.744408 3087.0 
78.032219 3479.0 
78.707413 2794.0 
92.38063 2625.0 
95.012627 2954.0 
100.927307 2996.0 
104.289589 3281.0 
105.547813 2627.0 
109.028664 18705.0 
135.032318 22503.0 
137.0242 55149.0 
186.017441 4474.0 
196.487961 3135.0 
208.440933 12555.0 
213.524017 3720.0 
265.039307 4976.0 
267.990631 3594.0 
269.031342 17704.0 
280.022369 5916.0 
296.053436 16312.0 
306.03775 45082.0 
308.054504 26483.0 
309.025146 75192.0 
310.069824 55003.0 
323.041077 64606.0 
324.048981 1615342.0 
333.982361 3968.0 
338.064636 221204.0 
339.072479 532672.0 
354.096252 4406487.0 
END IONS

BEGIN IONS
NAME="N-{[3-(3,4-dimethylphenyl)adamantanyl]methyl}(3,4,5-trimethoxyphenyl)carboxami de CollisionEnergy:102040" M+Cl
PRECURSOR_MZ=498.242
INCHI="InChI=1S/C29H37NO4/c1-18-6-7-23(8-19(18)2)29-14-20-9-21(15-29)13-28(12-20,16-29)17-30-27(31)22-10-24(32-3)26(34-5)25(11-22)33-4/h6-8,10-11,20-21H,9,12-17H2,1-5H3,(H,30,31)"
SMILES=COc1cc(C(O)=NCC23CC4CC(C2)CC(c2ccc(C)c(C)c2)(C4)C3)cc(OC)c1OC
SPECTRUMID=CCMSLIB00010109134
63.168781 2313.0 
73.209427 2861.0 
75.816101 2532.0 
81.840973 2923.0 
253.235062 3116.0 
377.64798 2482.0 
497.971344 12338.0 
498.243042 30436.0 
END IONS

BEGIN IONS
NAME=xanthine CollisionEnergy:102040 M+H
PRECURSOR_MZ=153.041
INCHI="InChI=1S/C5H4N4O2/c10-4-2-3(7-1-6-2)8-5(11)9-4/h1H,(H3,6,7,8,9,10,11)"
SMILES=Oc1nc(O)c2nc[nH]c2n1
SPECTRUMID=CCMSLIB00010126800
55.0298 554569.0 
58.591599 392907.0 
61.554699 398902.0 
73.266998 399391.0 
73.949097 537511.0 
74.405701 405567.0 
82.3918 522710.0 
83.224503 427725.0 
104.278999 548999.0 
106.947998 550555.0 
110.035004 67637296.0 
128.046005 10916100.0 
136.014008 16774500.0 
153.041 284700992.0 
154.024994 88351104.0 
END IONS

BEGIN IONS
NAME="ethyl 2-{3-methyl-7-[(3-methylphenyl)methyl]-2,6-dioxo-1,3,7-trihydropurin-8-y lthio}acetate CollisionEnergy:102040" M-H
PRECURSOR_MZ=387.113
INCHI="InChI=1S/C18H20N4O4S/c1-4-26-13(23)10-27-18-19-15-14(16(24)20-17(25)21(15)3)22(18)9-12-7-5-6-11(2)8-12/h5-8H,4,9-10H2,1-3H3,(H,20,24,25)"
SMILES=CCOC(=O)CSc1nc2c(c(O)nc(=O)n2C)n1Cc1cccc(C)c1
SPECTRUMID=CCMSLIB00010111444
55.83823 2440.0 
57.975269 186042.0 
60.540981 2870.0 
65.543571 2172.0 
82.403389 3828.0 
92.380318 3360.0 
100.051163 2411.0 
104.286369 3366.0 
104.293472 2608.0 
111.990601 2389.0 
208.196259 2555.0 
216.988876 4407.0 
270.981659 3653.0 
282.979828 12635.0 
302.987671 10821.0 
366.980835 4941.0 
386.990479 23883.0 
387.112335 32484.0 
470.872559 3099.0 
782.140198 2453.0 
794.959229 2522.0 
END IONS

BEGIN IONS
NAME=N-Acetylisoleucine CollisionEnergy:102040 M-H
PRECURSOR_MZ=172.098
INCHI="InChI=1S/C8H15NO3/c1-4-5(2)7(8(11)12)9-6(3)10/h5,7H,4H2,1-3H3,(H,9,10)(H,11,12)"
SMILES=CCC(C)C(N=C(C)O)C(=O)O
SPECTRUMID=CCMSLIB00010106680
58.02948 14642.0 
61.988049 2499.0 
68.209686 2243.0 
73.957916 2124.0 
97.93119 4414.0 
103.920593 2813.0 
113.927116 3828.0 
118.652817 2265.0 
128.108215 96983.0 
128.119064 3282.0 
128.878601 3962.0 
130.087418 1205979.0 
136.211838 3451.0 
144.003372 2542.0 
154.945724 2769.0 
172.097977 484344.0 
END IONS

BEGIN IONS
NAME=2-Hydroxycinnamic acid CollisionEnergy:205060 M+H
PRECURSOR_MZ=165.055
INCHI="InChI=1S/C9H8O3/c10-8-4-2-1-3-7(8)5-6-9(11)12/h1-6,10H,(H,11,12)/b6-5+"
SMILES=O=C(O)C=Cc1ccccc1O
SPECTRUMID=CCMSLIB00010119355
53.0392 434778.0 
54.865028 32000.0 
54.94759 28058.0 
73.94384 51967.0 
74.079376 31292.0 
91.054443 3477085.0 
92.364487 40947.0 
93.070007 348734.0 
95.049332 2104628.0 
102.046181 82059.0 
102.157356 29289.0 
103.054298 8408083.0 
104.273537 41490.0 
110.866241 41066.0 
119.0494 153387.0 
121.06488 989308.0 
123.044144 7429637.0 
147.044159 4880701.0 
156.654694 32941.0 
165.054062 155671.0 
END IONS

BEGIN IONS
NAME="{4-[(3,5-dimethoxyphenyl)carbonyl]phenyl}-N-(phenylcyclopropyl)carboxamide CollisionEnergy:102040" M+H
PRECURSOR_MZ=402.17
INCHI="InChI=1S/C25H23NO4/c1-29-21-14-19(15-22(16-21)30-2)23(27)17-8-10-18(11-9-17)24(28)26-25(12-13-25)20-6-4-3-5-7-20/h3-11,14-16H,12-13H2,1-2H3,(H,26,28)"
SMILES=COc1cc(OC)cc(C(=O)c2ccc(C(=O)NC3(c4ccccc4)CC3)cc2)c1
SPECTRUMID=CCMSLIB00010109856
74.824249 2552.0 
77.810913 3196.0 
82.440063 2688.0 
91.054382 33505.0 
92.42205 3130.0 
104.333488 3434.0 
117.070053 3186.0 
121.028511 24746.0 
128.903763 3368.0 
135.080566 5504.0 
151.038406 4556.0 
152.062469 7436.0 
153.069778 34848.0 
157.063766 3142.0 
165.053833 30922.0 
170.072495 3795.0 
181.064667 20198.0 
182.071625 4521.0 
183.045258 3584.0 
183.080139 4630.0 
183.65274 3183.0 
185.060059 3545.0 
195.078934 4343.0 
197.059097 32700.0 
198.0672 39363.0 
209.060242 5515.0 
211.038544 118014.0 
213.053818 32594.0 
213.091644 12838.0 
225.05452 16062.0 
226.062012 314515.0 
227.070312 39361.0 
230.056992 55254.0 
237.065445 51241.0 
241.085403 196182.0 
242.056747 96084.0 
245.08107 16827.0 
253.222305 4123.0 
254.057327 50884.0 
258.051331 6029.0 
268.096222 5580.0 
269.080292 5162455.0 
273.075134 15908.0 
279.074646 3526.0 
402.168884 379830.0 
END IONS

BEGIN IONS
NAME=2-(4-hydroxyquinazolin-2-ylthio)-N-benzylacetamide CollisionEnergy:205060 M-H
PRECURSOR_MZ=324.081
INCHI="InChI=1S/C17H15N3O2S/c21-15(18-10-12-6-2-1-3-7-12)11-23-17-19-14-9-5-4-8-13(14)16(22)20-17/h1-9H,10-11H2,(H,18,21)(H,19,20,22)"
SMILES=OC(CSc1nc(O)c2ccccc2n1)=NCc1ccccc1
SPECTRUMID=CCMSLIB00010120678
57.975128 36890.0 
63.772751 2342.0 
71.932503 2383.0 
72.975037 3265.0 
84.04377 2262.0 
92.389412 2764.0 
104.29892 2472.0 
116.037743 4060.0 
131.061478 57504.0 
145.04071 134325.0 
157.991043 2713.0 
159.043854 22427.0 
161.035507 16245.0 
172.051636 12878.0 
176.004379 11481.0 
177.012878 66045.0 
189.013031 20783.0 
190.038742 8417.0 
191.028503 73550.0 
194.715927 2794.0 
205.198669 2638.0 
209.966919 2966.0 
217.007629 11946.0 
233.070038 2399.0 
248.082596 5672.0 
250.098709 643858.0 
324.081421 108870.0 
337.294922 2658.0 
END IONS

BEGIN IONS
NAME="5,7-dimethyl-4-{[3-methyl-4-(3-methylphenyl)piperazinyl]methyl}chromen-2-one CollisionEnergy:205060" M+H
PRECURSOR_MZ=377.222
INCHI="InChI=1S/C24H28N2O2/c1-16-6-5-7-21(11-16)26-9-8-25(14-19(26)4)15-20-13-23(27)28-22-12-17(2)10-18(3)24(20)22/h5-7,10-13,19H,8-9,14-15H2,1-4H3"
SMILES=Cc1cccc(N2CCN(Cc3cc(=O)oc4cc(C)cc(C)c34)CC2C)c1
SPECTRUMID=CCMSLIB00010115735
56.049881 18224.0 
56.78878 2758.0 
57.0578 23225.0 
58.065632 6605.0 
70.065529 24517.0 
74.718117 2574.0 
82.065323 2976.0 
84.080948 10943.0 
91.054337 37891.0 
93.069489 4398.0 
95.54364 3008.0 
105.06958 28478.0 
106.064781 3713.0 
106.077606 6820.0 
107.072853 3893.0 
109.065033 3859.0 
115.054222 6487.0 
117.069679 16759.0 
118.065048 57793.0 
119.072861 148618.0 
119.08326 5318.0 
120.080673 74613.0 
121.088516 7009.0 
128.061813 4426.0 
129.070129 5697.0 
130.07724 6489.0 
130.320633 2807.0 
131.074387 3674.0 
131.085587 32784.0 
132.08078 60303.0 
133.08844 32770.0 
133.101089 12777.0 
134.096329 471925.0 
136.20491 2851.0 
143.085251 17166.0 
144.080536 4772.0 
145.087555 3041.0 
146.074112 3695.0 
146.096375 143148.0 
147.079865 11057.0 
147.092056 4260.0 
147.103882 38542.0 
148.111954 1016917.0 
155.08606 3250.0 
158.09581 3719.0 
159.080093 133022.0 
159.103607 4462.0 
160.111771 26691.0 
161.095337 64379.0 
161.107651 8131.0 
173.107376 29843.0 
174.067535 5825.0 
174.114471 6417.0 
175.075256 73966.0 
175.122803 177545.0 
175.427994 3259.0 
187.07515 17026.0 
187.123047 80471.0 
188.109818 5833.0 
188.130478 168912.0 
189.090439 18299.0 
189.138382 15603.0 
190.146057 65735.0 
201.138367 5491.0 
202.122345 4692.0 
202.147552 2982.0 
203.153473 3803.0 
230.117203 3536.0 
244.132736 4753.0 
270.146088 4756.0 
282.664612 3099.0 
349.226837 4240.0 
355.698364 2655.0 
377.221741 1385116.0 
END IONS

BEGIN IONS
NAME=3-(4-chlorophenyl)-7-hydroxychromen-2-one CollisionEnergy:205060 M+H
PRECURSOR_MZ=273.031
INCHI="InChI=1S/C15H9ClO3/c16-11-4-1-9(2-5-11)13-7-10-3-6-12(17)8-14(10)19-15(13)18/h1-8,17H"
SMILES=O=c1oc2cc(O)ccc2cc1-c1ccc(Cl)cc1
SPECTRUMID=CCMSLIB00010117047
55.018311 13681.0 
61.238319 3126.0 
66.73922 3271.0 
68.997383 23822.0 
75.706963 3410.0 
104.193657 3336.0 
114.256187 3304.0 
136.202545 4897.0 
152.061829 47835.0 
153.06958 197875.0 
154.077545 110917.0 
165.069611 251867.0 
166.077469 200795.0 
168.056717 31729.0 
175.030792 27495.0 
176.061539 21158.0 
181.064438 1094079.0 
182.072296 2793720.0 
189.045853 18942.0 
192.056473 14191.0 
193.065536 6447.0 
194.072281 446463.0 
196.052338 6037.0 
199.03064 165224.0 
199.074722 27141.0 
201.045822 5626.0 
209.058792 22450.0 
209.074829 10278.0 
210.067139 2995648.0 
211.029755 4085.0 
215.024887 25519.0 
217.041016 3247356.0 
227.038208 10719.0 
228.032135 4588.0 
229.0401 26466.0 
237.054108 202683.0 
238.061844 455362.0 
245.034393 98199.0 
273.030579 6468020.0 
END IONS

BEGIN IONS
NAME=Phenethylamine CollisionEnergy:102040 M+H
PRECURSOR_MZ=122.096
INCHI="InChI=1S/C8H11N/c9-7-6-8-4-2-1-3-5-8/h1-5H,6-7,9H2"
SMILES=NCCc1ccccc1
SPECTRUMID=CCMSLIB00010103354
60.553501 49137.601562 
61.838699 47513.199219 
66.698502 48818.5 
66.761803 50905.199219 
68.3386 45478.300781 
79.054703 280333.0 
82.420303 53570.398438 
92.403 52192.800781 
101.021004 45078.300781 
103.055 216182.0 
105.07 14293100.0 
118.683998 58164.300781 
120.834999 49308.101562 
122.096001 217490.0 
122.273003 48483.800781 
END IONS

BEGIN IONS
NAME=4-Guanidinobutyric acid CollisionEnergy:102040 M-H+2Na
PRECURSOR_MZ=190.056
INCHI="InChI=1S/C5H11N3O2/c6-5(7)8-3-1-2-4(9)10/h1-3H2,(H,9,10)(H4,6,7,8)"
SMILES=N=C(N)NCCCC(=O)O
SPECTRUMID=CCMSLIB00010103046
61.679901 2152.23999 
62.338501 2091.77002 
62.982399 96461.898438 
68.475098 2000.579956 
69.146698 2271.459961 
69.3545 2280.080078 
76.306702 2009.890015 
86.987801 3284.659912 
86.993599 83017.101562 
92.396004 2396.629883 
130.024002 233292.0 
136.238007 2454.110107 
148.033997 75977.796875 
148.046997 4006.22998 
167.091003 2155.810059 
172.046005 32729.599609 
173.029999 12563.0 
190.056 103839.0 
END IONS

BEGIN IONS
NAME=adenine CollisionEnergy:102040 M-H
PRECURSOR_MZ=134.047
INCHI="InChI=1S/C5H5N5/c6-4-3-5(9-1-7-3)10-2-8-4/h1-2H,(H3,6,7,8,9,10)"
SMILES=Nc1nc[nH]c2ncnc1-2
SPECTRUMID=CCMSLIB00010126405
58.1063 1699.130005 
63.010502 1703.949951 
74.654503 1925.400024 
80.959702 3568.350098 
80.964996 102617.0 
83.518303 1873.420044 
92.0252 11653.0 
92.399902 1955.650024 
107.036003 60928.800781 
116.920998 29803.099609 
133.992004 10795.5 
134.046997 326077.0 
END IONS

BEGIN IONS
NAME=(4-{[3-oxo-3-(2-oxochromen-3-yl)propyl]amino}phenyl)-N-benzylcarboxamide CollisionEnergy:205060 M+formate
PRECURSOR_MZ=471.156
INCHI="InChI=1S/C26H22N2O4/c29-23(22-16-20-8-4-5-9-24(20)32-26(22)31)14-15-27-21-12-10-19(11-13-21)25(30)28-17-18-6-2-1-3-7-18/h1-13,16,27H,14-15,17H2,(H,28,30)"
SMILES=O=C(NCc1ccccc1)c1ccc(NCCC(=O)c2cc3ccccc3oc2=O)cc1
SPECTRUMID=CCMSLIB00010117795
66.765877 2870.0 
92.050583 100767.0 
93.034828 2920.0 
104.320297 3649.0 
119.524834 2236.0 
134.04895 20935.0 
138.832733 2348.0 
147.045441 5194.0 
172.17157 2829.0 
175.077133 9453.0 
202.157562 2510.0 
204.671661 2585.0 
218.364624 3033.0 
225.103592 162030.0 
267.061066 2477.0 
366.980042 4139.0 
427.167236 3175.0 
435.447266 2556.0 
446.545746 2666.0 
463.401031 2501.0 
497.588928 2794.0 
END IONS

BEGIN IONS
NAME="2-(3,4-diacetyloxyphenyl)-4-oxo-7-[3,4,5-triacetyloxy-6-(acetyloxymethyl)(2H-3 ,4,5,6-tetrahydropyran-2-yloxy)]chromen-5-yl acetate CollisionEnergy:205060" M+formate
PRECURSOR_MZ=787.173
INCHI="InChI=1S/C35H34O18/c1-15(36)44-14-30-32(48-19(5)40)33(49-20(6)41)34(50-21(7)42)35(53-30)51-23-11-28(47-18(4)39)31-24(43)13-26(52-29(31)12-23)22-8-9-25(45-16(2)37)27(10-22)46-17(3)38/h8-13,30,32-35H,14H2,1-7H3"
SMILES=CC(=O)OCC1OC(Oc2cc(OC(C)=O)c3c(=O)cc(-c4ccc(OC(C)=O)c(OC(C)=O)c4)oc3c2)C(OC(C)=O)C(OC(C)=O)C1OC(C)=O
SPECTRUMID=CCMSLIB00010121747
66.741119 4235.0 
68.799896 3038.0 
69.419617 3099.0 
71.381393 3134.0 
73.949997 3157.0 
101.391167 3321.0 
133.030151 4860.0 
146.961548 16178.0 
151.003387 6034.0 
152.914261 3451.0 
165.412872 2937.0 
174.956665 16237.0 
196.795883 3762.0 
284.032684 318275.0 
285.040405 105504.0 
615.13678 266927.0 
615.228271 4170.0 
657.146667 257504.0 
END IONS

BEGIN IONS
NAME=2-(9-methyl-6-oxohydropurin-8-ylthio)-N-(3-methylphenyl)acetamide CollisionEnergy:205060 M+H
PRECURSOR_MZ=330.102
INCHI="InChI=1S/C15H15N5O2S/c1-9-4-3-5-10(6-9)18-11(21)7-23-15-19-12-13(20(15)2)16-8-17-14(12)22/h3-6,8H,7H2,1-2H3,(H,18,21)(H,16,17,22)"
SMILES=Cc1cccc(N=C(O)CSc2nc3c(O)ncnc3n2C)c1
SPECTRUMID=CCMSLIB00010122072
57.045261 23214.0 
58.995548 18854.0 
65.038971 3816.0 
66.741943 4561.0 
67.05455 3857.0 
77.652107 3845.0 
79.054367 6763.0 
82.395927 3878.0 
83.024139 4423.0 
84.985573 65602.0 
86.006187 6717.0 
91.054298 97619.0 
92.061928 6045.0 
93.069847 146870.0 
94.040077 6938.0 
98.984261 3919.0 
103.054062 15401.0 
105.069649 45524.0 
106.04007 15371.0 
107.023903 22560.0 
107.04847 7201.0 
107.072884 22631.0 
108.055641 37235.0 
108.080597 17823.0 
110.034767 8921.0 
111.042664 25047.0 
113.016457 3997.0 
118.064941 65587.0 
120.080688 731347.0 
124.050591 40021.0 
125.016632 14263.0 
126.001289 5729.0 
126.012123 18065.0 
130.064972 34674.0 
131.07283 207486.0 
131.083954 7478.0 
133.05162 57255.0 
134.034958 21088.0 
136.211288 3687.0 
137.045563 243233.0 
139.99118 91332.0 
140.027634 20860.0 
146.048004 7148.0 
146.060028 120281.0 
148.075714 48866.0 
149.045609 285798.0 
150.0121 15733.0 
150.053482 406180.0 
150.99585 90850.0 
151.061279 858818.0 
152.026917 33076.0 
153.011566 12550.0 
153.02301 37697.0 
154.007217 25438.0 
161.045181 44904.0 
162.038147 9778.0 
162.053284 205507.0 
163.061218 335046.0 
168.022293 198333.0 
170.037994 41239.0 
177.022095 34562.0 
179.056046 17750.0 
179.102371 4308.0 
181.017593 2897086.0 
182.025467 22236.0 
182.762314 4383.0 
183.033005 51620.0 
186.03273 30937.0 
195.033264 7463550.0 
213.043411 80772.0 
217.989471 4102.0 
222.043747 45135.0 
223.028046 9168818.0 
236.05983 78774.0 
255.091324 4799.0 
281.799591 4194.0 
297.067902 3779.0 
312.091339 46353.0 
330.100891 216023.0 
END IONS

BEGIN IONS
NAME=(2E)-3-{3-[(3-{[(4-methylphenyl)sulfonyl]amino}quinoxalin-2-yl)amino]phenyl}pr op-2-enoic acid CollisionEnergy:205060 2M-H
PRECURSOR_MZ=919.234
INCHI="InChI=1S/C24H20N4O4S/c1-16-9-12-19(13-10-16)33(31,32)28-24-23(26-20-7-2-3-8-21(20)27-24)25-18-6-4-5-17(15-18)11-14-22(29)30/h2-15H,1H3,(H,25,26)(H,27,28)(H,29,30)/b14-11+"
SMILES=Cc1ccc(S(=O)(=O)N=c2[nH]c3ccccc3nc2Nc2cccc(C=CC(=O)O)c2)cc1
SPECTRUMID=CCMSLIB00010119242
65.607109 3830.0 
73.956909 4094.0 
78.542473 4164.0 
78.716316 3320.0 
80.060204 3646.0 
82.404228 4855.0 
104.291443 7381.0 
118.662819 3767.0 
131.102722 3429.0 
155.016449 15758.0 
175.996628 3425.0 
185.279831 4220.0 
232.088043 6655.0 
259.09845 19219.0 
301.689636 3845.0 
324.577698 4039.0 
379.111664 3872.0 
459.114166 92617.0 
485.875031 3976.0 
512.619568 4362.0 
602.955566 3713.0 
END IONS

BEGIN IONS
NAME=biotin CollisionEnergy:102040 M+H
PRECURSOR_MZ=245.095
INCHI="InChI=1S/C10H16N2O3S/c13-8(14)4-2-1-3-7-9-6(5-16-7)11-10(15)12-9/h6-7,9H,1-5H2,(H,13,14)(H2,11,12,15)/t6-,7-,9-/m0/s1"
SMILES=O=C(O)CCCC[C@@H]1SC[C@@H]2N=C(O)N[C@H]12
SPECTRUMID=CCMSLIB00010126573
52.902901 693105.0 
56.555 655323.0 
61.040501 866055.0 
67.054901 665422.0 
68.6521 622168.0 
73.524597 685109.0 
76.0224 606583.0 
91.054604 694599.0 
92.405098 762320.0 
97.011803 1100280.0 
97.039902 8282280.0 
98.782402 749430.0 
105.07 729631.0 
113.667 714808.0 
123.026001 4837370.0 
125.042 938693.0 
139.057999 2831730.0 
143.026993 1232910.0 
149.042007 1112140.0 
166.067993 8097270.0 
167.052002 9586920.0 
183.753006 635277.0 
184.078995 6294710.0 
185.074005 916499.0 
185.457993 705082.0 
192.048004 2479060.0 
199.089996 6083480.0 
209.074005 8541740.0 
227.084 393263008.0 
245.095001 87763696.0 
245.209 650953.0 
END IONS

BEGIN IONS
NAME="6,2'-Dimethylflavone CollisionEnergy:102040" M+H
PRECURSOR_MZ=251.107
INCHI="InChI=1S/C17H14O2/c1-11-7-8-16-14(9-11)15(18)10-17(19-16)13-6-4-3-5-12(13)2/h3-10H,1-2H3"
SMILES=Cc1ccc2oc(-c3ccccc3C)cc(=O)c2c1
SPECTRUMID=CCMSLIB00010103424
67.933037 2595.0 
92.386162 3446.0 
98.984322 12237.0 
101.241653 2726.0 
110.497124 2345.0 
118.665337 4784.0 
118.686478 2627.0 
135.044205 14849.0 
154.386902 2322.0 
192.092911 9882.0 
204.95607 4275.0 
227.329514 2746.0 
231.966476 2589.0 
244.526093 2453.0 
250.078156 3563.0 
251.106628 3451332.0 
252.13884 4237.0 
END IONS

BEGIN IONS
NAME=Gossypolone CollisionEnergy:102040 M+H
PRECURSOR_MZ=547.16
INCHI="InChI=1S/C30H26O10/c1-9(2)15-21-19(13(7-31)25(35)29(15)39)27(37)17(11(5)23(21)33)18-12(6)24(34)22-16(10(3)4)30(40)26(36)14(8-32)20(22)28(18)38/h7-10,35-36,39-40H,1-6H3"
SMILES=CC1=C(C2=C(C)C(=O)c3c(c(C=O)c(O)c(O)c3C(C)C)C2=O)C(=O)c2c(C=O)c(O)c(O)c(C(C)C)c2C1=O
SPECTRUMID=CCMSLIB00010113703
61.145401 2787.0 
73.342003 2590.0 
75.749359 2768.0 
76.970848 2696.0 
81.460213 2936.0 
82.392082 3185.0 
95.861794 2918.0 
104.277428 3546.0 
110.746292 3193.0 
140.404419 2865.0 
197.610321 2873.0 
229.049698 4508.0 
273.076843 20046.0 
283.095978 3637.0 
409.142456 3194.0 
440.12738 3864.0 
450.112885 5863.0 
453.097809 20932.0 
457.088257 4430.0 
465.131317 11603.0 
468.118713 16434.0 
469.130157 3089.0 
471.110535 22123.0 
479.11087 3561.0 
481.091644 16376.0 
483.141815 12689.0 
486.128632 3050.0 
493.12793 12348.0 
496.116608 16874.0 
497.121399 11825.0 
499.101868 51886.0 
501.149902 4891.0 
511.138855 95190.0 
514.125061 55776.0 
529.148865 1114214.0 
547.159058 452861.0 
547.367798 6970.0 
END IONS

BEGIN IONS
NAME=harmol///HarmolHCl2H2O///Harmol CollisionEnergy:205060 M+H
PRECURSOR_MZ=199.087
INCHI="InChI=1S/C12H10N2O/c1-7-12-10(4-5-13-7)9-3-2-8(15)6-11(9)14-12/h2-6,14-15H,1H3"
SMILES=Cc1nccc2c1[nH]c1cc(O)ccc12
SPECTRUMID=CCMSLIB00010115832
50.720711 4213.0 
52.980331 3713.0 
55.39959 4354.0 
55.935009 4292.0 
61.01112 10459.0 
61.93454 3465.0 
72.0448 4284.0 
74.09668 84078.0 
83.085617 4810.0 
84.959846 21141.0 
100.075417 19089.0 
103.054367 26902.0 
117.070053 4804.0 
125.002838 4120.0 
130.065201 60304.0 
131.04895 374936.0 
144.080215 22279.0 
145.065109 6290.0 
154.065353 30446.0 
154.123474 9088.0 
156.066895 39014.0 
158.05986 225324.0 
159.00592 20426.0 
169.074493 7745.0 
170.059189 7332.0 
170.083893 92305.0 
171.091385 1984510.0 
172.075623 40644.0 
174.984619 20332.0 
175.983093 30345.0 
180.981857 6130.0 
181.075531 120658.0 
182.060669 18804.0 
182.084045 38737.0 
182.117661 9598.0 
183.055206 27143.0 
184.06279 350538.0 
198.0784 202682.0 
199.086243 30435004.0 
199.829971 4009.0 
201.066971 14591.0 
END IONS

BEGIN IONS
NAME=4-chloroindole-3-acetic acid CollisionEnergy:102040 M+H
PRECURSOR_MZ=210.032
INCHI="InChI=1S/C10H8ClNO2/c11-7-2-1-3-8-10(7)6(5-12-8)4-9(13)14/h1-3,5,12H,4H2,(H,13,14)"
SMILES=C1=CC2=C(C(=C1)Cl)C(=CN2)CC(=O)O
SPECTRUMID=CCMSLIB00010102282
54.874741 11943.216797 
57.915089 12642.013672 
62.534634 14647.836914 
66.387848 15409.921875 
70.363487 11283.658203 
71.899643 10936.186523 
79.901711 11066.395508 
82.442581 12482.787109 
109.495781 13058.454102 
128.049042 22777.462891 
137.015305 43905.34375 
164.026138 13670836.0 
165.029724 48969.113281 
182.036285 46750.070312 
210.031403 1918412.875 
END IONS

BEGIN IONS
NAME=ellipticine CollisionEnergy:205060 M-H
PRECURSOR_MZ=245.108
INCHI="InChI=1S/C17H14N2/c1-10-14-9-18-8-7-12(14)11(2)17-16(10)13-5-3-4-6-15(13)19-17/h3-9,19H,1-2H3"
SMILES=Cc1c2ccncc2c(C)c2c1[nH]c1ccccc12
SPECTRUMID=CCMSLIB00010116174
83.387016 2374.0 
101.469566 2350.0 
118.662758 2629.0 
134.320557 2289.0 
146.961731 2855.0 
230.084793 23362.0 
243.092728 9282.0 
244.101501 27172.0 
245.108398 2183763.0 
262.889374 4287.0 
276.091156 4127.0 
END IONS

BEGIN IONS
NAME="2-(1,3-dimethyl-2,6-dioxo(1,3,7-trihydropurin-7-yl))-N-[(4-sulfamoylphenyl)met hyl]acetamide CollisionEnergy:102040" M+formate
PRECURSOR_MZ=451.104
INCHI="InChI=1S/C16H18N6O5S/c1-20-14-13(15(24)21(2)16(20)25)22(9-19-14)8-12(23)18-7-10-3-5-11(6-4-10)28(17,26)27/h3-6,9H,7-8H2,1-2H3,(H,18,23)(H2,17,26,27)"
SMILES=Cn1c(=O)c2c(ncn2CC(O)=NCc2ccc(S(N)(=O)=O)cc2)n(C)c1=O
SPECTRUMID=CCMSLIB00010113156
65.652786 2573.0 
104.318031 4156.0 
118.691116 2592.0 
136.051208 12141.0 
156.012802 17348.0 
158.022964 2746.0 
179.057556 361022.0 
209.153473 10353.0 
211.018066 54711.0 
405.098969 625462.0 
473.553223 2733.0 
END IONS

BEGIN IONS
NAME=6-ethyl-4-[(4-(2-pyridyl)piperazinyl)methyl]chromen-2-one CollisionEnergy:205060 M+Na
PRECURSOR_MZ=372.168
INCHI="InChI=1S/C21H23N3O2/c1-2-16-6-7-19-18(13-16)17(14-21(25)26-19)15-23-9-11-24(12-10-23)20-5-3-4-8-22-20/h3-8,13-14H,2,9-12,15H2,1H3"
SMILES=CCc1ccc2oc(=O)cc(CN3CCN(c4ccccn4)CC3)c2c1
SPECTRUMID=CCMSLIB00010116096
70.243828 2600.0 
73.945236 2717.0 
73.94976 2584.0 
84.030327 2694.0 
92.370331 2819.0 
94.043541 2457.0 
100.456779 2827.0 
104.2799 2656.0 
106.028397 2469.0 
116.182022 2120.0 
128.769577 2131.0 
131.876114 2147.0 
151.946442 2176.0 
171.505692 2143.0 
178.673645 2535.0 
209.537079 3262.0 
209.555008 2717.0 
236.529053 2523.0 
263.29718 2472.0 
308.100983 2524.0 
308.364899 2559.0 
372.167694 321385.0 
END IONS

BEGIN IONS
NAME=mitomycin C CollisionEnergy:102040 M+H
PRECURSOR_MZ=335.135
INCHI="InChI=1S/C15H18N4O5/c1-5-9(16)12(21)8-6(4-24-14(17)22)15(23-2)13-7(18-13)3-19(15)10(8)11(5)20/h6-7,13,18H,3-4,16H2,1-2H3,(H2,17,22)/t6-,7+,13+,15-/m1/s1"
SMILES=COC12C(COC(=N)O)C3=C(C(=O)C(C)=C(N)C3=O)N1CC1NC12
SPECTRUMID=CCMSLIB00010112513
50.14233 2943.0 
50.907452 2756.0 
56.470501 2708.0 
66.996872 2497.0 
80.840179 2659.0 
110.059837 15271.0 
137.070694 3320.0 
149.070877 3579.0 
159.055084 16184.0 
169.076462 10914.0 
171.091095 15481.0 
177.065659 3432.0 
187.086456 7116.0 
197.070877 18747.0 
198.103546 11394.0 
199.088623 20411.0 
202.073257 17231.0 
203.081177 16533.0 
213.06636 6251.0 
213.088715 4447.0 
214.075409 4298.0 
214.097458 64555.0 
215.081665 78298.0 
217.097122 11898.0 
219.076447 16581.0 
225.065155 16854.0 
227.083817 24671.0 
229.084305 18717.0 
230.09259 5012.0 
231.076111 41241.0 
232.084122 5925.0 
240.076324 4403.0 
241.08371 5815.0 
242.092041 4976135.0 
243.09816 4945.0 
244.107803 172694.0 
245.091995 27683.0 
257.091705 11363.0 
274.118011 273010.0 
333.361908 2816.0 
335.131958 138923.0 
END IONS

BEGIN IONS
NAME="3-(2-chlorophenyl)-11-(3-hydroxy-4-methoxyphenyl)-2,3,4-trihydro-5H,10H,11H-be nzo[b]benzo[2,1-f]1,4-diazepin-1-one CollisionEnergy:205060" M+H
PRECURSOR_MZ=447.147
INCHI="InChI=1S/C26H23ClN2O3/c1-32-24-11-10-15(13-22(24)30)26-25-21(28-19-8-4-5-9-20(19)29-26)12-16(14-23(25)31)17-6-2-3-7-18(17)27/h2-11,13,16,26,28-30H,12,14H2,1H3"
SMILES=COc1ccc(C2Nc3ccccc3NC3=C2C(=O)CC(c2ccccc2Cl)C3)cc1O
SPECTRUMID=CCMSLIB00010117293
60.116058 3101.0 
61.554321 3397.0 
92.049301 8506.0 
102.04612 16640.0 
103.05365 4450.0 
104.298111 3798.0 
116.04953 14741.0 
117.057312 3823.0 
119.060463 30847.0 
125.014954 21347.0 
130.065018 239088.0 
131.060471 13702.0 
132.0681 16336.0 
133.075806 149397.0 
137.015167 112191.0 
137.059937 7585.0 
138.99469 4312.0 
140.049072 6980.0 
143.060181 5337.0 
156.067825 52085.0 
156.078751 3515.0 
157.075806 2020219.0 
158.083359 48992.0 
159.09137 22874.0 
165.009979 216396.0 
165.025864 6876.0 
166.06514 13163.0 
169.075363 5076.0 
170.083344 79570.0 
171.055374 5814.0 
177.06691 6045.0 
181.075958 4539.0 
182.083893 17358.0 
183.0914 135835.0 
184.061493 4794.0 
185.070618 1822141.0 
191.024902 9400.0 
197.07019 7281.0 
198.078613 85225.0 
201.053665 5544.0 
202.07872 4639.0 
211.086182 126337.0 
219.091599 31568.0 
220.681122 4305.0 
242.096863 4252.0 
244.100677 5384.0 
245.106659 56444.0 
246.114899 5724.0 
255.068054 33168.0 
259.121063 29386.0 
261.101501 4718.0 
261.896332 3282.0 
265.042267 5481.0 
269.107727 35042.0 
270.088013 13026.0 
270.118225 23895.0 
273.103668 5193.0 
279.06546 4692.0 
281.082886 69710.0 
285.100067 7637.0 
286.109772 15318.0 
287.117126 215764.0 
288.125061 14038.0 
293.089539 7214.0 
295.098663 19653.0 
297.077454 22749.0 
303.930542 4447.0 
305.083527 55457.0 
322.089752 4393.0 
323.093658 5648713.0 
324.094757 4832.0 
339.080444 3888.0 
429.032776 4250.0 
447.145905 326032.0 
447.292358 22202.0 
END IONS

BEGIN IONS
NAME="3,4-DIHYDROXYBENZOIC ACID CollisionEnergy:102040" M-H
PRECURSOR_MZ=153.019
INCHI="InChI=1S/C7H6O4/c8-5-2-1-4(7(10)11)3-6(5)9/h1-3,8-9H,(H,10,11)"
SMILES=O=C(O)c1ccc(O)c(O)c1
SPECTRUMID=CCMSLIB00010113863
56.999489 18275.0 
58.839451 22740.0 
66.775032 17945.0 
67.160957 18995.0 
80.198639 20899.0 
81.034447 42384.0 
91.018883 40580.0 
108.021851 176313.0 
109.029587 17196270.0 
153.01944 5257483.0 
END IONS

BEGIN IONS
NAME=N-(2-fluorophenyl)-2-[2-oxo-4-(pyrrolidinylcarbonyl)hydroquinolyl]acetamide CollisionEnergy:102040 M+H
PRECURSOR_MZ=394.156
INCHI="InChI=1S/C22H20FN3O3/c23-17-8-2-3-9-18(17)24-20(27)14-26-19-10-4-1-7-15(19)16(13-21(26)28)22(29)25-11-5-6-12-25/h1-4,7-10,13H,5-6,11-12,14H2,(H,24,27)"
SMILES=O=C(c1cc(=O)n(CC(O)=Nc2ccccc2F)c2ccccc12)N1CCCC1
SPECTRUMID=CCMSLIB00010113241
50.461189 2444.0 
63.936378 2729.0 
70.065353 14938.0 
73.94384 3679.0 
75.887154 3042.0 
82.065201 17319.0 
84.075882 3831.0 
84.081001 79761.0 
92.36515 3291.0 
96.044312 6593.0 
98.059959 53640.0 
99.286743 2818.0 
118.63665 3033.0 
158.060379 25560.0 
160.075424 15371.0 
169.075424 4591.0 
186.054794 92700.0 
188.070175 16327.0 
211.122116 20896.0 
213.065384 16873.0 
227.117294 21125.0 
243.084488 4926.0 
243.112518 163059.0 
255.112473 1112311.0 
283.107391 3027337.0 
284.343781 3780.0 
296.138367 28777.0 
394.168823 3396.0 
END IONS

BEGIN IONS
NAME=Genistin CollisionEnergy:205060 M+H
PRECURSOR_MZ=433.113
INCHI="InChI=1S/C21H20O10/c22-7-15-18(26)19(27)20(28)21(31-15)30-11-5-13(24)16-14(6-11)29-8-12(17(16)25)9-1-3-10(23)4-2-9/h1-6,8,15,18-24,26-28H,7H2/t15-,18-,19+,20-,21-/m1/s1"
SMILES=O=c1c(-c2ccc(O)cc2)coc2cc(OC3OC(CO)C(O)C(O)C3O)cc(O)c12
SPECTRUMID=CCMSLIB00010124701
60.18087 3300.0 
65.039062 3989.0 
67.018204 18984.0 
68.997482 40367.0 
69.03363 6439.0 
76.573631 3373.0 
85.028358 4167.0 
88.785881 2992.0 
91.048218 3646.0 
91.054382 107748.0 
92.379463 3481.0 
95.01281 4160.0 
103.054047 4125.0 
107.049431 5192.0 
109.028122 4823.0 
111.007492 26731.0 
115.053886 3994.0 
117.069206 4674.0 
119.049156 66322.0 
121.028381 28234.0 
131.049149 22154.0 
131.085571 4618.0 
133.028183 16756.0 
133.064911 5595.0 
135.04425 4759.0 
137.023087 13641.0 
141.069931 35005.0 
145.028351 133995.0 
145.064682 22151.0 
145.688248 3333.0 
147.043854 16684.0 
147.079926 13244.0 
149.023285 238285.0 
150.03064 4627.0 
150.733948 3590.0 
153.018158 627564.0 
159.044067 79245.0 
159.080078 19684.0 
165.017975 50469.0 
169.064499 72997.0 
171.028717 3625.0 
173.058945 24501.0 
175.075485 17120.0 
177.054276 4104.0 
183.027786 13903.0 
183.044434 11479.0 
185.059189 13558.0 
187.038483 22878.0 
187.075302 40036.0 
191.034302 3930.0 
197.059647 99549.0 
200.046783 5155.0 
201.054703 16836.0 
203.069672 4535.0 
211.037796 3860.0 
213.055389 4656.0 
215.070053 547990.0 
225.05365 39698.0 
227.069107 7733.0 
228.041656 3785.0 
229.049118 6413.0 
242.058273 4990.0 
243.064835 404545.0 
253.049179 183026.0 
269.90094 4362.0 
271.059814 6741579.0 
272.223297 5573.0 
433.111115 19549.0 
END IONS

BEGIN IONS
NAME=3-indol-3-yl-N-(3-methylphenyl)-2-(phenoxycarbonylamino)propanamide CollisionEnergy:205060 M+Na
PRECURSOR_MZ=436.163
INCHI="InChI=1S/C25H23N3O3/c1-17-8-7-9-19(14-17)27-24(29)23(28-25(30)31-20-10-3-2-4-11-20)15-18-16-26-22-13-6-5-12-21(18)22/h2-14,16,23,26H,15H2,1H3,(H,27,29)(H,28,30)"
SMILES=Cc1cccc(N=C(O)C(Cc2c[nH]c3ccccc23)N=C(O)Oc2ccccc2)c1
SPECTRUMID=CCMSLIB00010122820
90.374634 3034.0 
90.890518 2729.0 
92.372032 3277.0 
118.065071 23498.0 
130.064957 18984.0 
135.216339 2883.0 
152.240219 2804.0 
185.07132 9312.0 
186.090988 15329.0 
188.751358 2821.0 
196.433746 3349.0 
208.702164 8712.0 
213.937515 3127.0 
251.002762 57242.0 
301.094269 4853.0 
311.595673 3010.0 
342.072693 7008.0 
342.120331 272681.0 
436.161957 3826334.0 
END IONS

BEGIN IONS
NAME=Brassinolide CollisionEnergy:205060 2M+Na
PRECURSOR_MZ=983.679
INCHI="InChI=1S/C28H48O6/c1-14(2)15(3)24(31)25(32)16(4)18-7-8-19-17-13-34-26(33)21-11-22(29)23(30)12-28(21,6)20(17)9-10-27(18,19)5/h14-25,29-32H,7-13H2,1-6H3/t15-,16-,17-,18+,19-,20-,21+,22-,23+,24+,25+,27+,28+/m0/s1"
SMILES=C[C@@H]([C@H]1CC[C@@H]2[C@@]1(CC[C@H]3[C@H]2COC(=O)[C@@H]4[C@@]3(C[C@H]([C@H](C4)O)O)C)C)[C@H]([C@@H]([C@@H](C)C(C)C)O)O
SPECTRUMID=CCMSLIB00010102387
86.278656 7437.320312 
118.7202 7960.489746 
136.291153 6867.50293 
162.98645 7476.373535 
503.325684 5507097.0 
504.329071 234695.015625 
504.397278 5818.673828 
504.414154 11119.546875 
521.334839 198091.46875 
544.350769 262275.21875 
545.354004 15165.894531 
664.777405 7148.713867 
END IONS

BEGIN IONS
NAME="(2E)-3-(4,7-dimethoxy(2H-benzo[d]1,3-dioxolen-5-yl))-1-(3-methoxyphenyl)prop-2 -en-1-one CollisionEnergy:102040" M+H
PRECURSOR_MZ=343.118
INCHI="InChI=1S/C19H18O6/c1-21-14-6-4-5-12(9-14)15(20)8-7-13-10-16(22-2)18-19(17(13)23-3)25-11-24-18/h4-10H,11H2,1-3H3/b8-7+"
SMILES=COc1cccc(C(=O)C=Cc2cc(OC)c3c(c2OC)OCO3)c1
SPECTRUMID=CCMSLIB00010104468
53.039249 112187.0 
53.666672 61632.0 
55.054691 94820.0 
63.023499 68184.0 
67.605827 67594.0 
68.026047 554693.0 
74.735321 68519.0 
77.039177 146326.0 
79.01828 444922.0 
79.054672 307575.0 
81.034119 80049.0 
82.386993 73221.0 
83.049782 113295.0 
89.039337 101463.0 
91.054688 122916.0 
92.025581 694779.0 
95.049454 356145.0 
96.020393 114246.0 
103.05423 2239673.0 
104.271637 91429.0 
105.070068 663149.0 
107.049019 643116.0 
109.064789 74391.0 
111.044327 87651.0 
118.041618 277616.0 
121.064857 7080616.0 
125.059837 5830517.0 
131.04924 2524774.0 
133.029037 99254.0 
133.064697 1437375.0 
135.044128 161106432.0 
146.03624 414110.0 
149.059799 4704636.0 
153.054916 426919.0 
157.953003 80005.0 
159.055283 136308.0 
161.059799 155098624.0 
163.074585 854446.0 
177.054749 436848.0 
181.048904 565832.0 
182.056824 141806.0 
183.064987 2759903.0 
190.02507 76564.0 
192.042175 146336.0 
195.065369 376911.0 
205.049759 163339.0 
209.044342 1467148.0 
210.838821 117583.0 
220.03653 1847567.0 
220.61525 89949.0 
235.059326 2183976.0 
255.063431 97872.0 
269.079132 105170.0 
270.087677 93146.0 
271.095673 125904.0 
300.097382 98215.0 
301.106659 15960661.0 
310.083252 112665.0 
312.097046 83646.0 
313.105255 123022.0 
325.104889 101343.0 
343.117188 34675176.0 
END IONS

BEGIN IONS
NAME=4-hydroxy-3-[(4-hydroxy-2-oxochromen-3-yl)(4-methylphenyl)methyl]chromen-2-one CollisionEnergy:102040 M-H
PRECURSOR_MZ=425.103
INCHI="InChI=1S/C26H18O6/c1-14-10-12-15(13-11-14)20(21-23(27)16-6-2-4-8-18(16)31-25(21)29)22-24(28)17-7-3-5-9-19(17)32-26(22)30/h2-13,20,27-28H,1H3"
SMILES=Cc1ccc(C(c2c(O)c3ccccc3oc2=O)c2c(O)c3ccccc3oc2=O)cc1
SPECTRUMID=CCMSLIB00010112304
66.751633 2623.0 
68.995888 3473.0 
86.668701 2532.0 
87.686119 2426.0 
90.022949 2232.0 
92.39238 2754.0 
94.672729 2398.0 
101.280403 2325.0 
102.918228 2722.0 
104.303551 2453.0 
112.42556 2887.0 
112.98555 4632.0 
117.034752 2460.0 
118.993103 2750.0 
119.056007 2452.0 
161.024567 258155.0 
182.222763 2335.0 
204.990417 3043.0 
208.802444 10203.0 
242.986557 10171.0 
267.019928 2488.0 
404.976562 59558.0 
424.980164 57521.0 
425.108154 2707.0 
END IONS

BEGIN IONS
NAME=Lobeline hydrochloride CollisionEnergy:102040 M+Na
PRECURSOR_MZ=360.193
INCHI="InChI=1S/C22H27NO2/c1-23-19(15-21(24)17-9-4-2-5-10-17)13-8-14-20(23)16-22(25)18-11-6-3-7-12-18/h2-7,9-12,19-21,24H,8,13-16H2,1H3/t19-,20?,21?/m0/s1"
SMILES=CN1C(CC(=O)c2ccccc2)CCCC1CC(O)c1ccccc1
SPECTRUMID=CCMSLIB00010104009
64.016273 3213.0 
65.379982 2608.0 
73.831367 2616.0 
84.060661 2274.0 
92.371613 3263.0 
92.879356 2549.0 
96.080673 42839.0 
98.096367 166162.0 
114.091217 9667.0 
118.644958 3008.0 
120.078308 13482.0 
143.046661 124638.0 
153.113785 2598.0 
215.182388 2282.0 
218.15358 305775.0 
228.021713 3130.0 
230.007629 2725.0 
240.135452 946479.0 
258.1474 4222.0 
281.162628 5408.0 
360.192688 999802.0 
END IONS

BEGIN IONS
NAME=Isorhamnetin CollisionEnergy:102040 M+H
PRECURSOR_MZ=317.066
INCHI="InChI=1S/C16H12O7/c1-22-11-4-7(2-3-9(11)18)16-15(21)14(20)13-10(19)5-8(17)6-12(13)23-16/h2-6,17-19,21H,1H3"
SMILES=COc1cc(-c2oc3cc(O)cc(O)c3c(=O)c2O)ccc1O
SPECTRUMID=CCMSLIB00010110001
92.02578 4947.0 
93.033607 13924.0 
95.709259 4010.0 
96.41349 4315.0 
102.166702 3340.0 
111.007874 19468.0 
121.028542 18954.0 
137.023132 5985.0 
139.039093 35526.0 
151.039169 51099.0 
153.018188 181896.0 
156.336319 4285.0 
163.03923 24035.0 
165.018784 59471.0 
177.054718 21970.0 
183.029541 16382.0 
201.054565 17701.0 
218.057571 3684.0 
228.042023 17099.0 
229.048996 78215.0 
233.043518 5825.0 
243.065262 15744.0 
245.044846 7345.0 
246.05101 40169.0 
257.044067 125971.0 
260.032349 5300.0 
261.075562 38099.0 
271.058105 36815.0 
273.038635 50658.0 
274.046875 262799.0 
284.031097 21027.0 
285.038971 264489.0 
286.044739 4834.0 
288.062256 20021.0 
289.070251 4750.0 
299.054382 12986.0 
300.063568 4687.0 
302.041687 1540427.0 
315.610138 20742.0 
317.065155 12879685.0 
318.529236 19450.0 
END IONS

BEGIN IONS
NAME="5,7-Dihydroxy-4'-methoxyflavanone CollisionEnergy:102040" M-H
PRECURSOR_MZ=285.077
INCHI="InChI=1S/C16H14O5/c1-20-11-4-2-9(3-5-11)14-8-13(19)16-12(18)6-10(17)7-15(16)21-14/h2-7,14,17-18H,8H2,1H3"
SMILES=COc1ccc(C2CC(=O)c3c(O)cc(O)cc3O2)cc1
SPECTRUMID=CCMSLIB00010105694
50.13406 6131.0 
51.669788 6352.0 
53.560928 6021.0 
55.585911 6375.0 
57.72208 7080.0 
59.0135 7263.0 
59.979069 6691.0 
62.921429 7294.0 
63.023602 100701.0 
65.002876 149987.0 
83.013603 278383.0 
107.01384 409009.0 
108.021667 47858.0 
118.654739 8300.0 
119.049896 9508.0 
123.008774 37267.0 
125.024391 47480.0 
127.994164 7854.0 
133.029892 12145.0 
136.016632 213689.0 
148.957565 17201.0 
151.003601 882857.0 
164.011627 1972723.0 
165.019379 9950.0 
169.014679 26692.0 
175.076324 311380.0 
177.020004 80903.0 
186.032135 16993.0 
187.039291 17368.0 
196.00145 1824396.0 
197.061218 10544.0 
198.068466 46692.0 
199.076096 121671.0 
200.047577 29857.0 
201.055557 136944.0 
202.06369 36653.0 
207.948166 21236.0 
215.072327 54855.0 
217.087387 169985.0 
225.055023 15711.0 
226.063904 104215.0 
228.042786 69225.0 
241.087387 195539.0 
242.058655 10079.0 
243.06633 1177969.0 
257.079926 51899.0 
269.04599 18323.0 
270.053467 897034.0 
283.821259 21024.0 
285.076996 34043432.0 
286.342438 30966.0 
303.429321 16334.0 
END IONS

BEGIN IONS
NAME=MLS000877024 CollisionEnergy:102040 M-H
PRECURSOR_MZ=287.056
INCHI="InChI=1S/C15H12O6/c16-8-4-11(19)15-12(20)6-13(21-14(15)5-8)7-1-2-9(17)10(18)3-7/h1-5,13,16-19H,6H2"
SMILES=O=C1CC(c2ccc(O)c(O)c2)Oc2cc(O)cc(O)c21
SPECTRUMID=CCMSLIB00010109093
58.797081 2606.0 
63.023479 12104.0 
65.002792 50686.0 
65.08802 2967.0 
73.947937 2967.0 
83.013718 33254.0 
104.386688 2825.0 
107.013901 165386.0 
107.424583 2987.0 
109.029427 26647.0 
116.281067 2390.0 
118.646873 3924.0 
125.024437 101483.0 
135.045303 1299143.0 
151.003784 2738382.0 
161.024841 15147.0 
165.019424 5187.0 
169.014542 37156.0 
177.019073 10837.0 
212.214569 3117.0 
225.055847 4061.0 
258.918152 4280.0 
268.902802 18912.0 
269.04483 26377.0 
287.056122 948559.0 
END IONS

BEGIN IONS
NAME=Na-Benzenolarginine ethylester CollisionEnergy:102040 M+formate
PRECURSOR_MZ=351.167
INCHI="InChI=1S/C15H22N4O3/c1-2-22-14(21)12(9-6-10-18-15(16)17)19-13(20)11-7-4-3-5-8-11/h3-5,7-8,12H,2,6,9-10H2,1H3,(H,19,20)(H4,16,17,18)"
SMILES=CCOC(=O)C(CCCNC(=N)N)N=C(O)c1ccccc1
SPECTRUMID=CCMSLIB00010104319
67.779709 2766.0 
92.383667 2957.0 
118.659798 3127.0 
120.045174 5225.0 
126.083099 2794.0 
136.21521 3396.0 
146.939499 2345.0 
209.941925 3090.0 
217.098007 797144.0 
259.119843 143519.0 
259.142761 3263.0 
305.161682 168733.0 
341.871674 2631.0 
END IONS

BEGIN IONS
NAME=INDOLE-3-CARBOXALDEHYDE CollisionEnergy:102040 M-H
PRECURSOR_MZ=144.045
INCHI="InChI=1S/C9H7NO/c11-6-7-5-10-9-4-2-1-3-8(7)9/h1-6,10H"
SMILES=O=Cc1c[nH]c2ccccc12
SPECTRUMID=CCMSLIB00010107476
56.10759 2082.0 
66.737862 2528.0 
69.211113 2130.0 
77.251556 1847.0 
78.084709 1959.0 
86.836342 2385.0 
108.378563 1985.0 
113.008957 1779.0 
132.222809 1967.0 
144.045517 328648.0 
END IONS

BEGIN IONS
NAME="3-(3,4-dimethoxyphenyl)-11-(3-bromo-4-hydroxy-5-methoxyphenyl)-2,3,4-trihydro- 5H,10H,11H-benzo[b]benzo[2,1-f]1,4-diazepin-1-one CollisionEnergy:205060" M-H
PRECURSOR_MZ=549.103
INCHI="InChI=1S/C28H27BrN2O5/c1-34-23-9-8-15(13-24(23)35-2)16-11-21-26(22(32)12-16)27(31-20-7-5-4-6-19(20)30-21)17-10-18(29)28(33)25(14-17)36-3/h4-10,13-14,16,27,30-31,33H,11-12H2,1-3H3"
SMILES=COc1ccc(C2CC(=O)C3=C(C2)Nc2ccccc2NC3c2cc(Br)c(O)c(OC)c2)cc1OC
SPECTRUMID=CCMSLIB00010123788
57.525261 2827.0 
64.969139 2935.0 
73.963638 2971.0 
78.918663 290303.0 
80.916733 5516.0 
88.579033 2580.0 
104.300087 2711.0 
113.010536 2372.0 
131.061768 19550.0 
157.990646 3819.0 
185.932007 3975.0 
186.941193 3447.0 
211.948074 17923.0 
226.970642 3121.0 
321.677856 3106.0 
379.633423 2666.0 
514.093811 2682.0 
531.092773 14431.0 
549.104065 138816.0 
END IONS

BEGIN IONS
NAME="3-methyl-2-[(3,4,5-trimethoxyphenyl)carbonylamino]butanoic acid CollisionEnergy:102040" M+Na
PRECURSOR_MZ=334.126
INCHI="InChI=1S/C15H21NO6/c1-8(2)12(15(18)19)16-14(17)9-6-10(20-3)13(22-5)11(7-9)21-4/h6-8,12H,1-5H3,(H,16,17)(H,18,19)"
SMILES=COc1cc(C(O)=NC(C(=O)O)C(C)C)cc(OC)c1OC
SPECTRUMID=CCMSLIB00010109486
51.3363 2673.0 
58.90871 2890.0 
82.389282 3468.0 
92.367706 3680.0 
100.62043 2154.0 
195.065292 9919.0 
235.057587 58663.0 
253.763718 2556.0 
316.116455 3689.0 
319.101105 3673.0 
334.125519 2362305.0 
335.708344 4180.0 
352.135132 4370.0 
END IONS

BEGIN IONS
NAME=8-[(2-fluorophenyl)methylthio]-9-(4-methylphenyl)hydropurin-6-one CollisionEnergy:102040 M+Na
PRECURSOR_MZ=389.084
INCHI="InChI=1S/C19H15FN4OS/c1-12-6-8-14(9-7-12)24-17-16(18(25)22-11-21-17)23-19(24)26-10-13-4-2-3-5-15(13)20/h2-9,11H,10H2,1H3,(H,21,22,25)"
SMILES=Cc1ccc(-n2c(SCc3ccccc3F)nc3c(O)ncnc32)cc1
SPECTRUMID=CCMSLIB00010108088
54.751251 2434.0 
59.56015 2435.0 
59.988781 2536.0 
71.93248 2709.0 
72.686707 2999.0 
73.94986 3023.0 
74.201958 2773.0 
79.144058 2455.0 
97.421463 2596.0 
104.279579 3800.0 
125.140793 2801.0 
223.564194 2700.0 
279.03067 104612.0 
280.038483 163934.0 
280.858185 2580.0 
375.826141 2352.0 
389.083527 2500663.0 
END IONS

BEGIN IONS
NAME="2-[6-(4-chloro-3,5-dimethylphenoxy)-4-methylpyrimidin-2-ylthio]-1-phenylethan- 1-one CollisionEnergy:205060" M+H
PRECURSOR_MZ=399.093
INCHI="InChI=1S/C21H19ClN2O2S/c1-13-9-17(10-14(2)20(13)22)26-19-11-15(3)23-21(24-19)27-12-18(25)16-7-5-4-6-8-16/h4-11H,12H2,1-3H3"
SMILES=Cc1cc(Oc2cc(C)c(Cl)c(C)c2)nc(SCC(=O)c2ccccc2)n1
SPECTRUMID=CCMSLIB00010115222
50.01561 16183.0 
51.02343 38346.0 
53.03907 246473.0 
54.667488 2763.0 
55.01825 14346.0 
60.534111 3261.0 
65.039124 22371.0 
66.737419 3952.0 
67.018097 29957.0 
73.036079 2648.0 
73.950562 3398.0 
76.752502 2653.0 
77.038757 28498.0 
79.054153 5423.0 
81.033699 36229.0 
82.39389 4450.0 
84.044571 75497.0 
91.054337 600142.0 
91.77195 2943.0 
95.049217 141253.0 
103.054176 51422.0 
104.062241 6467.0 
105.03347 2800101.0 
105.069389 36844.0 
109.03936 25427.0 
118.065514 3145.0 
119.048973 37966.0 
121.06459 15444.0 
123.026169 4195.0 
124.062927 11533.0 
125.016907 17244.0 
127.032158 3878.0 
128.309708 3547.0 
133.07637 3345.0 
135.026047 46732.0 
136.200348 3570.0 
139.030762 39977.0 
141.046509 57460.0 
144.080627 5436.0 
147.026932 11620.0 
151.021118 11674.0 
153.046646 16181.0 
154.019547 7050.0 
155.026627 12676.0 
156.033829 30270.0 
157.041061 12937.0 
160.021637 6322.0 
162.036972 6473.0 
166.041626 30375.0 
167.037445 5223.0 
169.041443 36978.0 
174.037247 42946.0 
175.021683 3553.0 
180.057236 14320.0 
185.390778 3481.0 
186.0914 6400.0 
188.051941 15171.0 
197.005783 67097.0 
198.013657 6514.0 
200.680145 3028.0 
201.04686 3604.0 
206.036743 4510.0 
207.031906 42225.0 
210.014923 4601.0 
211.021484 4695.0 
211.086456 11511.0 
213.101913 7335.0 
216.048477 7129.0 
225.046402 3610.0 
225.102692 33549.0 
226.110107 89518.0 
233.048325 3880.0 
237.023865 12084.0 
242.072815 4520.0 
243.05925 15802.0 
247.062988 71430.0 
249.078461 6663.0 
251.039734 20143.0 
252.047043 5752.0 
259.090576 5551.0 
260.07077 21130.0 
261.079071 42498.0 
265.072296 4364.0 
279.034973 84195.0 
279.091797 3816.0 
279.786896 3814.0 
281.05072 12773.0 
289.072937 17648.0 
293.050446 56256.0 
294.057068 3666.0 
298.045929 22062.0 
301.126251 3547.0 
315.07016 24369.0 
337.111267 6107.0 
365.106659 3367.0 
381.08197 36679.0 
396.398651 3516.0 
399.092224 2218611.0 
END IONS

BEGIN IONS
NAME=1-ethyl-4-(4-methylpiperidyl)-3-nitrohydroquinolin-2-one CollisionEnergy:205060 M+Na
PRECURSOR_MZ=338.147
INCHI="InChI=1S/C17H21N3O3/c1-3-19-14-7-5-4-6-13(14)15(16(17(19)21)20(22)23)18-10-8-12(2)9-11-18/h4-7,12H,3,8-11H2,1-2H3"
SMILES=CCn1c(=O)c([N+](=O)[O-])c(N2CCC(C)CC2)c2ccccc21
SPECTRUMID=CCMSLIB00010118232
55.170471 2534.0 
60.992981 2250.0 
69.688469 2565.0 
80.549538 2262.0 
82.415947 2469.0 
104.305023 2962.0 
116.134811 2489.0 
118.679047 2688.0 
165.054886 10728.0 
185.677078 2624.0 
212.489899 2888.0 
225.06395 8954.0 
226.07045 2794.0 
241.058121 165131.0 
249.085495 5449.0 
252.113388 4299.0 
272.793427 2589.0 
276.106323 3074.0 
282.083832 4911.0 
288.1091 3927.0 
298.156036 5327.0 
320.137482 24814.0 
338.146881 501499.0 
END IONS

BEGIN IONS
NAME="methyl 4-[(3,4,5-trimethoxyphenyl)carbonylamino]benzoate CollisionEnergy:205060" M+Na
PRECURSOR_MZ=368.11
INCHI="InChI=1S/C18H19NO6/c1-22-14-9-12(10-15(23-2)16(14)24-3)17(20)19-13-7-5-11(6-8-13)18(21)25-4/h5-10H,1-4H3,(H,19,20)"
SMILES=COC(=O)c1ccc(NC(=O)c2cc(OC)c(OC)c(OC)c2)cc1
SPECTRUMID=CCMSLIB00010118005
55.856041 2116.0 
60.537991 2197.0 
73.953392 2300.0 
77.183983 2207.0 
149.847855 2637.0 
151.741333 2074.0 
204.229874 2744.0 
368.108765 81820.0 
END IONS

BEGIN IONS
NAME=CHLOROGENIC ACID CollisionEnergy:102040 M-H
PRECURSOR_MZ=353.088
INCHI="InChI=1S/C16H18O9/c17-9-3-1-8(5-10(9)18)2-4-13(20)25-12-7-16(24,15(22)23)6-11(19)14(12)21/h1-5,11-12,14,17-19,21,24H,6-7H2,(H,22,23)/b4-2+/t11-,12-,14-,16+/m1/s1"
SMILES=O=C(/C=C/c1ccc(O)c(O)c1)O[C@@H]1C[C@](O)(C(=O)O)C[C@@H](O)[C@H]1O
SPECTRUMID=CCMSLIB00010102476
62.2714 2324.379883 
69.641602 2775.870117 
73.959801 2158.219971 
82.406097 2522.280029 
85.029602 2752.02002 
92.386299 2508.27002 
104.296997 2847.840088 
121.456001 2240.570068 
127.040001 2971.860107 
135.044998 3720.939941 
149.494995 2486.969971 
161.024002 12042.799805 
168.957993 3053.879883 
173.044006 3558.110107 
179.035004 10892.400391 
191.056 799205.0 
208.496994 3160.780029 
208.516998 12810.799805 
353.087006 53876.0 
END IONS

BEGIN IONS
NAME=Monoolein CollisionEnergy:102040 M+H-H2O
PRECURSOR_MZ=339.289
INCHI="InChI=1S/C21H40O4/c1-2-3-4-5-6-7-8-9-10-11-12-13-14-15-16-17-21(24)25-19-20(23)18-22/h9-10,20,22-23H,2-8,11-19H2,1H3/b10-9-"
SMILES=CCCCCCCCC=CCCCCCCCC(=O)OCC(O)CO
SPECTRUMID=CCMSLIB00010113533
53.039268 12466.0 
55.052189 16380.0 
55.054951 298893.0 
57.034168 284600.0 
57.070591 288970.0 
67.054909 354325.0 
69.070518 816188.0 
71.049683 34834.0 
71.086197 222679.0 
72.894371 9465.0 
73.955299 9894.0 
79.054871 111093.0 
81.07048 540738.0 
83.049606 16469.0 
83.086113 619837.0 
85.065193 36014.0 
85.101837 114919.0 
93.070374 191540.0 
95.085999 622876.0 
97.065193 98242.0 
97.101593 481546.0 
99.080627 18054.0 
107.085823 154405.0 
109.092987 11413.0 
109.10144 337029.0 
111.080963 99101.0 
111.117287 135430.0 
113.096764 12327.0 
115.07576 12523.0 
119.085587 9185.0 
121.101357 354786.0 
121.111328 11362.0 
123.117157 133285.0 
125.095947 47978.0 
125.133018 16938.0 
127.282173 9492.0 
129.091202 10661.0 
135.116867 297042.0 
137.132462 49590.0 
137.441147 8674.0 
139.111526 51219.0 
149.132294 155088.0 
151.147949 52580.0 
153.127228 49633.0 
163.147812 81297.0 
165.163498 43166.0 
167.143829 12056.0 
177.163742 46781.0 
191.179657 11699.0 
191.669205 9764.0 
247.24176 259659.0 
264.218536 10935.0 
265.252502 742723.0 
283.262756 11889.0 
316.044098 10514.0 
323.430267 10657.0 
337.677704 13026.0 
339.289093 6953165.0 
END IONS

BEGIN IONS
NAME="1,2,6,6,10,17,20-heptamethyl-12-oxo-17-(N-(2-pyridyl)carbamoyl)pentacyclo[12.8 .0.0<2,11>.0<5,10>.0<15,20>]docos-13-en-7-yl acetate CollisionEnergy:205060" 2M+H
PRECURSOR_MZ=1177.79
INCHI="InChI=1S/C37H52N2O4/c1-23(40)43-28-13-14-35(6)27(32(28,2)3)12-15-37(8)30(35)26(41)21-24-25-22-34(5,31(42)39-29-11-9-10-20-38-29)17-16-33(25,4)18-19-36(24,37)7/h9-11,20-21,25,27-28,30H,12-19,22H2,1-8H3,(H,38,39,42)"
SMILES=CC(=O)OC1CCC2(C)C(CCC3(C)C2C(=O)C=C2C4CC(C)(C(O)=Nc5ccccn5)CCC4(C)CCC23C)C1(C)C
SPECTRUMID=CCMSLIB00010115918
83.0494 93083.0 
83.085716 70102.0 
91.054337 169040.0 
93.070053 354971.0 
95.049248 93865.0 
95.060539 1738453.0 
95.085663 842965.0 
96.044533 358113.0 
97.064941 85053.0 
97.101173 40580.0 
105.045143 15768.0 
105.069878 440226.0 
107.049171 17659.0 
107.085571 572177.0 
109.065002 80607.0 
109.101196 365788.0 
111.080704 30452.0 
113.220413 7326.0 
117.07003 14100.0 
119.085587 862250.0 
121.039642 507285.0 
121.065269 52620.0 
121.101196 556339.0 
123.055634 17523.0 
123.080544 70968.0 
123.116768 184552.0 
125.096626 12913.0 
129.069656 10800.0 
131.085724 118748.0 
133.101212 621240.0 
135.08049 114213.0 
135.116776 530602.0 
137.096207 46180.0 
137.132324 52647.0 
139.111267 24049.0 
143.085175 64983.0 
144.093613 8819.0 
145.101105 200045.0 
147.080597 70318.0 
147.116821 428736.0 
149.096146 139233.0 
149.132462 136617.0 
151.111481 13796.0 
155.085922 9595.0 
157.101303 167320.0 
159.080154 14488.0 
159.116867 228583.0 
160.124771 13787.0 
161.096115 178348.0 
161.132477 304495.0 
163.112366 54574.0 
163.148254 66480.0 
165.128784 9472.0 
169.101395 36175.0 
171.116867 114424.0 
173.081482 7446.0 
173.096451 49638.0 
173.132477 376356.0 
175.111816 194651.0 
175.148056 663618.0 
177.127151 15951.0 
177.164001 178402.0 
183.116867 32033.0 
185.132584 96664.0 
187.112228 44274.0 
187.148132 180208.0 
189.12973 106389.0 
189.163712 1112110.0 
191.142685 18508.0 
191.17923 82270.0 
195.118622 10552.0 
197.13208 75927.0 
199.112961 8567.0 
199.148117 286821.0 
199.167511 14972.0 
201.128143 68544.0 
201.163681 91162.0 
203.143524 37637.0 
207.175598 29235.0 
209.13266 16311.0 
210.33049 8690.0 
211.149063 55108.0 
213.163605 72696.0 
215.142929 116095.0 
215.179916 44197.0 
217.134796 17183.0 
217.158646 389729.0 
217.194702 12337.0 
219.174606 11479.0 
223.149261 9449.0 
225.163681 35173.0 
227.141678 11190.0 
227.179733 46917.0 
229.159042 35814.0 
229.195114 28001.0 
231.174759 49429.0 
235.168716 58196.0 
237.163574 15224.0 
239.179688 31701.0 
241.1577 9989.0 
241.195023 45491.0 
243.174164 29630.0 
243.212112 29279.0 
245.190475 40678.0 
253.194839 111194.0 
255.17659 11560.0 
255.211212 13894.0 
257.190399 12972.0 
259.204437 9381.0 
265.195923 16899.0 
267.182526 8357.0 
267.21167 43144.0 
269.191681 8127.0 
271.20517 172770.0 
277.177795 75454.0 
279.211517 10765.0 
283.207367 27844.0 
285.221436 18000.0 
295.21228 12754.0 
309.258209 10064.0 
311.210419 134005.0 
333.256104 9380.0 
339.206085 18072.0 
345.243378 8854.0 
389.321381 45198.0 
407.328857 53384.0 
449.340515 60874.0 
467.351074 124218.0 
529.379639 32116.0 
571.391174 68850.0 
589.399963 10808028.0 
590.40387 31905.0 
794.524475 8806.0 
END IONS

BEGIN IONS
NAME="N-[3-(4-methyl(1,2,4-triazol-3-yl))phenyl](3,4,5-trimethoxyphenyl)carboxamide CollisionEnergy:205060" M+formate
PRECURSOR_MZ=413.147
INCHI="InChI=1S/C19H20N4O4/c1-23-11-20-22-18(23)12-6-5-7-14(8-12)21-19(24)13-9-15(25-2)17(27-4)16(10-13)26-3/h5-11H,1-4H3,(H,21,24)"
SMILES=COc1cc(C(O)=Nc2cccc(-c3nncn3C)c2)cc(OC)c1OC
SPECTRUMID=CCMSLIB00010115451
55.285519 2627.0 
56.598579 2093.0 
65.039459 2783.0 
71.228157 2784.0 
73.96994 3248.0 
80.537971 2344.0 
81.034416 15036.0 
82.417183 2729.0 
93.03418 3815.0 
95.013489 2796.0 
109.029556 16444.0 
120.008972 18330.0 
120.992958 5929.0 
123.008942 2904.0 
131.423264 2698.0 
135.032532 27575.0 
137.024582 80515.0 
153.019485 11813.0 
155.034958 4777.0 
163.368652 2792.0 
163.999512 11637.0 
185.047836 9716.0 
199.062729 4079.0 
249.078323 13866.0 
253.073868 5267.0 
265.072784 18324.0 
278.081085 3673.0 
282.075256 18052.0 
293.068329 53783.0 
306.076813 3791.0 
307.084503 4962.0 
309.100616 13151.0 
319.08429 28811.0 
321.063965 9644.0 
322.071228 81520.0 
323.114899 5947.0 
329.929169 2943.0 
336.085632 23031.0 
337.094727 281514.0 
351.11145 27577.0 
352.115479 17708.0 
367.14151 571037.0 
END IONS

BEGIN IONS
NAME="N-(2-methyl-3-oxo(2H,4H-benzo[3,4-e]1,4-oxazin-6-yl))(3,4,5-trimethoxyphenyl)c arboxamide CollisionEnergy:205060" 2M+H
PRECURSOR_MZ=745.272
INCHI="InChI=1S/C19H20N2O6/c1-10-18(22)21-13-9-12(5-6-14(13)27-10)20-19(23)11-7-15(24-2)17(26-4)16(8-11)25-3/h5-10H,1-4H3,(H,20,23)(H,21,22)"
SMILES=COc1cc(C(O)=Nc2ccc3c(c2)N=C(O)C(C)O3)cc(OC)c1OC
SPECTRUMID=CCMSLIB00010119469
53.039021 19195.0 
53.933998 3259.0 
55.018429 12493.0 
60.404099 3609.0 
63.603539 3730.0 
64.977654 6872.0 
65.038887 18092.0 
66.047028 5675.0 
79.054459 50980.0 
81.03376 26520.0 
81.070053 35256.0 
91.054398 7684.0 
93.033707 6614.0 
94.041283 4621.0 
95.049072 7408.0 
96.056824 21063.0 
96.763092 3421.0 
107.049637 3797.0 
108.056938 5349.0 
109.028183 6163.0 
109.064667 57991.0 
111.043709 6991.0 
111.080048 8898.0 
113.023178 7058.0 
113.059669 6076.0 
121.028687 5228.0 
122.036636 29246.0 
122.059967 4470.0 
123.04435 5453.0 
123.054993 15386.0 
124.051773 53094.0 
125.058838 5511.0 
128.046494 17219.0 
137.023041 15007.0 
137.059875 5037.0 
138.067429 70364.0 
139.038925 89690.0 
139.075104 109473.0 
141.018234 18134.0 
143.070312 6951.0 
149.070648 6780.0 
151.038574 5132.0 
152.046707 109962.0 
154.062256 710841.0 
156.04158 30607.0 
157.961853 3659.0 
169.085587 113953.0 
177.065643 111745.0 
178.021088 3504.0 
184.036591 13233.0 
185.080643 5648.0 
187.049469 7470.0 
195.064972 993769.0 
205.059586 29141.0 
329.411469 3421.0 
373.138611 1170380.0 
400.185699 3525.0 
426.283813 3594.0 
465.331848 3566.0 
469.893188 4446.0 
735.889893 3970.0 
END IONS

BEGIN IONS
NAME="1,3-dimethyl-8-morpholin-4-yl-7-(4-(2-piperidylidene)-4-azabutyl)-1,3,7-trihyd ropurine-2,6-dione CollisionEnergy:102040" M+H
PRECURSOR_MZ=404.24
INCHI="InChI=1S/C19H29N7O3/c1-23-16-15(17(27)24(2)19(23)28)26(18(22-16)25-10-12-29-13-11-25)9-5-8-21-14-6-3-4-7-20-14/h3-13H2,1-2H3,(H,20,21)"
SMILES=Cn1c(=O)c2c(nc(N3CCOCC3)n2CCCNC2=NCCCC2)n(C)c1=O
SPECTRUMID=CCMSLIB00010104965
58.065491 54022.0 
70.052979 38793.0 
70.056534 4796.0 
76.357094 4711.0 
82.065239 37904.0 
83.0606 8671.0 
84.080833 5879.0 
87.464844 4260.0 
87.522453 5481.0 
96.081093 5235.0 
97.07589 79078.0 
97.088448 27591.0 
97.433289 4271.0 
98.083763 1048468.0 
99.091583 576580.0 
99.345383 4715.0 
109.075943 132082.0 
110.976143 4852.0 
111.091469 314730.0 
111.100182 10584.0 
112.099327 908006.0 
115.086647 20933.0 
118.681847 5443.0 
123.104218 10321.0 
124.112106 8718.0 
125.107117 689414.0 
127.049782 88274.0 
130.073486 21547.0 
137.070709 454591.0 
137.107315 29941.0 
139.122757 4216065.0 
139.702698 4713.0 
140.130463 594279.0 
141.138443 34072.0 
144.08902 200578.0 
151.12149 6640.0 
155.081329 11582.0 
167.080261 17577.0 
172.120087 84933.0 
192.076553 8307.0 
192.112534 42461.0 
194.092041 562599.0 
217.109695 5908.0 
218.091064 6437.0 
221.100998 5691.0 
221.138931 20046.0 
234.098526 22629.0 
237.132965 7864.0 
248.149918 23554.0 
249.13324 131344.0 
262.129883 27962.0 
264.109314 61490.0 
265.116119 679536.0 
275.14743 20510.0 
278.124664 108751.0 
290.162109 10919.0 
306.155029 4456741.0 
316.174011 81713.0 
317.170288 125178.0 
347.217865 43500.0 
373.192444 10469.0 
402.143707 45843.0 
404.239441 34911292.0 
406.360504 47575.0 
END IONS

BEGIN IONS
NAME=(2E)-3-{N-[4-(ethoxycarbonyl)phenyl]carbamoyl}prop-2-enoic acid CollisionEnergy:205060 M+H-H2O
PRECURSOR_MZ=246.076
INCHI="InChI=1S/C13H13NO5/c1-2-19-13(18)9-3-5-10(6-4-9)14-11(15)7-8-12(16)17/h3-8H,2H2,1H3,(H,14,15)(H,16,17)/b8-7+"
SMILES=CCOC(=O)c1ccc(NC(=O)C=CC(=O)O)cc1
SPECTRUMID=CCMSLIB00010117866
50.41087 3489.0 
51.023491 3237.0 
53.002499 19419.0 
53.03904 15645.0 
55.018318 5425.0 
64.932129 2649.0 
65.038811 26184.0 
69.061172 2738.0 
71.013023 4344.0 
72.259377 2631.0 
77.03875 3430.0 
79.054207 6618.0 
80.013237 2835.0 
80.766052 2413.0 
82.00499 12217.0 
91.054161 38677.0 
92.049431 15125.0 
95.049316 26992.0 
101.580917 2460.0 
103.01757 18117.0 
103.054001 17010.0 
104.049294 55305.0 
105.044411 2751.0 
105.070213 5476.0 
106.065262 3073.0 
108.044029 13382.0 
111.043297 3308.0 
116.049103 23038.0 
117.057152 60388.0 
118.06485 146419.0 
119.072403 6900.0 
120.043663 25091.0 
120.079628 3379.0 
121.028023 6671.0 
123.976372 2926.0 
128.049225 494757.0 
129.069733 6458.0 
130.064911 82957.0 
131.048782 6382.0 
131.072571 6643.0 
131.084229 2965.0 
132.044144 613134.0 
132.080521 22906.0 
133.051956 5392.0 
134.059814 17239.0 
136.039139 18819.0 
137.047516 4694.0 
142.064758 3900.0 
144.044144 23223.0 
145.051758 85436.0 
146.059769 1893294.0 
148.039032 6770.0 
156.080582 45148.0 
158.059296 6624.0 
159.067825 43304.0 
160.039581 24643.0 
160.07547 63795.0 
162.054077 17076.0 
164.034103 28015.0 
164.070206 16723.0 
169.07547 5240.0 
172.038605 128533.0 
173.047379 5921.0 
174.054642 324943.0 
174.09082 92833.0 
176.016403 3534.0 
176.033905 111833.0 
184.074982 12863.0 
190.049393 168074.0 
192.064682 5108.0 
200.033096 86066.0 
202.08548 27295.0 
204.065247 10879.0 
218.044342 232555.0 
218.081665 5895.0 
246.075455 1927816.0 
END IONS

BEGIN IONS
NAME=3-(indan-5-yloxymethyl)-4-methoxybenzaldehyde CollisionEnergy:102040 M+H
PRECURSOR_MZ=283.133
INCHI="InChI=1S/C18H18O3/c1-20-18-8-5-13(11-19)9-16(18)12-21-17-7-6-14-3-2-4-15(14)10-17/h5-11H,2-4,12H2,1H3"
SMILES=COc1ccc(C=O)cc1COc1ccc2c(c1)CCC2
SPECTRUMID=CCMSLIB00010105336
52.999729 2498.0 
53.039089 4799.0 
53.57896 2522.0 
60.661499 2798.0 
65.039047 12835.0 
67.054604 13997.0 
77.038841 4178.0 
84.991829 3039.0 
91.054443 257788.0 
93.070084 271595.0 
94.25399 3159.0 
95.049301 5072.0 
104.283493 3407.0 
106.041138 15472.0 
107.049423 3101.0 
109.064842 17504.0 
118.654938 3336.0 
119.049301 137690.0 
119.059357 8908.0 
119.085487 15990.0 
121.064857 146081.0 
123.897797 2844.0 
124.051857 6099.0 
130.264893 2865.0 
133.064758 129906.0 
134.03595 20668.0 
134.067825 5467.0 
135.044067 4516.0 
137.05986 79449.0 
147.054535 38506.0 
147.080521 1462819.0 
148.366776 3003.0 
149.059753 5091802.0 
150.06337 20799.0 
151.075272 4653.0 
152.046402 29090.0 
157.972046 2885.0 
185.388855 2820.0 
190.083923 2910.0 
212.237122 3125.0 
230.034119 4409.0 
231.900162 4457.0 
259.89389 6372.0 
283.098022 9768.0 
283.132385 152075.0 
283.224609 12051.0 
END IONS

BEGIN IONS
NAME=pyrocatechol CollisionEnergy:205060 M-H
PRECURSOR_MZ=109.029
INCHI="InChI=1S/C6H6O2/c7-5-3-1-2-4-6(5)8/h1-4,7-8H"
SMILES=Oc1ccccc1O
SPECTRUMID=CCMSLIB00010125993
65.038971 2676.0 
73.94841 2621.0 
75.070953 1918.0 
81.034317 14813.0 
91.018738 16351.0 
99.21312 1986.0 
104.280243 2071.0 
108.021767 95075.0 
109.02961 588237.0 
109.935593 1814.0 
119.689598 2054.0 
124.829697 2125.0 
END IONS

BEGIN IONS
NAME=4-Benzyl-7-hydroxy-3-phenylcoumarin CollisionEnergy:102040 2M-H
PRECURSOR_MZ=655.213
INCHI="InChI=1S/C22H16O3/c23-17-11-12-18-19(13-15-7-3-1-4-8-15)21(16-9-5-2-6-10-16)22(24)25-20(18)14-17/h1-12,14,23H,13H2"
SMILES=O=c1oc2cc(O)ccc2c(Cc2ccccc2)c1-c1ccccc1
SPECTRUMID=CCMSLIB00010107182
58.555271 2683.0 
65.601357 2621.0 
82.40094 3592.0 
88.414787 3266.0 
92.379341 4585.0 
104.286888 3879.0 
111.358597 2996.0 
118.653503 3858.0 
154.811676 3031.0 
157.965744 3447.0 
209.059708 28446.0 
327.102386 714842.0 
570.747009 3189.0 
END IONS

BEGIN IONS
NAME=636-24-8 CollisionEnergy:102040 M+Na
PRECURSOR_MZ=614.33
INCHI="InChI=1S/C32H49NO9/c1-6-18(3)25(35)41-24-11-12-26(4)19-8-9-20-28(37)13-23(34)31(39)21(29(28,38)16-30(20,26)42-32(19,24)40)15-33-14-17(2)7-10-22(33)27(31,5)36/h6,17,19-24,34,36-40H,7-16H2,1-5H3/b18-6+/t17-,19-,20-,21-,22-,23-,24-,26-,27+,28+,29+,30+,31-,32-/m0/s1"
SMILES=CC=C(C)C(=O)OC1CCC2(C)C3CCC4C5(O)CC(O)C6(O)C(CN7CC(C)CCC7C6(C)O)C5(O)CC42OC13O
SPECTRUMID=CCMSLIB00010106000
58.610561 3145.0 
66.273689 3370.0 
71.91996 3633.0 
98.096321 21899.0 
103.973053 4189.0 
152.652206 3606.0 
154.122604 14489.0 
221.254822 4055.0 
371.14859 6247.0 
420.250854 5305.0 
438.262634 19358.0 
456.271759 41130.0 
463.209564 5032.0 
474.282471 76256.0 
478.253723 4554.0 
485.213196 6274.0 
492.297791 17685.0 
496.267242 23346.0 
514.276855 634834.0 
578.308655 13747.0 
596.31781 18791.0 
610.397644 4401.0 
614.329224 7678768.0 
618.302673 4966.0 
639.190796 4362.0 
END IONS

BEGIN IONS
NAME=2-methoxyethyl 1-(2-cyclohex-1-enylethyl)-5-hydroxy-2-methylbenzo[g]indole-3-c arboxylate CollisionEnergy:205060 M+Na
PRECURSOR_MZ=430.199
INCHI="InChI=1S/C25H29NO4/c1-17-23(25(28)30-15-14-29-2)21-16-22(27)19-10-6-7-11-20(19)24(21)26(17)13-12-18-8-4-3-5-9-18/h6-8,10-11,16,27H,3-5,9,12-15H2,1-2H3"
SMILES=COCCOC(=O)c1c(C)n(CCC2=CCCCC2)c2c1cc(O)c1ccccc12
SPECTRUMID=CCMSLIB00010120327
56.038719 2932.0 
81.319809 2942.0 
101.977097 3068.0 
149.289505 2909.0 
306.997833 2498.0 
340.38559 2587.0 
430.197632 1821337.0 
448.208313 14743.0 
END IONS

BEGIN IONS
NAME=ethyl 6-bromo-5-methoxy-1-phenyl-2-[(phenylmethylthio)methyl]indole-3-carboxyl ate CollisionEnergy:102040 M+H
PRECURSOR_MZ=510.073
INCHI="InChI=1S/C26H24BrNO3S/c1-3-31-26(29)25-20-14-24(30-2)21(27)15-22(20)28(19-12-8-5-9-13-19)23(25)17-32-16-18-10-6-4-7-11-18/h4-15H,3,16-17H2,1-2H3"
SMILES=CCOC(=O)c1c(CSCc2ccccc2)n(-c2ccccc2)c2cc(Br)c(OC)cc12
SPECTRUMID=CCMSLIB00010114594
83.016953 2859.0 
87.807793 2877.0 
91.054329 95349.0 
123.025368 15358.0 
130.054596 3471.0 
137.041412 4937.0 
207.854813 6809.0 
207.877426 6872.0 
213.186661 2936.0 
222.090607 4507.0 
228.556473 3089.0 
234.090073 15431.0 
235.096771 12122.0 
239.073837 3550.0 
250.124588 4119.0 
266.062469 7141.0 
267.070618 60819.0 
268.07782 28480.0 
278.078644 5205.0 
279.088684 43923.0 
280.090942 3822.0 
294.058044 53503.0 
294.111053 11858.0 
296.108582 38943.0 
303.209961 6577.0 
309.134094 11390.0 
311.06012 15534.0 
311.998962 3513.0 
312.068695 6540.0 
312.105194 6390.0 
313.007904 6961.0 
314.01593 5502.0 
315.024384 63567.0 
327.992798 5272.0 
328.032654 11796.0 
339.998779 8264.0 
340.099548 133563.0 
341.00415 69473.0 
342.0112 35502.0 
343.05603 11886.0 
343.990356 7201.0 
345.988922 130332.0 
346.998077 4224.0 
358.007477 61998.0 
358.126129 6545.0 
359.014343 51279.0 
359.131317 10315.0 
371.966248 29316.0 
372.02243 66889.0 
372.971039 56789.0 
375.025848 4216.0 
385.111847 3434.0 
386.03833 109840.0 
387.045532 688661.0 
388.049683 108149.0 
389.97467 2941.0 
396.15921 3531.0 
398.177826 5188.0 
399.183197 16776.0 
418.005951 6900.0 
419.013611 33693.0 
431.154327 564125.0 
437.044403 31118.0 
438.051208 5121.0 
464.024811 29708.0 
510.071594 1156435.0 
575.832275 3297.0 
635.181091 3120.0 
687.490417 3468.0 
END IONS

BEGIN IONS
NAME="(2E)-3-(3,4-dimethoxyphenyl)-1-[2-(2,4-dimethoxyphenyl)-6-hydroxy-3-azabicyclo [4.4.0]dec-3-yl]prop-2-en-1-one CollisionEnergy:102040" M+H
PRECURSOR_MZ=482.254
INCHI="InChI=1S/C28H35NO6/c1-32-20-10-11-21(24(18-20)34-3)27-22-7-5-6-14-28(22,31)15-16-29(27)26(30)13-9-19-8-12-23(33-2)25(17-19)35-4/h8-13,17-18,22,27,31H,5-7,14-16H2,1-4H3/b13-9+"
SMILES=COc1ccc(C2C3CCCCC3(O)CCN2C(=O)C=Cc2ccc(OC)c(OC)c2)c(OC)c1
SPECTRUMID=CCMSLIB00010111819
54.58839 2802.0 
96.587761 3265.0 
136.111618 5402.0 
148.051483 12673.0 
151.075378 24271.0 
153.06517 3237.0 
154.122498 97868.0 
160.052383 6046.0 
163.075455 76856.0 
176.046707 14066.0 
191.07019 3400636.0 
234.111435 25546.0 
274.179382 12149.0 
283.481537 3118.0 
292.191772 3248.0 
344.185089 990671.0 
383.513824 3582.0 
434.164154 2856.0 
464.24057 14667.0 
482.253265 145761.0 
482.33255 4860.0 
END IONS

BEGIN IONS
NAME="4-{[4-(2,3-dimethylphenyl)piperazinyl]methyl}-5,7-dimethylchromen-2-one CollisionEnergy:102040" M+Na
PRECURSOR_MZ=399.204
INCHI="InChI=1S/C24H28N2O2/c1-16-12-18(3)24-20(14-23(27)28-22(24)13-16)15-25-8-10-26(11-9-25)21-7-5-6-17(2)19(21)4/h5-7,12-14H,8-11,15H2,1-4H3"
SMILES=Cc1cc(C)c2c(CN3CCN(c4cccc(C)c4C)CC3)cc(=O)oc2c1
SPECTRUMID=CCMSLIB00010111468
56.743752 2213.0 
73.955063 2670.0 
75.253166 2609.0 
83.631729 2430.0 
111.565651 2594.0 
183.636368 2712.0 
187.07457 3344.0 
297.10791 2510.0 
399.203613 349543.0 
END IONS

BEGIN IONS
NAME=UNII-9K011NUF0R CollisionEnergy:102040 M+H
PRECURSOR_MZ=293.102
INCHI="InChI=1S/C15H16O6/c1-5(2)7-8-11(16)19-9(7)10-13(3)14(8,18)4-6-15(13,21-6)12(17)20-10/h6-10,18H,1,4H2,2-3H3/t6-,7+,8-,9-,10-,13-,14-,15+/m1/s1"
SMILES=C=C(C)C1C2OC(=O)C1C1(O)CC3OC34C(=O)OC2C14C
SPECTRUMID=CCMSLIB00010109268
55.018219 4407.0 
59.049568 3499.0 
67.054619 3910.0 
69.033867 3692.0 
81.070007 3117.0 
82.409286 2869.0 
84.959663 4379.0 
93.070053 4556.0 
95.04911 12031.0 
97.065041 4026.0 
105.069809 14373.0 
107.085571 9894.0 
109.064507 10175.0 
111.043747 9402.0 
113.059509 10082.0 
117.069443 9592.0 
119.085449 14068.0 
121.064598 10890.0 
121.10096 2577.0 
123.043907 13469.0 
123.080933 2363.0 
125.059219 4163.0 
128.905792 2453.0 
129.069946 5122.0 
131.085526 9701.0 
133.064819 5688.0 
133.100967 15748.0 
135.043823 3375.0 
135.079834 3468.0 
137.059464 30302.0 
137.347656 2682.0 
138.994461 2327.0 
139.039169 4197.0 
142.077652 9272.0 
143.085449 11225.0 
145.064484 11181.0 
145.100952 22875.0 
147.080429 20163.0 
147.116653 8826.0 
148.088654 4743.0 
149.096161 25033.0 
151.038773 5111.0 
153.054565 3936.0 
155.070099 12716.0 
155.084656 2598.0 
157.100845 50524.0 
158.073792 3470.0 
159.080582 20502.0 
159.11673 5184.0 
161.059525 10914.0 
161.095932 47093.0 
161.245728 2389.0 
163.07518 5449.0 
163.112732 2578.0 
165.09079 3479.0 
167.085907 3316.0 
169.102066 2324.0 
173.060852 3964.0 
173.095871 36262.0 
175.075089 9347.0 
175.111725 31489.0 
177.090057 4022.0 
183.080566 10131.0 
185.096039 48221.0 
187.075256 19433.0 
187.111145 2495.0 
191.106705 11697.0 
193.085571 4031.0 
201.090637 53042.0 
203.106506 47561.0 
205.085693 18234.0 
211.075745 5335.0 
213.0905 12556.0 
219.101166 50392.0 
229.085312 51503.0 
231.101349 25946.0 
233.080856 11323.0 
237.112732 3529.0 
247.095947 91431.0 
257.079865 22880.0 
258.02301 5342.0 
260.043884 2595.0 
265.107117 24114.0 
275.090546 50043.0 
293.101624 388586.0 
293.135132 43469.0 
END IONS

BEGIN IONS
NAME=4-{[2-(4-ethylphenoxy)ethyl]amino}-3-nitrochromen-2-one CollisionEnergy:102040 M+Na
PRECURSOR_MZ=377.111
INCHI="InChI=1S/C19H18N2O5/c1-2-13-7-9-14(10-8-13)25-12-11-20-17-15-5-3-4-6-16(15)26-19(22)18(17)21(23)24/h3-10,20H,2,11-12H2,1H3"
SMILES=CCc1ccc(OCCNc2c([N+](=O)[O-])c(=O)oc3ccccc23)cc1
SPECTRUMID=CCMSLIB00010108098
51.318359 2566.0 
61.832779 2676.0 
67.507111 3246.0 
68.800797 2640.0 
84.283386 2924.0 
84.769981 3097.0 
96.79879 3120.0 
118.215431 2482.0 
134.411057 2541.0 
162.319687 3059.0 
163.316681 2906.0 
163.331909 2915.0 
208.023849 4047.0 
213.026642 40390.0 
237.027542 5424.0 
238.034424 27809.0 
309.227692 2711.0 
377.109802 3307888.0 
395.12326 5479.0 
END IONS

BEGIN IONS
NAME=2-(6-aminopurin-8-ylthio)-N-(4-methoxyphenyl)acetamide CollisionEnergy:205060 M+Na
PRECURSOR_MZ=353.079
INCHI="InChI=1S/C14H14N6O2S/c1-22-9-4-2-8(3-5-9)18-10(21)6-23-14-19-11-12(15)16-7-17-13(11)20-14/h2-5,7H,6H2,1H3,(H,18,21)(H3,15,16,17,19,20)"
SMILES=COc1ccc(NC(=O)CSc2nc3c(N)ncnc3[nH]2)cc1
SPECTRUMID=CCMSLIB00010117424
62.06456 2327.0 
62.79493 2398.0 
66.181053 2522.0 
71.537842 2420.0 
73.960762 2977.0 
82.404472 2386.0 
92.388206 2303.0 
230.010437 14935.0 
231.341629 2284.0 
281.04483 2348.0 
291.710999 2634.0 
322.654297 2620.0 
353.078308 755394.0 
END IONS

BEGIN IONS
NAME=ABSCISIC ACID CollisionEnergy:102040 M-H
PRECURSOR_MZ=263.129
INCHI="InChI=1S/C15H20O4/c1-10(7-13(17)18)5-6-15(19)11(2)8-12(16)9-14(15,3)4/h5-8,19H,9H2,1-4H3,(H,17,18)/b6-5+,10-7-"
SMILES=CC(C=CC1(O)C(C)=CC(=O)CC1(C)C)=CC(=O)O
SPECTRUMID=CCMSLIB00010108261
51.547649 2436.0 
57.034 2974.0 
63.853539 2687.0 
66.756447 2503.0 
71.013382 10170.0 
83.049599 3696.0 
90.73671 2186.0 
92.39637 3101.0 
95.049606 3390.0 
97.02935 14904.0 
104.296898 2484.0 
104.309303 2797.0 
107.050667 2623.0 
108.057732 10200.0 
109.029167 11516.0 
109.065727 2719.0 
111.044968 17801.0 
113.060837 10773.0 
113.292976 2195.0 
115.500893 2349.0 
121.066017 2615.0 
123.081543 11166.0 
125.060768 16813.0 
135.081131 3294.0 
136.053085 19144.0 
137.060516 2845.0 
138.068924 11896.0 
139.03949 2294.0 
139.076584 61526.0 
149.06073 3141.0 
151.076447 125544.0 
152.047623 12228.0 
152.084396 108484.0 
153.092072 24847.0 
159.11734 2248.0 
161.09729 11042.0 
163.076492 19057.0 
166.522018 2543.0 
167.070602 3220.0 
201.128677 77072.0 
203.107635 13069.0 
204.11554 138267.0 
216.922546 2600.0 
219.104187 18802.0 
219.139038 262157.0 
228.481613 2645.0 
245.118332 2537.0 
263.095459 7564.0 
263.128784 222083.0 
END IONS

BEGIN IONS
NAME=(2-methoxyphenyl)-N-{2-[2-methyl-5-(phenylmethoxy)indol-3-yl]ethyl}carboxamide CollisionEnergy:102040 M+H
PRECURSOR_MZ=415.202
INCHI="InChI=1S/C26H26N2O3/c1-18-21(14-15-27-26(29)22-10-6-7-11-25(22)30-2)23-16-20(12-13-24(23)28-18)31-17-19-8-4-3-5-9-19/h3-13,16,28H,14-15,17H2,1-2H3,(H,27,29)"
SMILES=COc1ccccc1C(O)=NCCc1c(C)[nH]c2ccc(OCc3ccccc3)cc12
SPECTRUMID=CCMSLIB00010106476
53.039108 6533.0 
58.258308 3457.0 
60.12101 3550.0 
77.038643 5944.0 
79.054192 20566.0 
86.262573 3467.0 
91.054222 795772.0 
92.026031 9125.0 
92.384132 4756.0 
95.049187 6523.0 
103.054153 8198.0 
107.048576 5854.0 
111.701553 4967.0 
115.053673 7446.0 
117.069641 344699.0 
119.085297 116591.0 
122.059914 8675.0 
134.059204 19477.0 
135.043793 3561339.0 
136.04747 4850.0 
141.014359 25885.0 
144.080795 8089.0 
145.088547 48607.0 
146.059555 6341.0 
148.075699 27960.0 
152.070343 193018.0 
160.075287 253892.0 
162.091644 5831.0 
172.075241 88289.0 
173.083145 1045223.0 
174.07373 5934.0 
174.090942 233639.0 
178.085831 445219.0 
186.090897 175308.0 
217.096848 61280.0 
225.090759 43846.0 
236.142731 126466.0 
238.121719 20304.0 
240.062729 4090.0 
249.113632 43578.0 
252.136185 6440.0 
258.967987 3881.0 
263.128235 8028.0 
264.137543 6858347.0 
323.137512 53345.0 
324.143768 13877.0 
337.15448 9283.0 
397.096252 34582.0 
397.187927 32780.0 
398.1745 67525.0 
415.200287 3554978.0 
END IONS

BEGIN IONS
NAME=N-Acetyl-D-tryptophan CollisionEnergy:102040 M-H
PRECURSOR_MZ=245.093
INCHI="InChI=1S/C13H14N2O3/c1-8(16)15-12(13(17)18)6-9-7-14-11-5-3-2-4-10(9)11/h2-5,7,12,14H,6H2,1H3,(H,15,16)(H,17,18)/t12-/m1/s1"
SMILES=CC(O)=N[C@H](Cc1c[nH]c2ccccc12)C(=O)O
SPECTRUMID=CCMSLIB00010126429
51.140598 414130.0 
58.0294 3186500.0 
65.742699 394404.0 
67.439796 387158.0 
69.057098 413780.0 
70.0261 481222.0 
70.029701 7712440.0 
74.024597 26381300.0 
82.421799 679107.0 
87.788101 387119.0 
98.024902 4529910.0 
101.972 423786.0 
104.315002 422502.0 
116.036003 18246700.0 
116.050003 5176350.0 
142.067001 655251.0 
159.093002 754942.0 
172.615997 422154.0 
183.093002 426328.0 
201.104996 4572090.0 
203.082993 49040800.0 
209.337997 425214.0 
211.261993 610238.0 
211.281006 926457.0 
245.093994 51925500.0 
END IONS

BEGIN IONS
NAME=1- amino cyclopropane carboxylic acid CollisionEnergy:102040 M+H
PRECURSOR_MZ=102.055
INCHI="InChI=1S/C4H7NO2/c5-4(1-2-4)3(6)7/h1-2,5H2,(H,6,7)"
SMILES=C1CC1(C(=O)O)N
SPECTRUMID=CCMSLIB00010102421
56.04969 795416.5625 
57.744907 5476.830078 
67.520386 5803.060547 
72.080849 13548.714844 
74.059952 15280.196289 
74.096436 5622.147949 
82.436172 6197.995117 
89.889267 4858.73584 
90.094543 4565.215332 
91.66935 5247.480469 
92.704041 5500.414062 
102.054787 16047.677734 
102.091286 39229.75 
102.127411 12040.320312 
113.362946 5551.369141 
119.270981 5813.690918 
END IONS

BEGIN IONS
NAME=phenylacetic acid CollisionEnergy:205060 M-H
PRECURSOR_MZ=135.045
INCHI="InChI=1S/C8H8O2/c9-8(10)6-7-4-2-1-3-5-7/h1-5H,6H2,(H,9,10)"
SMILES=C1=CC=C(C=C1)CC(=O)O
SPECTRUMID=CCMSLIB00010102002
51.065777 3054.666504 
58.277683 3176.059326 
65.407013 3118.521484 
74.004425 3260.735107 
75.00827 13084.040039 
92.438042 3781.024414 
99.925743 34012.726562 
112.023636 2990.66748 
115.709053 3363.214111 
134.865311 687454.4375 
134.894577 512440.625 
135.029312 6529.928223 
135.044861 5377.26416 
135.89444 19158.056641 
135.970917 5805.491699 
211.188309 4041.056152 
END IONS

BEGIN IONS
NAME=6-chloro-1-ethyl-3-(2-quinolyl)hydroquinolin-2-one CollisionEnergy:102040 M+Na
PRECURSOR_MZ=357.076
INCHI="InChI=1S/C20H15ClN2O/c1-2-23-19-10-8-15(21)11-14(19)12-16(20(23)24)18-9-7-13-5-3-4-6-17(13)22-18/h3-12H,2H2,1H3"
SMILES=CCn1c(=O)c(-c2ccc3ccccc3n2)cc2cc(Cl)ccc21
SPECTRUMID=CCMSLIB00010103920
59.680859 2228.0 
59.827099 2482.0 
60.531391 2273.0 
63.51886 2621.0 
69.809723 2721.0 
70.347366 2536.0 
73.944763 2389.0 
74.095222 2801.0 
74.272667 2603.0 
80.717102 2325.0 
90.976913 33164.0 
140.822998 2648.0 
158.964096 9508.0 
220.934525 33360.0 
288.921234 31292.0 
355.771729 2925.0 
357.0755 2603906.0 
END IONS

BEGIN IONS
NAME=(S)-2-hydroxybutanoic acid CollisionEnergy:205060 M-H
PRECURSOR_MZ=103.04
INCHI="InChI=1S/C4H8O3/c1-2-3(5)4(6)7/h3,5H,2H2,1H3,(H,6,7)/t3-/m0/s1"
SMILES=CCC(O)C(=O)O
SPECTRUMID=CCMSLIB00010124547
57.034142 3580046.0 
81.272827 30561.0 
85.029602 62301.0 
92.36586 43014.0 
101.024437 52749.0 
103.040253 3098458.0 
106.456284 34209.0 
END IONS

BEGIN IONS
NAME=Eupatorin-5-methylether CollisionEnergy:102040 M+Na
PRECURSOR_MZ=381.094
INCHI="InChI=1S/C19H18O7/c1-22-13-6-5-10(7-11(13)20)14-8-12(21)17-15(26-14)9-16(23-2)18(24-3)19(17)25-4/h5-9,20H,1-4H3"
SMILES=COc1ccc(-c2cc(=O)c3c(OC)c(OC)c(OC)cc3o2)cc1O
SPECTRUMID=CCMSLIB00010104881
54.9324 3167.0 
63.76683 2451.0 
67.001122 2398.0 
68.325813 2653.0 
92.39212 3184.0 
136.229935 4773.0 
202.865921 2972.0 
351.046692 136647.0 
365.062988 6298.0 
366.070587 86568.0 
381.093781 2429227.0 
399.102356 6343.0 
END IONS

BEGIN IONS
NAME="3-hydroxy-3-(trifluoromethyl)(2H-3,4,5,6,7,3a-hexahydroindazol-2-yl) 3,4,5-tri methoxyphenyl ketone CollisionEnergy:102040" M+H-H2O
PRECURSOR_MZ=385.137
INCHI="InChI=1S/C18H21F3N2O5/c1-26-13-8-10(9-14(27-2)15(13)28-3)16(24)23-17(25,18(19,20)21)11-6-4-5-7-12(11)22-23/h8-9,11,25H,4-7H2,1-3H3"
SMILES=COc1cc(C(=O)N2N=C3CCCCC3C2(O)C(F)(F)F)cc(OC)c1OC
SPECTRUMID=CCMSLIB00010108250
53.039001 5544.0 
53.209419 2280.0 
59.79702 3048.0 
66.294228 2555.0 
66.741707 2363.0 
78.666641 2744.0 
79.054443 15651.0 
81.0336 5681.0 
81.070053 10380.0 
96.057167 10562.0 
99.957321 2448.0 
109.064697 17164.0 
111.080299 4638.0 
122.035896 10269.0 
124.051857 17559.0 
128.046906 5573.0 
136.20874 3128.0 
139.075134 43268.0 
141.017899 10603.0 
152.046539 46885.0 
156.041611 16517.0 
184.036636 3516.0 
195.065079 2279422.0 
210.71315 4340.0 
218.223999 3032.0 
245.573044 2791.0 
365.99408 2602.0 
END IONS

BEGIN IONS
NAME=indole-3-acetic acid CollisionEnergy:205060 M+H
PRECURSOR_MZ=176.071
INCHI="InChI=1S/C10H9NO2/c12-10(13)5-7-6-11-9-4-2-1-3-8(7)9/h1-4,6,11H,5H2,(H,12,13)"
SMILES=C1=CC=C2C(=C1)C(=CN2)CC(=O)O
SPECTRUMID=CCMSLIB00010102234
64.801796 12184.095703 
67.852951 13163.990234 
73.989204 13838.749023 
92.421608 13560.140625 
103.054329 374057.84375 
104.372658 14125.904297 
117.057884 32065.875 
118.710564 12863.578125 
128.050049 12485.957031 
130.065353 14115613.0 
131.068649 101708.6875 
131.145599 12659.362305 
176.07077 902357.875 
185.484848 15795.670898 
END IONS

BEGIN IONS
NAME=dl-Thioctic acid CollisionEnergy:205060 M-H
PRECURSOR_MZ=205.036
INCHI="InChI=1S/C8H14O2S2/c9-8(10)4-2-1-3-7-5-6-11-12-7/h7H,1-6H2,(H,9,10)"
SMILES=O=C(O)CCCCC1CCSS1
SPECTRUMID=CCMSLIB00010125949
50.072891 2226.0 
57.180729 2039.0 
58.349892 2327.0 
58.990849 2200.0 
58.995548 12362.0 
59.013409 4976.0 
63.940842 2767.0 
63.944382 56771.0 
63.962189 19278.0 
64.952187 272303.0 
68.995392 8955.0 
70.70961 1915.0 
73.011429 2246.0 
73.693932 2020.0 
79.939438 4119.0 
82.084633 2051.0 
82.390541 2503.0 
93.064796 3687.0 
93.070938 72235.0 
98.019836 2474.0 
99.027107 4948.0 
112.985573 19204.0 
118.637177 2227.0 
127.05867 90763.0 
139.076508 8584.0 
140.940552 8859.0 
140.96048 2474.0 
154.974533 3165.0 
156.955643 4102.0 
158.951065 220622.0 
159.048569 9731.0 
171.048523 216259.0 
190.171814 2400.0 
192.624084 2182.0 
204.957764 2815.0 
220.611115 2848.0 
397.97583 2329.0 
END IONS

BEGIN IONS
NAME=naringin CollisionEnergy:102040 M-H
PRECURSOR_MZ=579.172
INCHI="InChI=1S/C27H32O14/c1-10-20(32)22(34)24(36)26(37-10)41-25-23(35)21(33)18(9-28)40-27(25)38-13-6-14(30)19-15(31)8-16(39-17(19)7-13)11-2-4-12(29)5-3-11/h2-7,10,16,18,20-30,32-36H,8-9H2,1H3/t10-,16-,18+,20-,21+,22+,23-,24+,25+,26-,27+/m0/s1"
SMILES=CC1OC(OC2C(Oc3cc(O)c4c(c3)OC(c3ccc(O)cc3)CC4=O)OC(CO)C(O)C2O)C(O)C(O)C1O
SPECTRUMID=CCMSLIB00010111705
63.023621 3870.0 
65.002983 22889.0 
71.013718 3659.0 
80.009277 3043.0 
82.427757 3283.0 
83.013557 13048.0 
93.034523 49007.0 
107.013817 82655.0 
118.698914 4176.0 
119.050133 208800.0 
125.024529 54985.0 
145.029282 59793.0 
146.476273 3872.0 
151.003616 1273297.0 
164.011169 5661.0 
165.019028 32882.0 
167.034851 4698.0 
169.014221 7852.0 
175.003433 32107.0 
177.019241 82923.0 
183.595016 3333.0 
185.06015 4896.0 
187.039444 6094.0 
193.014465 36229.0 
196.000854 8031.0 
205.013824 15813.0 
210.131714 3682.0 
217.014648 6420.0 
227.071442 23937.0 
229.050552 5469.0 
235.024307 34686.0 
258.169189 3736.0 
270.054749 12300.0 
271.061127 1228400.0 
295.055176 8067.0 
296.894653 3811.0 
313.070496 61104.0 
339.070129 32905.0 
373.091431 24698.0 
415.104828 6064.0 
417.119019 5936.0 
433.130737 4095.0 
459.114868 425852.0 
494.565186 3634.0 
512.093933 4439.0 
578.182739 4231.0 
579.17218 4750113.0 
END IONS

BEGIN IONS
NAME="2-[6-amino-3,5-dicyano-4-(3,4,5-trimethoxyphenyl)(2-pyridylthio)]-N-(4-sulfamo ylphenyl)acetamide CollisionEnergy:102040" M+H
PRECURSOR_MZ=555.112
INCHI="InChI=1S/C24H22N6O6S2/c1-34-18-8-13(9-19(35-2)22(18)36-3)21-16(10-25)23(27)30-24(17(21)11-26)37-12-20(31)29-14-4-6-15(7-5-14)38(28,32)33/h4-9H,12H2,1-3H3,(H2,27,30)(H,29,31)(H2,28,32,33)"
SMILES=COc1cc(-c2c(C#N)c(SCC(=O)Nc3ccc(S(N)(=O)=O)cc3)[nH]c(=N)c2C#N)cc(OC)c1OC
SPECTRUMID=CCMSLIB00010111209
55.1516 3378.0 
55.57531 3070.0 
63.232578 3567.0 
66.735939 3346.0 
68.049683 5590.0 
92.049339 4328.0 
92.36834 4456.0 
108.044441 36378.0 
115.364502 3217.0 
125.113853 4232.0 
136.199402 3500.0 
140.016434 13610.0 
156.011322 137998.0 
223.183868 3313.0 
267.070374 4536.0 
279.037628 3927.0 
279.087555 4400.0 
280.040161 14656.0 
281.049774 21046.0 
282.078857 4842.0 
283.064758 7538.0 
291.087738 6209.0 
292.040161 6294.0 
293.048828 36624.0 
294.056763 48605.0 
295.065063 47458.0 
296.072937 5776.0 
297.043976 38125.0 
298.063995 5154.0 
307.03891 6983.0 
307.081207 7191.0 
308.03653 21673.0 
309.044006 136556.0 
309.090088 10376.0 
310.050873 26388.0 
311.020416 3758.0 
311.059937 85600.0 
312.066528 20695.0 
313.036896 5784.0 
313.075806 3952.0 
321.042938 13568.0 
322.051392 49713.0 
323.059509 300443.0 
324.06723 688099.0 
325.038391 133508.0 
325.076294 58794.0 
326.058441 87733.0 
327.054657 33859.0 
328.064301 22501.0 
337.037292 6022.0 
339.05426 100315.0 
340.061798 126346.0 
341.070038 114945.0 
343.086334 8002.0 
350.101532 4459.0 
353.030975 7180.0 
353.07428 8275.0 
355.08551 418666.0 
356.093811 4878.0 
357.100647 20953.0 
368.059448 16278.0 
369.066101 14436.0 
381.067017 22633.0 
382.074585 6367.0 
383.080475 3066005.0 
384.087341 25168.0 
388.086212 4302.0 
398.071259 3803.0 
399.077454 47613.0 
400.0867 5572.0 
414.099304 4657.0 
416.08371 13090.0 
430.094452 4762.0 
444.083282 4809.0 
446.127319 17947.0 
457.007172 4082.0 
474.123474 93708.0 
488.043213 4327.0 
490.120911 26090.0 
538.084595 110229.0 
555.111389 2290670.0 
END IONS

BEGIN IONS
NAME=4-Guanidinobutyric acid CollisionEnergy:102040 M-H
PRECURSOR_MZ=144.078
INCHI="InChI=1S/C5H11N3O2/c6-5(7)8-3-1-2-4(9)10/h1-3H2,(H,9,10)(H4,6,7,8)"
SMILES=N=C(N)NCCCC(=O)O
SPECTRUMID=CCMSLIB00010126192
61.886501 17692.400391 
82.426201 31257.099609 
83.061203 241827.0 
84.045197 76329.296875 
88.505798 15352.099609 
92.406502 16602.5 
94.1101 17836.699219 
102.056 4062840.0 
106.059998 15269.700195 
113.162003 16372.099609 
119.968002 15456.299805 
127.052002 21235.699219 
END IONS

BEGIN IONS
NAME=(2Z)-2-[(3-bromophenyl)carbonylamino]-N-[2-(2-methylindol-3-yl)ethyl]-3-phenyl prop-2-enamide CollisionEnergy:102040 M+Na
PRECURSOR_MZ=524.094
INCHI="InChI=1S/C27H24BrN3O2/c1-18-22(23-12-5-6-13-24(23)30-18)14-15-29-27(33)25(16-19-8-3-2-4-9-19)31-26(32)20-10-7-11-21(28)17-20/h2-13,16-17,30H,14-15H2,1H3,(H,29,33)(H,31,32)/b25-16-"
SMILES=Cc1[nH]c2ccccc2c1CCN=C(O)C(=Cc1ccccc1)N=C(O)c1cccc(Br)c1
SPECTRUMID=CCMSLIB00010112823
52.154869 3426.0 
58.227459 15980.0 
70.201683 3680.0 
77.950188 3706.0 
98.775352 3529.0 
104.30085 4886.0 
105.413643 3736.0 
108.029053 4212.0 
110.407318 3400.0 
133.671494 3541.0 
158.096634 65739.0 
159.099731 20325.0 
167.295807 3991.0 
197.104813 96102.0 
220.670151 3786.0 
315.257629 4117.0 
359.971985 5129.0 
506.083191 6036.0 
523.5896 95062.0 
524.094421 13040583.0 
527.283997 4058.0 
END IONS

BEGIN IONS
NAME="7-methoxy-4-[(4-phenyl(1,2,5,6-tetrahydropyridyl))methyl]chromen-2-one CollisionEnergy:102040" M+Na
PRECURSOR_MZ=370.141
INCHI="InChI=1S/C22H21NO3/c1-25-19-7-8-20-18(13-22(24)26-21(20)14-19)15-23-11-9-17(10-12-23)16-5-3-2-4-6-16/h2-9,13-14H,10-12,15H2,1H3"
SMILES=COc1ccc2c(CN3CC=C(c4ccccc4)CC3)cc(=O)oc2c1
SPECTRUMID=CCMSLIB00010106767
57.08802 2066.0 
60.551399 2209.0 
66.75383 2427.0 
68.695648 2125.0 
104.307083 2170.0 
104.781517 2766.0 
105.805489 2314.0 
106.561836 2969.0 
134.295715 2452.0 
138.372055 2247.0 
170.133453 3097.0 
174.273575 2433.0 
220.676682 2666.0 
357.129608 2985.0 
370.140533 815062.0 
END IONS

BEGIN IONS
NAME=17199-29-0 CollisionEnergy:205060 M-H
PRECURSOR_MZ=151.04
INCHI="InChI=1S/C8H8O3/c9-7(8(10)11)6-4-2-1-3-5-6/h1-5,7,9H,(H,10,11)/t7-/m0/s1"
SMILES=O=C(O)C(O)c1ccccc1
SPECTRUMID=CCMSLIB00010118994
50.474041 8004.0 
56.475399 8703.0 
66.93119 8374.0 
69.044746 8638.0 
92.788353 9265.0 
104.296997 14752.0 
106.993431 12525.0 
107.050407 164484.0 
121.029678 11813.0 
121.240143 9240.0 
127.330223 11188.0 
151.040054 228102.0 
END IONS

BEGIN IONS
NAME="N-(4-chlorophenyl)-2-[2-oxo-4-(2-1,2,3,4-tetrahydroisoquinolylcarbonyl)hydroqu inolyl]acetamide CollisionEnergy:102040" M-H
PRECURSOR_MZ=470.128
INCHI="InChI=1S/C27H22ClN3O3/c28-20-9-11-21(12-10-20)29-25(32)17-31-24-8-4-3-7-22(24)23(15-26(31)33)27(34)30-14-13-18-5-1-2-6-19(18)16-30/h1-12,15H,13-14,16-17H2,(H,29,32)"
SMILES=O=C(Cn1c(=O)cc(C(=O)N2CCc3ccccc3C2)c2ccccc21)Nc1ccc(Cl)cc1
SPECTRUMID=CCMSLIB00010113257
54.51786 2689.0 
57.116199 2524.0 
63.894241 2473.0 
82.404251 4060.0 
84.12751 2988.0 
89.448212 3145.0 
90.884323 3295.0 
116.050629 12145.0 
126.011803 72153.0 
128.050797 91747.0 
129.975708 18318.0 
130.066162 45271.0 
132.045975 5148.0 
132.081696 3902.0 
132.901688 2640.0 
140.050583 6438.0 
142.066406 62335.0 
144.045593 30176.0 
156.046143 5311.0 
157.053467 22364.0 
158.023788 4128.0 
158.061249 91104.0 
168.045898 12283.0 
172.040756 14937.0 
174.056335 4654.0 
184.040497 77820.0 
185.047546 3107.0 
186.056183 358641.0 
208.301697 3086.0 
209.020004 12241.0 
248.110245 3321.0 
269.109467 5117.0 
271.123413 12545.0 
273.137634 4288.0 
274.123749 3583.0 
275.118805 15974.0 
287.117981 6326.0 
289.134674 14753.0 
299.118683 15759.0 
303.075012 4759.0 
303.114349 141173.0 
311.06131 3688.0 
315.114563 15002.0 
317.129944 130793.0 
319.109436 25392.0 
343.109161 124298.0 
427.123077 5097.0 
470.128174 1824415.0 
END IONS

BEGIN IONS
NAME="[4-(benzo[c]1,2,5-thiadiazol-5-ylmethoxy)-3-methoxyphenyl]-N,N-diethylcarboxam ide CollisionEnergy:102040" M+H
PRECURSOR_MZ=372.138
INCHI="InChI=1S/C19H21N3O3S/c1-4-22(5-2)19(23)14-7-9-17(18(11-14)24-3)25-12-13-6-8-15-16(10-13)21-26-20-15/h6-11H,4-5,12H2,1-3H3"
SMILES=CCN(CC)C(=O)c1ccc(OCc2ccc3nsnc3c2)c(OC)c1
SPECTRUMID=CCMSLIB00010106783
51.900341 2858.0 
55.018021 4367.0 
65.052429 2698.0 
72.044739 213710.0 
72.080673 6126.0 
74.096764 204403.0 
97.028328 5000.0 
98.036186 6047.0 
99.007118 13834.0 
100.075691 451900.0 
121.027908 5643.0 
123.043869 47709.0 
125.02317 5094.0 
136.200897 3045.0 
137.022644 15634.0 
149.016296 1236375.0 
150.031998 63730.0 
151.038544 14805.0 
151.377899 3173.0 
154.02594 192586.0 
185.498886 3216.0 
190.043793 4054.0 
194.117188 23983.0 
200.4151 3013.0 
204.100311 5824.0 
208.097504 21997.0 
208.882172 6577.0 
209.104477 7041.0 
211.031235 6301.0 
222.112259 990173.0 
223.120132 287904.0 
223.141617 5094.0 
239.026093 16421.0 
267.023041 6155.0 
271.053711 22506.0 
299.048065 1063263.0 
332.597412 3315.0 
351.569519 3448.0 
372.137085 4820115.0 
END IONS

BEGIN IONS
NAME=N-[4-(acetylamino)phenyl]-2-[2-oxo-4-(piperidylcarbonyl)hydroquinolyl]acetamid e CollisionEnergy:102040 M+formate
PRECURSOR_MZ=491.194
INCHI="InChI=1S/C25H26N4O4/c1-17(30)26-18-9-11-19(12-10-18)27-23(31)16-29-22-8-4-3-7-20(22)21(15-24(29)32)25(33)28-13-5-2-6-14-28/h3-4,7-12,15H,2,5-6,13-14,16H2,1H3,(H,26,30)(H,27,31)"
SMILES=CC(O)=Nc1ccc(NC(=O)Cn2c(=O)cc(C(=O)N3CCCCC3)c3ccccc32)cc1
SPECTRUMID=CCMSLIB00010113092
70.439888 2305.0 
82.402061 2363.0 
85.336197 2734.0 
88.697388 2275.0 
92.382683 2507.0 
104.292152 4006.0 
136.220886 2587.0 
142.350098 2596.0 
157.052948 3442.0 
175.051605 37299.0 
184.041077 4097.0 
194.635712 2574.0 
220.633469 2674.0 
241.133835 3390.0 
255.115479 3505.0 
269.129578 3772.0 
445.188812 124613.0 
END IONS

BEGIN IONS
NAME=8-chloro-2-(4-methylphenyl)chroman-4-one CollisionEnergy:205060 M+H
PRECURSOR_MZ=273.068
INCHI="InChI=1S/C16H13ClO2/c1-10-5-7-11(8-6-10)15-9-14(18)12-3-2-4-13(17)16(12)19-15/h2-8,15H,9H2,1H3"
SMILES=Cc1ccc(C2CC(=O)c3cccc(Cl)c3O2)cc1
SPECTRUMID=CCMSLIB00010125480
72.98423 6060.0 
73.328644 2695.0 
78.671539 2523.0 
82.389427 2783.0 
91.054176 51008.0 
92.368752 4975.0 
93.069839 34813.0 
98.99955 247087.0 
104.275887 3330.0 
105.069633 11049.0 
113.986198 10717.0 
115.054108 122563.0 
115.132042 2433.0 
116.061546 4255.0 
117.069717 286525.0 
119.048683 4368.0 
119.085197 4366.0 
121.064682 19621.0 
125.014664 14009.0 
126.994362 37650.0 
129.010132 19827.0 
140.025681 3623.0 
145.06459 267626.0 
153.009933 15017.0 
154.989197 1437529.0 
155.974243 2794.0 
165.069397 5237.0 
166.077713 11433.0 
172.999084 3243.0 
181.004715 101407.0 
181.063614 3290.0 
182.070938 3119.0 
183.498367 2737.0 
189.196915 2821.0 
190.07605 3811.0 
191.086578 9508.0 
192.092896 74511.0 
194.071732 10613.0 
195.080139 20160.0 
205.06427 14137.0 
209.095581 12704.0 
209.62323 6496.0 
217.040558 4930.0 
219.079956 14054.0 
220.087479 16130.0 
223.075195 50321.0 
227.06131 25434.0 
237.090424 53803.0 
238.098236 25860.0 
238.448715 3311.0 
243.020554 17596.0 
250.147308 2992.0 
255.056473 36290.0 
258.043549 217005.0 
273.067108 1078757.0 
273.165344 14449.0 
END IONS

BEGIN IONS
NAME=N-(3-chloro-4-fluorophenyl)-2-{4-[(4-methylpiperidyl)carbonyl]-2-oxohydroquino lyl}acetamide CollisionEnergy:205060 M-H
PRECURSOR_MZ=454.134
INCHI="InChI=1S/C24H23ClFN3O3/c1-15-8-10-28(11-9-15)24(32)18-13-23(31)29(21-5-3-2-4-17(18)21)14-22(30)27-16-6-7-20(26)19(25)12-16/h2-7,12-13,15H,8-11,14H2,1H3,(H,27,30)"
SMILES=CC1CCN(C(=O)c2cc(=O)n(CC(O)=Nc3ccc(F)c(Cl)c3)c3ccccc23)CC1
SPECTRUMID=CCMSLIB00010124253
63.151939 2674.0 
65.882004 2640.0 
69.975014 3128.0 
102.235329 2972.0 
112.985733 5282.0 
116.050774 3300.0 
118.667763 4497.0 
128.05069 254499.0 
131.037964 2870.0 
142.066284 12521.0 
144.002335 64621.0 
144.045303 40627.0 
146.061264 26846.0 
156.045517 50945.0 
157.053452 86736.0 
172.040695 68735.0 
174.056183 17213.0 
183.03299 3606.0 
184.040512 235602.0 
185.04718 4112.0 
209.678589 5888.0 
215.561615 3417.0 
223.123978 3589.0 
225.140244 4028.0 
240.139053 3011.0 
241.135269 23776.0 
251.119583 19455.0 
255.149948 19290.0 
257.128693 3423.0 
269.129791 227923.0 
283.145599 61434.0 
285.125031 19391.0 
309.124634 71831.0 
356.771362 2881.0 
454.13443 733286.0 
END IONS

BEGIN IONS
NAME=(2S)-3-indol-3-yl-2-[(phenylmethoxy)carbonylamino]propanoic acid CollisionEnergy:102040 M+Na
PRECURSOR_MZ=361.116
INCHI="InChI=1S/C19H18N2O4/c22-18(23)17(10-14-11-20-16-9-5-4-8-15(14)16)21-19(24)25-12-13-6-2-1-3-7-13/h1-9,11,17,20H,10,12H2,(H,21,24)(H,22,23)/t17-/m0/s1"
SMILES=O=C(O)C(Cc1c[nH]c2ccccc12)N=C(O)OCc1ccccc1
SPECTRUMID=CCMSLIB00010109363
66.74984 2836.0 
73.960091 4020.0 
75.180542 3404.0 
79.043823 3111.0 
91.05439 51004.0 
96.005524 12698.0 
104.284081 3353.0 
118.658257 3608.0 
142.062393 17745.0 
175.036362 41833.0 
181.073425 540144.0 
182.057083 14164.0 
186.0522 65602.0 
210.052963 27901.0 
210.544373 6422.0 
244.109833 17045.0 
253.057556 6325.0 
272.103699 40414.0 
300.099396 11562.0 
317.125458 195011.0 
361.115326 7671049.0 
END IONS

BEGIN IONS
NAME="(3S,8S,6R,7R)-8-hydroxy-2,2,6,8-tetramethyl-7-[(2-oxochromen-7-yloxy)methyl]bi cyclo[4.4.0]dec-3-yl acetate CollisionEnergy:102040" M+Na
PRECURSOR_MZ=465.225
INCHI="InChI=1S/C26H34O6/c1-16(27)31-22-11-12-25(4)20(24(22,2)3)10-13-26(5,29)21(25)15-30-18-8-6-17-7-9-23(28)32-19(17)14-18/h6-9,14,20-22,29H,10-13,15H2,1-5H3/t20?,21-,22-,25+,26-/m0/s1"
SMILES=CC(=O)OC1CCC2(C)C(COc3ccc4ccc(=O)oc4c3)C(C)(O)CCC2C1(C)C
SPECTRUMID=CCMSLIB00010107794
83.010567 4038.0 
92.36763 4364.0 
136.203079 3871.0 
163.038361 4847.0 
220.617188 4114.0 
405.203186 909355.0 
412.174561 4752.0 
423.213562 327670.0 
446.228271 61275.0 
462.583771 4874.0 
462.647827 12107.0 
465.224396 16902638.0 
467.826202 11162.0 
467.899109 5882.0 
END IONS

BEGIN IONS
NAME=2-[6-hydroxy-2-(4-hydroxy-3-methoxyphenyl)-3-azabicyclo[4.4.0]dec-3-yl]-N-(4-m ethylphenyl)acetamide CollisionEnergy:102040 M-H
PRECURSOR_MZ=423.229
INCHI="InChI=1S/C25H32N2O4/c1-17-6-9-19(10-7-17)26-23(29)16-27-14-13-25(30)12-4-3-5-20(25)24(27)18-8-11-21(28)22(15-18)31-2/h6-11,15,20,24,28,30H,3-5,12-14,16H2,1-2H3,(H,26,29)"
SMILES=COc1cc(C2C3CCCCC3(O)CCN2CC(=O)Nc2ccc(C)cc2)ccc1O
SPECTRUMID=CCMSLIB00010107108
55.304031 2913.0 
57.892689 3304.0 
61.931862 2832.0 
73.967484 3409.0 
73.971802 3400.0 
80.687622 3308.0 
92.399338 3085.0 
106.066261 158039.0 
108.021652 51748.0 
109.064972 3148.0 
123.045181 215779.0 
123.081657 4338.0 
148.052887 7481.0 
148.113205 77583.0 
149.059631 4295.0 
161.060455 4051.0 
163.087708 3448947.0 
175.08812 29395.0 
185.434341 3624.0 
232.111404 12042.0 
243.102753 3895.0 
244.110397 159506.0 
245.610641 3001.0 
247.133774 17232.0 
259.133942 1021577.0 
281.165985 153073.0 
281.200897 4759.0 
299.176544 516229.0 
316.154541 3610.0 
347.670471 3478.0 
423.229401 1950076.0 
END IONS

BEGIN IONS
NAME="(2S)-1-[2-(3-cyano(5,6,7-trihydrocyclopenta[1,2-e]pyridin-2-ylthio))acetyl]pyr rolidine-2-carboxylic acid CollisionEnergy:205060" M-H
PRECURSOR_MZ=330.092
INCHI="InChI=1S/C16H17N3O3S/c17-8-11-7-10-3-1-4-12(10)18-15(11)23-9-14(20)19-6-2-5-13(19)16(21)22/h7,13H,1-6,9H2,(H,21,22)/t13-/m0/s1"
SMILES=N#Cc1cc2c(nc1SCC(=O)N1CCCC1C(=O)O)CCC2
SPECTRUMID=CCMSLIB00010121137
57.97517 14130.0 
87.308411 2407.0 
88.092247 2339.0 
91.580093 2344.0 
92.050293 2743.0 
95.192284 2475.0 
99.925377 5833.0 
110.060982 57388.0 
114.055908 129901.0 
118.665268 2390.0 
127.079437 2286.0 
159.002274 14553.0 
173.018143 9347.0 
174.03775 4524.0 
175.033447 847796.0 
187.034103 13806.0 
188.040771 40192.0 
189.04921 94570.0 
205.860977 3253.0 
210.796463 4059.0 
215.029099 9050.0 
217.044693 3677.0 
219.1539 2782.0 
233.03833 3494.0 
241.080658 5818.0 
286.101898 239165.0 
312.081146 139264.0 
330.091827 120667.0 
341.171173 2535.0 
END IONS

BEGIN IONS
NAME=(4-methyl-3-nitrophenyl)-N-[3-methyl-4-(2-oxochromen-3-yl)phenyl]carboxamide CollisionEnergy:102040 M+H
PRECURSOR_MZ=415.129
INCHI="InChI=1S/C24H18N2O5/c1-14-7-8-17(13-21(14)26(29)30)23(27)25-18-9-10-19(15(2)11-18)20-12-16-5-3-4-6-22(16)31-24(20)28/h3-13H,1-2H3,(H,25,27)"
SMILES=Cc1cc(NC(=O)c2ccc(C)c([N+](=O)[O-])c2)ccc1-c1cc2ccccc2oc1=O
SPECTRUMID=CCMSLIB00010108908
50.95673 2944.0 
65.039009 7734.0 
78.160172 3304.0 
80.049751 7240.0 
80.521927 3127.0 
81.033287 3321.0 
83.305344 3366.0 
91.054466 4555.0 
92.049782 6091.0 
93.741837 2979.0 
104.284882 5072.0 
105.033813 3718.0 
107.012733 12790.0 
108.045097 4936.0 
118.041931 3902.0 
119.049156 360317.0 
119.08564 46452.0 
120.044067 4867.0 
131.049301 4596.0 
133.028503 58194.0 
135.043869 51674.0 
138.030655 5215.0 
138.05481 4698.0 
146.023911 15127.0 
147.031448 194304.0 
148.039368 77018.0 
150.054871 3583.0 
151.025864 5694.0 
156.043884 5071.0 
163.050262 6807.0 
164.034134 1028741.0 
179.085052 31155.0 
191.085007 6660.0 
197.095963 54223.0 
198.884277 3286.0 
205.449585 3498.0 
207.080383 12837.0 
222.091263 12212.0 
223.074722 7519.0 
223.097885 4582.0 
224.106232 3521.0 
225.09108 15567.0 
234.091034 66132.0 
235.075073 112530.0 
250.086029 50972.0 
251.096756 3940.0 
253.086761 43570.0 
278.080627 36445.0 
288.923065 3280.0 
300.10025 3407.0 
307.134674 5037.0 
323.116089 5340.0 
326.105286 13731.0 
328.098145 4001.0 
331.117584 3800.0 
338.117493 4665.0 
339.123413 5197.0 
340.132233 18689.0 
341.129578 5775.0 
350.114838 22250.0 
351.118652 33868.0 
352.12204 5323.0 
354.098877 5615.0 
359.138153 17273.0 
366.114624 11738.0 
367.119354 4830.0 
369.125702 15907.0 
370.131531 28974.0 
379.108063 17962.0 
380.114807 49438.0 
383.114532 84576.0 
387.132324 56233.0 
397.118103 295903.0 
415.128418 5323696.0 
433.138855 152008.0 
END IONS

BEGIN IONS
NAME=indol-3-yl 4-(4-methoxyphenyl)piperazinyl ketone CollisionEnergy:102040 M+formate
PRECURSOR_MZ=380.162
INCHI="InChI=1S/C20H21N3O2/c1-25-16-8-6-15(7-9-16)22-10-12-23(13-11-22)20(24)18-14-21-19-5-3-2-4-17(18)19/h2-9,14,21H,10-13H2,1H3"
SMILES=COc1ccc(N2CCN(C(=O)c3c[nH]c4ccccc34)CC2)cc1
SPECTRUMID=CCMSLIB00010103595
60.53244 2181.0 
61.11055 2814.0 
64.923508 2640.0 
70.244728 2104.0 
126.084106 2344.0 
138.176926 2220.0 
174.955399 12164.0 
174.971283 3042.0 
175.959518 9570.0 
242.945648 3586.0 
243.94754 4207.0 
246.254517 2193.0 
319.132446 14785.0 
334.156189 75520.0 
334.200806 3146.0 
END IONS

BEGIN IONS
NAME="(3,4-dimethoxyphenyl)-N-[(4-methylphenyl)methyl]carboxamide CollisionEnergy:205060" M+Na
PRECURSOR_MZ=308.126
INCHI="InChI=1S/C17H19NO3/c1-12-4-6-13(7-5-12)11-18-17(19)14-8-9-15(20-2)16(10-14)21-3/h4-10H,11H2,1-3H3,(H,18,19)"
SMILES=COc1ccc(C(O)=NCc2ccc(C)cc2)cc1OC
SPECTRUMID=CCMSLIB00010116153
51.24015 2806.0 
55.869129 2212.0 
60.653481 2236.0 
66.739357 3228.0 
81.017937 2543.0 
87.130753 2360.0 
104.282784 4246.0 
109.94828 2461.0 
162.751068 2709.0 
215.95369 2959.0 
284.194153 2785.0 
293.101562 3570.0 
308.125061 3298059.0 
326.135834 4392.0 
END IONS

BEGIN IONS
NAME=2-(4-Ethoxyphenyl)-4-oxo-4H-chromen-3-yl 4-bromobenzenesulfonate CollisionEnergy:102040 M+Na
PRECURSOR_MZ=522.982
INCHI="InChI=1S/C23H17BrO6S/c1-2-28-17-11-7-15(8-12-17)22-23(21(25)19-5-3-4-6-20(19)29-22)30-31(26,27)18-13-9-16(24)10-14-18/h3-14H,2H2,1H3"
SMILES=CCOc1ccc(-c2oc3ccccc3c(=O)c2OS(=O)(=O)c2ccc(Br)cc2)cc1
SPECTRUMID=CCMSLIB00010105714
73.952141 3930.0 
85.688629 3245.0 
88.076103 3264.0 
95.119041 3624.0 
118.649879 3599.0 
253.08522 4238.0 
257.542114 3821.0 
275.03125 100265.0 
276.039062 5335.0 
278.792175 3625.0 
304.070007 6362680.0 
322.081329 16971.0 
345.095795 77826.0 
502.74649 4712.0 
522.981689 4217249.0 
540.986572 5824.0 
564.006042 65325.0 
END IONS

BEGIN IONS
NAME="(2R)-2-[(4-{[(2-amino-4-oxo(8-hydropteridin-6-yl))methyl]amino}phenyl)carbonyl amino]pentanedioic acid, hydrate CollisionEnergy:102040" M-H
PRECURSOR_MZ=440.132
INCHI="InChI=1S/C19H19N7O6/c20-19-25-15-14(17(30)26-19)23-11(8-22-15)7-21-10-3-1-9(2-4-10)16(29)24-12(18(31)32)5-6-13(27)28/h1-4,8,12,21H,5-7H2,(H,24,29)(H,27,28)(H,31,32)(H3,20,22,25,26,30)/t12-/m1/s1"
SMILES=N=c1nc(O)c2nc(CNc3ccc(C(=O)NC(CCC(=O)O)C(=O)O)cc3)cnc2[nH]1
SPECTRUMID=CCMSLIB00010112079
56.616779 3326.0 
57.280621 3180.0 
66.584053 2669.0 
81.764389 3156.0 
85.165894 3203.0 
92.050034 14886.0 
92.415443 3340.0 
102.055977 11853.0 
118.702133 3066.0 
119.03614 12788.0 
128.035431 122945.0 
132.033798 6464.0 
132.044342 108902.0 
133.052689 3684.0 
135.056519 40171.0 
136.040451 48706.0 
139.939529 2985.0 
146.046509 43679.0 
147.03421 3429.0 
147.056244 27997.0 
162.042297 60248.0 
164.03392 12661.0 
174.042587 38694.0 
174.956161 7755.0 
175.05014 365367.0 
175.087189 18590.0 
176.058395 41367.0 
177.103409 49402.0 
177.164673 3176.0 
203.082718 45333.0 
207.039856 182879.0 
220.084747 18483.0 
221.093384 121620.0 
223.062408 3419.0 
224.093765 21069.0 
229.184341 3273.0 
247.073639 4273.0 
250.073273 7919.0 
265.084503 22177.0 
267.100586 63397.0 
268.083954 36576.0 
282.135437 6270.0 
292.095367 18360.0 
293.080017 110013.0 
303.846405 6935.0 
304.913818 26823.0 
308.114655 18066.0 
309.103668 3819.0 
309.148071 20074.0 
309.833038 3735.0 
310.106476 25943.0 
311.089966 805618.0 
326.126099 22985.0 
334.144928 27370.0 
335.126953 51340.0 
336.115601 7219.0 
352.153412 18818.0 
353.136963 97728.0 
354.120758 4885.0 
368.111328 4363.0 
371.835022 12817.0 
378.13205 103896.0 
379.120911 5537.0 
396.142456 283091.0 
397.126801 15914.0 
421.812683 19581.0 
422.122009 158068.0 
423.107483 13188.0 
440.132812 4566996.0 
END IONS

BEGIN IONS
NAME=N-(3-chloro-4-fluorophenyl)-2-[4-(morpholin-4-ylcarbonyl)-2-oxohydroquinolyl]a cetamide CollisionEnergy:102040 M+Na
PRECURSOR_MZ=466.094
INCHI="InChI=1S/C22H19ClFN3O4/c23-17-11-14(5-6-18(17)24)25-20(28)13-27-19-4-2-1-3-15(19)16(12-21(27)29)22(30)26-7-9-31-10-8-26/h1-6,11-12H,7-10,13H2,(H,25,28)"
SMILES=O=C(c1cc(=O)n(CC(O)=Nc2ccc(F)c(Cl)c2)c2ccccc12)N1CCOCC1
SPECTRUMID=CCMSLIB00010112552
66.743401 5803.0 
69.033813 245420.0 
70.065224 6007.0 
74.767273 11958.0 
82.400597 4364.0 
83.055107 9832.0 
83.060493 194039.0 
83.845871 4816.0 
84.068169 63483.0 
85.07621 73501.0 
86.083893 10974.0 
87.091614 11629.0 
92.37645 6661.0 
97.075844 49118.0 
99.091377 23799.0 
106.66935 5256.0 
136.217514 5524.0 
138.010101 115040.0 
139.001831 9604.0 
139.013626 66333.0 
140.007355 1343550.0 
140.991653 32392.0 
145.06459 24366.0 
158.018936 7179.0 
161.059586 9577.0 
173.060593 19701.0 
175.075256 47760.0 
181.034241 7396.0 
206.036545 1255343.0 
207.039948 1406156.0 
207.258667 21907.0 
208.033401 21105412.0 
208.813141 22949.0 
210.047958 64940.0 
216.100464 41801.0 
230.117203 20602.0 
249.06015 82975.0 
257.127625 216350.0 
258.134369 31280.0 
259.143585 3015542.0 
260.146698 203446.0 
261.149597 177365.0 
268.088867 41066.0 
271.144409 37225.0 
293.110992 10046.0 
327.169525 23093.0 
352.09137 10395.0 
380.087219 103412.0 
463.573608 21463.0 
466.170715 20584956.0 
468.788666 24027.0 
780.967346 6079.0 
END IONS

BEGIN IONS
NAME="N-[2-(2-methylphenoxy)ethyl](3,4,5-trimethoxyphenyl)carboxamide CollisionEnergy:102040" M+Cl
PRECURSOR_MZ=380.127
INCHI="InChI=1S/C19H23NO5/c1-13-7-5-6-8-15(13)25-10-9-20-19(21)14-11-16(22-2)18(24-4)17(12-14)23-3/h5-8,11-12H,9-10H2,1-4H3,(H,20,21)"
SMILES=COc1cc(C(O)=NCCOc2ccccc2C)cc(OC)c1OC
SPECTRUMID=CCMSLIB00010105735
74.145958 2329.0 
80.976257 2519.0 
81.080643 2688.0 
82.404678 2674.0 
136.219742 2617.0 
174.956467 5609.0 
175.959457 9925.0 
243.946335 3877.0 
345.772461 2544.0 
379.984894 5079.0 
END IONS

BEGIN IONS
NAME=BERBAMINE CollisionEnergy:102040 M+2H]
PRECURSOR_MZ=305.152
INCHI="InChI=1S/C37H40N2O6/c1-38-14-12-24-19-32(41-3)33-21-27(24)28(38)16-22-6-9-26(10-7-22)44-31-18-23(8-11-30(31)40)17-29-35-25(13-15-39(29)2)20-34(42-4)36(43-5)37(35)45-33/h6-11,18-21,28-29,40H,12-17H2,1-5H3/t28-,29+/m0/s1"
SMILES=COc1cc2c3cc1Oc1c(OC)c(OC)cc4c1C(Cc1ccc(O)c(c1)Oc1ccc(cc1)CC3N(C)CC2)N(C)CC4
SPECTRUMID=CCMSLIB00010105652
56.233089 39352.0 
58.065521 80610.0 
67.05442 83695.0 
79.054153 204874.0 
91.054237 277505.0 
94.040871 86554.0 
95.04911 290441.0 
103.053902 82637.0 
107.048912 1157780.0 
108.05703 1022681.0 
109.02771 84506.0 
115.054413 75816.0 
117.069199 73782.0 
119.048668 85043.0 
120.057419 50129.0 
121.064842 363754.0 
123.034241 58481.0 
123.043907 994288.0 
129.069061 52244.0 
131.049301 677811.0 
132.080704 211681.0 
133.064758 167500.0 
135.043686 86165.0 
135.079742 73084.0 
137.059647 1404138.0 
143.048904 105007.0 
144.056519 76260.0 
145.064392 297313.0 
145.088058 46261.0 
146.072479 102257.0 
147.080368 294864.0 
149.059677 62588.0 
149.082535 47884.0 
150.067398 45840.0 
151.075485 510781.0 
158.072418 1082660.0 
159.079514 217753.0 
160.076019 560947.0 
160.088959 98224.0 
161.059113 289161.0 
161.081909 87233.0 
162.068542 151779.0 
162.090485 73290.0 
163.075485 704145.0 
165.090561 183156.0 
167.069839 63343.0 
167.084946 48109.0 
170.580032 52191.0 
173.059357 424170.0 
174.067368 217576.0 
174.091141 1049831.0 
175.076553 273864.0 
175.098511 336251.0 
176.067963 55812.0 
176.083878 353658.0 
176.107193 472036.0 
177.05455 61960.0 
178.085419 111293.0 
181.085648 82668.0 
182.579575 71026.0 
183.08017 54786.0 
183.394028 42484.0 
183.588272 184665.0 
188.083145 3078826.0 
188.103531 120595.0 
189.08725 277205.0 
189.588806 364290.0 
190.085159 751029.0 
190.593719 46312.0 
191.070984 126489.0 
191.093491 494424.0 
192.101654 2370067.0 
193.073456 76801.0 
193.105621 129783.0 
195.080093 110538.0 
197.058334 61510.0 
197.094604 206584.0 
198.101685 2889259.0 
198.60318 354461.0 
199.075012 771577.0 
200.081467 216145.0 
203.091248 58340.0 
204.101837 476127.0 
205.087631 62165.0 
205.108871 291264.0 
206.081757 568559.0 
206.116943 183550.0 
207.081253 59210.0 
209.095627 65528.0 
211.075882 313916.0 
212.081558 60395.0 
213.090759 1109542.0 
215.602905 99518.0 
218.116989 53016.0 
219.080658 70516.0 
220.093826 238903.0 
220.59552 81713.0 
221.101059 90011.0 
222.109665 382134.0 
223.075775 80578.0 
223.110367 92399.0 
224.082718 101488.0 
225.090027 548462.0 
227.106705 354067.0 
228.107559 553408.0 
229.097397 65493.0 
233.095703 66308.0 
235.07605 91828.0 
235.112579 53867.0 
235.601608 96383.0 
236.104507 75270.0 
237.090897 414140.0 
238.098221 350818.0 
239.105637 262878.0 
240.113556 111811.0 
241.083832 64753.0 
241.10994 176746.0 
244.097183 65135.0 
245.098419 52355.0 
249.089493 106040.0 
250.098801 213456.0 
250.580536 60833.0 
251.105759 222106.0 
252.113388 80487.0 
253.084656 101610.0 
255.101517 189791.0 
258.094818 181450.0 
260.114349 63048.0 
265.085388 323712.0 
266.091553 87945.0 
266.598236 74840.0 
267.100647 319370.0 
268.109406 306580.0 
269.117279 69173.0 
270.123291 53556.0 
273.614929 69734.0 
274.115967 486877.0 
275.114288 54634.0 
277.08548 68797.0 
279.101257 237800.0 
280.108276 1181057.0 
281.079437 93681.0 
281.115265 346311.0 
282.118011 689293.0 
282.618958 95797.0 
283.093719 72929.0 
283.630524 543656.0 
285.111908 196947.0 
289.125122 63871.0 
289.629974 7585377.0 
290.131836 1609516.0 
290.638306 1425392.0 
291.137238 101417.0 
295.098175 61669.0 
296.103943 277173.0 
296.146179 68401.0 
297.110962 189932.0 
297.641357 386689.0 
304.144836 86076.0 
304.646606 108684.0 
305.151093 193437024.0 
305.652618 36907340.0 
305.716095 195013.0 
305.735168 223090.0 
320.128632 72822.0 
323.126923 78100.0 
325.664307 326915.0 
328.152222 66455.0 
343.131439 232313.0 
344.140808 63313.0 
345.150421 60682.0 
348.130585 60136.0 
354.17038 62582.0 
355.128296 71401.0 
359.12674 180726.0 
366.169891 525237.0 
370.117767 51298.0 
373.143524 78890.0 
378.17392 86858.0 
381.177521 183632.0 
383.195618 294674.0 
385.140747 368854.0 
386.151367 70902.0 
387.15686 371954.0 
391.1763 106014.0 
395.194153 66115.0 
397.142029 58841.0 
410.172119 63193.0 
412.160065 189292.0 
428.180603 93580.0 
444.17923 214506.0 
456.214111 558234.0 
457.216888 91153.0 
458.188629 454819.0 
472.216034 52539.0 
489.162689 98229.0 
491.184387 93193.0 
493.200134 66610.0 
501.234558 168064.0 
503.176392 71663.0 
503.251434 224109.0 
504.189667 281526.0 
505.160797 61450.0 
507.217987 77434.0 
520.201843 486114.0 
523.212646 209470.0 
534.222656 190654.0 
535.211365 962423.0 
536.212402 243728.0 
537.234863 58901.0 
551.231201 57928.0 
566.252808 9735984.0 
567.256226 1460453.0 
END IONS

BEGIN IONS
NAME="2',4'-Dihydroxychalcone CollisionEnergy:205060" M-H
PRECURSOR_MZ=239.071
INCHI="InChI=1S/C15H12O3/c16-12-7-8-13(15(18)10-12)14(17)9-6-11-4-2-1-3-5-11/h1-10,16,18H/b9-6+"
SMILES=O=C(C=Cc1ccccc1)c1ccc(O)cc1O
SPECTRUMID=CCMSLIB00010117781
61.602509 2933.0 
63.023529 4300.0 
65.002892 21815.0 
65.039284 62058.0 
67.018509 16822.0 
68.997978 4016.0 
89.039833 4979.0 
91.018829 1747088.0 
93.034142 4836.0 
95.013786 32142.0 
102.956688 39110.0 
104.026649 15036.0 
107.013573 7255.0 
108.021713 113089.0 
109.029503 277003.0 
115.055099 6452.0 
117.034683 17540.0 
127.055801 4520.0 
133.029129 5811.0 
135.008957 1312955.0 
141.070709 28824.0 
143.050278 6605.0 
147.044983 16410.0 
148.016724 263175.0 
152.063187 7396.0 
153.01944 435921.0 
153.070984 13449.0 
156.057877 5136.0 
161.022552 3428.0 
165.071243 14525.0 
167.086639 82884.0 
169.065918 105839.0 
171.081818 4823.0 
180.006683 130244.0 
180.058212 16757.0 
183.080612 2965.0 
193.066071 62153.0 
195.08168 202279.0 
196.052322 4346.0 
197.060883 708034.0 
207.797913 14436.0 
211.075974 27373.0 
221.061462 5785.0 
239.071564 4107512.0 
END IONS

BEGIN IONS
NAME=1-[benzyloxycarbonyl]pyrrolidine-2-carboxylic acid CollisionEnergy:102040 2M-H
PRECURSOR_MZ=497.193
INCHI="InChI=1S/C13H15NO4/c15-12(16)11-7-4-8-14(11)13(17)18-9-10-5-2-1-3-6-10/h1-3,5-6,11H,4,7-9H2,(H,15,16)"
SMILES=O=C(O)C1CCCN1C(=O)OCc1ccccc1
SPECTRUMID=CCMSLIB00010111438
52.956009 2359.0 
57.785419 2559.0 
59.203209 2581.0 
74.171043 2582.0 
76.958313 2523.0 
82.40892 2630.0 
86.926666 2568.0 
107.050507 3357.0 
112.003906 10388.0 
112.040367 19636.0 
125.873909 2524.0 
135.046265 3054.0 
140.035233 76222.0 
248.092712 182145.0 
END IONS

BEGIN IONS
NAME=16-Hydroxyhexadecanoic acid CollisionEnergy:102040 M+H-H2O
PRECURSOR_MZ=255.232
INCHI="InChI=1S/C16H32O3/c17-15-13-11-9-7-5-3-1-2-4-6-8-10-12-14-16(18)19/h17H,1-15H2,(H,18,19)"
SMILES=O=C(O)CCCCCCCCCCCCCCCO
SPECTRUMID=CCMSLIB00010111413
55.05476 54995.0 
56.245892 2459.0 
57.033989 12841.0 
57.070381 263158.0 
59.049591 6063.0 
67.054611 69926.0 
69.070282 254422.0 
71.0495 19314.0 
71.085922 234790.0 
71.090492 3601.0 
73.065086 11504.0 
78.566803 2403.0 
79.054489 28870.0 
79.461189 2771.0 
81.07016 196804.0 
83.049522 21896.0 
83.0858 275781.0 
85.065163 22874.0 
85.10144 145071.0 
87.080872 10248.0 
93.069946 93745.0 
95.078712 6016.0 
95.08564 170699.0 
97.064819 103495.0 
97.101242 205293.0 
99.080437 24080.0 
99.116959 6628.0 
101.059578 21620.0 
101.095993 6254.0 
107.085541 108978.0 
109.101089 105325.0 
109.109421 2727.0 
111.080482 88359.0 
111.116867 60259.0 
111.125763 4168.0 
113.095993 15882.0 
115.075417 54501.0 
115.111656 6516.0 
121.101151 147360.0 
123.116867 98940.0 
125.0961 106708.0 
125.132446 18332.0 
127.111656 17893.0 
129.091095 44084.0 
129.127167 5432.0 
135.11676 208447.0 
137.132401 54493.0 
139.111755 117946.0 
139.1483 5536.0 
141.12738 10967.0 
143.106689 40007.0 
149.132492 198358.0 
151.148422 10746.0 
153.127228 109764.0 
153.16394 4798.0 
155.143784 3738.0 
157.122375 34804.0 
157.157684 2968.0 
163.14798 148137.0 
165.163284 4148.0 
167.143036 85404.0 
168.063736 2551.0 
171.137558 28453.0 
171.173935 5782.0 
177.16362 48728.0 
179.179214 4825.0 
181.158646 64540.0 
185.153183 23324.0 
191.179657 4411.0 
195.174133 18785.0 
195.210175 19105.0 
199.169525 22590.0 
211.485504 2565.0 
212.108444 3156.0 
213.184937 6080.0 
213.220459 2870.0 
219.210617 442687.0 
220.824936 2974.0 
237.221039 289691.0 
255.23439 33826.0 
276.654785 2823.0 
END IONS

BEGIN IONS
NAME=(2-fluorophenyl)methyl 2-{1-[(4-chlorophenyl)carbonyl]-5-methoxy-2-methylindol -3-yl}acetate CollisionEnergy:205060 M+Na
PRECURSOR_MZ=488.104
INCHI="InChI=1S/C26H21ClFNO4/c1-16-21(14-25(30)33-15-18-5-3-4-6-23(18)28)22-13-20(32-2)11-12-24(22)29(16)26(31)17-7-9-19(27)10-8-17/h3-13H,14-15H2,1-2H3"
SMILES=COc1ccc2c(c1)c(CC(=O)OCc1ccccc1F)c(C)n2C(=O)c1ccc(Cl)cc1
SPECTRUMID=CCMSLIB00010122615
73.942032 3062.0 
76.928162 5195.0 
83.029381 14634.0 
87.265533 2413.0 
104.268784 3826.0 
109.044861 225032.0 
110.048103 39304.0 
118.632317 2709.0 
138.994614 5762.0 
140.991623 16639.0 
203.340561 2492.0 
488.104034 1303336.0 
593.082336 3066.0 
597.576965 2720.0 
866.137878 5813.0 
867.145874 5666.0 
END IONS

BEGIN IONS
NAME="D-Glucurono-3,6-lactone CollisionEnergy:102040" M-H
PRECURSOR_MZ=175.025
INCHI="InChI=1S/C6H8O6/c7-1-2(8)5-3(9)4(10)6(11)12-5/h1-5,8-10H/t2-,3+,4-,5+/m0/s1"
SMILES=O=C[C@H](O)[C@H]1OC(=O)[C@@H](O)[C@H]1O
SPECTRUMID=CCMSLIB00010126166
56.817902 31878.599609 
57.034199 160530.0 
59.013599 140861.0 
61.435902 30846.300781 
71.013603 43722.898438 
72.992897 249576.0 
75.008698 50336.5 
77.604698 29501.5 
85.029404 2532670.0 
95.013802 560771.0 
103.003998 50725.300781 
105.442001 32859.0 
113.025002 2237080.0 
115.920998 370931.0 
156.945007 47143.0 
174.934006 584198.0 
175.097 262088.0 
END IONS

BEGIN IONS
NAME="3-[2-(3,4-dimethoxyphenyl)-2-oxoethyl]-1-methyl-1,3-dihydroquinazoline-2,4-dio ne CollisionEnergy:102040" M+H
PRECURSOR_MZ=355.129
INCHI="InChI=1S/C19H18N2O5/c1-20-14-7-5-4-6-13(14)18(23)21(19(20)24)11-15(22)12-8-9-16(25-2)17(10-12)26-3/h4-10H,11H2,1-3H3"
SMILES=COc1ccc(C(=O)Cn2c(=O)c3ccccc3n(C)c2=O)cc1OC
SPECTRUMID=CCMSLIB00010108022
56.014 15119.0 
86.90226 3603.0 
92.381538 4050.0 
92.388184 3980.0 
104.050171 7565.0 
115.835197 3909.0 
129.942993 3109.0 
132.044189 95892.0 
134.059952 18607.0 
145.075714 6165.0 
146.023758 6886.0 
150.055176 7351.0 
151.075256 21371.0 
159.054947 177614.0 
161.070786 134094.0 
161.085037 6842.0 
165.054382 40161.0 
166.057922 4041.0 
176.45755 4562.0 
177.065598 5318600.0 
177.677582 5173.0 
188.394699 4476.0 
189.065506 4440757.0 
189.741837 4666.0 
207.076126 3044319.0 
209.077911 3792.0 
216.235336 6119.0 
217.060425 6064572.0 
230.092087 24715.0 
266.970856 3861.0 
308.900574 7926.0 
337.117371 22365.0 
355.12793 3667428.0 
END IONS

BEGIN IONS
NAME=2-Amino-6-chloropurine-9-riboside CollisionEnergy:102040 M+H
PRECURSOR_MZ=302.065
INCHI="InChI=1S/C10H12ClN5O4/c11-7-4-8(15-10(12)14-7)16(2-13-4)9-6(19)5(18)3(1-17)20-9/h2-3,5-6,9,17-19H,1H2,(H2,12,14,15)/t3-,5-,6-,9-/m1/s1"
SMILES=N=c1nc2c(ncn2C2OC(CO)C(O)C2O)c(Cl)[nH]1
SPECTRUMID=CCMSLIB00010113761
55.018211 5284.0 
55.934769 2799.0 
56.965931 2602.0 
57.03397 5685.0 
62.018978 30924.0 
72.937393 2614.0 
73.028633 4254.0 
82.406349 2296.0 
85.028671 4089.0 
92.382607 2788.0 
97.115273 2625.0 
102.091133 4548.0 
104.295471 2424.0 
115.038963 5120.0 
133.049332 12607.0 
134.046036 29505.0 
136.226151 2338.0 
170.022812 2702589.0 
182.022888 4735.0 
207.815247 2575.0 
212.033035 4416.0 
223.943542 95245.0 
241.953735 10790.0 
266.044403 16130.0 
284.055084 4240.0 
302.065033 83944.0 
302.197388 5084.0 
END IONS

BEGIN IONS
NAME="2-methoxyethyl 4-(3-bromo-5-ethoxy-4-hydroxyphenyl)-7-(4-chlorophenyl)-2-methy l-5-oxo-1,4,6,7,8-pentahydroquinoline-3-carboxylate CollisionEnergy:205060" M+Na
PRECURSOR_MZ=612.076
INCHI="InChI=1S/C28H29BrClNO6/c1-4-36-23-14-18(11-20(29)27(23)33)25-24(28(34)37-10-9-35-3)15(2)31-21-12-17(13-22(32)26(21)25)16-5-7-19(30)8-6-16/h5-8,11,14,17,25,31,33H,4,9-10,12-13H2,1-3H3"
SMILES=CCOc1cc(C2C(C(=O)OCCOC)=C(C)NC3=C2C(=O)CC(c2ccc(Cl)cc2)C3)cc(Br)c1O
SPECTRUMID=CCMSLIB00010125080
92.381958 3777.0 
94.78537 2921.0 
120.878647 4013.0 
155.306961 3289.0 
308.059235 3306.0 
346.718445 3415.0 
351.940277 3000.0 
352.941315 3597.0 
374.114319 3458.0 
406.080139 3331.0 
516.04071 6186.0 
517.039551 4074.0 
574.037598 6496.0 
612.075012 2317593.0 
653.101501 16841.0 
1075.276245 4107.0 
1234.664062 3259.0 
1264.354736 3498.0 
END IONS

BEGIN IONS
NAME="3-methylbutyl 2-phenyl-2-[(3,4,5-trimethoxyphenyl)carbonylamino]acetate CollisionEnergy:205060" M+H
PRECURSOR_MZ=416.207
INCHI="InChI=1S/C23H29NO6/c1-15(2)11-12-30-23(26)20(16-9-7-6-8-10-16)24-22(25)17-13-18(27-3)21(29-5)19(14-17)28-4/h6-10,13-15,20H,11-12H2,1-5H3,(H,24,25)"
SMILES=COc1cc(C(O)=NC(C(=O)OCCC(C)C)c2ccccc2)cc(OC)c1OC
SPECTRUMID=CCMSLIB00010118793
51.023449 6517.0 
53.036461 5893.0 
53.039101 90489.0 
55.018349 6512.0 
55.054749 4422.0 
65.038948 53392.0 
66.046791 19215.0 
67.018097 5102.0 
67.054802 26720.0 
68.025879 7970.0 
68.997513 6854.0 
69.033813 14686.0 
69.070023 5691.0 
71.049393 5497.0 
75.044449 26584.0 
77.038857 7011.0 
78.046532 16211.0 
79.054497 343196.0 
80.061882 4111.0 
81.03373 248037.0 
81.070137 178287.0 
81.075523 6887.0 
82.041557 6520.0 
83.012993 3410.0 
83.0495 21954.0 
85.02861 5413.0 
91.054329 34561.0 
92.026047 14693.0 
93.033699 18703.0 
94.041428 49399.0 
95.049263 76418.0 
96.05703 166061.0 
96.108231 3052.0 
97.028557 4931.0 
97.064613 6719.0 
98.03653 3289.0 
99.044357 6487.0 
105.033127 4750.0 
105.044724 7083.0 
106.041656 6099.0 
107.012657 5592.0 
107.049187 35636.0 
108.056908 56442.0 
109.028587 47191.0 
109.064743 254337.0 
111.043747 7366.0 
111.080383 65781.0 
113.02298 38575.0 
113.059517 51052.0 
118.652786 4406.0 
121.028488 43416.0 
121.064819 4408.0 
122.036148 216200.0 
122.046288 7037.0 
123.043983 22768.0 
124.051849 378278.0 
125.059471 6279.0 
127.038551 14249.0 
128.046646 70891.0 
134.035934 3099.0 
135.044403 11481.0 
137.023178 92223.0 
139.075226 580789.0 
141.018341 74851.0 
143.070435 23482.0 
151.038666 101273.0 
152.046631 795814.0 
155.034286 7652.0 
156.041565 157127.0 
156.055771 6295.0 
166.02504 3497.0 
167.069855 7761.0 
170.057236 7751.0 
171.064835 4258.0 
180.041321 6235.0 
184.036392 51834.0 
185.081131 40937.0 
195.065063 5808046.0 
209.488892 3389.0 
283.095276 17770.0 
285.112274 4742.0 
300.122833 71945.0 
328.117981 32386.0 
399.90332 3448.0 
416.206177 21693.0 
END IONS

BEGIN IONS
NAME=adipic acid CollisionEnergy:205060 M+H-H2O
PRECURSOR_MZ=129.055
INCHI="InChI=1S/C6H10O4/c7-5(8)3-1-2-4-6(9)10/h1-4H2,(H,7,8)(H,9,10)"
SMILES=O=C(O)CCCCC(=O)O
SPECTRUMID=CCMSLIB00010124028
55.051971 5268.0 
55.054798 97779.0 
55.934959 189895.0 
57.134602 2766.0 
59.049629 23659.0 
62.056049 2866.0 
65.711166 2636.0 
67.574471 2737.0 
69.934357 16512.0 
70.942146 6814.0 
70.958153 14791.0 
75.026527 30389.0 
75.030457 3371.0 
82.178169 2761.0 
83.049622 41607.0 
87.944817 17999.0 
88.968819 21972.0 
93.036903 26978.0 
95.72937 2972.0 
95.7453 3102.0 
101.059753 16145.0 
105.955116 12522.0 
107.950401 3595.0 
111.044441 6705.0 
112.417168 2802.0 
123.965538 4442.0 
128.950974 123817.0 
128.960831 4446.0 
128.970749 3326.0 
129.072845 16282.0 
129.104904 6151.0 
146.961472 78892.0 
146.981766 14042.0 
149.954041 3609.0 
169.977402 18861.0 
191.048965 3631.0 
214.252136 3949.0 
END IONS

BEGIN IONS
NAME=N-(6-ethyl-2-methylphenyl)-2-[9-(4-methylphenyl)-6-oxohydropurin-8-ylthio]acet amide CollisionEnergy:102040 M-H
PRECURSOR_MZ=432.15
INCHI="InChI=1S/C23H23N5O2S/c1-4-16-7-5-6-15(3)19(16)26-18(29)12-31-23-27-20-21(24-13-25-22(20)30)28(23)17-10-8-14(2)9-11-17/h5-11,13H,4,12H2,1-3H3,(H,26,29)(H,24,25,30)"
SMILES=CCc1cccc(C)c1N=C(O)CSc1nc2c(O)ncnc2n1-c1ccc(C)cc1
SPECTRUMID=CCMSLIB00010112828
54.347851 2835.0 
57.975201 6221.0 
58.589989 2686.0 
65.013947 14288.0 
65.9981 14601.0 
69.870682 2613.0 
82.394867 2543.0 
92.02523 32910.0 
104.288643 3282.0 
106.84359 2617.0 
116.311142 2464.0 
145.893738 2662.0 
155.061386 232607.0 
197.060165 4255.0 
198.067963 3441.0 
206.064331 91200.0 
224.88501 2851.0 
225.078064 802309.0 
241.0728 45483.0 
255.03537 16286.0 
256.042175 216284.0 
257.05011 166560.0 
269.050262 20383.0 
271.06543 39801.0 
297.044189 51559.0 
358.167511 37947.0 
432.149475 1025431.0 
END IONS

BEGIN IONS
NAME=2-thiouracil CollisionEnergy:205060 M-H
PRECURSOR_MZ=126.997
INCHI="InChI=1S/C4H4N2OS/c7-3-1-2-5-4(8)6-3/h1-2H,(H2,5,6,7,8)"
SMILES=Oc1ccnc(S)n1
SPECTRUMID=CCMSLIB00010125771
56.554989 2200.0 
57.944149 2721.0 
57.975262 1539446.0 
82.989616 2927.0 
84.864799 2385.0 
104.290741 2221.0 
116.255379 2098.0 
116.966797 2133.0 
126.905113 4199.0 
126.997383 257764.0 
END IONS

BEGIN IONS
NAME=N-(3-chloro-4-fluorophenyl)-2-{2-oxo-4-[N-benzylcarbamoyl]hydroquinolyl}acetam ide CollisionEnergy:102040 M+formate
PRECURSOR_MZ=508.108
INCHI="InChI=1S/C25H19ClFN3O3/c26-20-12-17(10-11-21(20)27)29-23(31)15-30-22-9-5-4-8-18(22)19(13-24(30)32)25(33)28-14-16-6-2-1-3-7-16/h1-13H,14-15H2,(H,28,33)(H,29,31)"
SMILES=O=c1cc(C(O)=NCc2ccccc2)c2ccccc2n1CC(O)=Nc1ccc(F)c(Cl)c1
SPECTRUMID=CCMSLIB00010111567
61.701401 3818.0 
64.63443 2977.0 
66.745003 3424.0 
80.288139 3137.0 
91.698082 3251.0 
92.050423 3808.0 
102.035294 3793.0 
102.190086 3662.0 
104.050438 3859.0 
104.284782 5032.0 
113.584282 3346.0 
115.055473 13531.0 
116.050827 29664.0 
128.050812 38853.0 
130.066437 50593.0 
132.045746 23480.0 
142.066422 18283.0 
143.061981 6002.0 
144.002258 186701.0 
144.045593 105762.0 
144.081741 6138.0 
148.077225 4302.0 
156.069794 25235.0 
158.048416 101463.0 
158.061432 138834.0 
160.040359 26923.0 
166.998611 3217.0 
169.077576 18532.0 
169.981934 13321.0 
171.055878 3941.0 
172.041153 5588.0 
172.853302 3303.0 
176.071243 36727.0 
184.040451 160600.0 
184.058929 6667.0 
186.056 15061.0 
202.051239 41570.0 
209.033722 6920.0 
235.926117 3835.0 
245.108917 18474.0 
247.123993 362819.0 
248.107224 3547.0 
249.103256 6131.0 
261.103394 113573.0 
261.134705 3901.0 
263.1185 47626.0 
277.098175 129748.0 
277.131073 6567.0 
281.710968 3252.0 
291.114227 54513.0 
317.093384 81535.0 
323.103668 89257.0 
329.005463 5409.0 
329.05011 187828.0 
462.103149 4305915.0 
508.107483 15603.0 
END IONS

BEGIN IONS
NAME=N-cyclopentyl-2-(6-oxo-9-phenylhydropurin-8-ylthio)acetamide CollisionEnergy:205060 M-H
PRECURSOR_MZ=368.119
INCHI="InChI=1S/C18H19N5O2S/c24-14(21-12-6-4-5-7-12)10-26-18-22-15-16(19-11-20-17(15)25)23(18)13-8-2-1-3-9-13/h1-3,8-9,11-12H,4-7,10H2,(H,21,24)(H,19,20,25)"
SMILES=OC(CSc1nc2c(O)ncnc2n1-c1ccccc1)=NC1CCCC1
SPECTRUMID=CCMSLIB00010122624
51.0863 2500.0 
57.975189 60998.0 
60.483189 2555.0 
65.014091 134032.0 
65.998093 69900.0 
66.747131 3185.0 
68.013924 16148.0 
69.009163 3753.0 
76.796509 2455.0 
88.68042 2588.0 
92.025253 105013.0 
93.009323 13548.0 
99.449928 2913.0 
130.059265 2481.0 
134.316299 2494.0 
135.031433 5518.0 
141.045868 859081.0 
142.041138 10965.0 
168.056656 19748.0 
177.797684 2678.0 
183.043732 51105.0 
184.051376 26792.0 
211.062637 678858.0 
214.008499 23392.0 
214.043533 4182.0 
222.054657 5025.0 
227.05632 3424.0 
241.018967 265171.0 
242.026749 411133.0 
243.034363 28893.0 
250.049332 3445.0 
255.035019 20617.0 
257.05069 22549.0 
283.028809 21303.0 
294.134979 3264.0 
368.118652 448723.0 
END IONS

BEGIN IONS
NAME=(2S)-2-[(tert-butoxy)carbonylamino]-3-[benzyloxycarbonyl]propanoic acid CollisionEnergy:205060 M+Na
PRECURSOR_MZ=346.126
INCHI="InChI=1S/C16H21NO6/c1-16(2,3)23-15(21)17-12(14(19)20)9-13(18)22-10-11-7-5-4-6-8-11/h4-8,12H,9-10H2,1-3H3,(H,17,21)(H,19,20)/t12-/m0/s1"
SMILES=CC(C)(C)OC(O)=NC(CC(=O)OCc1ccccc1)C(=O)O
SPECTRUMID=CCMSLIB00010122006
58.313671 2761.0 
67.634003 2344.0 
79.391991 2723.0 
82.390747 3298.0 
88.629738 2494.0 
91.054352 40078.0 
92.368294 2868.0 
104.274384 3128.0 
131.046585 3854.0 
133.572006 2503.0 
138.01619 4400.0 
145.929016 2695.0 
166.670242 2878.0 
171.389359 2453.0 
201.052078 5038.0 
210.575043 4880.0 
229.048447 4143.0 
246.073303 1478039.0 
290.062927 1106600.0 
346.125214 178781.0 
END IONS

BEGIN IONS
NAME=(2E)-3-[2-(phenylmethoxy)phenyl]prop-2-enoic acid CollisionEnergy:205060 M+H-H2O
PRECURSOR_MZ=237.091
INCHI="InChI=1S/C16H14O3/c17-16(18)11-10-14-8-4-5-9-15(14)19-12-13-6-2-1-3-7-13/h1-11H,12H2,(H,17,18)/b11-10+"
SMILES=O=C(O)C=Cc1ccccc1OCc1ccccc1
SPECTRUMID=CCMSLIB00010122809
56.96542 5876.0 
65.039124 18379.0 
77.039322 3258.0 
78.500679 2736.0 
91.054428 1563017.0 
102.22287 2971.0 
103.054298 22181.0 
107.049217 37592.0 
115.05426 311995.0 
121.02935 3209.0 
131.04921 751686.0 
143.049545 11155.0 
152.062256 5402.0 
153.069595 4818.0 
159.044098 2526858.0 
165.069687 44508.0 
166.077545 54645.0 
167.085358 9909.0 
172.027924 4648.0 
176.03009 3673.0 
177.070526 3562.0 
178.077667 147364.0 
179.085602 11325.0 
181.03331 16433.0 
181.065292 3520.0 
181.101227 74363.0 
183.536835 3370.0 
185.036972 4078.0 
186.026154 4157.0 
186.529526 5726.0 
188.021423 2971.0 
190.07785 4196.0 
191.085541 63745.0 
192.093964 3516.0 
193.101135 46123.0 
194.041687 62233.0 
194.072525 67617.0 
195.03038 12885.0 
195.080215 7032.0 
200.070557 51233.0 
201.922318 3828.0 
203.0466 135504.0 
205.548996 39755.0 
209.096085 290138.0 
213.923111 4229.0 
214.482895 3663.0 
214.554688 26333.0 
217.057312 13207.0 
219.080048 51675.0 
222.066818 4246.0 
237.09082 1641902.0 
278.116852 3538.0 
311.24054 3410.0 
329.371613 2728.0 
453.322784 2885.0 
456.247986 2846.0 
END IONS

BEGIN IONS
NAME="8-{[2-(2,5-dimethylphenyl)-5-methyl(1,3-oxazol-4-yl)]methylthio}-9-methylhydro purin-6-one CollisionEnergy:102040" M+Na
PRECURSOR_MZ=404.115
INCHI="InChI=1S/C19H19N5O2S/c1-10-5-6-11(2)13(7-10)18-22-14(12(3)26-18)8-27-19-23-15-16(24(19)4)20-9-21-17(15)25/h5-7,9H,8H2,1-4H3,(H,20,21,25)"
SMILES=Cc1ccc(C)c(-c2nc(CSc3nc4c(O)ncnc4n3C)c(C)o2)c1
SPECTRUMID=CCMSLIB00010107104
66.685493 2623.0 
71.989609 3368.0 
77.331306 2844.0 
87.628281 2830.0 
101.697807 2810.0 
103.925293 2892.0 
132.080551 169120.0 
200.106674 1420227.0 
204.007126 52430.0 
205.015091 303010.0 
281.027069 3120.0 
404.114227 4040693.0 
END IONS

BEGIN IONS
NAME=VITAMIN K1 CollisionEnergy:102040 M+2H]
PRECURSOR_MZ=226.182
INCHI="InChI=1S/C31H46O2/c1-22(2)12-9-13-23(3)14-10-15-24(4)16-11-17-25(5)20-21-27-26(6)30(32)28-18-7-8-19-29(28)31(27)33/h7-8,18-20,22-24H,9-17,21H2,1-6H3/b25-20+"
SMILES=CC(=CCC1=C(C)C(=O)c2ccccc2C1=O)CCCC(C)CCCC(C)CCCC(C)C
SPECTRUMID=CCMSLIB00010112940
55.055038 137720.0 
57.070541 59950.0 
67.054962 803917.0 
69.070511 290581.0 
71.049721 42243.0 
79.054901 405926.0 
81.070503 2361128.0 
82.405243 34924.0 
83.049652 130517.0 
83.086113 521680.0 
85.065178 124202.0 
86.060654 71573.0 
91.054718 218309.0 
93.070503 772982.0 
95.086052 2076666.0 
97.065437 326646.0 
97.101471 213985.0 
99.08078 80459.0 
100.076332 54060.0 
105.070312 201082.0 
107.077957 51282.0 
107.085922 1315079.0 
109.065109 81511.0 
109.101646 379468.0 
111.08062 330913.0 
114.091652 52650.0 
114.728249 29699.0 
117.070107 148277.0 
119.085716 140391.0 
121.101479 540943.0 
123.080528 34867.0 
124.111969 49270.0 
125.096313 136218.0 
127.075539 136806.0 
131.085815 833624.0 
133.100662 114380.0 
135.080536 78386.0 
135.116943 187891.0 
136.510071 33670.0 
145.100677 71312.0 
147.117142 428679.0 
149.096619 35569.0 
149.132706 545404.0 
153.090912 40860.0 
163.147995 1110969.0 
173.132492 2702575.0 
180.174469 286489.0 
181.158127 132315.0 
191.142929 978608.0 
198.184357 115140.0 
208.169861 347494.0 
209.153717 1249490.0 
212.403 48277.0 
226.179993 2265958.0 
227.163727 155231.0 
END IONS

BEGIN IONS
NAME="N-(2H,3H-benzo[3,4-e]1,4-dioxin-6-yl)-2-[2-oxo-4-(piperidylcarbonyl)hydroquino lyl]acetamide CollisionEnergy:102040" M-H
PRECURSOR_MZ=446.172
INCHI="InChI=1S/C25H25N3O5/c29-23(26-17-8-9-21-22(14-17)33-13-12-32-21)16-28-20-7-3-2-6-18(20)19(15-24(28)30)25(31)27-10-4-1-5-11-27/h2-3,6-9,14-15H,1,4-5,10-13,16H2,(H,26,29)"
SMILES=O=C(c1cc(=O)n(CC(O)=Nc2ccc3c(c2)OCCO3)c2ccccc12)N1CCCCC1
SPECTRUMID=CCMSLIB00010114198
82.408203 2777.0 
93.999573 3030.0 
104.292847 2546.0 
109.854446 2453.0 
122.024658 3748.0 
123.459053 2814.0 
128.050552 38035.0 
157.053131 28439.0 
158.025192 5849.0 
174.956284 5133.0 
176.035019 3653.0 
184.040619 50812.0 
185.048843 3874.0 
202.050491 3373.0 
225.139984 11823.0 
227.119049 15058.0 
241.134842 53154.0 
242.943817 3324.0 
243.113556 4530.0 
255.114731 46350.0 
269.129822 80865.0 
271.109131 43028.0 
295.108429 42769.0 
348.911804 2532.0 
429.805511 2651.0 
446.172607 791070.0 
512.35553 2600.0 
637.90448 2935.0 
END IONS

BEGIN IONS
NAME=4'-Methoxyflavonol CollisionEnergy:102040 M+H
PRECURSOR_MZ=269.081
INCHI="InChI=1S/C16H12O4/c1-19-11-8-6-10(7-9-11)16-15(18)14(17)12-4-2-3-5-13(12)20-16/h2-9,18H,1H3"
SMILES=COc1ccc(-c2oc3ccccc3c(=O)c2O)cc1
SPECTRUMID=CCMSLIB00010104729
58.148891 3594.0 
65.03952 4583.0 
67.263969 20114.0 
67.275124 22497.0 
72.506027 5014.0 
103.760277 4528.0 
107.049629 4304.0 
133.065033 24770.0 
137.022827 62290.0 
159.045349 5572.0 
182.071503 8627.0 
210.066925 6556.0 
213.091522 18111.0 
222.020004 5909.0 
223.023453 9221.0 
226.062256 1415333.0 
238.062698 5270.0 
241.085571 29389.0 
252.074982 6374.0 
254.057083 1421420.0 
267.063568 8456.0 
267.945221 9428.0 
268.073914 19343.0 
269.080505 36126468.0 
270.22406 8696.0 
270.256195 7158.0 
END IONS

BEGIN IONS
NAME=adenine CollisionEnergy:102040 M+H
PRECURSOR_MZ=136.062
INCHI="InChI=1S/C5H5N5/c6-4-3-5(9-1-7-3)10-2-8-4/h1-2H,(H3,6,7,8,9,10)"
SMILES=Nc1nc[nH]c2ncnc1-2
SPECTRUMID=CCMSLIB00010102923
55.030102 246689.0 
56.385399 186484.0 
66.751297 198526.0 
67.0298 974057.0 
81.152901 232546.0 
82.4076 306008.0 
92.025101 388476.0 
92.389198 265393.0 
94.040497 7436560.0 
104.302002 246201.0 
109.051003 1625240.0 
112.051003 1318880.0 
119.035004 23732500.0 
135.054001 345780.0 
135.653 925801.0 
136.061996 884492992.0 
136.227005 254046.0 
136.473999 715569.0 
137.046005 23845700.0 
END IONS

BEGIN IONS
NAME=2-(2-chlorophenyl)-4-oxochromen-3-yl propanoate CollisionEnergy:205060 M+H
PRECURSOR_MZ=329.058
INCHI="InChI=1S/C18H13ClO4/c1-2-15(20)23-18-16(21)12-8-4-6-10-14(12)22-17(18)11-7-3-5-9-13(11)19/h3-10H,2H2,1H3"
SMILES=CCC(=O)Oc1c(-c2ccccc2Cl)oc2ccccc2c1=O
SPECTRUMID=CCMSLIB00010123368
50.437038 2787.0 
51.023331 3102.0 
53.038979 6581.0 
57.031219 3896.0 
57.03397 59043.0 
68.49321 2710.0 
85.348923 2704.0 
87.551552 2663.0 
92.365532 3312.0 
95.049339 4313.0 
98.984047 54449.0 
104.273857 3756.0 
105.033417 148845.0 
121.028297 183272.0 
122.99913 4828.0 
125.015244 14622.0 
133.02829 166752.0 
133.039688 6149.0 
138.994431 164538.0 
139.00647 6902.0 
150.995193 3785.0 
151.038422 22284.0 
152.062347 3639.0 
153.069458 34364.0 
154.077988 6612.0 
165.069885 39091.0 
166.077225 19153.0 
166.98877 4829.0 
181.064377 137762.0 
182.072495 96667.0 
185.689545 2868.0 
189.04805 3440.0 
193.064926 2763.0 
194.073105 7381.0 
199.031326 43975.0 
209.05928 92782.0 
210.06752 80555.0 
217.041077 46903.0 
220.051468 43902.0 
227.024414 3116.0 
237.054184 692985.0 
238.06218 219529.0 
238.089615 6991.0 
255.019073 12269.0 
273.030792 5396580.0 
315.391144 3105.0 
329.05661 15542.0 
329.106628 3418.0 
END IONS

BEGIN IONS
NAME=e-64 CollisionEnergy:205060 M-H
PRECURSOR_MZ=356.194
INCHI="InChI=1S/C15H27N5O5/c1-8(2)7-9(20-13(22)10-11(25-10)14(23)24)12(21)18-5-3-4-6-19-15(16)17/h8-11H,3-7H2,1-2H3,(H,18,21)(H,20,22)(H,23,24)(H4,16,17,19)/t9-,10-,11-/m0/s1"
SMILES=CC(C)CC(N=C(O)C1OC1C(=O)O)C(O)=NCCCCNC(=N)N
SPECTRUMID=CCMSLIB00010125892
50.913891 1996.0 
58.04071 3565.0 
70.208908 2170.0 
72.009033 3899.0 
87.008659 38550.0 
89.153397 2587.0 
92.378349 2796.0 
110.545486 2514.0 
112.088089 11369.0 
114.092529 13843.0 
155.082626 3567.0 
183.793243 2409.0 
185.149002 4363.0 
185.165649 49718.0 
226.192352 12361.0 
227.1875 31794.0 
251.187378 2691.0 
266.198181 2787.0 
268.180786 5195.0 
268.21402 12615.0 
284.210266 9716.0 
294.193298 4710.0 
312.205139 13783.0 
356.192963 21044.0 
369.52002 2489.0 
END IONS

BEGIN IONS
NAME="8-{[2-(2,3-dimethoxyphenyl)-5-methyl(1,3-oxazol-4-yl)]methylthio}-9-methylhydr opurin-6-one CollisionEnergy:205060" M+Na
PRECURSOR_MZ=436.105
INCHI="InChI=1S/C19H19N5O4S/c1-10-12(8-29-19-23-14-16(24(19)2)20-9-21-17(14)25)22-18(28-10)11-6-5-7-13(26-3)15(11)27-4/h5-7,9H,8H2,1-4H3,(H,20,21,25)"
SMILES=COc1cccc(-c2nc(CSc3nc4c(O)ncnc4n3C)c(C)o2)c1OC
SPECTRUMID=CCMSLIB00010118449
54.587719 3299.0 
55.018299 6698.0 
69.033691 7251.0 
77.468689 3239.0 
79.054993 10392.0 
84.229019 2694.0 
96.044296 6480.0 
103.054131 45397.0 
104.049477 82468.0 
104.291183 2884.0 
105.069931 41706.0 
117.069817 3309.0 
118.6549 3274.0 
120.020981 5190.0 
120.056801 5344.0 
120.995399 3290.0 
121.064827 5782.0 
122.035858 5836.0 
130.064987 45028.0 
131.048981 22614.0 
132.044586 44709.0 
133.065109 4525.0 
134.036011 3136.0 
135.080566 49627.0 
136.040314 4494.0 
137.059708 476941.0 
144.08075 6613.0 
145.064453 7487.0 
146.060165 6462.0 
147.044022 5710.0 
147.068146 5854.0 
147.08075 5083.0 
148.039108 14288.0 
148.05188 6948.0 
148.075333 11842.0 
149.035019 4908.0 
149.047318 101848.0 
149.059296 6260.0 
150.054901 4215.0 
150.12323 2909.0 
151.038803 5622.0 
156.476822 3349.0 
157.052368 36022.0 
158.045532 4219.0 
158.059998 91777.0 
159.067551 14444.0 
160.052338 7418.0 
160.075272 12004.0 
161.06044 25779.0 
161.083252 4840.0 
162.054886 13118.0 
162.067688 115989.0 
162.091171 5342.0 
163.061951 3593.0 
163.075394 17944.0 
164.070557 457633.0 
172.075882 23135.0 
174.05542 21405.0 
175.062363 14154.0 
175.076767 10073.0 
188.071503 22756.0 
189.078629 27077.0 
190.086029 95370.0 
200.070541 25461.0 
201.077805 7162.0 
202.087784 7252.0 
203.071045 3958.0 
204.007324 37891.0 
204.064682 4263.0 
204.101807 7304.0 
204.194672 3339.0 
205.015381 145175.0 
216.066177 13549.0 
217.072968 76594.0 
220.473877 3078.0 
232.096695 783634.0 
238.047806 23748.0 
240.062759 35780.0 
276.715179 3162.0 
308.947418 3374.0 
378.063263 82843.0 
406.057953 12647.0 
420.073914 4759.0 
421.080322 62235.0 
423.638367 3034.0 
436.104492 2394301.0 
END IONS

BEGIN IONS
NAME="2-chlorophenyl 1-(4-nitrophenyl)(1,2,3,4-tetrahydrobeta-carbolin-2-yl) ketone CollisionEnergy:102040" M-H
PRECURSOR_MZ=430.096
INCHI="InChI=1S/C24H18ClN3O3/c25-20-7-3-1-6-19(20)24(29)27-14-13-18-17-5-2-4-8-21(17)26-22(18)23(27)15-9-11-16(12-10-15)28(30)31/h1-12,23,26H,13-14H2"
SMILES=O=C(c1ccccc1Cl)N1CCc2c([nH]c3ccccc23)C1c1ccc([N+](=O)[O-])cc1
SPECTRUMID=CCMSLIB00010113585
60.546791 4183.0 
66.751541 2583.0 
70.220703 2566.0 
104.303719 3137.0 
118.670753 2783.0 
136.040359 4285.0 
139.208862 2649.0 
216.083588 3601.0 
232.076874 5343.0 
233.085114 5602.0 
258.080231 4629.0 
261.066589 54023.0 
262.076691 3108.0 
263.082642 1050920.0 
275.083252 3113.0 
294.058044 11979.0 
394.119873 71355.0 
395.10144 2609.0 
409.974945 5717.0 
429.984406 54369.0 
430.096161 1264241.0 
430.969788 4480.0 
END IONS

BEGIN IONS
NAME=6-Benzylaminopurine riboside;N(6)-Benzyladenosine CollisionEnergy:102040 M+Na
PRECURSOR_MZ=380.133
INCHI="InChI=1S/C17H19N5O4/c23-7-11-13(24)14(25)17(26-11)22-9-21-12-15(19-8-20-16(12)22)18-6-10-4-2-1-3-5-10/h1-5,8-9,11,13-14,17,23-25H,6-7H2,(H,18,19,20)/t11-,13-,14-,17-/m1/s1"
SMILES=OCC1OC(n2cnc3c(NCc4ccccc4)ncnc32)C(O)C1O
SPECTRUMID=CCMSLIB00010105763
50.159809 2349.0 
64.836517 2302.0 
73.583008 3002.0 
92.380722 3577.0 
98.547699 2657.0 
101.59304 2515.0 
112.06469 2616.0 
116.78344 2373.0 
248.090195 39054.0 
267.204865 2534.0 
380.132294 2465463.0 
END IONS

BEGIN IONS
NAME=2-methyl-6-nitro-4(1H)-quinolone CollisionEnergy:205060 M+Na
PRECURSOR_MZ=227.043
INCHI="InChI=1S/C10H8N2O3/c1-11-5-4-10(13)8-6-7(12(14)15)2-3-9(8)11/h2-6H,1H3"
SMILES=CN1C=CC(=O)C2=C1C=CC(=C2)[N+](=O)[O-]
SPECTRUMID=CCMSLIB00010102154
63.986748 3432.302246 
69.922577 3430.876953 
90.976723 144799.609375 
106.212616 4330.207031 
118.709824 4070.417725 
126.151291 3899.387695 
157.864426 3901.306641 
158.964691 22455.412109 
198.531845 4115.13623 
203.937622 4405.210449 
227.041794 31493.175781 
END IONS

BEGIN IONS
NAME=kynurenic acid CollisionEnergy:102040 M+Na
PRECURSOR_MZ=212.032
INCHI="InChI=1S/C10H7NO3/c12-9-5-8(10(13)14)11-7-4-2-1-3-6(7)9/h1-5H,(H,11,12)(H,13,14)"
SMILES=O=C(O)c1cc(=O)c2ccccc2[nH]1
SPECTRUMID=CCMSLIB00010103274
56.276501 5353.080078 
71.9533 4252.419922 
92.4254 4271.5 
104.309998 4895.450195 
126.457001 4813.669922 
136.237 5396.069824 
164.977005 6437.470215 
168.042007 61611.300781 
171.153 5284.490234 
181.649002 4986.560059 
190.309998 4911.600098 
205.988998 5633.200195 
206.988998 33285.800781 
209.003998 4824.680176 
212.031998 191900.0 
212.052994 6946.27002 
212.210999 6419.240234 
END IONS

BEGIN IONS
NAME=N-(2-indol-3-ylethyl)-2-[4-(2-methylpropyl)phenyl]propanamide CollisionEnergy:205060 M+H
PRECURSOR_MZ=349.227
INCHI="InChI=1S/C23H28N2O/c1-16(2)14-18-8-10-19(11-9-18)17(3)23(26)24-13-12-20-15-25-22-7-5-4-6-21(20)22/h4-11,15-17,25H,12-14H2,1-3H3,(H,24,26)"
SMILES=CC(C)Cc1ccc(C(C)C(O)=NCCc2c[nH]c3ccccc23)cc1
SPECTRUMID=CCMSLIB00010115721
52.826382 3126.0 
57.070381 244711.0 
72.068123 3494.0 
79.054604 6587.0 
79.74324 3483.0 
82.395348 4093.0 
91.054337 191601.0 
100.139847 3531.0 
103.054176 68463.0 
105.069923 545621.0 
108.264374 3448.0 
115.054321 50351.0 
116.048973 3770.0 
117.069901 351183.0 
118.065163 19623.0 
118.077606 45396.0 
119.085564 987910.0 
128.049194 17830.0 
128.061554 6372.0 
130.065735 5518.0 
132.080887 46369.0 
133.101257 14852.0 
142.066025 5662.0 
143.072998 185231.0 
143.085754 8078.0 
144.080795 8456368.0 
145.065247 26297.0 
146.060745 6903.0 
150.091644 7599.0 
155.059937 34283.0 
159.091446 5181.0 
159.11705 3857.0 
161.108963 554781.0 
161.13237 2699572.0 
164.536148 3317.0 
170.096268 6488.0 
172.074753 4153.0 
206.153763 192125.0 
232.112045 13109.0 
232.169434 23273.0 
269.313019 4224.0 
274.122345 4337.0 
304.205566 14129.0 
320.198181 7463.0 
332.200439 265921.0 
349.22702 1204819.0 
END IONS

BEGIN IONS
NAME="2,2',4'-Trihydroxychalcone CollisionEnergy:205060" M+H
PRECURSOR_MZ=257.081
INCHI="InChI=1S/C15H12O4/c16-11-6-7-12(15(19)9-11)14(18)8-5-10-3-1-2-4-13(10)17/h1-9,16-17,19H/b8-5+"
SMILES=O=C(C=Cc1ccccc1O)c1ccc(O)cc1O
SPECTRUMID=CCMSLIB00010117444
53.00259 3213.0 
53.03904 13517.0 
63.02338 2917.0 
68.997482 21486.0 
81.033783 358200.0 
82.410744 2977.0 
91.053963 4727.0 
92.049377 3905.0 
96.020737 43598.0 
103.054329 25008.0 
104.302971 4494.0 
109.028458 23495.0 
111.007843 20987.0 
120.044609 30735.0 
127.039101 31184.0 
127.818878 3182.0 
137.023361 7442321.0 
147.0439 18361.0 
169.064682 21263.0 
197.06012 13214.0 
211.801727 3738.0 
215.069595 12389.0 
235.594269 3884.0 
239.06958 72121.0 
257.080444 282915.0 
END IONS

BEGIN IONS
NAME=Trp-gly CollisionEnergy:205060 2M-H
PRECURSOR_MZ=521.215
INCHI="InChI=1S/C13H15N3O3/c14-10(13(19)16-7-12(17)18)5-8-6-15-11-4-2-1-3-9(8)11/h1-4,6,10,15H,5,7,14H2,(H,16,19)(H,17,18)"
SMILES=NC(Cc1c[nH]c2ccccc12)C(O)=NCC(=O)O
SPECTRUMID=CCMSLIB00010122570
51.98941 2430.0 
72.657188 2772.0 
72.662132 2491.0 
73.958504 2876.0 
74.024223 20421.0 
82.405197 2870.0 
87.056068 3818.0 
99.908722 2287.0 
104.29303 3472.0 
112.985802 16849.0 
118.664688 4076.0 
130.066559 6067.0 
131.046478 11814.0 
151.002762 2536.0 
174.110443 2830.0 
174.764252 2833.0 
208.963684 10834.0 
217.989746 2968.0 
248.961075 4414.0 
260.104004 66964.0 
278.471283 2492.0 
316.595398 2653.0 
335.977448 3193.0 
END IONS

BEGIN IONS
NAME=uridine CollisionEnergy:102040 M-H
PRECURSOR_MZ=243.062
INCHI="InChI=1S/C9H12N2O6/c12-3-4-6(14)7(15)8(17-4)11-2-1-5(13)10-9(11)16/h1-2,4,6-8,12,14-15H,3H2,(H,10,13,16)/t4-,6-,7-,8-/m1/s1"
SMILES=O=c1nc(O)ccn1[C@@H]1O[C@H](CO)[C@@H](O)[C@H]1O
SPECTRUMID=CCMSLIB00010126432
66.034698 1547520.0 
82.029602 2701880.0 
86.691002 295821.0 
96.0457 307772.0 
110.025002 25643500.0 
111.019997 1781710.0 
117.262001 239696.0 
122.025002 1407360.0 
124.040001 546747.0 
140.035004 3144830.0 
152.035004 6316480.0 
153.031006 2721230.0 
189.778 324148.0 
200.057007 15041800.0 
212.619995 333756.0 
243.061996 11577600.0 
END IONS

BEGIN IONS
NAME=2-({[4-(tert-butyl)phenyl]sulfonyl}amino)-3-indol-3-ylpropanoic acid CollisionEnergy:102040 2M-H
PRECURSOR_MZ=799.284
INCHI="InChI=1S/C21H24N2O4S/c1-21(2,3)15-8-10-16(11-9-15)28(26,27)23-19(20(24)25)12-14-13-22-18-7-5-4-6-17(14)18/h4-11,13,19,22-23H,12H2,1-3H3,(H,24,25)"
SMILES=CC(C)(C)c1ccc(S(=O)(=O)NC(Cc2c[nH]c3ccccc23)C(=O)O)cc1
SPECTRUMID=CCMSLIB00010109984
56.752491 3615.0 
63.962009 32531.0 
70.752243 3712.0 
72.008827 45009.0 
72.395844 3615.0 
81.549339 4314.0 
82.258163 3979.0 
89.531914 4114.0 
92.396713 5589.0 
93.48777 4413.0 
116.050171 18847.0 
142.066223 147426.0 
186.056091 83814.0 
197.064346 1914739.0 
208.10228 17761.0 
212.075348 108169.0 
291.186127 6811.0 
324.928009 4051.0 
399.138733 4467418.0 
444.946381 4247.0 
799.284058 76361.0 
END IONS

BEGIN IONS
NAME=lupinidine CollisionEnergy:205060 M+2H]
PRECURSOR_MZ=118.112
INCHI="InChI=1S/C15H26N2/c1-3-7-16-11-13-9-12(14(16)5-1)10-17-8-4-2-6-15(13)17/h12-15H,1-11H2/t12-,13-,14-,15+/m0/s1"
SMILES=C1CCN2CC3CC(CN4CCCCC34)C2C1
SPECTRUMID=CCMSLIB00010124395
53.467258 2444.0 
55.934891 4537.0 
56.049919 23638.0 
56.302181 2748.0 
57.07045 22394.0 
58.065559 61845.0 
58.76342 2700.0 
59.07333 49864.0 
59.930729 3383.0 
62.049858 447403.0 
62.548458 4869.0 
62.551472 21945.0 
67.054588 6819.0 
67.552193 14066.0 
68.049843 11539.0 
69.057663 18742.0 
69.07032 11418.0 
70.065567 13116.0 
72.937233 4934.0 
76.933144 56259.0 
77.073097 36134.0 
79.054367 3988.0 
80.049751 12803.0 
81.567749 6608.0 
82.064934 10210.0 
83.07309 4266.0 
84.080818 61443.0 
90.080849 3010047.0 
90.582603 275602.0 
90.947517 3395.0 
93.069771 5789.0 
94.064911 14166.0 
94.943604 21094.0 
95.085381 37508.0 
95.583214 101905.0 
96.085152 5521.0 
97.08857 39559.0 
97.558693 3929.0 
98.096603 20325.0 
99.086029 114116.0 
99.587692 5879.0 
103.245262 2846.0 
104.096199 3667.0 
104.291924 3213.0 
105.06955 3569.0 
108.08049 61360.0 
109.598709 15840.0 
110.096313 6961.0 
110.593933 13711.0 
117.780647 3448.0 
117.958763 6251.0 
118.086311 290374.0 
118.111908 4251086.0 
118.61364 611736.0 
123.091423 260969.0 
124.094353 12069.0 
134.09613 6571.0 
136.112289 15091.0 
137.107178 260673.0 
138.110397 13762.0 
138.624695 21223.0 
150.114227 4892.0 
150.127289 67644.0 
162.12709 22523.0 
164.143326 20920.0 
165.467972 3019.0 
167.154266 2914.0 
178.158859 32252.0 
179.135956 3701.0 
179.153809 110878.0 
180.157715 4461.0 
190.158768 37179.0 
191.163086 3767.0 
192.174408 2834.0 
193.169601 386001.0 
194.173294 38786.0 
206.189667 6273.0 
207.185593 16880.0 
211.72908 4519.0 
218.189697 68111.0 
219.192657 4718.0 
END IONS

BEGIN IONS
NAME="pentyl 6-(3-chloro-4-hydroxy-5-methoxyphenyl)-3,4-dimethyl-2-oxo-1,3,6-trihydr opyrimidine-5-carboxylate CollisionEnergy:102040" M-H
PRECURSOR_MZ=395.138
INCHI="InChI=1S/C19H25ClN2O5/c1-5-6-7-8-27-18(24)15-11(2)22(3)19(25)21-16(15)12-9-13(20)17(23)14(10-12)26-4/h9-10,16,23H,5-8H2,1-4H3,(H,21,25)"
SMILES=CCCCCOC(=O)C1=C(C)N(C)C(O)=NC1c1cc(Cl)c(O)c(OC)c1
SPECTRUMID=CCMSLIB00010108366
55.265491 2581.0 
58.613998 2796.0 
60.549549 2892.0 
68.995552 3474.0 
73.035599 3069.0 
96.045448 3386.0 
104.305801 3520.0 
107.613503 2746.0 
110.445381 2416.0 
112.985626 2652.0 
115.271439 2898.0 
130.992325 22215.0 
141.982544 3791.0 
146.938324 16902.0 
168.989761 5725.0 
178.20842 2720.0 
180.989273 12170.0 
184.016861 16000.0 
190.928848 26545.0 
222.032623 6226.0 
249.019028 4795.0 
258.915253 10463.0 
259.193787 2663.0 
264.04303 12319.0 
280.982635 5175.0 
326.906311 3002.0 
330.980103 229830.0 
337.109009 266557.0 
350.98819 4808.0 
352.132416 876989.0 
354.979706 34715.0 
374.987579 34177.0 
380.110168 4047.0 
383.48764 3194.0 
394.97937 71856.0 
395.138153 472782.0 
811.607727 2567.0 
END IONS

BEGIN IONS
NAME=6-Hydroxynicotinic acid CollisionEnergy:102040 M+H
PRECURSOR_MZ=140.034
INCHI="InChI=1S/C6H5NO3/c8-5-2-1-4(3-7-5)6(9)10/h1-3H,(H,7,8)(H,9,10)"
SMILES=O=C(O)c1ccc(O)nc1
SPECTRUMID=CCMSLIB00010113186
50.19289 2236.0 
54.043839 2323.0 
54.947369 3655.0 
57.695599 2274.0 
57.9352 4712.0 
58.247589 2775.0 
60.957932 2541.0 
61.011028 26141.0 
62.990379 15932.0 
63.99818 70020.0 
65.006104 3212.0 
65.436821 2424.0 
69.989601 2459.0 
70.942169 11533.0 
72.516472 3243.0 
74.096771 113072.0 
78.033943 17779.0 
78.994888 3697.0 
79.016708 4942.0 
79.02153 99488.0 
80.789513 2855.0 
82.00843 5404.0 
88.000214 25644.0 
88.952339 2981.0 
88.998009 11546.0 
92.387283 2317.0 
93.477638 3280.0 
95.828491 2435.0 
96.044456 15646.0 
97.005363 9526.0 
99.990997 3339.0 
101.484596 14697.0 
102.482384 21293.0 
108.99646 20775.0 
109.010193 6920.0 
109.994133 27995.0 
110.008728 26640.0 
110.489861 67088.0 
110.49807 3189.0 
110.9916 9163.0 
111.487717 90287.0 
111.968758 4799.0 
112.039146 35974.0 
112.229477 2912.0 
114.089073 12289.0 
116.972214 21937.0 
117.504372 4567.0 
118.001617 52312.0 
118.502792 10656.0 
118.999474 84016.0 
119.495239 11361.0 
120.493317 13841.0 
128.004654 3359.0 
131.994736 14680.0 
132.498611 224857.0 
132.99971 15032.0 
139.605637 4040.0 
140.034256 3650046.0 
140.067581 162729.0 
140.465836 3486.0 
140.996124 7976.0 
157.010666 3533.0 
159.006546 106121.0 
END IONS

BEGIN IONS
NAME=tetrandrine CollisionEnergy:205060 M+2H]
PRECURSOR_MZ=312.159
INCHI="InChI=1S/C38H42N2O6/c1-39-15-13-25-20-32(42-4)34-22-28(25)29(39)17-23-7-10-27(11-8-23)45-33-19-24(9-12-31(33)41-3)18-30-36-26(14-16-40(30)2)21-35(43-5)37(44-6)38(36)46-34/h7-12,19-22,29-30H,13-18H2,1-6H3/t29-,30-/m0/s1"
SMILES=COc1ccc2cc1Oc1ccc(cc1)CC1c3cc(c(OC)cc3CCN1C)Oc1c(OC)c(OC)cc3c1C(C2)N(C)CC3
SPECTRUMID=CCMSLIB00010117119
55.018311 10219.0 
56.049999 10771.0 
57.057941 24938.0 
58.065609 71046.0 
65.039177 27489.0 
65.439987 4290.0 
66.046829 5503.0 
67.054764 11888.0 
69.03421 5171.0 
76.894379 5275.0 
77.03923 8338.0 
79.054443 118880.0 
79.059258 5408.0 
81.033707 7487.0 
81.070091 64394.0 
83.273399 4451.0 
91.054337 322096.0 
91.060883 11113.0 
92.062233 103108.0 
93.070343 34433.0 
94.041161 34422.0 
95.049171 75869.0 
95.91291 4665.0 
99.043961 21085.0 
103.054222 127945.0 
104.062271 8532.0 
104.802032 4560.0 
105.0336 6769.0 
105.069878 156696.0 
105.077454 7412.0 
106.041 6713.0 
107.049057 586418.0 
108.057343 109705.0 
109.06488 143615.0 
110.977768 4714.0 
115.054123 90346.0 
116.062279 5028.0 
117.056953 4723.0 
117.060112 5548.0 
117.069717 106199.0 
119.049263 38917.0 
119.058952 6312.0 
119.085472 21789.0 
120.056381 6899.0 
120.08046 6670.0 
121.064774 422472.0 
122.036201 19287.0 
122.072617 1258069.0 
123.044273 33819.0 
123.075279 47319.0 
127.03862 4443.0 
128.061768 37236.0 
129.069824 61289.0 
130.041092 20929.0 
130.064789 7140.0 
130.076996 5727.0 
131.049179 122783.0 
131.073059 20221.0 
131.084778 7409.0 
132.056854 33674.0 
132.080902 34227.0 
133.064804 166076.0 
133.088608 6919.0 
134.072601 64570.0 
135.04422 28207.0 
135.080185 80404.0 
136.075684 10228.0 
136.088303 5353.0 
137.059692 325078.0 
138.06601 8334.0 
141.07048 8291.0 
143.049088 54641.0 
143.0858 5556.0 
144.057129 46751.0 
144.069107 5347.0 
144.080475 40421.0 
145.064713 248772.0 
146.060318 9404.0 
146.072327 66502.0 
146.096024 48010.0 
147.043976 27272.0 
147.067719 10747.0 
147.080048 78778.0 
148.051727 10173.0 
148.074997 45340.0 
149.059723 43361.0 
149.083588 28116.0 
149.095276 7311.0 
150.067627 18923.0 
150.09137 10989.0 
151.075363 76057.0 
152.062363 6771.0 
153.054932 5477.0 
153.068802 15999.0 
155.06012 24465.0 
157.064575 10238.0 
158.072754 198356.0 
158.095642 9995.0 
159.044159 10342.0 
159.067627 11188.0 
159.080414 62396.0 
159.104355 26154.0 
160.052567 39507.0 
160.075333 118095.0 
160.088486 22315.0 
160.111481 6613.0 
161.060043 122727.0 
161.083054 156045.0 
161.097733 7145.0 
162.067093 23612.0 
162.091125 75516.0 
163.063416 6914.0 
163.075775 78618.0 
163.098358 8336.0 
164.070663 43236.0 
164.107513 10452.0 
165.07019 30689.0 
165.091019 36474.0 
166.077026 9226.0 
166.566971 5978.0 
167.069656 23335.0 
167.08548 56601.0 
168.09169 5605.0 
169.064987 9237.0 
170.072739 23400.0 
171.080154 22888.0 
172.075027 21974.0 
173.059448 154781.0 
173.084824 15218.0 
174.067154 55703.0 
174.091202 331386.0 
175.080582 385512.0 
175.098755 143772.0 
175.582245 48788.0 
176.047043 7100.0 
176.070099 53917.0 
176.085312 47447.0 
176.106812 76383.0 
177.054169 10645.0 
177.078125 104644.0 
178.08725 134949.0 
179.086121 70149.0 
180.090851 7708.0 
181.064545 37835.0 
181.081833 8986.0 
181.100952 6168.0 
182.072083 18348.0 
182.08873 19896.0 
182.590561 7310.0 
183.079483 26291.0 
183.096802 7021.0 
184.088013 28402.0 
185.078171 5756.0 
185.095337 23086.0 
186.067688 9013.0 
187.099533 24694.0 
188.083771 348503.0 
188.105942 32471.0 
189.075867 80336.0 
189.114929 11826.0 
190.086121 327788.0 
190.589706 19671.0 
191.06842 10939.0 
191.091537 87410.0 
192.065811 41706.0 
192.102386 102110.0 
193.072098 9794.0 
193.102325 27056.0 
194.07193 38932.0 
195.080322 122434.0 
196.087341 44304.0 
197.058899 19810.0 
197.095184 46071.0 
198.067307 27892.0 
198.101807 506685.0 
198.603073 61642.0 
199.074905 23475.0 
199.111526 19834.0 
200.082962 34922.0 
202.084869 30204.0 
203.087311 27442.0 
204.066833 56040.0 
204.101654 244277.0 
205.066147 32157.0 
205.107605 40629.0 
206.081711 196890.0 
206.116394 31866.0 
207.080261 88191.0 
208.088242 99605.0 
208.596405 8839.0 
209.06102 10808.0 
209.096237 84665.0 
210.066528 26046.0 
210.102203 25290.0 
211.075394 123161.0 
211.111603 18699.0 
212.082016 52103.0 
212.581161 20467.0 
213.090927 200700.0 
214.095535 29181.0 
217.064133 7630.0 
218.073395 31010.0 
219.080399 77708.0 
220.091217 71308.0 
221.059143 29093.0 
221.095856 92701.0 
222.067261 9900.0 
222.104156 59254.0 
222.610794 7325.0 
223.075867 80124.0 
223.111053 44293.0 
224.082962 98848.0 
225.090958 88797.0 
226.098007 31645.0 
227.106522 155379.0 
228.109787 20264.0 
228.592804 21454.0 
231.079468 10005.0 
232.088776 10808.0 
233.095993 45446.0 
234.065613 18035.0 
234.103973 44510.0 
235.075211 68138.0 
235.111603 28352.0 
235.602859 21262.0 
236.082428 67364.0 
236.103745 7816.0 
236.121902 10468.0 
237.090393 106793.0 
238.098297 84480.0 
239.069168 10829.0 
239.106918 142046.0 
240.078735 8491.0 
240.112625 43035.0 
241.08638 25246.0 
241.123047 31404.0 
247.074463 32915.0 
248.081467 37108.0 
249.09021 66653.0 
250.098862 63872.0 
251.074036 11169.0 
251.106018 151663.0 
252.076752 17389.0 
252.115662 44301.0 
253.085815 67299.0 
253.120667 33650.0 
254.092697 30033.0 
254.120956 6983.0 
255.068024 6718.0 
255.101242 29093.0 
256.106812 6757.0 
257.117126 6866.0 
260.084198 6843.0 
260.930359 7112.0 
261.0914 22250.0 
262.097717 24574.0 
263.070923 21330.0 
263.10675 45987.0 
264.078461 19762.0 
264.114075 23666.0 
265.085388 42601.0 
265.120026 20475.0 
266.090454 37335.0 
267.10022 75253.0 
268.108856 33289.0 
269.082306 11154.0 
269.116425 30325.0 
272.11322 7603.0 
273.615601 24180.0 
275.106781 5865.0 
276.077148 8826.0 
277.084869 11495.0 
277.118744 6093.0 
278.093353 23667.0 
279.100891 135711.0 
280.10498 38160.0 
281.082123 16467.0 
281.118073 72011.0 
281.615112 11185.0 
282.123291 11480.0 
283.097137 27652.0 
283.132874 11025.0 
284.10141 6574.0 
285.113861 6507.0 
288.927368 10824.0 
289.126221 50708.0 
290.638824 62381.0 
291.101654 10804.0 
291.13797 8085.0 
292.108124 5915.0 
293.11261 6905.0 
294.090454 10313.0 
294.124634 124329.0 
295.095032 65025.0 
295.121796 11914.0 
295.130035 11244.0 
296.102112 8004.0 
296.143158 7794.0 
296.63797 566101.0 
297.140808 116067.0 
297.645569 102799.0 
298.14624 19087.0 
301.118469 5977.0 
304.646332 51113.0 
308.129242 7933.0 
309.111877 6431.0 
310.118591 29838.0 
310.734222 7562.0 
311.657135 7710.0 
312.158997 12381788.0 
312.660461 2651268.0 
313.122345 22227.0 
319.120575 8995.0 
320.128113 100872.0 
321.131927 8017.0 
322.14563 8320.0 
323.126801 6148.0 
324.119354 6591.0 
325.119659 6457.0 
326.13623 9233.0 
327.100647 8742.0 
327.138641 9453.0 
329.116547 8687.0 
330.120575 6491.0 
332.127625 25546.0 
332.671722 19525.0 
333.126434 8816.0 
335.139954 43223.0 
337.118347 8132.0 
337.158752 8133.0 
338.136597 21071.0 
339.141113 9579.0 
340.153442 125295.0 
341.115021 19873.0 
341.157867 18494.0 
342.120483 9943.0 
343.131958 11554.0 
344.14209 8787.0 
345.14917 6845.0 
348.119446 7490.0 
349.154236 27387.0 
350.136841 51900.0 
351.139862 11096.0 
352.149139 8213.0 
354.169342 9369.0 
355.132996 10586.0 
356.142822 6264.0 
357.106903 8435.0 
357.148102 25716.0 
359.123657 6791.0 
361.145142 7574.0 
363.170807 7970.0 
364.150787 7667.0 
365.153778 7668.0 
366.169922 90957.0 
369.150787 9857.0 
371.122833 17191.0 
373.142853 20537.0 
374.14978 5901.0 
378.169617 22103.0 
379.16452 31889.0 
381.18158 159544.0 
382.186249 8750.0 
383.125916 7022.0 
383.198029 9293.0 
384.137756 8491.0 
385.144714 6453.0 
387.120209 8943.0 
395.196228 18888.0 
396.160339 33633.0 
397.145233 8046.0 
399.157684 10723.0 
410.176636 98563.0 
411.168335 9883.0 
412.151825 106635.0 
413.158142 11378.0 
424.151581 6428.0 
426.167053 18872.0 
428.191986 10489.0 
429.155975 25405.0 
431.16037 6456.0 
440.183716 6197.0 
442.164337 52993.0 
442.212524 18796.0 
443.169067 21864.0 
444.174866 8159.0 
455.196686 9217.0 
456.219421 52746.0 
458.195923 58976.0 
462.205627 39607.0 
463.208893 5815.0 
470.197327 7059.0 
472.214111 8056.0 
475.198944 72207.0 
476.203796 10367.0 
490.198853 32860.0 
491.187805 20119.0 
501.238556 115451.0 
502.24234 18879.0 
503.186523 33396.0 
504.179169 23301.0 
505.202301 8418.0 
506.21582 6256.0 
508.245148 59383.0 
509.24527 6974.0 
517.201782 8798.0 
518.194824 66447.0 
519.187256 36580.0 
520.206665 6850.0 
534.22467 113280.0 
535.223083 10135.0 
536.238464 33151.0 
537.237305 6493.0 
548.241882 10302.0 
549.227905 37643.0 
550.221191 29088.0 
564.236328 53870.0 
565.239624 10615.0 
580.268921 714349.0 
581.273132 121612.0 
END IONS

BEGIN IONS
NAME=cholic acid CollisionEnergy:102040 2M-H
PRECURSOR_MZ=815.568
INCHI="InChI=1S/C24H40O5/c1-13(4-7-21(28)29)16-5-6-17-22-18(12-20(27)24(16,17)3)23(2)9-8-15(25)10-14(23)11-19(22)26/h13-20,22,25-27H,4-12H2,1-3H3,(H,28,29)/t13-,14+,15-,16-,17+,18+,19-,20+,22+,23+,24-/m1/s1"
SMILES=CC(CCC(=O)O)C1CCC2C3C(O)CC4CC(O)CCC4(C)C3CC(O)C12C
SPECTRUMID=CCMSLIB00010108867
92.381943 5117.0 
104.290176 5842.0 
112.985153 27560.0 
137.896072 5136.0 
343.265625 51667.0 
345.280609 31900.0 
353.242737 6952.0 
363.290375 95140.0 
389.270203 34149.0 
405.136749 6518.0 
407.280762 13883289.0 
408.2836 128601.0 
475.269257 12034.0 
611.244446 6907.0 
679.233948 24255.0 
815.569885 3040768.0 
816.580078 34627.0 
END IONS

BEGIN IONS
NAME="Brefeldin A, natural CollisionEnergy:102040" M+H
PRECURSOR_MZ=281.175
INCHI="InChI=1S/C16H24O4/c1-11-5-3-2-4-6-12-9-13(17)10-14(12)15(18)7-8-16(19)20-11/h4,6-8,11-15,17-18H,2-3,5,9-10H2,1H3/b6-4+,8-7+/t11-,12?,13-,14+,15+/m0/s1"
SMILES=CC1CCCC=CC2CC(O)CC2C(O)C=CC(=O)O1
SPECTRUMID=CCMSLIB00010112939
53.002651 16655.0 
53.287731 2697.0 
55.018349 11638.0 
55.054668 29512.0 
57.034061 12891.0 
57.07029 20522.0 
63.46666 3331.0 
67.054604 157957.0 
67.058678 5299.0 
67.680153 2625.0 
69.070236 63587.0 
71.013237 4810.0 
71.049477 13012.0 
71.085777 12345.0 
73.028717 41333.0 
79.054581 58063.0 
81.033737 31556.0 
81.070122 290656.0 
82.37648 3162.0 
83.013329 3982.0 
83.049294 14022.0 
83.085762 59613.0 
85.028526 5183.0 
85.065117 5802.0 
85.10128 35671.0 
91.054199 49444.0 
93.033539 4837.0 
93.069939 94700.0 
95.04924 35663.0 
95.085571 190103.0 
97.064537 6467.0 
97.101189 19403.0 
99.007668 155519.0 
99.043793 3281.0 
99.080437 228425.0 
100.803909 2847.0 
101.016228 5451.0 
101.023354 110660.0 
101.030907 5016.0 
103.053917 10953.0 
104.256447 2873.0 
105.069817 90615.0 
107.049011 15399.0 
107.085503 67445.0 
109.028374 27703.0 
109.064743 13002.0 
109.101257 48092.0 
111.044189 22332.0 
111.080551 16913.0 
113.059578 16237.0 
113.096024 75118.0 
117.069832 64306.0 
119.04879 16047.0 
119.085548 76613.0 
121.028427 12282.0 
121.064796 26653.0 
121.101067 50194.0 
123.043907 13035.0 
123.080147 6769.0 
123.116577 33579.0 
125.096008 12926.0 
127.038483 22605.0 
129.069763 47050.0 
131.048965 12465.0 
131.085434 75056.0 
133.064743 110664.0 
133.100998 55156.0 
135.080322 45547.0 
135.116623 29758.0 
137.059631 29172.0 
137.132248 22336.0 
139.038864 120773.0 
139.074738 21335.0 
141.05455 23768.0 
141.127747 3406.0 
143.085495 45333.0 
145.064835 16400.0 
145.100967 42861.0 
145.623917 3051.0 
146.041702 3161.0 
147.043854 17334.0 
147.080322 53978.0 
147.116592 31992.0 
149.059708 63800.0 
149.095734 20389.0 
149.132843 36998.0 
151.038467 6945.0 
151.075073 64125.0 
151.111771 4748.0 
155.084717 3472.0 
157.049393 22561.0 
157.064789 17353.0 
157.101105 52804.0 
157.930695 3813.0 
159.080307 20943.0 
159.116608 44649.0 
160.124161 3462.0 
161.059464 30548.0 
161.096222 28412.0 
161.132751 42998.0 
163.07518 34623.0 
163.110611 3377.0 
163.148041 118085.0 
165.054413 37523.0 
165.09082 23730.0 
165.163467 15444.0 
167.070328 51483.0 
167.085312 5874.0 
167.105804 3688.0 
169.100708 3137.0 
171.080124 19749.0 
171.117081 22687.0 
173.096375 5896.0 
173.132416 37697.0 
175.075378 42252.0 
175.111877 15949.0 
175.148026 29085.0 
177.090378 19646.0 
179.069977 31447.0 
179.106369 13474.0 
181.084808 4142.0 
181.101105 6022.0 
183.117126 16476.0 
185.0802 21488.0 
185.096344 16691.0 
185.13237 126806.0 
187.111206 3319.0 
189.0914 28498.0 
189.127075 6424.0 
189.163864 62045.0 
191.105576 5587.0 
191.14238 5549.0 
193.085587 12630.0 
195.101105 14565.0 
199.114288 5265.0 
199.148056 214343.0 
201.127151 12363.0 
201.163925 12053.0 
203.106781 16772.0 
203.143082 17160.0 
205.122147 5232.0 
207.100052 4492.0 
209.132919 30599.0 
210.128906 3171.0 
217.121536 6404.0 
217.158524 182592.0 
219.137787 16583.0 
221.154373 6724.0 
227.142746 101636.0 
227.167114 4514.0 
234.951218 43567.0 
235.132339 3782.0 
235.142578 3801.0 
235.168655 44583.0 
245.15332 478066.0 
257.967255 71084.0 
263.16391 351695.0 
263.197357 5269.0 
280.985046 6624.0 
281.138336 19796.0 
281.174438 372856.0 
291.827881 3235.0 
299.062195 5933.0 
END IONS

BEGIN IONS
NAME=cephradine CollisionEnergy:205060 M-H
PRECURSOR_MZ=348.102
INCHI="InChI=1S/C16H19N3O4S/c1-8-7-24-15-11(14(21)19(15)12(8)16(22)23)18-13(20)10(17)9-5-3-2-4-6-9/h2-3,6,10-11,15H,4-5,7,17H2,1H3,(H,18,20)(H,22,23)/t10-,11-,15-/m1/s1"
SMILES=CC1=C(C(=O)O)N2C(=O)C(N=C(O)C(N)C3=CCC=CC3)C2SC1
SPECTRUMID=CCMSLIB00010125944
51.302212 2326.0 
54.284771 2175.0 
57.975208 4129.0 
58.995602 8948.0 
65.151222 2509.0 
70.982971 2450.0 
73.96418 2098.0 
80.495697 2153.0 
84.008949 2533.0 
92.025322 2841.0 
92.391472 2580.0 
96.04528 2438.0 
97.004677 4000.0 
100.022652 20370.0 
106.065536 2595.0 
111.019791 3280.0 
112.040329 58685.0 
114.038269 5076.0 
120.988327 2435.0 
123.020088 10979.0 
124.040176 19146.0 
126.038193 17503.0 
131.345627 2457.0 
134.060959 16956.0 
135.827713 2752.0 
137.035675 3514.0 
150.031067 5458.0 
155.999893 5157.0 
157.996918 2467.0 
158.027817 22715.0 
164.176468 2520.0 
177.067764 8540.0 
187.052444 2971.0 
189.066833 18424.0 
191.082672 24433.0 
201.067001 17298.0 
202.074188 3933.0 
203.083298 11332.0 
206.754349 3058.0 
226.062408 3721.0 
227.117401 3025.0 
233.039185 4691.0 
235.054672 100902.0 
237.071152 12296.0 
243.189331 2631.0 
258.124939 47811.0 
270.12439 72295.0 
273.733154 2312.0 
314.115784 12755.0 
321.141815 2316.0 
END IONS

BEGIN IONS
NAME=2-(4-fluorophenyl)-3-hydroxy-7-methylchromen-4-one CollisionEnergy:205060 M+H
PRECURSOR_MZ=271.077
INCHI="InChI=1S/C16H11FO3/c1-9-2-7-12-13(8-9)20-16(15(19)14(12)18)10-3-5-11(17)6-4-10/h2-8,19H,1H3"
SMILES=Cc1ccc2c(=O)c(O)c(-c3ccc(F)cc3)oc2c1
SPECTRUMID=CCMSLIB00010117914
51.023472 18593.0 
55.01836 5594.0 
60.296211 2662.0 
65.038933 29087.0 
67.054527 10618.0 
71.029503 15131.0 
73.743011 2827.0 
79.018097 4559.0 
79.054398 14641.0 
88.020432 2759.0 
91.054237 119438.0 
103.054176 5896.0 
107.029129 24294.0 
107.048393 21052.0 
109.044739 22031.0 
109.064499 16776.0 
113.039368 5379.0 
119.049049 335098.0 
119.058632 14738.0 
123.023933 606275.0 
135.024063 14973.0 
135.043823 264427.0 
147.043884 160210.0 
151.018372 5397.0 
152.061234 21584.0 
159.060837 15226.0 
163.019348 5632.0 
165.054153 20050.0 
165.069611 17287.0 
166.077606 4444.0 
166.366653 3029.0 
167.084946 34620.0 
172.068237 10469.0 
176.061401 21675.0 
177.069305 44777.0 
178.078201 6498.0 
179.085541 11445.0 
183.059998 28279.0 
184.067932 25737.0 
187.091782 10355.0 
195.079773 27194.0 
196.068069 76204.0 
197.075958 144364.0 
199.055481 13869.0 
200.062546 56928.0 
212.063614 6118.0 
215.08551 34693.0 
223.074524 15158.0 
225.070206 24150.0 
228.056595 14282.0 
242.0728 23419.0 
251.069427 24282.0 
253.06546 49778.0 
255.044113 17989.0 
256.052063 15778.0 
270.065186 10872.0 
271.075897 3623486.0 
272.240326 3587.0 
END IONS

BEGIN IONS
NAME=amino-N-[2-(2-methylindol-3-yl)ethyl]amide CollisionEnergy:102040 M+Na
PRECURSOR_MZ=240.111
INCHI="InChI=1S/C12H15N3O/c1-8-9(6-7-14-12(13)16)10-4-2-3-5-11(10)15-8/h2-5,15H,6-7H2,1H3,(H3,13,14,16)"
SMILES=Cc1[nH]c2ccccc2c1CCNC(=N)O
SPECTRUMID=CCMSLIB00010106896
50.256931 2221.0 
57.573559 2500.0 
61.497429 2299.0 
72.054604 2234.0 
74.184547 2311.0 
87.20015 2309.0 
95.196777 2364.0 
105.462761 2527.0 
119.502274 2088.0 
151.009293 3307.0 
156.285202 2706.0 
239.147736 2876.0 
240.110413 2977131.0 
241.080429 3678.0 
END IONS

BEGIN IONS
NAME=N-(3-chlorophenyl)-2-[2-oxo-4-(pyrrolidinylcarbonyl)hydroquinolyl]acetamide CollisionEnergy:205060 M+H
PRECURSOR_MZ=410.127
INCHI="InChI=1S/C22H20ClN3O3/c23-15-6-5-7-16(12-15)24-20(27)14-26-19-9-2-1-8-17(19)18(13-21(26)28)22(29)25-10-3-4-11-25/h1-2,5-9,12-13H,3-4,10-11,14H2,(H,24,27)"
SMILES=O=C(c1cc(=O)n(CC(O)=Nc2cccc(Cl)c2)c2ccccc12)N1CCCC1
SPECTRUMID=CCMSLIB00010125005
70.065666 19866.0 
82.065407 20558.0 
82.406548 2653.0 
83.59079 2740.0 
84.081078 176879.0 
96.044479 20080.0 
98.06015 226307.0 
98.096451 5463.0 
112.075706 6629.0 
114.055077 4254.0 
128.049408 18655.0 
130.064987 28979.0 
133.051971 5275.0 
136.748901 2935.0 
144.862381 3733.0 
146.060089 5292.0 
156.044266 16483.0 
156.080719 4220.0 
158.060181 67472.0 
160.075333 15306.0 
169.075729 32317.0 
183.091461 3803.0 
184.112778 2808.0 
185.071564 4658.0 
186.055023 142700.0 
187.058487 2873.0 
188.072739 3380.0 
194.096893 2976.0 
196.098251 3306.0 
199.123291 4729.0 
211.122833 50123.0 
213.065826 30302.0 
227.117279 29692.0 
243.112762 307611.0 
253.937454 3078.0 
255.112671 586593.0 
258.132294 11332.0 
259.107178 5153.0 
259.134857 3937.0 
269.128174 5358.0 
270.131287 16341.0 
271.134918 22599.0 
283.107574 848403.0 
296.139709 21591.0 
296.173492 3145.0 
298.126495 17862.0 
299.097931 6325.0 
299.132172 36443.0 
567.845703 2880.0 
END IONS

BEGIN IONS
NAME=glutathione CollisionEnergy:102040 M+H
PRECURSOR_MZ=308.091
INCHI="InChI=1S/C10H17N3O6S/c11-5(10(18)19)1-2-7(14)13-6(4-20)9(17)12-3-8(15)16/h5-6,20H,1-4,11H2,(H,12,17)(H,13,14)(H,15,16)(H,18,19)/t5-,6-/m0/s1"
SMILES=N[C@@H](CCC(O)=N[C@@H](CS)C(O)=NCC(=O)O)C(=O)O
SPECTRUMID=CCMSLIB00010103061
53.177799 2100.100098 
57.9342 2627.719971 
58.995602 23260.5 
63.343899 2385.090088 
76.022102 333769.0 
76.039803 3756.149902 
82.4133 2823.820068 
84.0448 75321.703125 
86.990799 3054.199951 
102.056 2664.129883 
104.302002 2930.030029 
116.016998 51456.800781 
118.675003 3141.51001 
125.903 2671.780029 
130.039001 4002.070068 
130.050003 75988.0 
142.031998 27145.099609 
144.011002 55185.101562 
158.007004 2893.320068 
162.022003 315909.0 
170.026993 17284.699219 
179.048004 624418.0 
183.442993 2296.709961 
187.054001 11011.099609 
204.380005 2508.840088 
205.063995 3374.699951 
215.048004 22013.800781 
233.057999 188551.0 
245.059006 33219.0 
290.079987 14945.299805 
291.062988 25953.900391 
308.089996 200074.0 
END IONS

BEGIN IONS
NAME="ethyl 1-(2,4-difluorophenyl)-7-chloro-6-fluoro-4-oxohydropyridino[2,3-b]pyridi ne-3-carboxylate CollisionEnergy:102040" M+H
PRECURSOR_MZ=383.04
INCHI="InChI=1S/C17H10ClF3N2O3/c1-2-26-17(25)10-7-23(13-4-3-8(19)5-11(13)20)16-9(14(10)24)6-12(21)15(18)22-16/h3-7H,2H2,1H3"
SMILES=CCOC(=O)c1cn(-c2ccc(F)cc2F)c2nc(Cl)c(F)cc2c1=O
SPECTRUMID=CCMSLIB00010107453
51.919621 2991.0 
65.544151 3263.0 
73.962997 3580.0 
80.784119 3607.0 
93.003098 3834.0 
106.590446 3274.0 
136.227798 3678.0 
163.194702 4103.0 
210.106796 6673.0 
253.996201 7349.0 
281.009247 13159.0 
293.006287 24179.0 
309.002411 116888.0 
310.013275 7028.0 
336.996826 477958.0 
355.007996 9009049.0 
356.76535 5263.0 
357.012024 22523.0 
378.025513 54534.0 
383.039154 5293558.0 
397.059265 5570.0 
END IONS

BEGIN IONS
NAME=EVOXINE CollisionEnergy:205060 M+H
PRECURSOR_MZ=348.144
INCHI="InChI=1S/C18H21NO6/c1-18(2,21)13(20)9-25-12-6-5-10-14(16(12)23-4)19-17-11(7-8-24-17)15(10)22-3/h5-8,13,20-21H,9H2,1-4H3"
SMILES=COc1c2ccoc2nc2c(OC)c(OCC(O)C(C)(C)O)ccc12
SPECTRUMID=CCMSLIB00010116704
55.054859 18561.0 
57.070301 63993.0 
59.049568 300978.0 
65.038933 9294.0 
67.054672 62480.0 
68.700371 3414.0 
79.636414 4284.0 
85.065018 53599.0 
97.975937 4682.0 
104.261177 4965.0 
125.437973 3693.0 
128.049591 7582.0 
142.065125 16270.0 
145.051987 5098.0 
156.044205 73734.0 
157.052505 5342.0 
158.060059 17062.0 
160.07576 5168.0 
170.043579 4102.0 
170.059799 25667.0 
172.039673 8842.0 
173.047211 23601.0 
174.054977 40891.0 
175.062866 7729.0 
184.039062 491096.0 
185.046356 47994.0 
186.054794 94371.0 
187.062271 37094.0 
188.033554 45189.0 
188.053131 5940.0 
188.070557 69021.0 
189.041718 5627.0 
191.273148 3929.0 
198.054459 19172.0 
199.062576 1150952.0 
200.035355 35943.0 
200.070114 92649.0 
201.041794 364414.0 
202.049515 198189.0 
203.056686 15431.0 
212.034698 21591.0 
213.041748 237367.0 
213.076965 6436.0 
214.049637 242831.0 
215.057571 64111.0 
216.028824 789622.0 
216.065308 877164.0 
222.054276 6156.0 
226.049576 41282.0 
227.057419 2079368.0 
228.028809 355062.0 
228.065369 131533.0 
228.084106 4019.0 
229.036621 196700.0 
229.07402 15265.0 
230.044495 392134.0 
230.080292 11004.0 
231.052246 6731290.0 
232.059723 5925.0 
239.057693 8846.0 
240.064621 20220.0 
242.044571 298409.0 
242.076111 13940.0 
243.052216 2318584.0 
244.059952 1633045.0 
245.067673 83220.0 
246.075562 1498432.0 
252.100754 6623.0 
254.080429 157920.0 
255.053146 7182.0 
256.05835 9544.0 
258.075653 1356858.0 
260.054077 7583.0 
265.072662 20669.0 
268.086731 25896.0 
270.076447 6276.0 
272.054352 43906.0 
272.091034 32595.0 
274.07074 26242.0 
280.09671 29352.0 
282.075287 16958.0 
286.106201 24027.0 
312.122131 74359.0 
315.111115 8360.0 
330.132874 2090956.0 
346.471039 5255.0 
348.143494 7710655.0 
349.874817 5326.0 
END IONS

BEGIN IONS
NAME=N-(2-indol-3-ylethyl)[(4-nitrophenyl)methoxy]carboxamide CollisionEnergy:102040 M+formate
PRECURSOR_MZ=384.12
INCHI="InChI=1S/C18H17N3O4/c22-18(25-12-13-5-7-15(8-6-13)21(23)24)19-10-9-14-11-20-17-4-2-1-3-16(14)17/h1-8,11,20H,9-10,12H2,(H,19,22)"
SMILES=O=[N+]([O-])c1ccc(COC(O)=NCCc2c[nH]c3ccccc23)cc1
SPECTRUMID=CCMSLIB00010110774
66.743713 2535.0 
75.060158 3223.0 
80.409302 2289.0 
82.401466 2386.0 
84.589371 2617.0 
100.518044 2462.0 
105.507919 2549.0 
131.624817 2369.0 
152.035461 2403.0 
175.382019 2388.0 
185.072174 156859.0 
188.034943 2823.0 
191.677628 2372.0 
208.32637 11030.0 
220.631744 2872.0 
338.114624 170868.0 
383.995178 3848.0 
407.875732 2399.0 
END IONS

BEGIN IONS
NAME=6-(4-methoxyphenyl)-4-(4-methylphenyl)-2-oxohydropyridine-3-carbonitrile CollisionEnergy:205060 M+H
PRECURSOR_MZ=317.128
INCHI="InChI=1S/C20H16N2O2/c1-13-3-5-14(6-4-13)17-11-19(22-20(23)18(17)12-21)15-7-9-16(24-2)10-8-15/h3-11H,1-2H3,(H,22,23)"
SMILES=COc1ccc(-c2cc(-c3ccc(C)cc3)c(C#N)c(O)n2)cc1
SPECTRUMID=CCMSLIB00010118208
53.039101 3747.0 
56.310299 3438.0 
61.039631 3032.0 
66.739853 2855.0 
71.463516 2825.0 
81.879021 2775.0 
91.054604 10479.0 
92.374252 3328.0 
104.656822 3066.0 
117.069603 4287.0 
121.064697 5023.0 
129.069794 16032.0 
132.63797 3690.0 
133.052246 17748.0 
134.059937 33118.0 
135.043854 13771.0 
142.064484 3014.0 
154.065247 30567.0 
156.080933 17055.0 
181.075943 7089.0 
184.075424 60894.0 
189.438599 3031.0 
204.093658 3946.0 
209.07074 186434.0 
214.064514 3256.0 
215.085281 6527.0 
227.07666 5737.0 
228.080872 4923.0 
229.08931 22608.0 
230.096161 15601.0 
231.106247 49239.0 
232.088821 7412.0 
236.106216 4848.0 
240.080627 26529.0 
241.088013 15751.0 
242.094879 5359.0 
243.10408 4882.0 
244.076309 7303.0 
244.109451 3974.0 
245.108368 40535.0 
246.090439 7633.0 
246.115219 52129.0 
247.098145 54185.0 
248.093933 260431.0 
252.066406 10998.0 
253.076813 5428.0 
254.096603 4620.0 
255.091293 63951.0 
256.09906 1075872.0 
257.082611 101296.0 
257.106323 7152.0 
258.090393 13648.0 
259.084747 58939.0 
266.08252 6212.0 
267.091339 25798.0 
268.099213 29470.0 
269.070618 27158.0 
269.106689 21255.0 
270.088196 3924.0 
272.106812 67198.0 
273.101166 96570.0 
274.109528 1925997.0 
275.093353 7449.0 
283.086792 30636.0 
284.093781 291081.0 
285.10202 14220.0 
287.080688 24205.0 
290.116699 5246.0 
298.111023 10920.0 
299.117279 296819.0 
301.096649 82326.0 
302.10434 488053.0 
316.119293 18684.0 
317.127808 3867388.0 
END IONS

BEGIN IONS
NAME=trehalose CollisionEnergy:102040 M+NH4
PRECURSOR_MZ=360.15
INCHI="InChI=1S/C12H22O11/c13-1-3-5(15)7(17)9(19)11(21-3)23-12-10(20)8(18)6(16)4(2-14)22-12/h3-20H,1-2H2/t3-,4-,5-,6-,7+,8+,9-,10-,11-,12-/m1/s1"
SMILES=OC[C@H]1O[C@H](O[C@H]2O[C@H](CO)[C@@H](O)[C@H](O)[C@H]2O)[C@H](O)[C@@H](O)[C@@H]1O
SPECTRUMID=CCMSLIB00010126886
56.5191 1980.109985 
57.644901 2180.850098 
61.028999 2277.389893 
69.034203 5551.77002 
85.0289 73670.796875 
91.039597 3737.419922 
91.482903 2517.659912 
96.0867 2212.830078 
97.0289 13176.200195 
109.028999 4471.279785 
111.549004 2147.25 
127.039001 25461.400391 
136.238998 2491.939941 
145.048996 92409.203125 
153.041 2680.310059 
163.059998 43105.398438 
180.899994 2227.340088 
196.509995 2518.580078 
198.078003 3263.330078 
198.097 4711.72998 
246.199005 2507.820068 
264.981995 2531.469971 
304.09201 2371.100098 
325.113007 22710.699219 
342.139008 9159.0 
360.148987 37705.800781 
END IONS

BEGIN IONS
NAME="N-[(2,3-dimethoxyphenyl)methyl]-2-(4-hydroxyquinazolin-2-ylthio)acetamide CollisionEnergy:102040" M+Na
PRECURSOR_MZ=408.099
INCHI="InChI=1S/C19H19N3O4S/c1-25-15-9-5-6-12(17(15)26-2)10-20-16(23)11-27-19-21-14-8-4-3-7-13(14)18(24)22-19/h3-9H,10-11H2,1-2H3,(H,20,23)(H,21,22,24)"
SMILES=COc1cccc(CN=C(O)CSc2nc(O)c3ccccc3n2)c1OC
SPECTRUMID=CCMSLIB00010108005
71.650124 2535.0 
82.38839 4133.0 
82.393532 2676.0 
106.304817 2922.0 
109.476723 3012.0 
118.395363 2766.0 
126.8703 2608.0 
134.550507 3002.0 
173.04364 4003.0 
190.084091 20065.0 
200.002579 4544.0 
201.008606 3547.0 
209.032761 5106.0 
215.024216 15465.0 
241.003723 360502.0 
262.05011 25388.0 
264.067963 2724.0 
334.11615 15576.0 
393.076416 5764.0 
408.098145 3683197.0 
END IONS

BEGIN IONS
NAME=Lagochiline CollisionEnergy:102040 M+H
PRECURSOR_MZ=357.264
INCHI="InChI=1S/C20H36O5/c1-14-4-5-15-17(2,12-22)16(24)6-7-18(15,3)20(14)9-8-19(13-23,25-20)10-11-21/h14-16,21-24H,4-13H2,1-3H3/t14?,15?,16?,17-,18-,19?,20?/m0/s1"
SMILES=CC1CCC2C(C)(CO)C(O)CCC2(C)C12CCC(CO)(CCO)O2
SPECTRUMID=CCMSLIB00010107875
55.054958 3067.0 
67.054619 5330.0 
69.070236 5532.0 
71.049606 3717.0 
79.05455 5080.0 
81.070084 27270.0 
83.049347 47178.0 
83.080307 2499.0 
83.085732 5089.0 
92.36161 2560.0 
93.069901 20915.0 
95.085487 50300.0 
97.064819 28960.0 
97.101059 2765.0 
99.080437 3262.0 
105.069687 14693.0 
107.085289 36181.0 
109.100937 29435.0 
111.080597 10843.0 
119.085663 14899.0 
121.101097 36494.0 
123.080391 5890.0 
123.116814 11499.0 
125.095413 8427.0 
131.085297 16872.0 
133.101425 23562.0 
135.080505 3231.0 
135.117203 25824.0 
137.096832 4757.0 
143.085678 3847.0 
145.100876 39238.0 
147.117126 24949.0 
149.096771 3368.0 
149.132446 48501.0 
151.111649 6122.0 
155.106476 3362.0 
157.101089 14407.0 
159.101898 4648.0 
159.116165 36098.0 
161.132248 21784.0 
163.111313 10924.0 
163.148239 5251.0 
165.127853 3259.0 
167.106461 13315.0 
169.101028 4472.0 
171.116257 26773.0 
173.13266 28148.0 
175.148163 43089.0 
177.127258 6320.0 
177.164047 18797.0 
183.116486 10083.0 
185.116684 41576.0 
185.132782 31349.0 
187.14798 25930.0 
189.127029 4108.0 
189.163132 19716.0 
191.142822 14663.0 
193.121155 4886.0 
197.132294 10383.0 
199.148224 31792.0 
201.126862 2982.0 
201.163422 17117.0 
203.142197 11656.0 
205.158524 33407.0 
207.139053 4578.0 
207.174179 47523.0 
209.15332 4717.0 
211.14769 14246.0 
213.1633 19171.0 
215.143738 10228.0 
215.178741 13277.0 
217.158356 5425.0 
221.153366 3411.0 
223.169266 18725.0 
225.163635 13441.0 
227.179077 29092.0 
229.158127 4304.0 
229.19487 15949.0 
233.154068 4602.0 
233.190445 3623.0 
239.178818 5406.0 
241.195099 24779.0 
243.173248 2786.0 
245.18985 71896.0 
255.210327 80844.0 
257.226227 9968.0 
259.206543 3727.0 
261.218903 3336.0 
263.20047 11071.0 
267.209717 33351.0 
273.220856 180209.0 
275.234344 3898.0 
281.210083 14110.0 
285.220734 163185.0 
291.231354 85562.0 
303.231232 262136.0 
309.241852 93739.0 
321.241821 171267.0 
339.252411 101058.0 
357.26236 33595.0 
377.275299 2998.0 
END IONS

BEGIN IONS
NAME="17-[N-(2-hydroxyphenyl)carbamoyl]-1,2,6,6,10,17,20-heptamethyl-12-oxopentacycl o[12.8.0.0<2,11>.0<5,10>.0<15,20>]docos-13-en-7-yl acetate CollisionEnergy:102040" M-H
PRECURSOR_MZ=602.385
INCHI="InChI=1S/C38H53NO5/c1-23(40)44-30-14-15-36(6)29(33(30,2)3)13-16-38(8)31(36)28(42)21-24-25-22-35(5,18-17-34(25,4)19-20-37(24,38)7)32(43)39-26-11-9-10-12-27(26)41/h9-12,21,25,29-31,41H,13-20,22H2,1-8H3,(H,39,43)"
SMILES=CC(=O)OC1CCC2(C)C(CCC3(C)C2C(=O)C=C2C4CC(C)(C(O)=Nc5ccccc5O)CCC4(C)CCC23C)C1(C)C
SPECTRUMID=CCMSLIB00010112560
52.504269 3184.0 
59.013439 13449.0 
82.399582 4163.0 
90.679893 3933.0 
104.283043 3164.0 
107.038147 4391.0 
108.04557 483474.0 
111.868469 4542.0 
118.030159 32887.0 
134.025085 33028.0 
172.076447 15462.0 
303.539093 3163.0 
329.187653 3711.0 
384.672607 3393.0 
524.351929 7605.0 
542.364563 46036.0 
584.373962 28732.0 
602.386108 4373976.0 
END IONS

BEGIN IONS
NAME="4-[(2,6-dimethoxyphenoxy)methyl]hydroquinolin-2-one CollisionEnergy:205060" M+H
PRECURSOR_MZ=312.123
INCHI="InChI=1S/C18H17NO4/c1-21-15-8-5-9-16(22-2)18(15)23-11-12-10-17(20)19-14-7-4-3-6-13(12)14/h3-10H,11H2,1-2H3,(H,19,20)"
SMILES=COc1cccc(OC)c1OCc1cc(O)nc2ccccc12
SPECTRUMID=CCMSLIB00010115923
60.958111 4901.0 
65.038963 48762.0 
79.735153 4626.0 
85.028793 3912.0 
89.039017 5893.0 
90.046356 26133.0 
92.387306 4178.0 
93.033737 58862.0 
107.048973 19982.0 
109.028008 5878.0 
110.036217 6947.0 
111.044128 63684.0 
115.054367 5300.0 
117.056877 16650.0 
118.040916 9472.0 
124.051788 32024.0 
125.059593 22051.0 
130.06517 327316.0 
131.072617 8899.0 
132.04422 14986.0 
139.038956 427853.0 
140.049332 49063.0 
141.057236 382083.0 
145.052551 5711.0 
146.059738 8841.0 
153.054947 47174.0 
154.062408 1776202.0 
157.987076 4647.0 
158.060104 112533.0 
158.551132 5878.0 
159.067841 13792836.0 
160.073547 3958.0 
167.070892 31248.0 
172.075302 25896.0 
180.080475 20056.0 
181.049332 159551.0 
181.088547 7705.0 
182.083847 4305.0 
184.076492 8806.0 
191.073776 6203.0 
192.080536 26446.0 
194.095688 8862.0 
195.064713 8987.0 
196.075089 51831.0 
198.091629 6969.0 
204.080307 18296.0 
205.087433 17567.0 
206.09668 9428.0 
208.075119 104340.0 
208.274536 19016.0 
209.08313 66472.0 
210.08876 13770.0 
219.067963 16023.0 
220.075363 176733.0 
221.08226 16441.0 
222.054764 17403.0 
222.091003 76618.0 
223.099289 85258.0 
224.072433 4086.0 
224.10611 9058.0 
232.076096 6203.0 
233.08345 137287.0 
234.090134 61586.0 
235.09462 4275.0 
236.070267 215262.0 
236.097702 7036.0 
237.079483 54725.0 
248.070099 67460.0 
249.078522 60430.0 
250.058716 7997.0 
250.085983 122303.0 
251.094482 67166.0 
252.100784 99461.0 
254.081207 74455.0 
255.088104 6341.0 
260.070068 42661.0 
261.078064 89293.0 
262.084991 72055.0 
264.065033 343756.0 
265.073151 50596.0 
266.080597 40447.0 
267.052124 7097.0 
268.096069 19518.0 
269.105377 17132.0 
270.112091 17409.0 
278.080414 86784.0 
279.088684 157055.0 
280.096558 256774.0 
281.06723 29951.0 
282.075775 369407.0 
292.040985 27876.0 
296.091431 252920.0 
297.099152 150063.0 
300.032288 4341.0 
301.047882 23936.0 
311.11145 5780.0 
312.122559 5392161.0 
332.037109 6597.0 
350.990356 3806.0 
END IONS

BEGIN IONS
NAME="(3S,8S,6R,7R)-8-hydroxy-2,2,6,8-tetramethyl-7-[(2-oxochromen-7-yloxy)methyl]bi cyclo[4.4.0]dec-3-yl acetate CollisionEnergy:205060" M+formate
PRECURSOR_MZ=487.234
INCHI="InChI=1S/C26H34O6/c1-16(27)31-22-11-12-25(4)20(24(22,2)3)10-13-26(5,29)21(25)15-30-18-8-6-17-7-9-23(28)32-19(17)14-18/h6-9,14,20-22,29H,10-13,15H2,1-5H3/t20?,21-,22-,25+,26-/m0/s1"
SMILES=CC(=O)OC1CCC2(C)C(COc3ccc4ccc(=O)oc4c3)C(C)(O)CCC2C1(C)C
SPECTRUMID=CCMSLIB00010119131
73.953194 3628.0 
92.380043 2430.0 
104.286423 3532.0 
111.917824 2422.0 
120.79023 2264.0 
136.212875 2831.0 
188.968536 2714.0 
190.982498 2694.0 
211.334579 2900.0 
334.707733 2411.0 
403.819336 2441.0 
END IONS

BEGIN IONS
NAME=syrosingopine CollisionEnergy:102040 M-H
PRECURSOR_MZ=665.272
INCHI="InChI=1S/C35H42N2O11/c1-7-46-35(40)48-31-26(42-3)12-18(13-27(31)43-4)33(38)47-28-14-19-17-37-11-10-22-21-9-8-20(41-2)15-24(21)36-30(22)25(37)16-23(19)29(32(28)44-5)34(39)45-6/h8-9,12-13,15,19,23,25,28-29,32,36H,7,10-11,14,16-17H2,1-6H3/t19-,23+,25-,28-,29+,32+/m1/s1"
SMILES=CCOC(=O)Oc1c(OC)cc(C(=O)OC2CC3CN4CCc5c([nH]c6cc(OC)ccc56)C4CC3C(C(=O)OC)C2OC)cc1OC
SPECTRUMID=CCMSLIB00010110913
51.55022 3326.0 
65.002831 4489.0 
68.997887 3588.0 
81.034111 4370.0 
82.415817 3504.0 
89.02417 85524.0 
90.426697 3666.0 
92.396797 4585.0 
95.013557 5457.0 
95.585083 3649.0 
99.309914 3712.0 
104.308578 4266.0 
112.987556 3665.0 
118.681198 3514.0 
121.029228 30558.0 
123.008652 41739.0 
124.016602 4281.0 
136.987579 6669.0 
137.024292 25622.0 
138.031158 3425.0 
139.003311 27486.0 
139.039841 5104.0 
151.039795 7444.0 
153.018967 16868.0 
153.055542 152643.0 
155.034882 6397.0 
165.019287 4753.0 
166.998642 38313.0 
167.034286 5547.0 
168.005798 7318.0 
181.014389 26691.0 
182.022079 6827.0 
182.46579 3479.0 
183.02977 20155.0 
195.029526 184804.0 
198.080444 4854.0 
209.009399 26387.0 
211.025299 19194.0 
239.018188 23907.0 
240.02623 4940.0 
255.050949 23166.0 
269.066528 156386.0 
322.137299 4090.0 
363.172394 6104.0 
380.173523 49731.0 
395.193848 5685.0 
397.131165 3580.0 
555.175659 14600.0 
563.210144 5891.0 
575.238708 28391.0 
577.219727 18410.0 
578.225891 15802.0 
592.242371 19951.0 
593.250977 115046.0 
606.258118 6340.0 
621.279602 62635.0 
650.246948 78528.0 
665.272095 3113656.0 
666.275146 5486.0 
END IONS

BEGIN IONS
NAME=(2Z)-3-(2-furyl)-2-[(4-methoxyphenyl)carbonylamino]-N-[2-(2-methylindol-3-yl)e thyl]prop-2-enamide CollisionEnergy:205060 M+formate
PRECURSOR_MZ=488.183
INCHI="InChI=1S/C26H25N3O4/c1-17-21(22-7-3-4-8-23(22)28-17)13-14-27-26(31)24(16-20-6-5-15-33-20)29-25(30)18-9-11-19(32-2)12-10-18/h3-12,15-16,28H,13-14H2,1-2H3,(H,27,31)(H,29,30)/b24-16-"
SMILES=COc1ccc(C(=O)NC(=Cc2ccco2)C(O)=NCCc2c(C)[nH]c3ccccc23)cc1
SPECTRUMID=CCMSLIB00010121606
56.261742 2364.0 
73.961121 2300.0 
78.28006 2601.0 
80.703148 2637.0 
85.431313 2894.0 
92.389847 3977.0 
95.574509 2849.0 
105.020027 2450.0 
109.615677 2715.0 
134.938797 2513.0 
225.515915 2691.0 
442.177307 23057.0 
END IONS

BEGIN IONS
NAME=9-methyl-8-{[3-(trifluoromethyl)phenyl]methylthio}hydropurin-6-one CollisionEnergy:205060 M+Na
PRECURSOR_MZ=363.05
INCHI="InChI=1S/C14H11F3N4OS/c1-21-11-10(12(22)19-7-18-11)20-13(21)23-6-8-3-2-4-9(5-8)14(15,16)17/h2-5,7H,6H2,1H3,(H,18,19,22)"
SMILES=Cn1c(SCc2cccc(C(F)(F)F)c2)nc2c(O)ncnc21
SPECTRUMID=CCMSLIB00010121613
59.63958 2349.0 
92.38736 3213.0 
92.562981 2625.0 
108.932823 2648.0 
111.851822 2473.0 
122.301727 2458.0 
131.195541 3192.0 
136.225082 4291.0 
140.972229 2398.0 
157.984695 3038.0 
187.031631 2511.0 
195.035812 2510.0 
204.007446 125384.0 
204.028854 4808.0 
363.049225 2599527.0 
END IONS

BEGIN IONS
NAME=Capsaicin CollisionEnergy:205060 M-H
PRECURSOR_MZ=304.192
INCHI="InChI=1S/C18H27NO3/c1-14(2)8-6-4-5-7-9-18(21)19-13-15-10-11-16(20)17(12-15)22-3/h6,8,10-12,14,20H,4-5,7,9,13H2,1-3H3,(H,19,21)/b8-6+"
SMILES=COc1cc(CN=C(O)CCCCC=CC(C)C)ccc1O
SPECTRUMID=CCMSLIB00010116051
51.51387 1912.0 
58.029259 46074.0 
60.538528 2324.0 
65.587013 2182.0 
66.742889 2084.0 
104.285088 2640.0 
107.042084 2226.0 
137.505783 2318.0 
146.960724 10976.0 
152.035095 3665.0 
168.139297 139542.0 
172.976913 2442.0 
174.955322 10785.0 
190.471069 2017.0 
212.128815 3218.0 
304.153534 9622.0 
304.189728 2878.0 
END IONS

BEGIN IONS
NAME="2',4'-Dihydroxyflavone CollisionEnergy:205060" 2M-H
PRECURSOR_MZ=507.109
INCHI="InChI=1S/C15H10O4/c16-9-5-6-11(12(17)7-9)15-8-13(18)10-3-1-2-4-14(10)19-15/h1-8,16-17H"
SMILES=O=c1cc(-c2ccc(O)cc2O)oc2ccccc12
SPECTRUMID=CCMSLIB00010115115
73.958076 3233.0 
76.02256 2396.0 
89.03933 15057.0 
93.034126 3208.0 
101.797813 2780.0 
104.291603 3165.0 
117.034462 4271.0 
123.045059 13623.0 
133.018387 5914.0 
133.029388 133393.0 
209.060669 36921.0 
253.050613 213681.0 
333.53952 2786.0 
353.898651 2937.0 
393.002167 3368.0 
439.009766 2845.0 
516.551819 2733.0 
END IONS

BEGIN IONS
NAME="N-(2,3-dimethylphenyl)-2-(4-hydroxyquinazolin-2-ylthio)acetamide CollisionEnergy:205060" M+H
PRECURSOR_MZ=340.111
INCHI="InChI=1S/C18H17N3O2S/c1-11-6-5-9-14(12(11)2)19-16(22)10-24-18-20-15-8-4-3-7-13(15)17(23)21-18/h3-9H,10H2,1-2H3,(H,19,22)(H,20,21,23)"
SMILES=Cc1cccc(N=C(O)CSc2nc(O)c3ccccc3n2)c1C
SPECTRUMID=CCMSLIB00010120159
53.03912 5695.0 
54.69994 2689.0 
62.721611 2752.0 
68.749977 2977.0 
73.938148 2824.0 
77.039223 4489.0 
87.591881 2719.0 
91.054024 9533.0 
92.356201 2814.0 
104.049301 41362.0 
104.265503 4600.0 
105.03344 27310.0 
105.069649 35817.0 
107.072891 17692.0 
107.085472 54540.0 
117.069923 19743.0 
118.064743 4574.0 
119.072678 24732.0 
119.08535 17633.0 
119.094833 2978.0 
120.044182 4342.0 
120.080544 14812.0 
121.065002 3915.0 
122.096329 273125.0 
132.044327 3123591.0 
134.096329 173270.0 
145.039246 3670.0 
147.055267 23765.0 
147.067841 51681.0 
150.054855 736688.0 
157.944183 3409.0 
160.076035 23971.0 
162.000412 28989.0 
162.091461 16218.0 
179.028412 3753.0 
191.027084 719102.0 
193.043228 6544.0 
219.022003 2775472.0 
322.098328 4107.0 
340.11084 130743.0 
END IONS

BEGIN IONS
NAME=(2Z)-3-[N-(carboxymethyl)carbamoyl]prop-2-enoic acid CollisionEnergy:205060 M+H
PRECURSOR_MZ=174.04
INCHI="InChI=1S/C6H7NO5/c8-4(1-2-5(9)10)7-3-6(11)12/h1-2H,3H2,(H,7,8)(H,9,10)(H,11,12)/b2-1-"
SMILES=O=C(O)C=CC(O)=NCC(=O)O
SPECTRUMID=CCMSLIB00010125527
53.002701 24122.0 
53.939732 2979.0 
55.018452 6588.0 
55.934952 4297.0 
56.935478 2828.0 
61.229061 2603.0 
68.997887 4383.0 
69.184593 2946.0 
71.013191 172314.0 
72.081047 4719.0 
72.937553 6008.0 
76.039688 408028.0 
82.005211 5108.0 
82.029053 193492.0 
82.393898 2725.0 
90.947861 3280.0 
92.368202 2579.0 
99.00779 1652339.0 
105.935349 2702.0 
110.023727 3520993.0 
113.963791 3789.0 
117.018311 28145.0 
128.0345 39986.0 
129.953476 2741.0 
138.01857 38047.0 
156.029114 239414.0 
174.039825 40278.0 
174.128159 13452.0 
END IONS

BEGIN IONS
NAME=2-[(tert-butoxy)carbonylamino]-6-[(phenylmethoxy)carbonylamino]hexanoic acid CollisionEnergy:102040 M-H
PRECURSOR_MZ=379.187
INCHI="InChI=1S/C19H28N2O6/c1-19(2,3)27-18(25)21-15(16(22)23)11-7-8-12-20-17(24)26-13-14-9-5-4-6-10-14/h4-6,9-10,15H,7-8,11-13H2,1-3H3,(H,20,24)(H,21,25)(H,22,23)"
SMILES=CC(C)(C)OC(O)=NC(CCCCN=C(O)OCc1ccccc1)C(=O)O
SPECTRUMID=CCMSLIB00010108484
66.756523 2608.0 
73.970917 2764.0 
82.419357 2758.0 
92.402283 3449.0 
98.061073 3769.0 
107.050247 48321.0 
110.060738 36282.0 
111.044647 2370.0 
112.985481 6365.0 
125.071617 15966.0 
146.960938 3939.0 
153.066772 76806.0 
154.050583 64624.0 
174.955688 120420.0 
197.056458 1259646.0 
242.9431 66715.0 
292.98288 3002.0 
305.113983 564727.0 
310.933075 5292.0 
358.978424 3149.0 
367.692108 2626.0 
378.979095 30663.0 
379.187378 61502.0 
603.767456 3154.0 
END IONS

BEGIN IONS
NAME=p-coumaric acid CollisionEnergy:102040 M-H
PRECURSOR_MZ=163.04
INCHI="InChI=1S/C9H8O3/c10-8-4-1-7(2-5-8)3-6-9(11)12/h1-6,10H,(H,11,12)/b6-3+"
SMILES=O=C(O)C=Cc1ccc(O)cc1
SPECTRUMID=CCMSLIB00010108348
67.070702 2915.0 
68.340981 3292.0 
92.371246 3102.0 
93.034477 5948.0 
104.276894 2804.0 
117.034233 4168.0 
118.650017 3256.0 
118.711273 3908.0 
118.958252 10169.0 
119.050232 8014744.0 
119.138153 8896.0 
119.390739 3856.0 
162.893951 26902.0 
163.040115 1187847.0 
179.419495 2851.0 
END IONS

BEGIN IONS
NAME=(2-chloro(3-pyridyl))-N-{2-[2-methyl-5-(trifluoromethoxy)indol-3-yl]ethyl}carb oxamide CollisionEnergy:102040 M-H
PRECURSOR_MZ=396.073
INCHI="InChI=1S/C18H15ClF3N3O2/c1-10-12(6-8-24-17(26)13-3-2-7-23-16(13)19)14-9-11(27-18(20,21)22)4-5-15(14)25-10/h2-5,7,9,25H,6,8H2,1H3,(H,24,26)"
SMILES=Cc1[nH]c2ccc(OC(F)(F)F)cc2c1CCN=C(O)c1cccnc1Cl
SPECTRUMID=CCMSLIB00010108010
57.87344 2971.0 
61.987881 5791.0 
73.96978 2882.0 
82.415382 3018.0 
84.990517 6443.0 
104.308647 3563.0 
111.995888 43780.0 
118.677383 3655.0 
155.001785 139129.0 
191.946274 17443.0 
259.933899 3499.0 
283.070099 66506.0 
331.982788 20655.0 
396.073364 2630906.0 
END IONS

BEGIN IONS
NAME=2-methoxyethyl 5-hydroxy-2-methyl-1-benzylbenzo[g]indole-3-carboxylate CollisionEnergy:205060 M+H
PRECURSOR_MZ=390.17
INCHI="InChI=1S/C24H23NO4/c1-16-22(24(27)29-13-12-28-2)20-14-21(26)18-10-6-7-11-19(18)23(20)25(16)15-17-8-4-3-5-9-17/h3-11,14,26H,12-13,15H2,1-2H3"
SMILES=COCCOC(=O)c1c(C)n(Cc2ccccc2)c2c1cc(O)c1ccccc12
SPECTRUMID=CCMSLIB00010121095
59.04961 4439.0 
65.038857 61932.0 
82.410744 3344.0 
91.054237 2217239.0 
92.057373 5518.0 
111.574966 3165.0 
119.078484 3287.0 
126.045959 4544.0 
154.040695 12992.0 
167.07251 47117.0 
194.058914 12300.0 
195.067566 52090.0 
206.222031 2836.0 
222.054626 38499.0 
223.062241 1289557.0 
236.069931 27036.0 
258.127197 4414.0 
267.087494 23832.0 
268.110962 3902.0 
271.097229 3422.0 
286.122009 157696.0 
314.116516 1719980.0 
358.144623 4499.0 
390.163635 28105.0 
END IONS

BEGIN IONS
NAME=3'-Methoxyflavone CollisionEnergy:205060 M+H
PRECURSOR_MZ=253.086
INCHI="InChI=1S/C16H12O3/c1-18-12-6-4-5-11(9-12)16-10-14(17)13-7-2-3-8-15(13)19-16/h2-10H,1H3"
SMILES=COc1cccc(-c2cc(=O)c3ccccc3o2)c1
SPECTRUMID=CCMSLIB00010115022
56.965359 96151.0 
56.968269 6563.0 
57.058979 4541.0 
57.51762 6974.0 
57.994049 4897.0 
65.039101 13582.0 
68.997581 7309.0 
87.678169 5826.0 
91.054497 10776.0 
92.02713 5817.0 
92.372978 5757.0 
93.033691 8727.0 
94.041718 8866.0 
95.049461 79169.0 
98.984413 24314.0 
100.157173 4544.0 
100.381409 4833.0 
103.054398 4423.0 
105.034042 5312.0 
105.070618 6208.0 
111.043877 10933.0 
118.041458 97987.0 
120.021461 9964.0 
121.028488 373754.0 
131.050766 5270.0 
133.064926 111499.0 
135.044479 32612.0 
137.485428 5337.0 
138.031601 29650.0 
139.039551 10305.0 
142.077789 30697.0 
147.044006 6056.0 
159.044388 76480.0 
165.070557 54512.0 
166.0271 5980.0 
166.078201 45146.0 
172.513229 5498.0 
173.017822 10916.0 
175.033386 18456.0 
175.535873 5228.0 
177.069946 29271.0 
178.077667 27668.0 
179.085327 7727.0 
180.025681 80464.0 
180.527649 30521.0 
181.030258 7328.0 
181.064423 9799.0 
182.021606 6970.0 
182.072281 38816.0 
183.52507 6447.0 
189.031097 87666.0 
189.532791 32432.0 
192.529572 8261.0 
194.027023 7322.0 
194.073059 56858.0 
197.096207 25958.0 
201.534561 90291.0 
202.036194 30785.0 
203.02771 35996.0 
203.53035 4477.0 
207.617279 26408.0 
209.060013 29624.0 
209.283707 7243.0 
210.067703 10746175.0 
210.539795 216421.0 
211.041794 66130.0 
211.075378 8538.0 
213.041687 79296.0 
213.544739 30896.0 
221.059784 119857.0 
222.048599 99026.0 
222.06958 8252.0 
222.550049 34040.0 
223.076447 34442.0 
225.053375 23411.0 
225.091324 85826.0 
229.558823 30929.0 
230.062927 10666.0 
233.554855 11463.0 
237.055542 80310.0 
238.062485 4605670.0 
239.069977 36635.0 
251.071609 8889.0 
252.052368 26023.0 
252.076294 28584.0 
253.085892 27846074.0 
254.12587 25911.0 
267.063721 9243.0 
298.14621 11352.0 
END IONS

BEGIN IONS
NAME="N-[4-(methylethyl)phenyl]-2-[2-oxo-4-(2-1,2,3,4-tetrahydroisoquinolylcarbonyl) hydroquinolyl]acetamide CollisionEnergy:205060" M+Na
PRECURSOR_MZ=502.21
INCHI="InChI=1S/C30H29N3O3/c1-20(2)21-11-13-24(14-12-21)31-28(34)19-33-27-10-6-5-9-25(27)26(17-29(33)35)30(36)32-16-15-22-7-3-4-8-23(22)18-32/h3-14,17,20H,15-16,18-19H2,1-2H3,(H,31,34)"
SMILES=CC(C)c1ccc(NC(=O)Cn2c(=O)cc(C(=O)N3CCc4ccccc4C3)c3ccccc32)cc1
SPECTRUMID=CCMSLIB00010125710
61.986671 2809.0 
72.421432 2679.0 
75.883812 3058.0 
81.511574 2695.0 
92.363029 4070.0 
104.269127 3933.0 
118.359177 2747.0 
181.624619 3145.0 
195.194565 3350.0 
309.739197 3335.0 
371.135742 67981.0 
484.195862 6197.0 
502.209381 2473406.0 
END IONS

BEGIN IONS
NAME="N-[2-(2,5-dimethylindol-3-yl)ethyl](3-nitrophenyl)carboxamide CollisionEnergy:102040" M+H
PRECURSOR_MZ=338.15
INCHI="InChI=1S/C19H19N3O3/c1-12-6-7-18-17(10-12)16(13(2)21-18)8-9-20-19(23)14-4-3-5-15(11-14)22(24)25/h3-7,10-11,21H,8-9H2,1-2H3,(H,20,23)"
SMILES=Cc1ccc2[nH]c(C)c(CCN=C(O)c3cccc([N+](=O)[O-])c3)c2c1
SPECTRUMID=CCMSLIB00010108060
66.002411 3706.0 
66.007309 3314.0 
66.762222 3042.0 
74.778252 3641.0 
82.419907 3948.0 
104.310692 4046.0 
115.053963 4389.0 
128.309265 4501.0 
131.074554 9060.0 
131.08548 26332.0 
144.080246 4730.0 
146.096237 25010.0 
150.018738 48854.0 
150.59964 3389.0 
155.085403 5720.0 
156.080811 6304.0 
157.088562 316014.0 
158.095901 54511.0 
159.09993 41220.0 
170.095596 5249.0 
171.104538 56803.0 
171.529984 6201.0 
172.111908 12472699.0 
172.69754 6997.0 
179.057159 8356.0 
193.060577 245483.0 
215.709625 4884.0 
267.042236 4226.0 
303.112427 5369.0 
309.122253 7052.0 
321.122375 69172.0 
326.498596 14409.0 
338.149292 3661509.0 
END IONS

BEGIN IONS
NAME="(3,4-dimethoxyphenyl)-N-{[4-(3-chlorophenyl)piperazinyl]methyl}carboxamide CollisionEnergy:205060" M+H
PRECURSOR_MZ=390.158
INCHI="InChI=1S/C20H24ClN3O3/c1-26-18-7-6-15(12-19(18)27-2)20(25)22-14-23-8-10-24(11-9-23)17-5-3-4-16(21)13-17/h3-7,12-13H,8-11,14H2,1-2H3,(H,22,25)"
SMILES=COc1ccc(C(O)=NCN2CCN(c3cccc(Cl)c3)CC2)cc1OC
SPECTRUMID=CCMSLIB00010123289
56.050098 3011.0 
65.932907 2454.0 
68.04982 3202.0 
70.065483 1255949.0 
82.065399 16880.0 
86.999611 3882.0 
87.298157 3084.0 
92.366142 3228.0 
93.626106 2737.0 
98.083969 12192.0 
125.015327 3226.0 
130.065323 11832.0 
131.072906 6218.0 
138.010406 368176.0 
150.441757 3409.0 
154.041794 4910.0 
165.054749 6919.0 
166.041641 964124.0 
174.115326 20646.0 
178.041931 15149.0 
179.036926 7097.0 
181.052444 6737.0 
193.052078 3640.0 
194.060379 354666.0 
197.083511 3514.0 
208.075897 11589.0 
209.083786 2053516.0 
339.78006 3056.0 
END IONS

BEGIN IONS
NAME=Retinoic acid CollisionEnergy:102040 M+H
PRECURSOR_MZ=301.216
INCHI="InChI=1S/C20H28O2/c1-15(8-6-9-16(2)14-19(21)22)11-12-18-17(3)10-7-13-20(18,4)5/h6,8-9,11-12,14H,7,10,13H2,1-5H3,(H,21,22)/b9-6+,12-11+,15-8+,16-14+"
SMILES=CC(C=CC1=C(C)CCCC1(C)C)=CC=CC(C)=CC(=O)O
SPECTRUMID=CCMSLIB00010113957
50.308121 2308.0 
55.24509 2088.0 
55.786518 2467.0 
57.069698 2427.0 
62.239311 2086.0 
64.419273 2197.0 
66.064484 2023.0 
69.07019 4039.0 
81.069946 4672.0 
95.085403 10344.0 
99.623962 2157.0 
100.323219 2326.0 
104.643806 2096.0 
107.085403 2932.0 
109.101089 5372.0 
119.085617 3473.0 
121.101196 4968.0 
123.116524 37204.0 
133.100723 4705.0 
136.201309 2457.0 
137.131012 2586.0 
145.100967 9098.0 
147.116043 2724.0 
159.116409 12762.0 
161.09552 8957.0 
161.132156 3217.0 
173.096466 3580.0 
173.132294 3369.0 
175.147675 3627.0 
177.091232 8248.0 
179.106781 9801.0 
185.096268 2979.0 
187.111481 4600.0 
201.163284 18563.0 
205.12178 23285.0 
213.126648 3800.0 
217.121262 3182.0 
231.138916 2609.0 
245.152847 8514.0 
255.174927 2245.0 
255.210205 14720.0 
273.306274 2540.0 
283.204712 22750.0 
300.88501 3411.0 
301.142242 35775.0 
301.178009 5153.0 
301.215332 113210.0 
END IONS

BEGIN IONS
NAME="3-[2-(3,4-dimethoxyphenyl)-2-oxoethylidene]-1H-benzo[d]azolidin-2-one CollisionEnergy:102040" M+Na
PRECURSOR_MZ=332.089
INCHI="InChI=1S/C18H15NO4/c1-22-16-8-7-11(9-17(16)23-2)15(20)10-13-12-5-3-4-6-14(12)19-18(13)21/h3-10H,1-2H3,(H,19,21)/b13-10-"
SMILES=COc1ccc(C(=O)C=C2C(O)=Nc3ccccc32)cc1OC
SPECTRUMID=CCMSLIB00010109374
55.96981 2972.0 
58.502449 2096.0 
65.07856 2357.0 
67.682823 2308.0 
82.528427 2498.0 
92.377113 3686.0 
104.282043 2310.0 
122.27845 2358.0 
125.66243 2714.0 
128.629807 2411.0 
185.39389 2589.0 
208.900864 2817.0 
209.238297 4117.0 
209.257019 4482.0 
209.371979 2534.0 
332.089355 1846502.0 
350.10022 3290.0 
END IONS

BEGIN IONS
NAME=monocrotaline CollisionEnergy:205060 M+H
PRECURSOR_MZ=326.16
INCHI="InChI=1S/C16H23NO6/c1-9-13(18)23-11-5-7-17-6-4-10(12(11)17)8-22-14(19)16(3,21)15(9,2)20/h4,9,11-12,20-21H,5-8H2,1-3H3/t9-,11+,12+,15+,16-/m0/s1"
SMILES=CC1C(=O)OC2CCN3CC=C(COC(=O)C(C)(O)C1(C)O)C23
SPECTRUMID=CCMSLIB00010124517
56.050072 8671.0 
57.033939 50084.0 
65.039162 21584.0 
66.046944 10209.0 
67.042068 551879.0 
67.054626 119287.0 
68.049881 298035.0 
69.057793 56473.0 
69.070473 7152.0 
70.065437 10941.0 
70.073059 4940.0 
71.049393 7733.0 
78.046677 7754.0 
79.054497 113638.0 
80.049767 378819.0 
81.033684 6436.0 
81.057663 38108.0 
81.070137 37290.0 
82.060257 8920.0 
82.065376 166406.0 
83.049347 6469.0 
84.044724 23695.0 
84.081131 7337.0 
85.052307 42494.0 
86.06031 46983.0 
87.044144 36541.0 
89.766968 5825.0 
91.054451 130274.0 
92.049553 19727.0 
92.062157 73458.0 
92.375023 6466.0 
93.057457 164853.0 
93.070007 229782.0 
94.065247 1461929.0 
94.077789 56358.0 
95.049316 32205.0 
95.073067 952009.0 
95.084846 24112.0 
96.044518 32625.0 
96.080841 240184.0 
97.065033 22122.0 
99.044037 45467.0 
99.080582 11348.0 
103.054161 75734.0 
104.287323 4681.0 
105.05735 19308.0 
105.069557 43074.0 
106.065132 256876.0 
107.072838 32632.0 
108.05706 5765.0 
108.080757 214423.0 
109.064934 30137.0 
109.088341 36731.0 
110.059967 99553.0 
110.072433 11330.0 
110.09655 73610.0 
111.067787 11901.0 
112.075737 9661.0 
117.070213 7379.0 
118.065117 75102.0 
119.07312 30161.0 
119.085564 4874.0 
120.080833 4381186.0 
121.088608 3952637.0 
122.096367 804583.0 
123.044243 5075.0 
123.103973 20949.0 
124.075027 8274.0 
125.059578 25459.0 
129.069168 4784.0 
134.096451 5921.0 
135.08049 19435.0 
136.075943 56979.0 
136.112167 44732.0 
137.083694 8162.0 
138.09137 764474.0 
139.099091 223054.0 
140.10701 187005.0 
142.086273 6830.0 
146.096298 50782.0 
147.104568 6453.0 
148.112152 39060.0 
149.08345 6525.0 
150.091614 30552.0 
152.070175 8112.0 
153.078354 96110.0 
155.093948 12573.0 
156.101898 225712.0 
163.075638 6332.0 
164.106934 502890.0 
165.115143 8071.0 
166.086075 28530.0 
174.091461 19482.0 
176.105988 7997.0 
180.101273 49626.0 
182.117371 77660.0 
184.09668 248428.0 
185.068283 19062.0 
192.102386 28031.0 
194.117493 1020341.0 
195.125092 152017.0 
195.232666 5270.0 
208.097427 26524.0 
210.112335 88343.0 
212.128204 99772.0 
222.112701 61397.0 
227.115936 36473.0 
228.123199 47316.0 
236.127396 12493.0 
237.13562 509870.0 
238.143463 176352.0 
252.12355 48329.0 
254.137665 60411.0 
270.133972 30264.0 
280.15387 379434.0 
298.164307 200367.0 
298.202118 8416.0 
308.148376 8509.0 
326.159332 10788803.0 
END IONS

BEGIN IONS
NAME="(3,4-dimethoxyphenyl)-N-{[(methylamino)thioxomethyl]amino}carboxamide CollisionEnergy:205060" M+H
PRECURSOR_MZ=270.091
INCHI="InChI=1S/C11H15N3O3S/c1-12-11(18)14-13-10(15)7-4-5-8(16-2)9(6-7)17-3/h4-6H,1-3H3,(H,13,15)(H2,12,14,18)"
SMILES=CN=C(S)NN=C(O)c1ccc(OC)c(OC)c1
SPECTRUMID=CCMSLIB00010121941
51.0233 5448.0 
53.03896 70991.0 
55.381008 2832.0 
58.298141 2543.0 
59.024132 5648.0 
64.527634 2691.0 
65.038788 14737.0 
66.046654 50140.0 
67.054337 3436.0 
68.025917 2837.0 
68.997398 31452.0 
69.033653 13539.0 
71.566498 3302.0 
73.628563 2765.0 
73.964058 3055.0 
74.005966 5740.0 
77.03862 15834.0 
79.017899 6578.0 
79.054298 175694.0 
81.033379 13476.0 
81.069923 47011.0 
82.04126 11234.0 
83.049026 5105.0 
85.028091 4416.0 
91.054047 12455.0 
92.025574 14457.0 
92.392487 3138.0 
94.041138 114346.0 
95.04908 29679.0 
97.028267 4586.0 
98.035942 28721.0 
105.033096 18058.0 
107.012497 4805.0 
107.048714 25422.0 
109.020538 3914.0 
109.028191 59940.0 
109.064499 114286.0 
110.035439 6027.0 
111.007301 23384.0 
121.027748 12433.0 
122.026192 5610.0 
122.035843 138556.0 
124.051559 88899.0 
125.059334 12282.0 
126.0308 84172.0 
137.023132 5052.0 
137.059265 10993.0 
139.074814 89730.0 
141.053894 22015.0 
152.070099 28956.0 
154.025513 16168.0 
154.784439 2864.0 
155.069702 123659.0 
164.505051 3021.0 
165.054092 3325965.0 
180.063263 3181.0 
181.072754 15511.0 
195.883743 4117.0 
197.026062 3589.0 
197.091354 157118.0 
214.052292 11486.0 
239.047211 28323.0 
244.391022 2986.0 
246.896194 2926.0 
253.952454 3231.0 
256.049591 3142.0 
270.089661 5949.0 
278.049896 2659.0 
END IONS

BEGIN IONS
NAME="1,2,6,6,10,17,20-heptamethyl-12-oxo-17-(N-(2-pyridyl)carbamoyl)pentacyclo[12.8 .0.0<2,11>.0<5,10>.0<15,20>]docos-13-en-7-yl acetate CollisionEnergy:102040" M+H
PRECURSOR_MZ=589.4
INCHI="InChI=1S/C37H52N2O4/c1-23(40)43-28-13-14-35(6)27(32(28,2)3)12-15-37(8)30(35)26(41)21-24-25-22-34(5,31(42)39-29-11-9-10-20-38-29)17-16-33(25,4)18-19-36(24,37)7/h9-11,20-21,25,27-28,30H,12-19,22H2,1-8H3,(H,38,39,42)"
SMILES=CC(=O)OC1CCC2(C)C(CCC3(C)C2C(=O)C=C2C4CC(C)(C(O)=Nc5ccccn5)CCC4(C)CCC23C)C1(C)C
SPECTRUMID=CCMSLIB00010104582
55.05479 4535.0 
67.054482 16992.0 
69.070168 8225.0 
78.034233 4256.0 
81.070198 95546.0 
83.049171 9992.0 
83.085709 17739.0 
87.023521 4610.0 
90.172729 4193.0 
92.37719 4563.0 
93.069923 40704.0 
95.049156 16546.0 
95.06041 505707.0 
95.085533 151391.0 
96.04438 57047.0 
97.064667 18619.0 
97.101631 7325.0 
104.285492 4711.0 
105.044548 19380.0 
105.069702 39501.0 
107.049004 4633.0 
107.085442 77669.0 
109.064911 16499.0 
109.101051 62293.0 
111.080269 6562.0 
119.085442 114995.0 
121.039482 186720.0 
121.064598 6658.0 
121.10112 109490.0 
123.080421 9269.0 
123.116943 30076.0 
133.101074 89802.0 
135.08046 7412.0 
135.116592 114178.0 
137.095779 5514.0 
137.132248 16054.0 
143.085632 4639.0 
145.1008 15280.0 
147.080658 6485.0 
147.116562 64293.0 
149.095505 17258.0 
149.13208 35655.0 
151.112671 4591.0 
157.100845 21446.0 
159.116455 31698.0 
161.096436 30758.0 
161.132126 63385.0 
163.111176 4195.0 
163.147797 20115.0 
171.116409 24460.0 
173.132034 78384.0 
175.111908 34840.0 
175.147842 236007.0 
177.163361 85879.0 
185.132263 7097.0 
185.401657 4725.0 
187.111237 5179.0 
187.148453 36304.0 
189.12709 21852.0 
189.163452 428337.0 
191.142838 5122.0 
191.17868 39830.0 
194.892227 4108.0 
197.132584 6229.0 
199.148041 72663.0 
201.127151 7135.0 
201.163925 22326.0 
201.185257 4117.0 
210.445801 9790.0 
211.147766 5672.0 
213.162933 13640.0 
215.143295 16571.0 
215.179749 19427.0 
217.158371 253706.0 
217.195221 9370.0 
225.16391 5342.0 
227.1427 4305.0 
227.17778 7676.0 
229.158798 5334.0 
231.172516 14624.0 
235.168854 31587.0 
239.178513 4865.0 
241.19426 5972.0 
243.207565 5950.0 
253.194962 43323.0 
255.21283 7012.0 
257.189606 7660.0 
267.210876 8866.0 
271.204987 53286.0 
277.179108 58082.0 
283.20578 7281.0 
285.222595 15819.0 
311.210236 122996.0 
321.196747 7412.0 
339.207001 27802.0 
351.267944 5478.0 
363.98526 4327.0 
383.362122 4274.0 
389.31958 34629.0 
393.252869 7771.0 
407.328613 54585.0 
411.287903 4943.0 
449.341858 26004.0 
467.350861 157617.0 
511.368774 15578.0 
529.377563 36189.0 
547.389526 7818.0 
571.387634 76878.0 
589.399292 10938487.0 
END IONS

BEGIN IONS
NAME=(+/-)-Taxifolin CollisionEnergy:102040 M-H
PRECURSOR_MZ=303.051
INCHI="InChI=1S/C15H12O7/c16-7-4-10(19)12-11(5-7)22-15(14(21)13(12)20)6-1-2-8(17)9(18)3-6/h1-5,14-19,21H"
SMILES=O=C1c2c(O)cc(O)cc2OC(c2ccc(O)c(O)c2)C1O
SPECTRUMID=CCMSLIB00010111651
57.034019 11870.0 
66.571503 2410.0 
67.750793 2394.0 
73.950653 3327.0 
83.013428 15909.0 
91.215088 2469.0 
92.375153 3363.0 
95.013184 3327.0 
104.282806 3131.0 
109.029198 10225.0 
117.706177 2646.0 
121.030037 2497.0 
123.045029 4881.0 
125.024353 625710.0 
137.024399 6372.0 
139.040237 2784.0 
149.024475 20761.0 
150.03215 10932.0 
151.003586 42692.0 
151.040039 34118.0 
152.011459 12468.0 
153.019333 47837.0 
157.969452 3013.0 
161.025223 3937.0 
166.924408 10054.0 
174.032257 4870.0 
175.039948 81426.0 
177.019287 225487.0 
178.998535 101178.0 
181.013885 15253.0 
188.047287 4921.0 
189.055344 15524.0 
193.050598 17198.0 
193.811768 2792.0 
199.040054 47760.0 
201.019257 12576.0 
213.055496 5167.0 
215.071045 4764.0 
216.042007 5520.0 
217.028702 3746.0 
217.050735 71993.0 
225.653381 2653.0 
231.065872 10293.0 
235.061951 3911.0 
241.050476 66163.0 
243.029327 11514.0 
257.04483 10171.0 
259.061127 70381.0 
270.978973 2919.0 
275.056519 80458.0 
285.040527 1091282.0 
303.051025 310124.0 
303.081207 5122.0 
332.247284 2742.0 
468.136627 2716.0 
477.196381 2814.0 
END IONS

BEGIN IONS
NAME=Retinoic acid CollisionEnergy:205060 M+H
PRECURSOR_MZ=301.216
INCHI="InChI=1S/C20H28O2/c1-15(8-6-9-16(2)14-19(21)22)11-12-18-17(3)10-7-13-20(18,4)5/h6,8-9,11-12,14H,7,10,13H2,1-5H3,(H,21,22)/b9-6+,12-11+,15-8+,16-14+"
SMILES=CC(C=CC1=C(C)CCCC1(C)C)=CC=CC(C)=CC(=O)O
SPECTRUMID=CCMSLIB00010125281
52.03228 2061.0 
67.054703 4792.0 
69.070198 10729.0 
72.523399 2261.0 
77.092323 2265.0 
79.054466 3113.0 
81.070061 21154.0 
82.403954 2905.0 
91.054611 2769.0 
93.069946 2305.0 
95.085602 13510.0 
101.643463 2189.0 
104.287552 2066.0 
104.295303 2211.0 
105.069801 17018.0 
107.085411 5177.0 
109.100998 11126.0 
117.070267 2435.0 
119.08551 12279.0 
120.370087 2021.0 
121.100807 4183.0 
123.116928 32952.0 
131.085663 12877.0 
133.100998 12265.0 
143.085922 2894.0 
145.101318 17030.0 
147.116653 9917.0 
157.101425 4339.0 
159.080688 2825.0 
159.116287 20441.0 
161.096237 12213.0 
171.115601 4097.0 
173.131973 4481.0 
175.148071 2948.0 
177.090088 3019.0 
185.130463 2789.0 
187.110886 2236.0 
187.147812 4206.0 
191.106476 2951.0 
201.163574 11303.0 
205.122025 10251.0 
245.151611 3143.0 
255.210709 4788.0 
283.206421 9942.0 
300.884521 5274.0 
300.925659 1998.0 
301.138855 12891.0 
301.215973 48174.0 
END IONS

BEGIN IONS
NAME="2-[(6-methyl-6-azabicyclo[4.4.0]dec-2-yl)methyl]benzo[c]azoline-1,3-dione, iod ide CollisionEnergy:102040" M
PRECURSOR_MZ=313.191
INCHI="InChI=1S/C19H25N2O2/c1-21-11-5-4-10-17(21)14(7-6-12-21)13-20-18(22)15-8-2-3-9-16(15)19(20)23/h2-3,8-9,14,17H,4-7,10-13H2,1H3/q+1"
SMILES=C[N+]12CCCCC1C(CN1C(=O)c3ccccc3C1=O)CCC2
SPECTRUMID=CCMSLIB00010104465
58.06559 2672550.0 
74.731956 46580.0 
84.08091 60201.0 
91.463768 50469.0 
93.069847 65077.0 
110.096893 51966.0 
111.493179 46369.0 
118.624977 51820.0 
130.892197 56345.0 
135.116379 95277.0 
136.088486 43776.0 
136.112579 52400.0 
136.177811 69069.0 
160.038544 532750.0 
166.158157 343955.0 
209.167679 66329.0 
311.760376 66797.0 
312.182648 92856.0 
313.19046 244504512.0 
314.629944 69848.0 
END IONS

BEGIN IONS
NAME=salicin CollisionEnergy:205060 M+Na
PRECURSOR_MZ=309.094
INCHI="InChI=1S/C13H18O7/c14-5-7-3-1-2-4-8(7)19-13-12(18)11(17)10(16)9(6-15)20-13/h1-4,9-18H,5-6H2/t9-,10-,11+,12-,13-/m1/s1"
SMILES=OCc1ccccc1OC1OC(CO)C(O)C(O)C1O
SPECTRUMID=CCMSLIB00010124021
50.50264 2536.0 
53.41848 2455.0 
58.960869 155746.0 
60.378792 2492.0 
62.55154 2597.0 
66.729912 2745.0 
72.690773 2151.0 
73.479172 2194.0 
73.941071 2378.0 
74.931084 4649.0 
76.9711 11869.0 
84.959877 20959.0 
111.3638 2915.0 
118.63485 2483.0 
129.668198 2544.0 
136.974243 243446.0 
147.040863 11206.0 
147.970886 2790.0 
152.008469 2450.0 
154.984787 357367.0 
163.792252 2708.0 
170.955109 6267.0 
172.995422 84109.0 
174.900055 6390.0 
178.000076 4602.0 
185.041382 23419.0 
188.966339 4394.0 
192.91124 20132.0 
201.841446 2855.0 
210.920822 4999.0 
214.98793 102369.0 
216.797195 3133.0 
230.958405 5187.0 
232.998398 18767.0 
248.899551 12814.0 
248.970856 102282.0 
248.999786 5329.0 
266.911469 15544.0 
266.981293 55723.0 
271.986603 2814.0 
290.476624 3097.0 
309.093811 2299617.0 
END IONS

BEGIN IONS
NAME=64-86-8 CollisionEnergy:102040 M+formate
PRECURSOR_MZ=444.166
INCHI="InChI=1S/C22H25NO6/c1-12(24)23-16-8-6-13-10-19(27-3)21(28-4)22(29-5)20(13)14-7-9-18(26-2)17(25)11-15(14)16/h7,9-11,16H,6,8H2,1-5H3,(H,23,24)"
SMILES=COc1cc2c(c(OC)c1OC)-c1ccc(OC)c(=O)cc1C(N=C(C)O)CC2
SPECTRUMID=CCMSLIB00010104999
71.885681 2293.0 
73.801079 2678.0 
85.0513 2190.0 
94.324287 2448.0 
118.821854 2287.0 
143.908401 3006.0 
307.916168 2622.0 
347.883453 3949.0 
415.864105 2762.0 
548.995544 2762.0 
END IONS

BEGIN IONS
NAME="(3-amino-6-(2-pyridyl)thiopheno[2,3-b]pyridin-2-yl)-N-(2-indol-3-ylethyl)carbo xamide CollisionEnergy:102040" M+formate
PRECURSOR_MZ=458.129
INCHI="InChI=1S/C23H19N5OS/c24-20-16-8-9-19(18-7-3-4-11-25-18)28-23(16)30-21(20)22(29)26-12-10-14-13-27-17-6-2-1-5-15(14)17/h1-9,11,13,27H,10,12,24H2,(H,26,29)"
SMILES=Nc1c(C(=O)NCCc2c[nH]c3ccccc23)sc2nc(-c3ccccn3)ccc12
SPECTRUMID=CCMSLIB00010109549
57.52232 2216.0 
62.810329 2190.0 
66.754211 2869.0 
73.967033 3195.0 
82.409462 2363.0 
82.41497 2271.0 
94.002563 2584.0 
104.304024 3171.0 
111.051033 2339.0 
126.303558 2777.0 
138.850525 2884.0 
185.071671 46589.0 
209.725754 4374.0 
226.044235 94519.0 
233.295609 2512.0 
276.746002 3203.0 
412.123535 523847.0 
END IONS

BEGIN IONS
NAME="3-(9-methyl-5,6,7-trihydropyrazolo[1,5-c]quinazolin-6-yl)chromen-4-one CollisionEnergy:205060" M+Na
PRECURSOR_MZ=352.106
INCHI="InChI=1S/C20H15N3O2/c1-12-10-17-13-6-2-4-8-16(13)21-20(23(17)22-12)15-11-25-18-9-5-3-7-14(18)19(15)24/h2-11,20-21H,1H3"
SMILES=Cc1cc2n(n1)C(c1coc3ccccc3c1=O)Nc1ccccc1-2
SPECTRUMID=CCMSLIB00010116655
57.405071 2858.0 
58.32864 2965.0 
82.414398 2534.0 
92.394279 2980.0 
92.400726 2435.0 
104.310379 2747.0 
118.680878 2436.0 
134.480133 2881.0 
149.22818 2178.0 
206.096191 2947.0 
289.121826 2905.0 
338.65799 3420.0 
352.10498 2476611.0 
END IONS

BEGIN IONS
NAME=Neohesperidin CollisionEnergy:205060 M+H
PRECURSOR_MZ=611.197
INCHI="InChI=1S/C28H34O15/c1-10-21(33)23(35)25(37)27(39-10)43-26-24(36)22(34)19(9-29)42-28(26)40-12-6-14(31)20-15(32)8-17(41-18(20)7-12)11-3-4-16(38-2)13(30)5-11/h3-7,10,17,19,21-31,33-37H,8-9H2,1-2H3/t10-,17-,19+,21-,22+,23+,24-,25+,26+,27?,28+/m0/s1"
SMILES=COc1ccc(C2CC(=O)c3c(O)cc(OC4OC(CO)C(O)C(O)C4OC4OC(C)C(O)C(O)C4O)cc3O2)cc1O
SPECTRUMID=CCMSLIB00010124992
57.034 31424.0 
67.018349 6207.0 
69.033974 23831.0 
71.0495 141577.0 
73.028763 5991.0 
75.044533 5001.0 
81.033577 3181.0 
83.0495 5335.0 
85.028618 190221.0 
87.044167 2819.0 
92.380508 3197.0 
111.043961 4519.0 
114.775146 3402.0 
117.033478 5772.0 
121.028717 5842.0 
123.044151 4721.0 
125.022972 4269.0 
127.038628 5099.0 
129.054428 31724.0 
135.044022 19104.0 
137.059372 5824.0 
145.02829 12624.0 
147.06517 5437.0 
149.05925 14089.0 
151.039185 5531.0 
151.075836 6162.0 
153.018204 179577.0 
163.038788 30001.0 
165.01825 34118.0 
171.028824 50191.0 
175.038864 3435.0 
177.018631 16127.0 
177.05455 135040.0 
179.033783 23336.0 
183.028625 18757.0 
191.033142 30443.0 
193.089981 3104.0 
195.028595 114018.0 
201.05452 3577.0 
203.033875 6617.0 
207.029205 4703.0 
217.049271 7067.0 
219.028305 37816.0 
231.028915 11417.0 
237.039978 3204.0 
245.044327 14683.0 
257.880646 3370.0 
258.051453 4436.0 
261.039124 7121.0 
263.054504 23473.0 
281.066467 12531.0 
286.046234 12596.0 
287.050354 16303.0 
288.052612 14583.0 
301.070648 17950.0 
302.07431 17272.0 
302.197968 3248.0 
303.085571 268364.0 
315.086731 12409.0 
327.08609 13670.0 
345.096375 43944.0 
369.096252 34767.0 
395.111023 6068.0 
399.109406 3692.0 
411.108093 4513.0 
413.124359 24857.0 
429.118622 6323.0 
431.134491 5400.0 
447.127777 21108.0 
449.140686 12826.0 
465.135437 11633.0 
END IONS

BEGIN IONS
NAME=Aristolochic acid CollisionEnergy:205060 M+Na
PRECURSOR_MZ=364.043
INCHI="InChI=1S/C17H11NO7/c1-23-12-4-2-3-8-9(12)5-11(18(21)22)14-10(17(19)20)6-13-16(15(8)14)25-7-24-13/h2-6H,7H2,1H3,(H,19,20)"
SMILES=COc1cccc2c1cc([N+](=O)[O-])c1c(C(=O)O)cc3c(c12)OCO3
SPECTRUMID=CCMSLIB00010125543
56.639011 1937.0 
57.84288 2017.0 
60.137501 2185.0 
61.233662 2366.0 
78.622719 2429.0 
80.878822 2443.0 
81.028877 2398.0 
82.397263 3018.0 
92.374237 3019.0 
92.380402 2791.0 
93.360497 2230.0 
104.287483 2683.0 
116.673691 2219.0 
136.207153 2408.0 
157.967163 3107.0 
318.049042 17435.0 
364.041901 208211.0 
END IONS

BEGIN IONS
NAME=N-[2-(2-methylindol-3-yl)ethyl]-4-oxo-4-phenylbutanamide CollisionEnergy:102040 M-H
PRECURSOR_MZ=333.161
INCHI="InChI=1S/C21H22N2O2/c1-15-17(18-9-5-6-10-19(18)23-15)13-14-22-21(25)12-11-20(24)16-7-3-2-4-8-16/h2-10,23H,11-14H2,1H3,(H,22,25)"
SMILES=Cc1[nH]c2ccccc2c1CCN=C(O)CCC(=O)c1ccccc1
SPECTRUMID=CCMSLIB00010107657
62.33728 2410.0 
66.938492 2208.0 
68.522797 2363.0 
73.980179 2733.0 
82.001427 2120.0 
86.779533 2117.0 
92.410103 3933.0 
95.733673 2581.0 
97.693771 2711.0 
98.024673 58478.0 
110.518417 2639.0 
112.985619 3187.0 
118.694267 2863.0 
133.065567 13886.0 
158.061111 74237.0 
159.044708 4519.0 
173.108047 14230.0 
176.071274 15435.0 
216.629044 2417.0 
255.114456 2837.0 
292.982788 8749.0 
299.449097 2505.0 
312.988678 3302.0 
314.971985 3479.0 
332.985382 14891.0 
333.160645 347479.0 
END IONS

BEGIN IONS
NAME=2-methoxyethyl 1-{2-[(2-chloro-4-nitrophenyl)amino]ethyl}-5-hydroxy-2-methylbe nzo[g]indole-3-carboxylate CollisionEnergy:102040 M+H
PRECURSOR_MZ=498.143
INCHI="InChI=1S/C25H24ClN3O6/c1-15-23(25(31)35-12-11-34-2)19-14-22(30)17-5-3-4-6-18(17)24(19)28(15)10-9-27-21-8-7-16(29(32)33)13-20(21)26/h3-8,13-14,27,30H,9-12H2,1-2H3"
SMILES=COCCOC(=O)c1c(C)n(CCNc2ccc([N+](=O)[O-])cc2Cl)c2c1cc(O)c1ccccc12
SPECTRUMID=CCMSLIB00010113318
59.049591 4747.0 
85.753067 2842.0 
102.139633 3036.0 
130.035309 2586.0 
140.102631 3288.0 
152.02626 3152.0 
153.033615 27459.0 
155.029877 3244.0 
169.02861 5183.0 
169.931015 3153.0 
183.178024 2944.0 
185.023605 118095.0 
185.399872 3451.0 
187.020721 4703.0 
195.064178 2960.0 
196.075439 13830.0 
199.02652 299821.0 
201.022842 11823.0 
210.090393 12225.0 
215.562943 3215.0 
223.063141 3681.0 
224.070114 792097.0 
225.075729 3621.0 
268.096832 4833.0 
313.126953 3822.0 
367.163208 3088.0 
422.089111 2628212.0 
424.089172 25921.0 
440.097504 5041.0 
466.114777 23270.0 
468.112793 6326.0 
498.132355 95413.0 
END IONS

BEGIN IONS
NAME="2-(5-iodo-2,4-dioxo(1,3-dihydropyrimidinyl))-4-(4-methylphenylcarbonyloxy)-5-[ (4-methylphenylcarbonyloxy)methyl]oxolan-3-yl acetate CollisionEnergy:205060" M-H
PRECURSOR_MZ=647.053
INCHI="InChI=1S/C27H25IN2O9/c1-14-4-8-17(9-5-14)25(33)36-13-20-21(39-26(34)18-10-6-15(2)7-11-18)22(37-16(3)31)24(38-20)30-12-19(28)23(32)29-27(30)35/h4-12,20-22,24H,13H2,1-3H3,(H,29,32,35)"
SMILES=CC(=O)OC1C(OC(=O)c2ccc(C)cc2)C(COC(=O)c2ccc(C)cc2)OC1n1cc(I)c(O)nc1=O
SPECTRUMID=CCMSLIB00010125101
55.50016 2925.0 
59.013439 868561.0 
60.631069 3464.0 
66.746048 4335.0 
92.379204 4540.0 
102.956558 22093.0 
105.865646 3443.0 
112.98558 12573.0 
123.231453 2932.0 
126.669678 2863.0 
126.904961 39825.0 
135.045074 70666.0 
145.119186 2990.0 
145.412613 3132.0 
153.298904 2832.0 
196.643814 2915.0 
223.661331 2661.0 
223.924332 3202.0 
236.916229 50368.0 
238.931686 11391.0 
281.577637 2869.0 
306.920624 13410.0 
450.977539 3790.0 
587.035339 26927.0 
673.90155 3350.0 
END IONS

BEGIN IONS
NAME="5-hydroxy-2-(4-hydroxy-3-methoxyphenyl)-7-[3,4,5-trihydroxy-6-(hydroxymethyl)( 2H-3,4,5,6-tetrahydropyran-2-yloxy)]chromen-4-one CollisionEnergy:205060" 2M-H
PRECURSOR_MZ=923.225
INCHI="InChI=1S/C22H22O11/c1-30-15-4-9(2-3-11(15)24)14-7-13(26)18-12(25)5-10(6-16(18)32-14)31-22-21(29)20(28)19(27)17(8-23)33-22/h2-7,17,19-25,27-29H,8H2,1H3"
SMILES=COc1cc(-c2cc(=O)c3c(O)cc(OC4OC(CO)C(O)C(O)C4O)cc3o2)ccc1O
SPECTRUMID=CCMSLIB00010124341
64.555496 3857.0 
74.625 4961.0 
82.396217 6139.0 
87.205521 3936.0 
130.021271 3938.0 
144.886444 4339.0 
148.062103 3859.0 
174.498123 4587.0 
207.483994 27318.0 
232.959366 3686.0 
255.030045 366167.0 
268.038513 4703.0 
269.045349 18603.0 
283.024994 325693.0 
284.03241 47056.0 
285.041656 9625.0 
297.040527 63325.0 
298.048004 38816.0 
299.055084 16183.0 
303.414032 7782.0 
303.448242 6597.0 
310.34317 4692.0 
313.036896 19924.0 
384.169281 3757.0 
446.083252 32313.0 
461.109222 706539.0 
698.745911 4664.0 
730.437866 4441.0 
END IONS

BEGIN IONS
NAME=glycine CollisionEnergy:102040 M+H
PRECURSOR_MZ=76.0393
INCHI="InChI=1S/C2H5NO2/c3-1-2(4)5/h1,3H2,(H,4,5)"
SMILES=NCC(=O)O
SPECTRUMID=CCMSLIB00010103311
52.1068 1945.910034 
57.449402 1923.26001 
58.0658 116570.0 
59.0737 80029.601562 
62.4823 1895.22998 
65.2771 1905.790039 
66.512398 1770.430054 
70.038399 1977.859985 
76.039902 43615.0 
76.076401 34094.398438 
END IONS

BEGIN IONS
NAME="N-[(3,4-dimethoxyphenyl)methyl](4-oxo(3-hydrophthalazinyl))carboxamide CollisionEnergy:205060" 2M+H
PRECURSOR_MZ=679.251
INCHI="InChI=1S/C18H17N3O4/c1-24-14-8-7-11(9-15(14)25-2)10-19-18(23)16-12-5-3-4-6-13(12)17(22)21-20-16/h3-9H,10H2,1-2H3,(H,19,23)(H,21,22)"
SMILES=COc1ccc(CNC(=O)c2nnc(O)c3ccccc23)cc1OC
SPECTRUMID=CCMSLIB00010123574
65.038803 4362.0 
72.482773 3072.0 
73.788383 3262.0 
79.054482 3742.0 
80.062447 6634.0 
91.054207 24688.0 
107.049217 73099.0 
108.056892 37579.0 
135.043991 16380.0 
136.052109 19980.0 
145.040176 7093.0 
151.075287 1678191.0 
163.050171 5153.0 
191.045258 31582.0 
202.061691 30342.0 
209.471359 6569.0 
237.90361 3329.0 
252.227829 3278.0 
323.112762 3301.0 
340.129791 13055.0 
368.985077 3407.0 
END IONS

BEGIN IONS
NAME="methyl 2-{2-methoxy-4-[(3,4,5-trimethoxyphenyl)carbonylamino]phenoxy}acetate CollisionEnergy:102040" M+formate
PRECURSOR_MZ=450.141
INCHI="InChI=1S/C20H23NO8/c1-24-15-10-13(6-7-14(15)29-11-18(22)27-4)21-20(23)12-8-16(25-2)19(28-5)17(9-12)26-3/h6-10H,11H2,1-5H3,(H,21,23)"
SMILES=COC(=O)COc1ccc(N=C(O)c2cc(OC)c(OC)c(OC)c2)cc1OC
SPECTRUMID=CCMSLIB00010110886
66.746399 2878.0 
82.402206 3420.0 
91.042648 2327.0 
101.522812 2210.0 
104.290428 2879.0 
118.664429 2646.0 
140.713257 2432.0 
208.491501 11341.0 
249.46405 2520.0 
301.058594 11458.0 
312.654053 2534.0 
314.237885 2395.0 
316.082458 298199.0 
331.10611 342654.0 
342.099854 4578.0 
345.862488 3513.0 
357.087738 2527.0 
372.108948 25311.0 
373.115387 3242.0 
374.128326 3282.0 
404.134857 339095.0 
412.342896 2424.0 
END IONS

BEGIN IONS
NAME=5-Hydroxyflavone CollisionEnergy:205060 M+H
PRECURSOR_MZ=239.07
INCHI="InChI=1S/C15H10O3/c16-11-7-4-8-13-15(11)12(17)9-14(18-13)10-5-2-1-3-6-10/h1-9,16H"
SMILES=O=c1cc(-c2ccccc2)oc2cccc(O)c12
SPECTRUMID=CCMSLIB00010116297
52.50219 3150.0 
53.03891 3459.0 
55.018188 5099.0 
56.965439 3472.0 
58.337891 3282.0 
59.524632 4104.0 
62.4646 3705.0 
65.038902 34389.0 
68.99749 120894.0 
69.033943 18558.0 
79.021523 5015.0 
79.427193 4352.0 
81.033707 62708.0 
84.907211 3173.0 
86.347481 3624.0 
95.012917 19317.0 
95.04911 5549.0 
99.612556 3207.0 
103.054199 705012.0 
104.276947 4270.0 
105.033546 52580.0 
109.028198 37181.0 
111.043999 33258.0 
115.054283 4072.0 
121.039162 4038.0 
127.039078 15857.0 
129.033447 247027.0 
133.029007 4954.0 
136.200928 4615.0 
137.023376 1761572.0 
139.053757 58895.0 
141.069672 33100.0 
142.29216 4182.0 
147.044907 4653.0 
152.061508 6641.0 
153.069809 39599.0 
155.033798 302371.0 
155.084396 32583.0 
155.465698 3909.0 
165.069824 260809.0 
169.063812 7718.0 
176.062225 6895.0 
183.080383 22210.0 
193.064041 58460.0 
197.059906 6831.0 
206.226212 4348.0 
211.076614 12820.0 
221.05957 123893.0 
238.059769 27820.0 
238.118347 23091.0 
239.069992 17019586.0 
240.027145 24760.0 
END IONS

BEGIN IONS
NAME=CHELIDONINE CollisionEnergy:102040 M+H-H2O
PRECURSOR_MZ=336.123
INCHI="InChI=1S/C20H19NO5/c1-21-7-13-11(2-3-15-20(13)26-9-23-15)18-14(22)4-10-5-16-17(25-8-24-16)6-12(10)19(18)21/h2-3,5-6,14,18-19,22H,4,7-9H2,1H3/t14-,18-,19+/m0/s1"
SMILES=CN1Cc2c(ccc3c2OCO3)C2C(O)Cc3cc4c(cc3C21)OCO4
SPECTRUMID=CCMSLIB00010105751
65.127274 2497.0 
68.953232 2830.0 
75.447144 2453.0 
75.880386 2338.0 
76.78978 2657.0 
84.921227 2582.0 
88.673698 2719.0 
104.289963 2446.0 
161.059265 2876.0 
176.070312 25783.0 
181.071442 2411.0 
188.070435 77581.0 
217.064438 3972.0 
235.078033 3482.0 
245.058716 6245.0 
247.075012 130058.0 
251.162598 2453.0 
263.069366 2791.0 
265.398895 2762.0 
275.069794 588181.0 
277.085144 2971.0 
280.633972 2926.0 
293.079712 2844.0 
305.080292 510932.0 
307.095123 12262.0 
321.097198 2634.0 
334.108093 5699.0 
336.122467 1319976.0 
END IONS

BEGIN IONS
NAME="2-[(4-methylthiophenyl)sulfonyl]-1,2,3,4-tetrahydroisoquinoline CollisionEnergy:205060" M+Na
PRECURSOR_MZ=342.059
INCHI="InChI=1S/C16H17NO2S2/c1-20-15-6-8-16(9-7-15)21(18,19)17-11-10-13-4-2-3-5-14(13)12-17/h2-9H,10-12H2,1H3"
SMILES=CSc1ccc(S(=O)(=O)N2CCc3ccccc3C2)cc1
SPECTRUMID=CCMSLIB00010117720
65.343643 1842.0 
68.204514 1991.0 
73.133591 2183.0 
84.959709 3168.0 
105.993843 2292.0 
120.567413 2328.0 
244.653824 2486.0 
342.059113 235284.0 
END IONS

BEGIN IONS
NAME=puromycin CollisionEnergy:205060 M+H
PRECURSOR_MZ=472.23
INCHI="InChI=1S/C22H29N7O5/c1-28(2)19-17-20(25-10-24-19)29(11-26-17)22-18(31)16(15(9-30)34-22)27-21(32)14(23)8-12-4-6-13(33-3)7-5-12/h4-7,10-11,14-16,18,22,30-31H,8-9,23H2,1-3H3,(H,27,32)/t14-,15+,16+,18+,22+/m0/s1"
SMILES=COc1ccc(CC(N)C(O)=NC2C(CO)OC(n3cnc4c(N(C)C)ncnc43)C2O)cc1
SPECTRUMID=CCMSLIB00010120407
56.049919 28407.0 
58.065449 13798.0 
60.0448 26325.0 
63.31068 3181.0 
66.533577 3433.0 
66.733948 3672.0 
66.743301 3747.0 
68.049812 5670.0 
69.033836 216456.0 
70.028923 20079.0 
70.893562 3390.0 
71.013077 18578.0 
71.060608 15647.0 
72.044678 78401.0 
82.029213 6190.0 
84.044579 90700.0 
85.028397 8486.0 
86.060349 25027.0 
88.039284 19408.0 
90.054863 3579.0 
91.054207 64214.0 
93.070168 24704.0 
94.039917 5565.0 
96.044472 70546.0 
97.028389 248140.0 
100.039253 25475.0 
102.055023 4641.0 
103.054176 15735.0 
104.288498 4332.0 
105.069763 27493.0 
108.057053 22003.0 
111.056068 4967.0 
112.039284 4026.0 
114.054718 41108.0 
115.039108 5049.0 
117.057404 4551.0 
118.064987 624839.0 
119.072968 44328.0 
121.064682 547601.0 
123.080231 65248.0 
124.039337 56710.0 
125.070717 3264.0 
132.06575 24030.0 
133.064575 32753.0 
135.067917 98392.0 
135.079987 14409.0 
137.060028 3874.0 
142.049789 66398.0 
147.028214 3256.0 
148.075821 3610.0 
149.06955 20997.0 
149.08313 5964.0 
150.091248 2667799.0 
160.060303 213000.0 
160.074615 12685.0 
161.059494 48863.0 
162.077896 8318.0 
164.092957 2185306.0 
174.091415 5059.0 
178.086044 15474.0 
181.060471 4386.0 
184.414291 3658.0 
186.091293 4869.0 
188.078735 7331.0 
192.102081 15711.0 
193.595001 3388.0 
195.598099 3215.0 
200.070908 3817.0 
202.085144 27022.0 
214.084213 3879.0 
232.095901 6836.0 
264.12323 4905.0 
266.983429 3860.0 
281.148621 16072.0 
291.133606 28802.0 
292.117218 34331.0 
309.143738 2070734.0 
454.221039 24151.0 
472.229431 590950.0 
END IONS

BEGIN IONS
NAME="phenylmethyl 1-[4-(4-fluorophenyl)-1,3-thiazol-2-yl]pyrrolidine-2-carboxylate CollisionEnergy:102040" M+H
PRECURSOR_MZ=383.122
INCHI="InChI=1S/C21H19FN2O2S/c22-17-10-8-16(9-11-17)18-14-27-21(23-18)24-12-4-7-19(24)20(25)26-13-15-5-2-1-3-6-15/h1-3,5-6,8-11,14,19H,4,7,12-13H2"
SMILES=O=C(OCc1ccccc1)C1CCCN1c1nc(-c2ccc(F)cc2)cs1
SPECTRUMID=CCMSLIB00010103466
64.222672 3341.0 
65.039078 51393.0 
70.06546 6363.0 
91.054451 3438923.0 
96.57515 3098.0 
120.633133 3145.0 
132.08107 4336.0 
133.251358 3382.0 
138.381042 3414.0 
162.880142 3176.0 
164.888519 3674.0 
172.367767 3031.0 
193.035675 45294.0 
194.843567 3373.0 
205.03569 102144.0 
206.043396 174986.0 
212.959808 3251.0 
220.046555 70561.0 
245.054077 38575.0 
247.069809 219033.0 
248.077362 56237.0 
275.065033 4596.0 
280.067047 103329.0 
291.060425 44294.0 
292.0672 25573.0 
337.117188 45859.0 
344.030914 5277.0 
383.122253 5164891.0 
385.084015 4010.0 
END IONS

BEGIN IONS
NAME=N-(4-fluorophenyl)-2-[2-oxo-4-(N-propylcarbamoyl)hydroquinolyl]acetamide CollisionEnergy:102040 M+H
PRECURSOR_MZ=382.156
INCHI="InChI=1S/C21H20FN3O3/c1-2-11-23-21(28)17-12-20(27)25(18-6-4-3-5-16(17)18)13-19(26)24-15-9-7-14(22)8-10-15/h3-10,12H,2,11,13H2,1H3,(H,23,28)(H,24,26)"
SMILES=CCCN=C(O)c1cc(=O)n(CC(=O)Nc2ccc(F)cc2)c2ccccc12
SPECTRUMID=CCMSLIB00010113450
62.753571 2338.0 
70.065247 2472.0 
74.82579 2291.0 
128.049484 2884.0 
130.064896 32694.0 
143.537079 2440.0 
146.059586 32591.0 
158.059921 52553.0 
176.891907 2571.0 
186.054794 3819.0 
201.065033 4768.0 
215.11734 9175.0 
216.066757 2444.0 
231.112137 58929.0 
243.11235 275393.0 
271.107056 946922.0 
284.138824 4904.0 
END IONS

BEGIN IONS
NAME="cyclooctyl 6-(3-ethoxy-4-hydroxyphenyl)-4-methyl-2-oxo-1,3,6-trihydropyrimidin e-5-carboxylate CollisionEnergy:205060" M-H
PRECURSOR_MZ=401.208
INCHI="InChI=1S/C22H30N2O5/c1-3-28-18-13-15(11-12-17(18)25)20-19(14(2)23-22(27)24-20)21(26)29-16-9-7-5-4-6-8-10-16/h11-13,16,20,25H,3-10H2,1-2H3,(H2,23,24,27)"
SMILES=CCOc1cc(C2NC(O)=NC(C)=C2C(=O)OC2CCCCCCC2)ccc1O
SPECTRUMID=CCMSLIB00010117750
50.15387 2644.0 
52.851929 2592.0 
55.921341 2359.0 
63.195641 2505.0 
68.038193 2240.0 
73.964622 2612.0 
79.146683 2634.0 
81.778992 2726.0 
92.388397 2636.0 
92.995651 4309.0 
104.2995 2902.0 
104.87011 2523.0 
108.990913 3264.0 
109.040573 21973.0 
116.995743 5789.0 
118.992249 11249.0 
133.029373 34248.0 
136.041168 3460.0 
146.024887 2420.0 
153.029678 4917.0 
154.99147 3150.0 
158.038101 8911.0 
158.06105 5557.0 
159.031082 2647.0 
159.045395 5336.0 
160.016785 20168.0 
160.039993 17420.0 
162.02005 2459.0 
163.027954 5527.0 
174.056274 38671.0 
175.064087 41149.0 
176.071518 44988.0 
187.07666 5267.0 
188.071838 4735.0 
189.055862 10235.0 
200.03566 16199.0 
202.051071 12529.0 
204.102661 5869.0 
209.180984 10117.0 
215.045959 6154.0 
216.05455 10191.0 
216.989685 12076.0 
217.037521 11875.0 
217.061539 5128.0 
218.046936 19212.0 
227.046707 22793.0 
228.989487 10159.0 
229.025635 22489.0 
230.986069 3488.0 
243.041107 248545.0 
244.048737 34749.0 
244.984467 4085.0 
263.139893 10781.0 
266.986298 43266.0 
267.015686 4692.0 
273.088196 15455.0 
282.979065 2710.0 
294.980865 10800.0 
312.161652 39211.0 
314.139984 32174.0 
314.986572 2745.0 
316.983398 19015.0 
320.47464 3795.0 
328.155579 128665.0 
329.160736 4043.0 
330.171906 15340.0 
336.99173 4323.0 
340.986664 4768.0 
352.9823 4014.0 
358.202789 165265.0 
360.974762 10995.0 
380.977753 27837.0 
400.984161 54620.0 
401.208313 248639.0 
END IONS

BEGIN IONS
NAME=ethyl 3-[2-(4-methyl-2-oxochromen-7-yloxy)acetylamino]benzoate CollisionEnergy:205060 M-H
PRECURSOR_MZ=380.114
INCHI="InChI=1S/C21H19NO6/c1-3-26-21(25)14-5-4-6-15(10-14)22-19(23)12-27-16-7-8-17-13(2)9-20(24)28-18(17)11-16/h4-11H,3,12H2,1-2H3,(H,22,23)"
SMILES=CCOC(=O)c1cccc(N=C(O)COc2ccc3c(C)cc(=O)oc3c2)c1
SPECTRUMID=CCMSLIB00010122522
56.23254 2973.0 
59.454269 2779.0 
66.454018 2669.0 
71.232567 2800.0 
82.414993 2753.0 
93.03437 13354.0 
104.304558 3796.0 
108.021667 4555.0 
119.050217 5035.0 
122.024658 5447.0 
123.045029 5401.0 
130.042618 4989.0 
131.050171 107068.0 
133.02948 81238.0 
134.446793 3215.0 
136.01651 5459.0 
137.024185 26223.0 
145.268936 2919.0 
146.961166 4092.0 
147.045212 69863.0 
147.965256 4083.0 
164.072067 3060.0 
165.055847 109145.0 
174.056656 28870.0 
175.040222 3993031.0 
215.035828 20060.0 
248.07254 16064.0 
250.087799 46827.0 
280.061584 3769.0 
281.069153 11674.0 
294.076904 48589.0 
322.108612 226271.0 
380.114075 329791.0 
END IONS

BEGIN IONS
NAME="N-{[N-(2,6-dimethylphenyl)carbamoyl]cyclohexyl}(2-chlorophenyl)-N-(2-indol-3-y lethyl)carboxamide CollisionEnergy:205060" M+Na
PRECURSOR_MZ=550.223
INCHI="InChI=1S/C32H34ClN3O2/c1-22-11-10-12-23(2)29(22)35-31(38)32(18-8-3-9-19-32)36(30(37)26-14-4-6-15-27(26)33)20-17-24-21-34-28-16-7-5-13-25(24)28/h4-7,10-16,21,34H,3,8-9,17-20H2,1-2H3,(H,35,38)"
SMILES=Cc1cccc(C)c1N=C(O)C1(N(CCc2c[nH]c3ccccc23)C(=O)c2ccccc2Cl)CCCCC1
SPECTRUMID=CCMSLIB00010123351
55.07011 3064.0 
65.237213 2753.0 
65.575844 2879.0 
81.070534 4240.0 
98.096519 114635.0 
103.054123 4096.0 
105.06971 17133.0 
110.096062 10781.0 
117.069977 12971.0 
118.659866 4469.0 
138.533676 3440.0 
143.073044 14079.0 
144.080841 582472.0 
164.543167 3444.0 
207.104568 13084.0 
227.049789 14481.0 
238.119339 5570.0 
241.169891 20557.0 
242.072968 94832.0 
252.136185 6795.0 
263.15155 65500.0 
282.065552 24188.0 
321.076233 71681.0 
365.770721 3317.0 
407.148621 7129.0 
550.223083 2778221.0 
END IONS

BEGIN IONS
NAME="N-{2-[4-(N,N-diethylcarbamoyl)-2-methoxyphenoxy]ethyl}acetamide CollisionEnergy:205060" M+H
PRECURSOR_MZ=309.181
INCHI="InChI=1S/C16H24N2O4/c1-5-18(6-2)16(20)13-7-8-14(15(11-13)21-4)22-10-9-17-12(3)19/h7-8,11H,5-6,9-10H2,1-4H3,(H,17,19)"
SMILES=CCN(CC)C(=O)c1ccc(OCCN=C(C)O)c(OC)c1
SPECTRUMID=CCMSLIB00010115358
56.370251 2753.0 
62.682232 3249.0 
65.038849 5731.0 
67.054573 11298.0 
67.253708 2891.0 
71.013283 3332.0 
72.044647 318531.0 
74.096657 172364.0 
75.125954 3143.0 
84.020683 4920.0 
84.431847 2713.0 
84.959999 3188.0 
85.028427 5721.0 
86.060127 871228.0 
95.012627 5349.0 
95.048553 4146.0 
100.075562 312879.0 
101.574203 2839.0 
103.115097 3179.0 
104.610802 2977.0 
108.020576 6918.0 
111.827202 2973.0 
112.015244 6188.0 
115.262207 2685.0 
119.489998 2880.0 
123.044899 3354.0 
131.536728 2884.0 
136.014893 4067.0 
141.054382 31115.0 
151.038681 3111904.0 
152.065414 2876.0 
186.502136 2981.0 
224.127609 995169.0 
236.091202 106821.0 
267.168732 21315.0 
309.179901 346818.0 
END IONS

BEGIN IONS
NAME="N-(3,4-dimethylphenyl)-2-[2-oxo-4-(N-propylcarbamoyl)hydroquinolyl]acetamide CollisionEnergy:102040" M+formate
PRECURSOR_MZ=436.188
INCHI="InChI=1S/C23H25N3O3/c1-4-11-24-23(29)19-13-22(28)26(20-8-6-5-7-18(19)20)14-21(27)25-17-10-9-15(2)16(3)12-17/h5-10,12-13H,4,11,14H2,1-3H3,(H,24,29)(H,25,27)"
SMILES=CCCN=C(O)c1cc(=O)n(CC(=O)Nc2ccc(C)c(C)c2)c2ccccc12
SPECTRUMID=CCMSLIB00010110487
56.86562 2302.0 
65.866982 2306.0 
87.77047 2772.0 
92.39399 2914.0 
107.06208 2206.0 
107.071838 2829.0 
116.746101 2584.0 
118.666862 2696.0 
120.082077 5187.0 
121.172043 2513.0 
128.0504 3087.0 
130.065887 6109.0 
132.045517 3493.0 
136.224533 2741.0 
144.04541 69030.0 
158.048248 5191.0 
158.061218 14930.0 
160.040573 13533.0 
166.686615 2755.0 
176.072037 4920.0 
176.599915 2380.0 
184.040497 13191.0 
197.108002 3245.0 
199.123993 43620.0 
201.103378 9254.0 
202.049683 2966.0 
212.142227 3085.0 
213.1035 21890.0 
229.098206 14792.0 
230.468826 2590.0 
233.887466 2598.0 
243.113525 14833.0 
245.093185 5593.0 
248.387238 2610.0 
266.997345 2648.0 
269.092987 5768.0 
275.103821 5978.0 
278.539795 2696.0 
305.128784 39032.0 
390.182312 500946.0 
436.188354 9205.0 
END IONS

BEGIN IONS
NAME="4-[(1R,5R)-6-(3,4-dimethoxyphenyl)-3,7-dioxabicyclo[3.3.0]oct-2-yl]-1,2-dimeth oxybenzene CollisionEnergy:205060" M+H
PRECURSOR_MZ=387.18
INCHI="InChI=1S/C22H26O6/c1-23-17-7-5-13(9-19(17)25-3)21-15-11-28-22(16(15)12-27-21)14-6-8-18(24-2)20(10-14)26-4/h5-10,15-16,21-22H,11-12H2,1-4H3/t15-,16-,21?,22?/m0/s1"
SMILES=COc1ccc(C2OCC3C(c4ccc(OC)c(OC)c4)OCC23)cc1OC
SPECTRUMID=CCMSLIB00010121500
65.763992 2886.0 
91.054573 8372.0 
93.443153 2604.0 
107.049133 13957.0 
108.057281 3907.0 
109.064774 2899.0 
121.064873 12687.0 
135.043762 9850.0 
136.052383 20802.0 
137.059616 4241.0 
138.067047 4379.0 
139.074539 3876.0 
145.064163 10230.0 
146.072586 12325.0 
147.076492 3893.0 
149.060699 3137.0 
151.075394 188306.0 
152.078674 13368.0 
157.064651 16781.0 
158.072769 15688.0 
159.080048 3051.0 
161.058563 2823.0 
162.06572 3945.0 
163.075607 4621.0 
164.082062 3500.0 
165.054886 32472.0 
165.088867 11167.0 
166.059036 20810.0 
172.088089 16004.0 
173.05925 9989.0 
174.067169 19128.0 
175.075104 4942.0 
177.091034 19806.0 
178.094345 11727.0 
179.069824 4781.0 
188.083267 44641.0 
189.090851 29297.0 
191.069061 3811.0 
194.755676 2898.0 
201.091064 85189.0 
203.106339 22813.0 
211.073395 2563.0 
213.089508 3808.0 
224.083099 17311.0 
225.09082 11064.0 
231.101593 46794.0 
233.096863 6199.0 
238.101685 2751.0 
240.078033 10086.0 
241.08522 10253.0 
245.096313 10877.0 
246.10405 3517.0 
249.090622 3613.0 
250.098175 4840.0 
253.0867 11037.0 
255.10112 51588.0 
261.090668 15673.0 
262.098175 17873.0 
263.108276 3047.0 
267.100616 5679.0 
268.109192 15529.0 
269.080444 3188.0 
274.099457 4312.0 
275.105743 5418.0 
276.11554 3731.0 
277.087311 4140.0 
277.121796 11600.0 
278.093323 4051.0 
279.1026 3648.0 
281.115387 4462.0 
283.096313 16657.0 
284.103607 11031.0 
289.121979 13778.0 
291.101776 2945.0 
293.118286 17523.0 
295.096893 3844.0 
298.119537 62731.0 
299.12738 30137.0 
305.116364 25024.0 
308.141357 3893.0 
309.112335 13610.0 
311.126282 13439.0 
319.131439 13237.0 
320.141449 21386.0 
321.112366 12907.0 
324.135468 15459.0 
339.159424 28078.0 
341.17337 4112.0 
351.159424 83682.0 
356.15802 5255.0 
369.169312 46281.0 
387.175476 5299.0 
END IONS

BEGIN IONS
NAME=ethyl 2-[(2-chloro-4-nitrophenyl)carbonylamino]-3-indol-3-ylpropanoate CollisionEnergy:102040 M-H
PRECURSOR_MZ=414.086
INCHI="InChI=1S/C20H18ClN3O5/c1-2-29-20(26)18(9-12-11-22-17-6-4-3-5-14(12)17)23-19(25)15-8-7-13(24(27)28)10-16(15)21/h3-8,10-11,18,22H,2,9H2,1H3,(H,23,25)"
SMILES=CCOC(=O)C(Cc1c[nH]c2ccccc12)N=C(O)c1ccc([N+](=O)[O-])cc1Cl
SPECTRUMID=CCMSLIB00010112596
53.847191 2235.0 
54.994141 2452.0 
74.754257 2610.0 
86.016899 2885.0 
97.204353 2991.0 
98.996101 40645.0 
102.549606 2659.0 
112.00396 3247.0 
116.05072 32946.0 
127.028549 3202.0 
128.035339 337070.0 
136.262482 2964.0 
139.972656 2718.0 
147.020004 247702.0 
155.985825 245433.0 
165.030594 13760.0 
173.997696 2719.0 
177.030853 12334.0 
191.009674 14825.0 
194.996719 64186.0 
199.97496 19654.0 
203.009918 273655.0 
209.925232 3422.0 
219.041183 2914.0 
221.020126 9834.0 
227.045959 48028.0 
238.986465 133342.0 
249.051682 446242.0 
257.09317 46204.0 
285.028381 1108050.0 
368.043579 15899.0 
393.981476 3270.0 
414.085938 363875.0 
END IONS

BEGIN IONS
NAME="3,3',4'-Trimethoxyflavone CollisionEnergy:205060" M+Na
PRECURSOR_MZ=335.089
INCHI="InChI=1S/C18H16O5/c1-20-14-9-8-11(10-15(14)21-2)17-18(22-3)16(19)12-6-4-5-7-13(12)23-17/h4-10H,1-3H3"
SMILES=COc1ccc(-c2oc3ccccc3c(=O)c2OC)cc1OC
SPECTRUMID=CCMSLIB00010118581
52.31115 1990.0 
53.634499 2117.0 
57.73727 2828.0 
73.569008 2818.0 
73.943611 2678.0 
82.384811 3326.0 
91.053902 2121.0 
98.882156 2019.0 
104.274353 2536.0 
213.076828 2273.0 
213.444016 2389.0 
253.333221 2372.0 
320.065735 25822.0 
335.088257 546149.0 
353.099579 4078.0 
354.26416 2707.0 
END IONS

BEGIN IONS
NAME="4-Hydroxy-2',3,4',6'-tetramethoxychalcone CollisionEnergy:205060" M-e
PRECURSOR_MZ=344.125
INCHI="InChI=1S/C19H20O6/c1-22-13-10-17(24-3)19(18(11-13)25-4)15(21)8-6-12-5-7-14(20)16(9-12)23-2/h5-11,20H,1-4H3/b8-6+"
SMILES=COc1cc(OC)c(C(=O)C=Cc2ccc(O)c(OC)c2)c(OC)c1
SPECTRUMID=CCMSLIB00010118035
63.419552 2322.0 
65.038971 3231.0 
72.563148 2780.0 
82.394386 2552.0 
92.371292 2485.0 
95.112991 2714.0 
102.046432 3254.0 
104.276627 4077.0 
121.028503 68961.0 
178.077194 4482.0 
180.964417 4168.0 
208.958466 3987.0 
224.082504 2948.0 
256.996155 4128.0 
278.237488 2866.0 
303.005951 60871.0 
303.098907 2079996.0 
308.454773 2504.0 
321.111084 5815.0 
330.904388 2998.0 
344.127228 27992.0 
344.282288 3294.0 
END IONS

BEGIN IONS
NAME=5-hydroxy-2-methylindole-3-carboxylic acid CollisionEnergy:205060 M+H-H2O
PRECURSOR_MZ=174.055
INCHI="InChI=1S/C10H9NO3/c1-5-9(10(13)14)7-4-6(12)2-3-8(7)11-5/h2-4,11-12H,1H3,(H,13,14)"
SMILES=Cc1[nH]c2ccc(O)cc2c1C(=O)O
SPECTRUMID=CCMSLIB00010125349
60.416771 2271.0 
62.293362 2266.0 
67.403343 1961.0 
71.731453 2174.0 
72.081108 12507.0 
74.798401 2126.0 
89.939934 2752.0 
91.054337 18885.0 
105.267502 1916.0 
109.423973 2357.0 
117.05719 11307.0 
118.06517 56310.0 
119.049202 12242.0 
128.04924 2963.0 
129.139252 3328.0 
130.966171 4849.0 
132.08078 3994.0 
132.656906 2358.0 
143.187073 2318.0 
146.059998 222880.0 
148.97702 14106.0 
158.038803 2992.0 
174.054962 1084043.0 
174.128357 18554.0 
186.275513 2408.0 
228.053162 2340.0 
END IONS

BEGIN IONS
NAME="4-chlorophenylthio 3,4,5-trimethoxyphenyl ketone CollisionEnergy:102040" M-H+Cl]
PRECURSOR_MZ=186.0
INCHI="InChI=1S/C16H15ClO4S/c1-19-13-8-10(9-14(20-2)15(13)21-3)16(18)22-12-6-4-11(17)5-7-12/h4-9H,1-3H3"
SMILES=COc1cc(C(=O)Sc2ccc(Cl)cc2)cc(OC)c1OC
SPECTRUMID=CCMSLIB00010114160
54.84549 1808.0 
59.235111 1871.0 
66.751427 1989.0 
68.995323 12394.0 
85.648567 2079.0 
104.299957 2158.0 
112.985474 32275.0 
117.928436 15416.0 
154.937805 2058.0 
208.437134 11333.0 
END IONS

BEGIN IONS
NAME=N-[2-(5-methoxy-2-methylindol-3-yl)ethyl](4-methylphenyl)carboxamide CollisionEnergy:205060 M+Na
PRECURSOR_MZ=345.157
INCHI="InChI=1S/C20H22N2O2/c1-13-4-6-15(7-5-13)20(23)21-11-10-17-14(2)22-19-9-8-16(24-3)12-18(17)19/h4-9,12,22H,10-11H2,1-3H3,(H,21,23)"
SMILES=COc1ccc2[nH]c(C)c(CCNC(=O)c3ccc(C)cc3)c2c1
SPECTRUMID=CCMSLIB00010117561
60.0266 2653.0 
65.85257 2264.0 
68.835228 2483.0 
71.078613 2393.0 
110.771431 2623.0 
130.036621 2815.0 
208.92981 2527.0 
209.669022 5593.0 
296.695679 2553.0 
330.133911 3624.0 
345.156525 2722457.0 
354.773773 2794.0 
END IONS

BEGIN IONS
NAME="7,8,2'-Trihydroxyflavone CollisionEnergy:205060" M+H
PRECURSOR_MZ=271.06
INCHI="InChI=1S/C15H10O5/c16-10-4-2-1-3-8(10)13-7-12(18)9-5-6-11(17)14(19)15(9)20-13/h1-7,16-17,19H"
SMILES=O=c1cc(-c2ccccc2O)oc2c(O)c(O)ccc12
SPECTRUMID=CCMSLIB00010118595
51.023449 12441.0 
55.01836 104997.0 
55.169601 10142.0 
65.039108 105299.0 
65.120644 9122.0 
66.756203 11255.0 
68.997551 254959.0 
69.03392 900063.0 
69.126961 8416.0 
79.018143 126573.0 
81.028458 19010.0 
81.033798 440113.0 
83.012947 10549.0 
85.830727 8087.0 
89.038528 19594.0 
91.054451 396264.0 
92.968483 7975.0 
93.033813 37954.0 
95.012772 49690.0 
95.0494 34128.0 
96.020714 20594.0 
97.028526 216185.0 
100.030258 8879.0 
103.054199 10762.0 
104.302277 9965.0 
107.012802 1662758.0 
107.049004 17571.0 
109.02845 153049.0 
110.036438 17023.0 
111.044273 139487.0 
115.054329 49294.0 
115.782143 10224.0 
117.033257 8437.0 
117.069763 19089.0 
118.041733 17805.0 
119.04924 637441.0 
121.028503 2550623.0 
125.023369 672597.0 
125.033951 13791.0 
127.038773 21700.0 
128.061966 37673.0 
129.069809 15146.0 
131.049149 34694.0 
131.085312 41956.0 
135.007614 231195.0 
137.023438 55086.0 
137.034058 10375.0 
141.069992 366434.0 
143.033752 11742.0 
144.056763 40932.0 
145.028488 2970251.0 
145.063507 101979.0 
147.043503 72052.0 
149.023148 85210.0 
152.062103 66446.0 
153.018265 2101313.0 
153.069733 99998.0 
155.048279 18488.0 
157.064362 62980.0 
159.043945 20036.0 
159.079697 74585.0 
163.039001 160505.0 
165.017532 14704.0 
168.057053 14301.0 
169.064896 634929.0 
171.028458 68723.0 
171.043594 15758.0 
171.079468 11921.0 
173.059708 88513.0 
179.048691 38161.0 
181.064621 181230.0 
183.043869 38826.0 
185.060226 32602.0 
187.075699 112321.0 
196.051743 12371.0 
197.059723 969588.0 
198.068848 12178.0 
200.048126 12369.0 
201.053818 80531.0 
203.033859 270447.0 
207.045044 17300.0 
208.750931 33045.0 
209.05928 12452.0 
215.070206 1011107.0 
225.054489 993328.0 
226.061539 19190.0 
229.049408 491399.0 
229.074997 15941.0 
242.058456 63334.0 
243.064987 1317860.0 
253.049377 174264.0 
254.05629 69909.0 
268.338287 9808.0 
269.911926 14874.0 
270.049469 20249.0 
271.059906 30955134.0 
END IONS

BEGIN IONS
NAME=D-(-)-Arabinose CollisionEnergy:102040 M-H
PRECURSOR_MZ=149.046
INCHI="InChI=1S/C5H10O5/c6-1-3(8)5(10)4(9)2-7/h1,3-5,7-10H,2H2/t3-,4-,5+/m1/s1"
SMILES=O=C[C@@H](O)[C@H](O)[C@H](O)CO
SPECTRUMID=CCMSLIB00010102623
50.814499 1894.280029 
71.013298 2259.850098 
104.316002 2302.350098 
111.641998 1889.130005 
111.898003 2107.209961 
127.324997 1933.540039 
136.246994 1777.530029 
148.973007 2162.76001 
END IONS

BEGIN IONS
NAME="N,N'-Diallyl-2,3-dihydroxysuccinamide CollisionEnergy:102040" M+H
PRECURSOR_MZ=229.118
INCHI="InChI=1S/C10H16N2O4/c1-3-5-11-9(15)7(13)8(14)10(16)12-6-4-2/h3-4,7-8,13-14H,1-2,5-6H2,(H,11,15)(H,12,16)"
SMILES=C=CCN=C(O)C(O)C(O)C(O)=NCC=C
SPECTRUMID=CCMSLIB00010111880
53.00272 7043.0 
53.639629 3976.0 
56.050011 51849.0 
58.065609 1165962.0 
61.028851 256135.0 
66.738808 4500.0 
68.049751 6895.0 
70.065468 10385.0 
72.0812 5478.0 
77.289726 4416.0 
83.049248 28475.0 
84.044617 3029768.0 
87.489723 5109.0 
93.055817 4830.0 
98.060013 71115.0 
101.059563 28902.0 
104.279716 5530.0 
116.070953 37444.0 
118.645981 4763.0 
126.054764 25340.0 
128.070251 7311.0 
144.065491 11833607.0 
154.049805 178945.0 
172.060303 3451266.0 
211.1082 8031.0 
229.118057 2308803.0 
231.248489 5234.0 
END IONS

BEGIN IONS
NAME=N-Acetyl-L-alanine CollisionEnergy:205060 M+H
PRECURSOR_MZ=132.066
INCHI="InChI=1S/C5H9NO3/c1-3(5(8)9)6-4(2)7/h3H,1-2H3,(H,6,7)(H,8,9)/t3-/m0/s1"
SMILES=CC(O)=NC(C)C(=O)O
SPECTRUMID=CCMSLIB00010124757
52.03738 8367.0 
60.987141 10493.0 
73.94165 10072.0 
78.998222 12439.0 
80.993507 11857.0 
86.060768 12582.0 
86.096977 19369.0 
89.35952 7628.0 
90.055611 279692.0 
90.903748 60395.0 
92.361267 8575.0 
97.008461 13060.0 
99.003677 92984.0 
104.266418 8740.0 
109.826317 9159.0 
122.01947 160158.0 
284.497223 8045.0 
END IONS

BEGIN IONS
NAME=naringin CollisionEnergy:102040 M+H
PRECURSOR_MZ=581.187
INCHI="InChI=1S/C27H32O14/c1-10-20(32)22(34)24(36)26(37-10)41-25-23(35)21(33)18(9-28)40-27(25)38-13-6-14(30)19-15(31)8-16(39-17(19)7-13)11-2-4-12(29)5-3-11/h2-7,10,16,18,20-30,32-36H,8-9H2,1H3/t10-,16-,18+,20-,21+,22+,23-,24+,25+,26-,27+/m0/s1"
SMILES=CC1OC(OC2C(Oc3cc(O)c4c(c3)OC(c3ccc(O)cc3)CC4=O)OC(CO)C(O)C2O)C(O)C(O)C1O
SPECTRUMID=CCMSLIB00010111709
57.033779 10959.0 
65.913757 2855.0 
69.033821 6735.0 
70.746628 3432.0 
71.049477 88585.0 
75.044197 3156.0 
82.424049 2724.0 
83.049217 3876.0 
85.023323 4543.0 
85.028687 121206.0 
89.312912 2523.0 
99.043793 3617.0 
104.315109 3082.0 
129.05455 62287.0 
147.04364 15397.0 
147.064819 25104.0 
152.37471 2904.0 
153.018234 40800.0 
165.018143 11272.0 
171.028259 14374.0 
183.027466 3602.0 
191.0336 5057.0 
195.028641 67282.0 
199.296875 2895.0 
201.65004 2737.0 
217.051849 3310.0 
219.028412 29229.0 
231.027283 11212.0 
245.043274 13473.0 
254.684784 3069.0 
261.037872 15277.0 
263.053223 13813.0 
273.075256 283504.0 
278.442688 2844.0 
281.066071 10958.0 
285.075073 18487.0 
297.073975 13478.0 
315.08609 69661.0 
339.086212 41386.0 
351.087952 3750.0 
365.10199 4611.0 
369.096405 4379.0 
381.095459 13931.0 
383.112579 33602.0 
399.106018 15085.0 
401.121826 32316.0 
417.117706 67820.0 
419.132416 78141.0 
435.128387 95491.0 
459.128174 10723.0 
461.139404 3371.0 
527.154846 7081.0 
545.164551 6739.0 
546.552368 3168.0 
559.868408 3303.0 
563.165588 3904.0 
581.184448 27508.0 
END IONS

BEGIN IONS
NAME=RIFAMYCIN CollisionEnergy:205060 M-H
PRECURSOR_MZ=696.303
INCHI="InChI=1S/C37H47NO12/c1-16-11-10-12-17(2)36(46)38-23-15-24(40)26-27(32(23)44)31(43)21(6)34-28(26)35(45)37(8,50-34)48-14-13-25(47-9)18(3)33(49-22(7)39)20(5)30(42)19(4)29(16)41/h10-16,18-20,25,29-30,33,40-44H,1-9H3,(H,38,46)/b11-10+,14-13+,17-12-/t16-,18+,19+,20+,25-,29-,30+,33+,37-/m0/s1"
SMILES=COC1C=COC2(C)Oc3c(C)c(O)c4c(O)c(cc(O)c4c3C2=O)N=C(O)C(C)=CC=CC(C)C(O)C(C)C(O)C(C)C(OC(C)=O)C1C
SPECTRUMID=CCMSLIB00010119318
58.476761 3751.0 
59.013439 149905.0 
73.95224 4602.0 
73.957718 4402.0 
80.788857 4631.0 
83.04966 20814.0 
83.99543 3982.0 
105.070648 5552.0 
107.050217 5842.0 
108.045433 4970.0 
123.081612 83036.0 
125.060333 24038.0 
129.367859 4432.0 
136.076233 22481.0 
136.210312 4877.0 
159.045792 8083.0 
160.040375 7599.0 
162.019714 22207.0 
172.077271 5572.0 
173.060425 16265.0 
175.04039 23523.0 
182.061081 5368.0 
184.076736 10840.0 
186.056763 7897.0 
188.034775 5958.0 
189.042755 117886.0 
190.027908 35499.0 
190.047226 4235.0 
192.543839 5941.0 
198.055832 10125.0 
200.037231 6602.0 
200.071945 100682.0 
201.059372 37958.0 
202.051361 74166.0 
203.034683 48348.0 
203.056274 9010.0 
204.066513 25301.0 
210.055161 18171.0 
213.043411 22916.0 
214.027573 4617.0 
215.035614 7337.0 
216.029297 19446.0 
216.06665 164599.0 
217.035034 86949.0 
218.045914 170462.0 
218.082474 5377.0 
226.051178 86140.0 
227.035141 26530.0 
227.05925 40342.0 
228.031265 23990.0 
228.066666 110903.0 
229.03717 122255.0 
230.045609 140971.0 
231.028198 7304.0 
241.051605 4878.0 
242.045288 22663.0 
243.053131 80920.0 
244.029678 22927.0 
244.061661 720511.0 
245.046936 247986.0 
249.028152 98338.0 
254.046494 107990.0 
255.030807 11896.0 
255.055176 34845.0 
256.038422 78527.0 
257.040955 108589.0 
258.053955 58044.0 
259.061371 9912.0 
270.040955 36095.0 
270.884277 7802.0 
271.048676 433795.0 
272.056824 9058202.0 
273.06488 193205.0 
274.072296 17409.0 
284.068817 21687.0 
285.077698 9396.0 
288.031616 5846.0 
291.06546 6111.0 
294.090698 7870.0 
295.089264 9437.0 
297.075897 7241.0 
298.035706 27876.0 
298.082214 9849.0 
299.044067 10209.0 
299.093994 32594.0 
305.08139 5434.0 
305.118896 9999.0 
306.078888 7383.0 
308.093506 6691.0 
309.07373 5696.0 
317.082336 22269.0 
318.089355 53234.0 
321.074249 7782.0 
322.073517 53055.0 
331.096863 5920.0 
332.095764 27047.0 
333.115051 43177.0 
334.072296 5785.0 
335.091339 10424.0 
336.09375 7346.0 
337.096527 22487.0 
338.070435 5940.0 
346.072296 18443.0 
348.0867 8459.0 
349.107819 5359.0 
350.069702 9132.0 
351.078217 15753.0 
351.124451 25518.0 
360.088837 35225.0 
361.099274 7977.0 
364.082489 101743.0 
365.091034 121220.0 
366.098297 9492.0 
374.102844 29070.0 
376.119476 41265.0 
376.167969 5008.0 
392.116119 7006.0 
394.129395 114698.0 
422.125519 8686.0 
423.133209 10828.0 
480.167419 22843.0 
481.174683 51986.0 
538.207825 6964.0 
604.257141 120949.0 
636.279724 31208.0 
664.276245 40868.0 
696.303894 4838004.0 
END IONS

BEGIN IONS
NAME="5-amino-3-methyl-4-phenylpyrazolyl 3,5-dimethoxyphenyl ketone CollisionEnergy:102040" M+H
PRECURSOR_MZ=338.15
INCHI="InChI=1S/C19H19N3O3/c1-12-17(13-7-5-4-6-8-13)18(20)22(21-12)19(23)14-9-15(24-2)11-16(10-14)25-3/h4-11H,20H2,1-3H3"
SMILES=COc1cc(OC)cc(C(=O)n2nc(C)c(-c3ccccc3)c2N)c1
SPECTRUMID=CCMSLIB00010103494
53.039181 3649.0 
68.026016 3761.0 
79.018379 3343.0 
79.054398 11504.0 
82.403343 2781.0 
92.383812 3071.0 
94.041382 4675.0 
107.01329 4319.0 
109.064751 22543.0 
113.71611 3565.0 
119.83165 3246.0 
122.036163 110842.0 
125.059563 24024.0 
135.054474 4612.0 
137.059448 42592.0 
145.854828 2862.0 
150.032013 3880.0 
153.909775 3297.0 
155.07016 691031.0 
165.054611 6510318.0 
178.085968 11707.0 
189.054718 4302.0 
223.15625 3018.0 
231.06456 19197.0 
338.149353 1439563.0 
END IONS

BEGIN IONS
NAME=N-Acetyl-D-Glucosamine CollisionEnergy:102040 M+Na
PRECURSOR_MZ=244.079
INCHI="InChI=1S/C8H15NO6/c1-3(11)9-5-7(13)6(12)4(2-10)15-8(5)14/h4-8,10,12-14H,2H2,1H3,(H,9,11)/t4-,5-,6-,7-,8?/m1/s1"
SMILES=CC(O)=N[C@H]1C(O)O[C@H](CO)[C@@H](O)[C@@H]1O
SPECTRUMID=CCMSLIB00010126523
58.2145 2780.189941 
72.832397 3277.780029 
82.743599 3287.090088 
83.011299 4559.47998 
84.170898 2820.97998 
104.920998 2815.810059 
112.051003 16187.0 
124.037003 99031.203125 
136.244003 5128.259766 
143.031998 111510.0 
148.037003 62982.199219 
166.046997 12180.099609 
167.031006 5772.490234 
184.059006 10984.700195 
205.608994 3578.0 
214.117004 3224.969971 
226.069 1101850.0 
244.078995 7555720.0 
END IONS

BEGIN IONS
NAME="N-[(1E)-2-(4-hydroxy-3-methoxyphenyl)-1-azavinyl]-2-[(3,5-dioxo(2H,4H-1,2,4-tr iazin-6-yl))amino]acetamide CollisionEnergy:102040" M+H
PRECURSOR_MZ=335.11
INCHI="InChI=1S/C13H14N6O5/c1-24-9-4-7(2-3-8(9)20)5-15-17-10(21)6-14-11-12(22)16-13(23)19-18-11/h2-5,20H,6H2,1H3,(H,14,18)(H,17,21)(H2,16,19,22,23)/b15-5+"
SMILES=COc1cc(C=NN=C(O)CNc2nnc(O)nc2O)ccc1O
SPECTRUMID=CCMSLIB00010112920
60.531021 2615.0 
66.736862 2797.0 
92.368988 3414.0 
104.270554 2442.0 
110.036278 3044.0 
111.030769 2712.0 
125.059799 14208.0 
127.245483 2530.0 
130.024567 3959.0 
135.031479 14196.0 
135.055252 11333.0 
137.059692 11499.0 
139.025024 103638.0 
141.040649 345159.0 
150.054886 187229.0 
151.050003 12220.0 
151.062805 3516.0 
152.059265 9848.0 
152.070511 254259.0 
157.961884 3554.0 
165.06572 22786.0 
167.020081 34378.0 
167.081451 1065658.0 
169.036285 26397.0 
179.08136 44744.0 
183.062119 4577.0 
184.046432 29583.0 
185.374695 3163.0 
189.297958 2512.0 
207.076004 13393.0 
335.109222 969107.0 
END IONS

BEGIN IONS
NAME=Untitled CollisionEnergy:102040 M+H
PRECURSOR_MZ=313.107
INCHI="InChI=1S/C18H16O5/c1-20-12-6-4-11(5-7-12)14-10-23-15-9-17(22-3)16(21-2)8-13(15)18(14)19/h4-10H,1-3H3"
SMILES=COc1ccc(-c2coc3cc(OC)c(OC)cc3c2=O)cc1
SPECTRUMID=CCMSLIB00010105317
52.495659 2993.0 
58.288761 3036.0 
75.93737 2759.0 
91.054619 43014.0 
92.418861 3181.0 
105.862244 3672.0 
121.064873 37082.0 
133.401505 3141.0 
136.266739 4912.0 
149.023193 17188.0 
151.075302 13839.0 
166.881073 3022.0 
180.04129 12071.0 
198.051819 49595.0 
211.074493 4218.0 
213.091263 6229.0 
217.377792 3087.0 
225.092331 5149.0 
226.098831 17315.0 
230.889786 3654.0 
241.086182 12109.0 
242.093033 15098.0 
248.899765 21722.0 
252.078201 6429.0 
254.092392 35367.0 
255.066315 5726.0 
257.117157 205908.0 
266.910797 14515.0 
267.063049 5761.0 
269.080292 119207.0 
270.087585 23818.0 
271.917542 3391.0 
281.08139 14148.0 
282.08902 4520.0 
283.060364 20513.0 
284.068359 23824.0 
285.110443 4016.0 
297.075317 186880.0 
298.083252 302201.0 
311.095245 4000.0 
313.106781 8351415.0 
END IONS

BEGIN IONS
NAME=N-Benzoyl-DL-alanine CollisionEnergy:205060 M+Na
PRECURSOR_MZ=216.063
INCHI="InChI=1S/C10H11NO3/c1-7(10(13)14)11-9(12)8-5-3-2-4-6-8/h2-7H,1H3,(H,11,12)(H,13,14)"
SMILES=CC(N=C(O)c1ccccc1)C(=O)O
SPECTRUMID=CCMSLIB00010119417
50.864639 1812.0 
69.221748 1908.0 
74.448143 2105.0 
84.959961 2258.0 
105.03315 3391.0 
151.940216 3697.0 
200.506195 2249.0 
209.432373 2203.0 
216.062729 123182.0 
END IONS

BEGIN IONS
NAME="11-(3-bromo-5-ethoxy-4-hydroxyphenyl)-3-(2-thienyl)-2,3,4-trihydro-5H,10H,11H- benzo[b]benzo[2,1-f]1,4-diazepin-1-one CollisionEnergy:102040" M+formate
PRECURSOR_MZ=555.059
INCHI="InChI=1S/C25H23BrN2O3S/c1-2-31-21-13-15(10-16(26)25(21)30)24-23-19(27-17-6-3-4-7-18(17)28-24)11-14(12-20(23)29)22-8-5-9-32-22/h3-10,13-14,24,27-28,30H,2,11-12H2,1H3"
SMILES=CCOc1cc(C2Nc3ccccc3NC3=C2C(=O)CC(c2cccs2)C3)cc(Br)c1O
SPECTRUMID=CCMSLIB00010111686
78.918488 10031.0 
92.400383 3017.0 
97.676857 2740.0 
101.459633 2437.0 
104.312653 3440.0 
172.233658 3306.0 
208.085526 12383.0 
509.054108 75613.0 
554.977112 3485.0 
729.944763 3383.0 
1014.855957 3040.0 
END IONS

BEGIN IONS
NAME="2,2',5'-Trihydroxychalcone CollisionEnergy:102040" 2M-H
PRECURSOR_MZ=511.14
INCHI="InChI=1S/C15H12O4/c16-11-6-8-15(19)12(9-11)14(18)7-5-10-3-1-2-4-13(10)17/h1-9,16-17,19H/b7-5+"
SMILES=O=C(C=Cc1ccccc1O)c1cc(O)ccc1O
SPECTRUMID=CCMSLIB00010108340
51.58147 2461.0 
66.76313 2946.0 
73.976273 2685.0 
82.42466 2655.0 
85.028908 4081.0 
88.175591 2526.0 
92.401154 2649.0 
92.694771 2383.0 
93.03447 19974.0 
95.013649 4591.0 
108.021927 21494.0 
109.029533 287257.0 
119.050362 30298.0 
135.008728 17403.0 
137.023804 2942.0 
138.827103 2457.0 
145.029327 2600.0 
149.025467 3222.0 
161.02449 27168.0 
210.256531 5514.0 
237.056061 3686.0 
255.066483 759213.0 
306.91626 2669.0 
414.345276 2809.0 
466.339569 2784.0 
END IONS

BEGIN IONS
NAME=N-Acetyl-L-phenylalanine CollisionEnergy:102040 M+H
PRECURSOR_MZ=208.097
INCHI="InChI=1S/C11H13NO3/c1-8(13)12-10(11(14)15)7-9-5-3-2-4-6-9/h2-6,10H,7H2,1H3,(H,12,13)(H,14,15)/t10-/m0/s1"
SMILES=CC(O)=N[C@@H](Cc1ccccc1)C(=O)O
SPECTRUMID=CCMSLIB00010103339
55.070202 60805.398438 
75.343597 57891.699219 
82.424698 68237.796875 
84.899101 65623.101562 
92.407898 87916.5 
103.054001 101150.0 
120.081001 17104800.0 
131.048996 124010.0 
149.059998 228968.0 
162.091003 2644620.0 
166.085999 5620060.0 
190.087006 94762.703125 
208.097 84357.296875 
209.548996 72381.703125 
209.567001 122461.0 
END IONS

BEGIN IONS
NAME="5-(6-acetyloxy-3,5,7-trimethoxy-4-oxochromen-2-yl)-2-methoxyphenyl acetate CollisionEnergy:205060" M+Na
PRECURSOR_MZ=481.111
INCHI="InChI=1S/C23H22O10/c1-11(24)31-15-9-13(7-8-14(15)27-3)20-23(30-6)19(26)18-16(33-20)10-17(28-4)21(22(18)29-5)32-12(2)25/h7-10H,1-6H3"
SMILES=COc1ccc(-c2oc3cc(OC)c(OC(C)=O)c(OC)c3c(=O)c2OC)cc1OC(C)=O
SPECTRUMID=CCMSLIB00010118099
54.572781 2801.0 
78.645279 2612.0 
115.055733 2964.0 
115.470749 2846.0 
118.646042 3029.0 
126.931503 2632.0 
132.437454 2936.0 
176.136124 2748.0 
230.607422 2728.0 
328.294312 3292.0 
339.049225 3181.0 
381.060211 3602.0 
409.057312 6108.0 
423.070251 10701.0 
424.075989 11881.0 
438.091949 10911.0 
439.099701 537742.0 
466.087189 22173.0 
480.124634 11377.0 
481.110229 2104357.0 
END IONS

BEGIN IONS
NAME="(2S,3S)-2-[(2S,3S)-3-(4-hydroxy-3-methoxyphenyl)-2-(hydroxymethyl)(2H,3H-benzo [e]1,4-dioxin-6-yl)]-3,5,7-trihydroxychroman-4-one CollisionEnergy:205060" M-H
PRECURSOR_MZ=481.114
INCHI="InChI=1S/C25H22O10/c1-32-17-6-11(2-4-14(17)28)24-20(10-26)33-16-5-3-12(7-18(16)34-24)25-23(31)22(30)21-15(29)8-13(27)9-19(21)35-25/h2-9,20,23-29,31H,10H2,1H3/t20-,23+,24-,25?/m0/s1"
SMILES=COc1cc(C2Oc3cc(C4Oc5cc(O)cc(O)c5C(=O)C4O)ccc3OC2CO)ccc1O
SPECTRUMID=CCMSLIB00010122351
55.272869 2581.0 
57.0341 64956.0 
57.564789 2801.0 
63.023449 14990.0 
65.002853 27880.0 
68.997726 3042.0 
82.039703 2573.0 
83.013557 32864.0 
89.691689 2588.0 
92.384361 3523.0 
93.034721 4981.0 
95.013733 14096.0 
104.289833 3491.0 
107.013802 42691.0 
109.029579 6807.0 
111.008858 13202.0 
121.029587 31026.0 
123.008598 10857.0 
123.045898 3250.0 
124.016617 50920.0 
125.024513 349527.0 
134.037247 12301.0 
135.045242 5579.0 
136.219223 3389.0 
137.024521 19378.0 
139.003647 5626.0 
139.04007 5786.0 
145.028519 8934.0 
146.037445 31312.0 
147.008972 10605.0 
147.045212 12847.0 
149.024765 20208.0 
150.031998 4495.0 
151.003738 112549.0 
151.040329 3754.0 
152.011551 125970.0 
153.019531 17492.0 
158.037018 3297.0 
159.04538 23726.0 
161.023529 4066.0 
161.060959 10191.0 
162.03241 3773.0 
163.003525 4946.0 
163.040573 11390.0 
164.048019 18213.0 
165.018402 9786.0 
169.014038 12920.0 
171.044724 4675.0 
174.032822 3421.0 
175.039597 5865.0 
177.019699 3815.0 
178.998886 69302.0 
179.070816 4068.0 
183.045349 4341.0 
185.061966 4232.0 
185.411499 3477.0 
187.040878 25598.0 
189.055847 6196.0 
191.034897 6558.0 
199.040695 6433.0 
201.055847 13517.0 
211.039764 12463.0 
211.300003 3528.0 
213.05603 11234.0 
214.028503 2903.0 
215.035217 14136.0 
216.042572 6706.0 
227.034988 16132.0 
229.050964 12766.0 
230.059341 3270.0 
240.044052 2994.0 
245.044952 3552.0 
255.03009 22604.0 
256.038544 3700.0 
257.045685 25365.0 
258.053772 4748.0 
273.040344 29871.0 
283.025787 19696.0 
284.033356 6647.0 
285.039856 3315.0 
301.035217 169059.0 
302.043762 10912.0 
317.06723 4439.0 
435.109772 10734.0 
437.125732 3393.0 
451.106171 21191.0 
453.119171 88456.0 
463.104187 38765.0 
481.114136 390650.0 
END IONS

BEGIN IONS
NAME="cyclohexyl 4-(3-chloro-4-hydroxy-5-methoxyphenyl)-2-methyl-5-oxo-7-phenyl-1,4, 6,7,8-pentahydroquinoline-3-carboxylate CollisionEnergy:205060" M+Na
PRECURSOR_MZ=544.186
INCHI="InChI=1S/C30H32ClNO5/c1-17-26(30(35)37-21-11-7-4-8-12-21)27(20-13-22(31)29(34)25(16-20)36-2)28-23(32-17)14-19(15-24(28)33)18-9-5-3-6-10-18/h3,5-6,9-10,13,16,19,21,27,32,34H,4,7-8,11-12,14-15H2,1-2H3"
SMILES=COc1cc(C2C(C(=O)OC3CCCCC3)=C(C)NC3=C2C(=O)CC(c2ccccc2)C3)cc(Cl)c1O
SPECTRUMID=CCMSLIB00010122959
82.395157 3011.0 
118.649307 3109.0 
131.280533 3503.0 
213.113403 3698.0 
260.104553 17418.0 
304.094086 41811.0 
462.107147 205092.0 
503.138947 3889.0 
544.18573 1798815.0 
562.19165 11047.0 
END IONS

BEGIN IONS
NAME="1-(6-methyl-6-azabicyclo[4.4.0]dec-2-yl)azaperhydroine-2,6-dione, iodide CollisionEnergy:102040" M
PRECURSOR_MZ=265.191
INCHI="InChI=1S/C15H25N2O2/c1-17-10-3-2-7-13(17)12(6-5-11-17)16-14(18)8-4-9-15(16)19/h12-13H,2-11H2,1H3/q+1"
SMILES=C[N+]12CCCCC1C(N1C(=O)CCCC1=O)CCC2
SPECTRUMID=CCMSLIB00010114571
53.33252 2068.0 
56.480202 2439.0 
58.39986 2180.0 
61.01099 3778.0 
62.01247 2145.0 
62.018871 20010.0 
64.553017 2319.0 
65.727524 2041.0 
68.096786 2535.0 
82.974869 2057.0 
83.12854 2101.0 
92.370697 2840.0 
100.075333 9510.0 
129.023499 2293.0 
132.867142 2167.0 
152.143158 10875.0 
153.555878 2355.0 
204.964752 4152.0 
223.9431 21908.0 
237.959366 5233.0 
265.190765 1622611.0 
END IONS

BEGIN IONS
NAME=N-(3-ethylphenyl)-2-[9-(4-methylphenyl)-6-oxohydropurin-8-ylthio]acetamide CollisionEnergy:102040 M-H
PRECURSOR_MZ=418.134
INCHI="InChI=1S/C22H21N5O2S/c1-3-15-5-4-6-16(11-15)25-18(28)12-30-22-26-19-20(23-13-24-21(19)29)27(22)17-9-7-14(2)8-10-17/h4-11,13H,3,12H2,1-2H3,(H,25,28)(H,23,24,29)"
SMILES=CCc1cccc(N=C(O)CSc2nc3c(O)ncnc3n2-c2ccc(C)cc2)c1
SPECTRUMID=CCMSLIB00010112212
51.681068 2827.0 
57.97514 34569.0 
60.53706 5051.0 
65.014168 54847.0 
65.998199 41911.0 
68.013924 6976.0 
92.019379 6329.0 
92.025391 94882.0 
93.009338 12087.0 
104.284782 4011.0 
131.061539 4454.0 
141.067215 21394.0 
145.077713 3316.0 
155.061523 638114.0 
158.061081 224196.0 
158.07608 6890.0 
182.071716 11577.0 
192.049103 147416.0 
197.059128 16011.0 
197.12973 6825.0 
198.067688 23052.0 
214.948715 5035.0 
225.078323 2428088.0 
228.060837 6859.0 
236.070023 6564.0 
238.085632 3659.0 
241.072739 29860.0 
255.034607 39763.0 
256.04248 803307.0 
257.050354 275074.0 
257.081635 6392.0 
264.065094 6286.0 
269.050476 66849.0 
271.065948 150496.0 
297.04538 147778.0 
297.083893 5629.0 
312.157928 14309.0 
344.15155 167646.0 
375.132263 4759.0 
376.604431 3734.0 
418.134674 3219585.0 
END IONS

BEGIN IONS
NAME=inosine CollisionEnergy:102040 M+Cl
PRECURSOR_MZ=303.05
INCHI="InChI=1S/C10H12N4O5/c15-1-4-6(16)7(17)10(19-4)14-3-13-5-8(14)11-2-12-9(5)18/h2-4,6-7,10,15-17H,1H2,(H,11,12,18)/t4-,6-,7-,10-/m1/s1"
SMILES=OC[C@H]1O[C@@H](n2cnc3c(O)ncnc32)[C@H](O)[C@@H]1O
SPECTRUMID=CCMSLIB00010126181
66.758698 2773.379883 
69.682899 2150.300049 
82.419502 2881.080078 
118.68 2335.530029 
135.031006 15931.0 
158.009003 2646.570068 
185.442993 2559.840088 
209.753998 4813.419922 
267.074005 44186.699219 
END IONS

BEGIN IONS
NAME=(2E)-3-(4-methoxyphenyl)-N-phenylprop-2-enamide CollisionEnergy:102040 M+Na
PRECURSOR_MZ=276.099
INCHI="InChI=1S/C16H15NO2/c1-19-15-10-7-13(8-11-15)9-12-16(18)17-14-5-3-2-4-6-14/h2-12H,1H3,(H,17,18)/b12-9+"
SMILES=COc1ccc(C=CC(O)=Nc2ccccc2)cc1
SPECTRUMID=CCMSLIB00010105717
58.960732 3116.0 
59.495979 2115.0 
81.001534 2184.0 
92.371277 1933.0 
99.986633 10753.0 
117.996941 2480.0 
132.175964 2035.0 
151.675293 2398.0 
157.493927 2264.0 
168.471451 2115.0 
197.944733 4180.0 
211.984024 13206.0 
225.913269 2742.0 
229.994141 3064.0 
235.001083 3578.0 
252.872391 2800.0 
276.09903 569925.0 
END IONS

BEGIN IONS
NAME=2-[2-(4-methylphenoxy)acetylamino]-3-phenylpropanoic acid CollisionEnergy:205060 M-H
PRECURSOR_MZ=312.124
INCHI="InChI=1S/C18H19NO4/c1-13-7-9-15(10-8-13)23-12-17(20)19-16(18(21)22)11-14-5-3-2-4-6-14/h2-10,16H,11-12H2,1H3,(H,19,20)(H,21,22)"
SMILES=Cc1ccc(OCC(O)=NC(Cc2ccccc2)C(=O)O)cc1
SPECTRUMID=CCMSLIB00010118740
50.486389 2598.0 
51.231461 2553.0 
51.430809 2577.0 
66.738663 2599.0 
66.918243 2704.0 
70.029457 3547.0 
72.008759 68304.0 
74.024452 15387.0 
82.39563 2792.0 
85.016853 11297.0 
91.297417 2887.0 
93.034622 4661.0 
103.054909 3409.0 
104.284912 3997.0 
106.042648 6775.0 
106.059891 3215.0 
106.066299 272666.0 
107.050331 3439867.0 
108.021927 6151.0 
113.011971 175448.0 
118.066383 68503.0 
119.050194 78796.0 
121.066391 10824.0 
122.250366 3511.0 
123.045097 15435.0 
130.066498 12963.0 
136.201569 3590.0 
138.032516 3815.0 
146.06163 16953.0 
146.961288 3822.0 
147.045258 447454.0 
147.964508 3105.0 
149.060669 20891.0 
158.061172 5093.0 
160.076553 4533.0 
162.056763 11542.0 
164.071838 432447.0 
174.055679 30974.0 
175.922211 3183.0 
176.07196 46594.0 
182.578583 3157.0 
204.066635 330308.0 
223.113739 3254.0 
254.119034 4045.0 
312.124237 1619880.0 
END IONS

BEGIN IONS
NAME=1-Hydroxy-2-naphthoic acid CollisionEnergy:102040 M-H
PRECURSOR_MZ=187.04
INCHI="InChI=1S/C11H8O3/c12-10-8-4-2-1-3-7(8)5-6-9(10)11(13)14/h1-6,12H,(H,13,14)"
SMILES=O=C(O)c1ccc2ccccc2c1O
SPECTRUMID=CCMSLIB00010126206
57.702202 588560.0 
60.948101 604932.0 
66.931099 637687.0 
80.994499 668015.0 
81.2677 628908.0 
81.501602 632592.0 
83.339104 588107.0 
92.416801 864130.0 
93.6772 658199.0 
118.703003 802294.0 
120.796997 667915.0 
136.264008 614218.0 
143.050003 305340000.0 
171.673996 747018.0 
187.039993 170946000.0 
END IONS

BEGIN IONS
NAME="(5-bromo-1,3-dimethyl-2,6-dioxo(1,3-dihydropyrimidin-4-yl))-N-(2-furylmethyl)c arboxamide CollisionEnergy:205060" M+Cl
PRECURSOR_MZ=375.971
INCHI="InChI=1S/C12H12BrN3O4/c1-15-9(8(13)11(18)16(2)12(15)19)10(17)14-6-7-4-3-5-20-7/h3-5H,6H2,1-2H3,(H,14,17)"
SMILES=Cn1c(C(O)=NCc2ccco2)c(Br)c(=O)n(C)c1=O
SPECTRUMID=CCMSLIB00010124719
52.833469 2695.0 
54.193489 2159.0 
78.918663 253779.0 
82.394783 2034.0 
87.383842 2796.0 
103.944542 2325.0 
128.487457 3050.0 
181.897568 3598.0 
183.91391 4569.0 
216.961914 180052.0 
253.522141 2471.0 
257.912476 3813.0 
260.949402 4495.0 
263.461945 2396.0 
339.993591 20963.0 
376.174286 3348.0 
411.857727 2402.0 
670.081421 2721.0 
732.094666 2640.0 
END IONS

BEGIN IONS
NAME="{2-[(3,4-dimethoxyphenyl)carbonylamino]phenyl}-N-(6-methyl(2-pyridyl))carboxam ide CollisionEnergy:102040" M+H
PRECURSOR_MZ=392.16
INCHI="InChI=1S/C22H21N3O4/c1-14-7-6-10-20(23-14)25-22(27)16-8-4-5-9-17(16)24-21(26)15-11-12-18(28-2)19(13-15)29-3/h4-13H,1-3H3,(H,24,26)(H,23,25,27)"
SMILES=COc1ccc(C(O)=Nc2ccccc2C(O)=Nc2cccc(C)n2)cc1OC
SPECTRUMID=CCMSLIB00010104172
55.824539 3306.0 
58.528339 3736.0 
65.0392 9236.0 
79.05455 14157.0 
90.03434 4161.0 
92.049591 21393.0 
94.041069 4837.0 
109.076073 5388911.0 
109.370628 4043.0 
110.060059 47510.0 
120.044456 8494.0 
122.036591 8855.0 
126.031631 13146.0 
140.875778 3880.0 
142.240555 3493.0 
146.023636 1210107.0 
155.070297 21218.0 
155.632156 3324.0 
164.034424 14067.0 
165.054596 3725287.0 
165.603836 3292.0 
210.102829 31991.0 
240.060089 4301.0 
241.066635 7268.0 
255.113083 19183.0 
265.096832 144154.0 
269.068268 14476.0 
273.12381 8942.0 
282.858551 5209.0 
284.091431 5473558.0 
358.120056 5607.0 
374.107117 20476.0 
374.149384 1484356.0 
392.160492 1585033.0 
END IONS

BEGIN IONS
NAME=2'-DEOXYURIDINE CollisionEnergy:102040 M+formate
PRECURSOR_MZ=273.073
INCHI="InChI=1S/C9H12N2O5/c12-4-6-5(13)3-8(16-6)11-2-1-7(14)10-9(11)15/h1-2,5-6,8,12-13H,3-4H2,(H,10,14,15)/t5-,6+,8+/m0/s1"
SMILES=O=c1nc(O)ccn1C1CC(O)C(CO)O1
SPECTRUMID=CCMSLIB00010114255
66.91568 2587.0 
68.013611 12973.0 
70.029259 9819.0 
75.994614 2895.0 
82.029388 4132.0 
87.60257 3076.0 
92.384583 3141.0 
94.029427 12123.0 
95.024849 9760.0 
96.008408 3206.0 
96.045013 5801.0 
98.024529 50374.0 
101.023819 3667.0 
104.287033 2475.0 
108.008911 58891.0 
110.024597 53139.0 
111.019157 5068.0 
112.040527 27016.0 
124.003326 4625.0 
124.04023 2714.0 
125.011589 65078.0 
125.035294 4204.0 
126.006866 88164.0 
136.040863 5742.0 
137.035477 5993.0 
139.051605 4131.0 
140.035126 231265.0 
141.030304 338490.0 
150.017838 2762.0 
151.014755 9127.0 
162.609985 2708.0 
168.015945 4715.0 
168.030121 15618.0 
183.040878 710957.0 
184.061432 35338.0 
198.040375 5666.0 
220.645401 2740.0 
227.067307 241489.0 
228.892349 3458.0 
229.000137 3282.0 
230.066818 12385.0 
273.072937 957493.0 
END IONS

BEGIN IONS
NAME=succinic acid CollisionEnergy:102040 M-H
PRECURSOR_MZ=117.019
INCHI="InChI=1S/C4H6O4/c5-3(6)1-2-4(7)8/h1-2H2,(H,5,6)(H,7,8)"
SMILES=O=C(O)CCC(=O)O
SPECTRUMID=CCMSLIB00010114261
56.877769 10226.0 
60.54755 10636.0 
70.004494 11851.0 
73.029167 3676882.0 
82.412262 14214.0 
99.008591 330506.0 
99.925652 264767.0 
104.304451 16143.0 
116.928337 1390016.0 
117.01915 690244.0 
125.493668 12167.0 
127.226707 10782.0 
134.955963 10853.0 
136.233612 12876.0 
152.787842 11200.0 
158.000595 13448.0 
188.876785 14810.0 
229.07843 11190.0 
254.111908 12038.0 
END IONS

BEGIN IONS
NAME="3-(3,4-Dimethoxyphenyl)-7-hydroxy-4-phenylcoumarin CollisionEnergy:205060" 2M-H
PRECURSOR_MZ=747.224
INCHI="InChI=1S/C23H18O5/c1-26-18-11-8-15(12-20(18)27-2)22-21(14-6-4-3-5-7-14)17-10-9-16(24)13-19(17)28-23(22)25/h3-13,24H,1-2H3"
SMILES=COc1ccc(-c2c(-c3ccccc3)c3ccc(O)cc3oc2=O)cc1OC
SPECTRUMID=CCMSLIB00010119512
65.413437 2901.0 
67.428497 2926.0 
69.742363 2840.0 
75.224907 2831.0 
128.55835 3114.0 
138.237503 3030.0 
243.082199 5691.0 
271.07666 13672.0 
287.072815 14064.0 
315.02533 5467.0 
315.066559 178613.0 
329.081726 31706.0 
343.061249 146097.0 
357.076721 55053.0 
358.085358 18028.0 
373.10849 309961.0 
409.281647 3497.0 
608.413208 3237.0 
670.919739 3656.0 
END IONS

BEGIN IONS
NAME=DL-Leucine CollisionEnergy:102040 M-H
PRECURSOR_MZ=130.087
INCHI="InChI=1S/C6H13NO2/c1-4(2)3-5(7)6(8)9/h4-5H,3,7H2,1-2H3,(H,8,9)"
SMILES=CC(C)CC(N)C(=O)O
SPECTRUMID=CCMSLIB00010109676
55.16309 1779.0 
61.988049 2302.0 
67.349297 1918.0 
75.087463 2389.0 
82.399452 2360.0 
82.860283 1807.0 
92.382812 2086.0 
102.520233 2064.0 
104.294487 2112.0 
128.035339 3851.0 
130.05101 11295.0 
130.087479 325187.0 
134.620575 2288.0 
END IONS

BEGIN IONS
NAME="2,9-dimethyl-8-(2-oxo-2-(1,2,3,4-tetrahydroquinolyl)ethylthio)hydropurin-6-one CollisionEnergy:102040" M+H
PRECURSOR_MZ=370.133
INCHI="InChI=1S/C18H19N5O2S/c1-11-19-16-15(17(25)20-11)21-18(22(16)2)26-10-14(24)23-9-5-7-12-6-3-4-8-13(12)23/h3-4,6,8H,5,7,9-10H2,1-2H3,(H,19,20,25)"
SMILES=Cc1nc(O)c2nc(SCC(=O)N3CCCc4ccccc43)n(C)c2n1
SPECTRUMID=CCMSLIB00010106021
50.243259 2800.0 
55.664619 3209.0 
68.154984 3275.0 
82.302643 3533.0 
84.012787 3389.0 
84.986343 3941.0 
118.065018 259511.0 
118.646103 4480.0 
128.752396 3102.0 
146.059891 96050.0 
146.096466 30052.0 
147.916733 3484.0 
154.007339 5063.0 
157.964096 4122.0 
163.061981 3763.0 
165.077057 18377.0 
172.075363 6056.0 
174.090912 38736.0 
195.03334 1007632.0 
209.048935 996422.0 
220.213684 3490.0 
222.019592 5908.0 
223.565048 4031.0 
233.525711 4561.0 
236.09668 5753.0 
237.043701 9748250.0 
237.995941 5129.0 
250.076202 5373.0 
303.742706 3576.0 
370.132355 728115.0 
END IONS

BEGIN IONS
NAME=N-Choloylglycine CollisionEnergy:205060 2M-H
PRECURSOR_MZ=929.611
INCHI="InChI=1S/C26H43NO6/c1-14(4-7-22(31)27-13-23(32)33)17-5-6-18-24-19(12-21(30)26(17,18)3)25(2)9-8-16(28)10-15(25)11-20(24)29/h14-21,24,28-30H,4-13H2,1-3H3,(H,27,31)(H,32,33)"
SMILES=CC(CCC(O)=NCC(=O)O)C1CCC2C3C(O)CC4CC(O)CCC4(C)C3CC(O)C12C
SPECTRUMID=CCMSLIB00010119194
65.749687 3955.0 
69.034248 17971.0 
72.045174 18699.0 
73.947121 4741.0 
74.024429 2545008.0 
82.39315 4815.0 
84.045799 5299.0 
92.373306 4959.0 
95.050079 40269.0 
183.72226 4380.0 
196.029541 4666.0 
207.375076 36309.0 
260.374542 5876.0 
262.182709 17193.0 
353.248779 15802.0 
380.266998 5460.0 
382.276672 32616.0 
384.293396 8965.0 
398.267822 8076.0 
400.284882 73638.0 
402.301544 156797.0 
420.312836 8903.0 
464.301636 3832755.0 
465.304901 18123.0 
626.565552 6358.0 
END IONS

BEGIN IONS
NAME=HELIOTRINE CollisionEnergy:205060 M+H
PRECURSOR_MZ=314.196
INCHI="InChI=1S/C16H27NO5/c1-10(2)16(20,11(3)21-4)15(19)22-9-12-5-7-17-8-6-13(18)14(12)17/h5,10-11,13-14,18,20H,6-9H2,1-4H3/t11?,13-,14+,16?/m0/s1"
SMILES=COC(C)C(O)(C(=O)OCC1=CCN2CCC(O)C12)C(C)C
SPECTRUMID=CCMSLIB00010115590
52.309521 4036.0 
55.054661 8767.0 
56.049881 4504.0 
57.034 17995.0 
58.06543 6058.0 
59.04953 118392.0 
60.526489 4785.0 
61.028912 29720.0 
61.03199 4026.0 
65.038872 31871.0 
67.041946 119652.0 
67.045799 7171.0 
67.054497 103226.0 
68.049759 84243.0 
68.871964 3744.0 
69.070122 23107.0 
70.065498 4983.0 
71.085617 35374.0 
73.065117 5486.0 
79.054413 51929.0 
80.044083 5279.0 
80.049622 296692.0 
81.057404 68748.0 
81.069962 70605.0 
82.065269 1009638.0 
83.049339 6711.0 
84.044533 9281.0 
84.959969 3772.0 
86.060043 71814.0 
87.08046 15288.0 
91.054237 85402.0 
92.049507 36519.0 
93.057404 34593.0 
93.069817 91795.0 
94.065102 2081267.0 
95.049156 8503.0 
95.072868 214848.0 
96.044601 53150.0 
96.080727 1537008.0 
98.060013 7287.0 
99.080269 7750.0 
103.053833 65496.0 
105.057167 21589.0 
106.065559 4341.0 
108.080582 575281.0 
109.064903 48335.0 
110.051163 6936.0 
110.059837 210954.0 
110.096352 48451.0 
110.659149 4649.0 
112.075432 86876.0 
118.064819 74757.0 
119.072723 15677.0 
120.080643 1830843.0 
121.064941 13419.0 
121.088737 27199.0 
126.091499 14740.0 
131.106339 19935.0 
136.075562 19514.0 
138.091187 6222739.0 
139.09903 215163.0 
152.106628 18974.0 
156.1017 3265847.0 
183.701126 4218.0 
187.846817 4155.0 
196.223373 4705.0 
282.168335 6914.0 
295.954407 5278.0 
296.184021 8930.0 
314.195343 5647836.0 
END IONS

BEGIN IONS
NAME="N-(2,4-dimethylphenyl)-2-(6-oxo-9-phenylhydropurin-8-ylthio)acetamide CollisionEnergy:102040" M+H
PRECURSOR_MZ=406.133
INCHI="InChI=1S/C21H19N5O2S/c1-13-8-9-16(14(2)10-13)24-17(27)11-29-21-25-18-19(22-12-23-20(18)28)26(21)15-6-4-3-5-7-15/h3-10,12H,11H2,1-2H3,(H,24,27)(H,22,23,28)"
SMILES=Cc1ccc(N=C(O)CSc2nc3c(O)ncnc3n2-c2ccccc2)c(C)c1
SPECTRUMID=CCMSLIB00010112834
66.739571 4387.0 
69.118874 3026.0 
71.916672 3047.0 
73.94735 3685.0 
82.394173 4062.0 
104.280457 4813.0 
108.671753 2930.0 
112.82383 2622.0 
133.478027 2958.0 
134.0961 3619.0 
145.088516 6820.0 
198.066071 36406.0 
199.073868 17069.0 
203.14183 3188.0 
216.022324 24952.0 
230.037872 340736.0 
243.033371 85440.0 
248.048264 30795.0 
257.048584 1274779.0 
285.043427 4643390.0 
388.120392 26471.0 
406.132263 615981.0 
423.940643 3471.0 
END IONS

BEGIN IONS
NAME=GA5 CollisionEnergy:102040 M-H
PRECURSOR_MZ=329.139
INCHI="InChI=1S/C19H22O5/c1-10-8-17-9-18(10,23)7-4-11(17)19-6-3-5-16(2,15(22)24-19)13(19)12(17)14(20)21/h3,5,11-13,23H,1,4,6-9H2,2H3,(H,20,21)/t11-,12-,13-,16-,17+,18+,19-/m1/s1"
SMILES=C[C@@]12C=CC[C@@]3([C@@H]1[C@@H]([C@]45[C@H]3CC[C@](C4)(C(=C)C5)O)C(=O)O)OC2=O
SPECTRUMID=CCMSLIB00010102272
50.352444 3729.180176 
50.519444 4025.137207 
57.034069 20885.236328 
57.4743 3824.412598 
60.575245 4005.668457 
60.992458 5345.712402 
71.049995 126968.617188 
77.658104 4158.000977 
83.050125 74223.179688 
85.065826 41457.496094 
100.393562 4323.333008 
105.071014 35297.71875 
107.050087 18178.302734 
118.262085 4507.680176 
119.050247 5745.229004 
123.081711 49128.417969 
129.070618 5663.103027 
135.081192 7815.563965 
143.086716 90033.890625 
144.058304 31758.621094 
145.102341 420035.375 
149.061447 7418.105957 
157.065903 6656.216797 
157.102646 6956.273926 
159.081909 26660.763672 
169.10228 9412.31543 
171.080688 5989.097168 
183.080856 5733.431152 
197.097504 57535.667969 
208.356186 4198.02832 
209.09729 7253.703125 
213.126785 5441.717285 
215.106812 9112.790039 
221.133072 20435.044922 
223.149323 170771.53125 
231.138916 16401.75 
237.128006 37176.957031 
239.144241 193266.78125 
241.159729 130746.117188 
253.123306 17343.498047 
255.139053 24093.796875 
257.15564 6527.074219 
267.138977 98403.5625 
283.13385 29080.091797 
285.149658 500439.78125 
312.315613 5152.217285 
329.139648 3276157.0 
330.141449 5686.193359 
END IONS

BEGIN IONS
NAME="6-amino-3-ethyl-4-(4-hydroxy-3-methoxyphenyl)-4H-pyrano[3,2-d]pyrazole-5-carbo nitrile CollisionEnergy:102040" M+H
PRECURSOR_MZ=313.13
INCHI="InChI=1S/C16H16N4O3/c1-3-10-14-13(8-4-5-11(21)12(6-8)22-2)9(7-17)15(18)23-16(14)20-19-10/h4-6,13,21H,3,18H2,1-2H3,(H,19,20)"
SMILES=CCc1[nH]nc2c1C(c1ccc(O)c(OC)c1)C(C#N)=C(N)O2
SPECTRUMID=CCMSLIB00010107954
56.61319 2066.0 
64.920433 1944.0 
73.398193 2195.0 
91.054382 27054.0 
92.37043 3183.0 
112.625504 2082.0 
149.022919 11910.0 
161.044449 2668.0 
164.081329 2386.0 
189.058777 4394.0 
189.076828 86658.0 
191.367859 2443.0 
215.079559 3531.0 
219.075104 4350.0 
230.081451 5234.0 
231.111877 2663.0 
232.084152 3697.0 
247.107193 491896.0 
248.11467 14366.0 
248.899933 14992.0 
248.969757 3324.0 
266.909882 5259.0 
286.117157 11220.0 
313.128662 248052.0 
END IONS

BEGIN IONS
NAME=biochanin A CollisionEnergy:102040 2M-H
PRECURSOR_MZ=567.13
INCHI="InChI=1S/C16H12O5/c1-20-11-4-2-9(3-5-11)12-8-21-14-7-10(17)6-13(18)15(14)16(12)19/h2-8,17-18H,1H3"
SMILES=COc1ccc(-c2coc3cc(O)cc(O)c3c2=O)cc1
SPECTRUMID=CCMSLIB00010104481
53.44812 2317.0 
58.798969 2560.0 
58.94796 2491.0 
66.750237 4140.0 
70.237259 2555.0 
106.395729 3323.0 
134.962677 2752.0 
148.199036 2743.0 
201.201096 2918.0 
245.181961 2993.0 
268.036041 3242.0 
283.061249 27247.0 
567.296692 4324.0 
END IONS

BEGIN IONS
NAME="2-[(4-{[(4-methoxy-3-(1,2,3,4-tetraazolyl)phenyl)sulfonyl]amino}phenyl)carbony lamino]acetic acid CollisionEnergy:102040" M+Na
PRECURSOR_MZ=455.074
INCHI="InChI=1S/C17H16N6O6S/c1-29-15-7-6-13(8-14(15)23-10-19-21-22-23)30(27,28)20-12-4-2-11(3-5-12)17(26)18-9-16(24)25/h2-8,10,20H,9H2,1H3,(H,18,26)(H,24,25)"
SMILES=COc1ccc(S(=O)(=O)Nc2ccc(C(=O)NCC(=O)O)cc2)cc1-n1cnnn1
SPECTRUMID=CCMSLIB00010112589
53.51926 2653.0 
61.89011 3033.0 
157.952026 4091.0 
171.052567 5090.0 
186.040833 3177.0 
210.552643 4124.0 
254.180634 2728.0 
308.38559 2859.0 
330.054108 3706.0 
352.036591 9367.0 
353.429138 2856.0 
370.046478 10288.0 
390.976654 3039.0 
427.067627 57366.0 
455.073944 1889330.0 
END IONS

BEGIN IONS
NAME=6-Hydroxy-3'-methoxyflavone CollisionEnergy:205060 M-H
PRECURSOR_MZ=267.066
INCHI="InChI=1S/C16H12O4/c1-19-12-4-2-3-10(7-12)16-9-14(18)13-8-11(17)5-6-15(13)20-16/h2-9,17H,1H3"
SMILES=COc1cccc(-c2cc(=O)c3cc(O)ccc3o2)c1
SPECTRUMID=CCMSLIB00010115236
51.571362 3565.0 
52.99353 3350.0 
55.797218 3308.0 
56.18549 3331.0 
69.034172 71353.0 
69.243057 3333.0 
70.834183 3638.0 
79.018639 14494.0 
80.919456 3421.0 
92.385941 4035.0 
95.013634 29704.0 
97.029312 39195.0 
107.013634 24007.0 
108.021347 26531.0 
116.02636 57718.0 
117.034279 658727.0 
123.008453 24897.0 
125.02401 54358.0 
130.042664 4481.0 
131.04985 100070.0 
132.021362 40150.0 
135.00798 40969.0 
145.029037 6463.0 
151.003708 6121.0 
152.06221 4660.0 
152.690796 3176.0 
157.065399 23374.0 
157.987976 3211.0 
158.036865 13014.0 
160.015884 20440.0 
167.049408 50709.0 
168.057526 22929.0 
170.036469 6502.0 
171.044601 21678.0 
173.059998 4283.0 
180.057724 614853.0 
182.036728 35189.0 
183.044174 33254.0 
195.044739 636703.0 
196.052567 448158.0 
197.060822 7493.0 
198.031723 15081.0 
199.040436 8035.0 
199.07634 7065.0 
203.670074 4294.0 
206.038437 4294.0 
207.044754 106659.0 
208.052658 1666080.0 
210.031998 71671.0 
211.039734 170495.0 
211.074738 6718.0 
211.381149 4999.0 
213.055542 22082.0 
223.03981 949111.0 
223.076492 264213.0 
224.047592 1266343.0 
227.034912 20466.0 
228.042938 6825.0 
229.086578 79282.0 
235.039642 101533.0 
238.063477 22211.0 
239.035339 20970.0 
239.07135 62735.0 
241.049576 4338.0 
246.42807 3864.0 
250.026382 61240.0 
251.034821 2316709.0 
252.042618 2962657.0 
255.027344 4957.0 
256.037354 8051.0 
265.051941 6606.0 
266.057648 27836.0 
267.066101 6618137.0 
END IONS

BEGIN IONS
NAME=3-methoxy-anthranilic acid CollisionEnergy:102040 M-H
PRECURSOR_MZ=166.051
INCHI="InChI=1S/C8H9NO3/c1-12-6-4-2-3-5(7(6)9)8(10)11/h2-4H,9H2,1H3,(H,10,11)"
SMILES=COC1=CC=CC(=C1N)C(=O)O
SPECTRUMID=CCMSLIB00010102233
55.201794 3740.619629 
59.401054 3870.912598 
61.98764 4295.533691 
65.009697 3559.382324 
65.48156 3507.595459 
66.034691 5916.760254 
68.997696 4294.678223 
92.448082 4298.844238 
94.029648 23609.056641 
95.013512 6983.637207 
104.365089 3977.69873 
106.748909 5188.849609 
107.037605 3784547.25 
107.327927 4228.78418 
108.040688 14911.095703 
118.743835 3770.463379 
122.024704 147771.546875 
122.06105 857609.5 
123.032043 8790.900391 
136.312576 4333.64502 
138.018768 6035.139648 
151.027374 823745.6875 
152.030807 4705.981445 
166.050827 620132.875 
167.053406 6376.740723 
180.26297 3766.567871 
END IONS

BEGIN IONS
NAME="2-{N-[2-(3,4-dimethoxyphenyl)ethyl]carbamoyl}cyclohexanecarboxylic acid CollisionEnergy:205060" M+H
PRECURSOR_MZ=336.181
INCHI="InChI=1S/C18H25NO5/c1-23-15-8-7-12(11-16(15)24-2)9-10-19-17(20)13-5-3-4-6-14(13)18(21)22/h7-8,11,13-14H,3-6,9-10H2,1-2H3,(H,19,20)(H,21,22)"
SMILES=COc1ccc(CCN=C(O)C2CCCCC2C(=O)O)cc1OC
SPECTRUMID=CCMSLIB00010119220
53.03891 5017.0 
58.30407 2556.0 
61.693272 2583.0 
73.953468 2705.0 
79.054451 61332.0 
81.070084 254821.0 
82.396767 2988.0 
91.053932 14680.0 
103.054192 43239.0 
104.061707 4619.0 
104.28521 3586.0 
105.069763 169069.0 
107.049004 22177.0 
109.064796 33720.0 
118.041397 28413.0 
119.048523 6242.0 
120.0569 28232.0 
121.064659 32481.0 
122.072304 16529.0 
127.075287 12105.0 
131.048996 4098.0 
133.064667 142890.0 
134.072403 104238.0 
135.043716 53103.0 
135.080292 64683.0 
137.059479 3661.0 
137.095795 4643.0 
138.067474 64946.0 
139.465759 2738.0 
149.059738 6571.0 
150.067368 680251.0 
152.106308 4549.0 
154.085846 3845.0 
155.069946 24617.0 
165.090866 1737002.0 
176.070862 3887.0 
180.102249 22311.0 
182.117157 117818.0 
208.095245 4350.0 
209.034332 2966.0 
268.452515 2780.0 
286.143066 57405.0 
318.169189 825204.0 
336.180237 72153.0 
END IONS

BEGIN IONS
NAME=Retinoic acid CollisionEnergy:205060 M+H
PRECURSOR_MZ=301.216
INCHI="InChI=1S/C20H28O2/c1-15(8-6-9-16(2)14-19(21)22)11-12-18-17(3)10-7-13-20(18,4)5/h6,8-9,11-12,14H,7,10,13H2,1-5H3,(H,21,22)/b9-6+,12-11+,15-8+,16-14+"
SMILES=CC(C=CC1=C(C)CCCC1(C)C)=CC=CC(C)=CC(=O)O
SPECTRUMID=CCMSLIB00010125280
53.039211 6625.0 
53.429001 6324.0 
55.05492 50648.0 
57.070721 41901.0 
65.44812 4411.0 
66.759659 4299.0 
67.054916 107898.0 
69.034019 19088.0 
69.070534 137097.0 
70.51165 4629.0 
79.054832 58838.0 
81.070503 249279.0 
82.422363 5866.0 
83.049889 6652.0 
83.086029 36944.0 
87.044662 5439.0 
91.054741 81522.0 
93.070381 88977.0 
95.049461 5033.0 
95.079628 6972.0 
95.086037 159768.0 
97.064621 5322.0 
97.1017 9875.0 
104.312943 7565.0 
105.070267 207877.0 
106.073349 4536.0 
107.08596 105642.0 
109.065247 18389.0 
109.101547 126170.0 
111.044678 11595.0 
111.117027 6921.0 
117.07016 37762.0 
118.687233 5662.0 
119.085854 173701.0 
120.090622 4284.0 
121.065079 39402.0 
121.10144 65831.0 
123.117073 310108.0 
125.059883 6421.0 
127.075706 5379.0 
128.061722 7334.0 
129.070068 28317.0 
130.078064 10087.0 
131.085587 186430.0 
132.091949 4503.0 
133.064407 6489.0 
133.101196 135510.0 
133.111893 7830.0 
135.080627 27798.0 
135.116959 24662.0 
139.075211 8029.0 
142.077667 11392.0 
143.085632 59450.0 
144.093323 34167.0 
145.064743 8910.0 
145.101303 212054.0 
146.072296 10878.0 
146.108154 27106.0 
147.080475 10394.0 
147.11705 71575.0 
149.096558 9861.0 
155.085068 9704.0 
156.093597 34766.0 
157.101334 108791.0 
158.0103 5660.0 
158.072952 18776.0 
158.106659 21386.0 
159.080795 43563.0 
159.116745 245810.0 
160.088043 5527.0 
160.120499 8169.0 
161.096207 125928.0 
161.132462 86585.0 
166.076035 5687.0 
169.101334 8055.0 
170.106918 9653.0 
171.08017 34948.0 
171.116867 70314.0 
172.061432 4926.0 
172.088043 22259.0 
172.121902 6985.0 
173.095779 34440.0 
173.132568 53326.0 
174.137573 4860.0 
175.092041 4686.0 
175.111862 24808.0 
175.147903 51682.0 
177.090988 67263.0 
177.163071 18128.0 
179.106522 60316.0 
183.116135 4868.0 
184.088196 6115.0 
185.096512 64956.0 
185.112671 6423.0 
185.131577 40966.0 
186.137375 6662.0 
187.11174 57964.0 
187.148163 63678.0 
191.105881 47930.0 
194.107849 5234.0 
198.103836 8379.0 
199.111877 26328.0 
199.147079 42196.0 
200.152161 5206.0 
201.128784 10113.0 
201.163437 131214.0 
202.170959 25101.0 
203.106964 8013.0 
205.122238 143420.0 
213.127426 27726.0 
213.164185 20371.0 
217.122101 24249.0 
219.137558 9340.0 
227.142349 19250.0 
231.13623 7777.0 
241.158249 18715.0 
241.19577 21079.0 
245.153107 43965.0 
255.177658 8262.0 
255.210144 82157.0 
256.213104 8537.0 
265.196411 5932.0 
283.2052 120912.0 
286.189087 20315.0 
301.215698 561340.0 
END IONS

BEGIN IONS
NAME=2-(9-ethyl-6-oxohydropurin-8-ylthio)-N-phenyl-N-prop-2-enylacetamide CollisionEnergy:205060 M+H
PRECURSOR_MZ=370.133
INCHI="InChI=1S/C18H19N5O2S/c1-3-10-23(13-8-6-5-7-9-13)14(24)11-26-18-21-15-16(22(18)4-2)19-12-20-17(15)25/h3,5-9,12H,1,4,10-11H2,2H3,(H,19,20,25)"
SMILES=C=CCN(C(=O)CSc1nc2c(O)ncnc2n1CC)c1ccccc1
SPECTRUMID=CCMSLIB00010119188
53.03899 4966.0 
55.018291 5460.0 
55.05463 55975.0 
58.99551 50205.0 
82.388519 4343.0 
87.026703 12571.0 
91.054268 88038.0 
93.057663 27667.0 
98.005707 5427.0 
104.049393 35122.0 
106.064987 53679.0 
110.034843 14516.0 
110.047447 8689.0 
117.057266 88486.0 
117.066597 5829.0 
118.064934 158252.0 
118.074631 5263.0 
120.055527 7705.0 
124.050659 24687.0 
125.016571 14590.0 
126.001038 4089.0 
126.011749 16995.0 
127.051308 3646.0 
129.069946 5149.0 
130.065063 22289.0 
131.072891 16898.0 
132.044266 16770.0 
132.080811 8796.0 
133.05191 5633.0 
134.096085 16506.0 
137.0457 715772.0 
138.012009 5076.0 
139.991226 7178.0 
140.027542 24628.0 
143.028 7984.0 
144.022614 4183.0 
144.080582 61894.0 
146.096466 84352.0 
147.030304 4053.0 
148.050308 25284.0 
149.045685 93836.0 
150.053192 37551.0 
150.065155 4411.0 
150.995773 15288.0 
151.061325 126383.0 
152.027603 60333.0 
153.011154 13733.0 
153.023224 16833.0 
154.006699 99537.0 
154.064331 5222.0 
156.022186 4633.0 
156.081161 5265.0 
157.051117 5157.0 
160.075882 3899.0 
161.045441 27539.0 
163.060745 8178.0 
164.069473 14347.0 
165.012466 5467.0 
165.076813 45130.0 
167.001953 24283.0 
168.022614 189390.0 
169.004135 8809.0 
169.019257 33692.0 
170.03772 6235.0 
172.017105 18669.0 
172.075134 49752.0 
174.090729 4158.0 
175.061203 324881.0 
176.069275 85835.0 
177.022507 5265.0 
177.077118 29949.0 
178.006104 4769.0 
181.017639 3344340.0 
182.038116 6637.0 
193.017944 20201.0 
194.026291 7730.0 
195.033295 1463719.0 
197.049133 19357.0 
208.880554 15174.0 
209.012604 185304.0 
209.048859 3211382.0 
221.048798 15877.0 
226.013474 4391.0 
227.05838 34238.0 
236.060455 13572.0 
236.099258 4242.0 
237.043625 6488626.0 
237.993607 4968.0 
250.074722 55878.0 
370.132324 372833.0 
END IONS

BEGIN IONS
NAME=N-(2-ethoxyphenyl)-2-(9-methyl-6-oxohydropurin-8-ylthio)acetamide CollisionEnergy:205060 M+H
PRECURSOR_MZ=360.113
INCHI="InChI=1S/C16H17N5O3S/c1-3-24-11-7-5-4-6-10(11)19-12(22)8-25-16-20-13-14(21(16)2)17-9-18-15(13)23/h4-7,9H,3,8H2,1-2H3,(H,19,22)(H,17,18,23)"
SMILES=CCOc1ccccc1N=C(O)CSc1nc2c(O)ncnc2n1C
SPECTRUMID=CCMSLIB00010121760
57.0452 13779.0 
58.995628 8419.0 
65.122917 3552.0 
79.054626 4742.0 
80.049858 3646.0 
82.029007 7105.0 
84.985443 31819.0 
86.006401 4455.0 
92.049637 8022.0 
94.065224 97869.0 
95.049309 22494.0 
104.049248 20058.0 
106.040222 14388.0 
106.065193 7075.0 
107.02372 14949.0 
107.048782 29904.0 
108.044327 20179.0 
108.055611 20843.0 
109.05217 17431.0 
110.03476 4125.0 
110.059921 6725.0 
111.042717 16234.0 
120.044357 30854.0 
120.053146 3085.0 
121.051842 4692.0 
122.059929 244196.0 
123.523247 4348.0 
124.050774 24209.0 
125.016777 5607.0 
126.011429 5030.0 
127.868301 3411.0 
132.044235 190824.0 
133.028091 5618.0 
133.05191 47496.0 
134.034958 6476.0 
134.059479 5660.0 
135.067917 26093.0 
137.045654 137536.0 
137.083527 62860.0 
138.091278 3450.0 
139.991165 61448.0 
140.027618 4814.0 
146.059921 18780.0 
148.039062 13821.0 
149.045654 174892.0 
150.053711 257921.0 
150.09111 47381.0 
150.99585 56503.0 
151.061295 542469.0 
152.027328 19931.0 
153.022842 22785.0 
154.00705 15445.0 
160.075577 6397.0 
161.045486 30214.0 
162.053467 126299.0 
163.061249 214370.0 
163.076797 7475.0 
168.022339 118686.0 
170.038177 19822.0 
176.07077 34939.0 
177.022858 19816.0 
179.055466 16673.0 
181.017654 1824999.0 
182.025253 17730.0 
183.033279 22143.0 
186.032654 7823.0 
190.07196 3788.0 
195.033325 4565137.0 
195.740402 5257.0 
213.043884 41817.0 
213.064102 4345.0 
222.044556 27131.0 
222.167587 4116.0 
223.028122 5547139.0 
224.933304 3464.0 
236.059616 45350.0 
272.066711 15880.0 
281.090912 3697.0 
307.148285 3168.0 
314.071686 4308.0 
342.102173 13934.0 
347.648041 3343.0 
360.112457 85598.0 
END IONS

BEGIN IONS
NAME="3,7-Dimethoxyflavone CollisionEnergy:205060" M+H
PRECURSOR_MZ=283.096
INCHI="InChI=1S/C17H14O4/c1-19-12-8-9-13-14(10-12)21-16(17(20-2)15(13)18)11-6-4-3-5-7-11/h3-10H,1-2H3"
SMILES=COc1ccc2c(=O)c(OC)c(-c3ccccc3)oc2c1
SPECTRUMID=CCMSLIB00010115118
50.107849 2407.0 
50.15414 3058.0 
52.841209 2830.0 
56.408791 2484.0 
61.291439 2814.0 
78.436241 3141.0 
78.723221 2588.0 
83.444267 2626.0 
84.959892 4845.0 
91.540733 2910.0 
92.372803 3104.0 
105.033447 13931.0 
107.013023 3993.0 
108.056953 5435.0 
121.028557 22175.0 
121.065086 3211.0 
135.043961 32976.0 
140.12291 3212.0 
141.068665 3950.0 
148.051819 22369.0 
151.039673 3300.0 
169.064499 11295.0 
181.064819 54447.0 
197.059845 92641.0 
209.059204 6016.0 
211.075867 47333.0 
225.054474 258541.0 
236.947006 11495.0 
237.054443 88134.0 
237.080093 6113.0 
239.070877 28774.0 
240.07785 304563.0 
251.068375 5948.0 
252.041534 29021.0 
253.049316 498303.0 
259.965698 3231.0 
267.064972 1863547.0 
268.072754 1856868.0 
273.588043 2849.0 
283.096252 2766408.0 
END IONS

BEGIN IONS
NAME=L-phenylalanine CollisionEnergy:205060 M+Na
PRECURSOR_MZ=188.068
INCHI="InChI=1S/C9H11NO2/c10-8(9(11)12)6-7-4-2-1-3-5-7/h1-5,8H,6,10H2,(H,11,12)/t8-/m0/s1"
SMILES=NC(Cc1ccccc1)C(=O)O
SPECTRUMID=CCMSLIB00010121511
55.93478 2061.0 
60.959049 1878.0 
82.405388 2036.0 
99.301804 2070.0 
103.155411 2050.0 
104.293091 2428.0 
108.833031 2183.0 
127.43895 2167.0 
136.865784 2096.0 
167.054825 3254.0 
188.068054 26612.0 
END IONS

BEGIN IONS
NAME=CHEMBL1603292 CollisionEnergy:102040 M+Na
PRECURSOR_MZ=387.178
INCHI="InChI=1S/C20H28O6/c1-9-10-4-5-11-18-8-26-20(25,19(11,14(9)22)15(10)23)16(24)13(18)17(2,3)7-6-12(18)21/h10-13,15-16,21,23-25H,1,4-8H2,2-3H3/t10-,11-,12-,13+,15+,16+,18+,19-,20-/m0/s1"
SMILES=C=C1C(=O)C23C(O)C1CCC2C12COC3(O)C(O)C1C(C)(C)CCC2O
SPECTRUMID=CCMSLIB00010112356
50.177341 2889.0 
59.003651 2929.0 
62.161701 3251.0 
77.333008 3031.0 
80.743233 3092.0 
86.305763 2796.0 
158.003296 3253.0 
158.430939 2940.0 
185.448624 3128.0 
209.56189 6467.0 
341.171844 22571.0 
369.166534 123330.0 
387.176941 6703249.0 
412.062958 2986.0 
END IONS

BEGIN IONS
NAME=16-Hydroxyhexadecanoic acid CollisionEnergy:205060 M+H
PRECURSOR_MZ=273.242
INCHI="InChI=1S/C16H32O3/c17-15-13-11-9-7-5-3-1-2-4-6-8-10-12-14-16(18)19/h17H,1-15H2,(H,18,19)"
SMILES=O=C(O)CCCCCCCCCCCCCCCO
SPECTRUMID=CCMSLIB00010122750
53.038841 2344.0 
55.05471 68859.0 
57.033741 2848.0 
57.070339 68087.0 
67.054573 40787.0 
69.070251 114333.0 
71.049423 3535.0 
71.085854 42080.0 
79.054718 24104.0 
81.070068 57684.0 
83.049278 3116.0 
83.080643 4192.0 
83.085762 70434.0 
85.064636 3985.0 
85.101418 18541.0 
91.054451 2834.0 
93.069923 41317.0 
95.085632 41527.0 
97.064819 27734.0 
97.101143 37379.0 
104.285133 2817.0 
107.085373 30412.0 
109.101173 20561.0 
111.080269 15759.0 
111.116386 10579.0 
115.075447 5242.0 
121.101471 31061.0 
123.117508 17189.0 
124.996391 2239.0 
125.095703 12321.0 
135.079926 2162.0 
135.11673 24434.0 
137.132904 4522.0 
139.112305 18079.0 
139.148285 2453.0 
143.1064 4084.0 
149.132248 23106.0 
153.127304 13333.0 
161.006027 2708.0 
163.147842 21174.0 
167.142288 13936.0 
177.163177 5331.0 
181.158417 8472.0 
185.152802 2619.0 
195.176224 2426.0 
219.210571 68276.0 
237.220963 52367.0 
255.230728 3805.0 
273.166229 15069.0 
END IONS

BEGIN IONS
NAME="3-(3,4,5-trimethoxyphenyl)-N-(5,7,8-trimethyl-3-oxo(2H,4H-benzo[3,4-e]1,4-oxaz aperhydroin-6-yl))propanamide CollisionEnergy:102040" M-H
PRECURSOR_MZ=427.187
INCHI="InChI=1S/C23H28N2O6/c1-12-13(2)22-21(25-19(27)11-31-22)14(3)20(12)24-18(26)8-7-15-9-16(28-4)23(30-6)17(10-15)29-5/h9-10H,7-8,11H2,1-6H3,(H,24,26)(H,25,27)"
SMILES=COc1cc(CCC(O)=Nc2c(C)c(C)c3c(c2C)N=C(O)CO3)cc(OC)c1OC
SPECTRUMID=CCMSLIB00010112681
50.483978 3546.0 
92.940407 3248.0 
107.049637 4537.0 
128.766891 3171.0 
135.045029 3857.0 
136.076492 17151.0 
148.411606 2920.0 
149.060364 3814.0 
150.03186 33141.0 
151.039825 119137.0 
159.091873 4243.0 
162.077698 5402.0 
162.092239 124023.0 
163.087494 891297.0 
164.047852 52282.0 
165.055344 148158.0 
176.094589 3101.0 
177.103119 31717.0 
179.071106 153873.0 
185.084595 5069.0 
186.08017 24342.0 
187.086563 4854.0 
188.072495 6260.0 
189.065308 23722.0 
189.079437 50524.0 
190.072113 26860.0 
190.090912 5616.0 
191.034775 10983.0 
191.081802 4993.0 
201.06662 3549.0 
201.753204 3401.0 
203.082932 6278.0 
204.090012 89627.0 
205.098083 153952.0 
207.066345 5890.0 
215.058334 13200.0 
218.068253 3478.0 
219.115662 5478.0 
231.07753 89699.0 
232.085434 44852.0 
233.877945 3500.0 
236.080673 7817.0 
246.101517 7490.0 
260.081818 4894.0 
352.144775 5322.0 
366.170563 34035.0 
367.166748 136024.0 
368.144073 3734.0 
379.133057 4914.0 
384.182007 30580.0 
385.176697 74689.0 
397.137848 42315.0 
399.192139 32808.0 
409.178253 33185.0 
411.155334 7794.0 
412.164032 58514.0 
424.882538 5781.0 
427.187805 4432585.0 
429.507111 6326.0 
442.738708 3296.0 
END IONS

BEGIN IONS
NAME="methyl 1-(2H-benzo[3,4-d]1,3-dioxolen-5-ylmethyl)-5-hydroxy-2-methylindole-3-c arboxylate CollisionEnergy:102040" M+H
PRECURSOR_MZ=340.118
INCHI="InChI=1S/C19H17NO5/c1-11-18(19(22)23-2)14-8-13(21)4-5-15(14)20(11)9-12-3-6-16-17(7-12)25-10-24-16/h3-8,21H,9-10H2,1-2H3"
SMILES=COC(=O)c1c(C)n(Cc2ccc3c(c2)OCO3)c2ccc(O)cc12
SPECTRUMID=CCMSLIB00010108629
51.023811 20455.0 
66.745064 3632.0 
79.054588 70485.0 
82.401382 5108.0 
92.447594 3804.0 
95.049294 5055.0 
105.033447 26521.0 
134.639206 4851.0 
135.044037 18314112.0 
135.450577 5625.0 
136.047302 24112.0 
174.090042 5137.0 
192.087006 4283.0 
209.820877 4950.0 
218.055908 4404.0 
218.080978 356666.0 
308.091217 1489896.0 
340.117615 5456995.0 
END IONS

BEGIN IONS
NAME="methyl 3,4,5-trimethoxy-2-[2-oxo-2-(2-phenylindol-3-yl)acetylamino]benzoate CollisionEnergy:102040" M+Cl
PRECURSOR_MZ=523.128
INCHI="InChI=1S/C27H24N2O7/c1-33-19-14-17(27(32)36-4)22(25(35-3)24(19)34-2)29-26(31)23(30)20-16-12-8-9-13-18(16)28-21(20)15-10-6-5-7-11-15/h5-14,28H,1-4H3,(H,29,31)"
SMILES=COC(=O)c1cc(OC)c(OC)c(OC)c1NC(=O)C(=O)c1c(-c2ccccc2)[nH]c2ccccc12
SPECTRUMID=CCMSLIB00010109684
50.689579 2311.0 
53.370579 2520.0 
54.353371 2714.0 
55.627998 2203.0 
62.20834 2556.0 
71.150124 2633.0 
73.829857 2456.0 
77.592422 2813.0 
92.369377 3952.0 
108.491409 2930.0 
112.985619 9513.0 
118.160751 2677.0 
157.957214 2860.0 
192.082062 32560.0 
281.772797 3244.0 
378.979767 4260.0 
487.152069 30961.0 
502.670898 2987.0 
522.994629 4978.0 
END IONS

BEGIN IONS
NAME=dehydrocholic acid CollisionEnergy:102040 M-H
PRECURSOR_MZ=401.233
INCHI="InChI=1S/C24H34O5/c1-13(4-7-21(28)29)16-5-6-17-22-18(12-20(27)24(16,17)3)23(2)9-8-15(25)10-14(23)11-19(22)26/h13-14,16-18,22H,4-12H2,1-3H3,(H,28,29)/t13-,14+,16-,17+,18+,22+,23+,24-/m1/s1"
SMILES=CC(CCC(=O)O)C1CCC2C3C(=O)CC4CC(=O)CCC4(C)C3CC(=O)C12C
SPECTRUMID=CCMSLIB00010113362
60.534401 2628.0 
67.197433 2629.0 
69.034286 27389.0 
71.050041 12932.0 
83.613258 2550.0 
92.377136 3215.0 
104.281898 3215.0 
107.049873 3155.0 
109.065979 47737.0 
110.554558 2930.0 
111.045326 4300.0 
112.985458 3517.0 
118.652519 3188.0 
121.066292 3951.0 
123.958931 2882.0 
137.633865 3495.0 
147.081696 18228.0 
205.160278 6312.0 
215.144211 95389.0 
215.240875 3281.0 
223.134003 3466.0 
231.139191 12461.0 
241.124008 13922.0 
249.14949 233715.0 
259.134827 5440.0 
269.191254 40330.0 
271.170685 35000.0 
273.151123 3645.0 
277.180908 19211.0 
285.187408 3423.0 
287.201996 46181.0 
289.180786 15228.0 
291.160309 105182.0 
291.196198 5477.0 
297.153748 3424.0 
313.181091 87288.0 
331.19165 340766.0 
343.192047 11937.0 
383.222198 46430.0 
401.233673 3151085.0 
END IONS

BEGIN IONS
NAME=adenine CollisionEnergy:102040 M+Cl
PRECURSOR_MZ=170.024
INCHI="InChI=1S/C5H5N5/c6-4-3-5(9-1-7-3)10-2-8-4/h1-2H,(H3,6,7,8,9,10)"
SMILES=Nc1nc[nH]c2ncnc1-2
SPECTRUMID=CCMSLIB00010126404
56.723301 1832.77002 
71.049599 1893.530029 
82.416 2496.840088 
86.333702 2054.47998 
89.733398 2165.879883 
126.093002 3419.649902 
134.046997 152590.0 
151.988998 1961.939941 
155.143005 2167.060059 
END IONS

BEGIN IONS
NAME=dinoprost CollisionEnergy:102040 2M-H
PRECURSOR_MZ=707.474
INCHI="InChI=1S/C20H34O5/c1-2-3-6-9-15(21)12-13-17-16(18(22)14-19(17)23)10-7-4-5-8-11-20(24)25/h4,7,12-13,15-19,21-23H,2-3,5-6,8-11,14H2,1H3,(H,24,25)/b7-4-,13-12+/t15-,16+,17+,18-,19+/m0/s1"
SMILES=CCCCCC(O)C=CC1C(O)CC(O)C1CC=CCCCC(=O)O
SPECTRUMID=CCMSLIB00010110523
60.863289 3346.0 
72.982788 4665.0 
88.252457 2875.0 
92.388977 4929.0 
104.299637 4316.0 
111.081062 5447.0 
113.096489 3727.0 
118.670013 3382.0 
128.23735 3777.0 
137.92308 3079.0 
141.524368 3238.0 
165.127884 6836.0 
171.102386 13596.0 
173.133591 3687.0 
191.144714 3433.0 
193.123077 34259.0 
193.15863 6739.0 
209.117844 17853.0 
221.117447 5136.0 
247.206131 25222.0 
255.211578 4314.0 
263.202148 5979.0 
273.221405 6622.0 
291.195709 32147.0 
299.201843 5595.0 
309.207153 77095.0 
317.213348 13673.0 
335.221954 4824.0 
353.233032 1358631.0 
466.229431 3769.0 
506.858917 3235.0 
508.995667 3196.0 
614.618469 4410.0 
END IONS

BEGIN IONS
NAME=N-(3-chloro-4-methoxyphenyl)-2-{4-[(7-methyl-2-oxochromen-4-yl)methyl]piperazi nyl}acetamide CollisionEnergy:102040 M+formate
PRECURSOR_MZ=500.159
INCHI="InChI=1S/C24H26ClN3O4/c1-16-3-5-19-17(12-24(30)32-22(19)11-16)14-27-7-9-28(10-8-27)15-23(29)26-18-4-6-21(31-2)20(25)13-18/h3-6,11-13H,7-10,14-15H2,1-2H3,(H,26,29)"
SMILES=COc1ccc(N=C(O)CN2CCN(Cc3cc(=O)oc4cc(C)ccc34)CC2)cc1Cl
SPECTRUMID=CCMSLIB00010109003
51.433441 2573.0 
58.569439 2375.0 
66.777977 2396.0 
89.209229 2605.0 
92.426819 2889.0 
127.455704 2805.0 
131.441895 2780.0 
132.589752 2675.0 
140.99913 3039.0 
150.113739 2670.0 
158.050812 2955.0 
167.985916 312462.0 
208.595779 12928.0 
269.129791 3139.0 
272.276215 3007.0 
401.918579 2700.0 
439.125641 3964.0 
454.154236 700036.0 
467.885559 3103.0 
END IONS

BEGIN IONS
NAME="2-(4-hydroxy-6-propylpyrimidin-2-ylthio)-N-(2-phenyl(4-hydroimidazo[1,2-a]pyri din-3-yl))acetamide CollisionEnergy:102040" M+H
PRECURSOR_MZ=420.149
INCHI="InChI=1S/C22H21N5O2S/c1-2-8-16-13-18(28)26-22(23-16)30-14-19(29)25-21-20(15-9-4-3-5-10-15)24-17-11-6-7-12-27(17)21/h3-7,9-13H,2,8,14H2,1H3,(H,25,29)(H,23,26,28)"
SMILES=CCCc1cc(O)nc(SCC(O)=Nc2c(-c3ccccc3)nc3ccccn23)n1
SPECTRUMID=CCMSLIB00010106490
55.15546 4472.0 
55.439232 4452.0 
60.667332 5179.0 
66.735558 4009.0 
67.443428 4482.0 
73.94194 4276.0 
73.947159 5499.0 
77.120049 9084.0 
78.034973 22883.0 
78.252274 4605.0 
82.028893 9665.0 
91.07016 4479.0 
95.060097 23342.0 
96.04422 19747.0 
101.487717 4212.0 
116.049133 6888.0 
118.064781 63382.0 
124.066597 6299.0 
124.075661 106996.0 
130.065613 4558.0 
136.200882 5267.0 
146.059525 11443.0 
156.043488 6673.0 
180.080948 5288.0 
181.075775 160401.0 
183.058914 182221.0 
183.091339 235315.0 
185.074158 58732.0 
194.066147 4997.0 
194.082199 32004.0 
195.091522 174137.0 
205.075348 31589.0 
206.083237 8537.0 
207.091309 27298.0 
208.085785 92706.0 
209.094437 1149129.0 
210.102356 3753481.0 
211.053391 116706.0 
220.086777 27318.0 
221.094818 10091.0 
222.102249 2194215.0 
223.086151 246513.0 
223.11116 5783.0 
232.086288 30951.0 
233.070099 38433.0 
235.073517 8987.0 
235.139496 7462.0 
236.081451 12636543.0 
237.029587 6447.0 
249.089508 5999.0 
250.097 1769659.0 
254.074341 140276.0 
261.18457 5235.0 
265.445557 4727.0 
282.068939 968313.0 
283.088562 6738.0 
284.084198 23506.0 
309.082642 11363.0 
316.621246 5442.0 
346.165192 27390.0 
402.139709 19012.0 
417.913849 18720.0 
420.147888 17639290.0 
422.396332 9957.0 
429.742218 5993.0 
END IONS

BEGIN IONS
NAME=4-[(4-hydroxyphenyl)methylene]-3-phenylisoxazol-5-one CollisionEnergy:102040 M+formate
PRECURSOR_MZ=310.072
INCHI="InChI=1S/C16H11NO3/c18-13-8-6-11(7-9-13)10-14-15(17-20-16(14)19)12-4-2-1-3-5-12/h1-10,18H/b14-10-"
SMILES=O=C1ON=C(c2ccccc2)C1=Cc1ccc(O)cc1
SPECTRUMID=CCMSLIB00010112232
51.15807 2233.0 
81.371536 2221.0 
82.409447 2684.0 
87.452759 2381.0 
92.389099 2530.0 
104.299141 2728.0 
131.037628 14591.0 
236.070801 2716.0 
264.066528 122939.0 
END IONS

BEGIN IONS
NAME="(3,4-dimethoxyphenyl)-N-[(4-methylphenyl)methyl]carboxamide CollisionEnergy:102040" M+H
PRECURSOR_MZ=286.144
INCHI="InChI=1S/C17H19NO3/c1-12-4-6-13(7-5-12)11-18-17(19)14-8-9-15(20-2)16(10-14)21-3/h4-10H,11H2,1-3H3,(H,18,19)"
SMILES=COc1ccc(C(O)=NCc2ccc(C)cc2)cc1OC
SPECTRUMID=CCMSLIB00010104815
60.52787 3288.0 
73.939301 3836.0 
79.054619 40902.0 
103.054138 27335.0 
104.267853 3840.0 
105.069862 5793805.0 
119.444092 3313.0 
124.052101 27591.0 
136.075287 7101.0 
139.075333 103939.0 
149.023239 122986.0 
162.054932 5982.0 
164.070435 52599.0 
165.054535 2176024.0 
182.08107 115701.0 
194.080704 7398.0 
211.53627 3672.0 
217.963943 3573.0 
241.235626 6131.0 
286.10965 180195.0 
286.143097 3610227.0 
END IONS

BEGIN IONS
NAME=2-(4-oxo-2-phenylchromen-6-yloxy)acetamide CollisionEnergy:205060 M+Na
PRECURSOR_MZ=318.074
INCHI="InChI=1S/C17H13NO4/c18-17(20)10-21-12-6-7-15-13(8-12)14(19)9-16(22-15)11-4-2-1-3-5-11/h1-9H,10H2,(H2,18,20)"
SMILES=N=C(O)COc1ccc2oc(-c3ccccc3)cc(=O)c2c1
SPECTRUMID=CCMSLIB00010115844
73.971313 2519.0 
109.607422 2233.0 
136.243271 2883.0 
171.362732 2448.0 
262.26236 2089.0 
266.98938 2231.0 
294.997803 2625.0 
318.073059 2060443.0 
END IONS

BEGIN IONS
NAME=Isoevodiamine CollisionEnergy:102040 M+H
PRECURSOR_MZ=304.144
INCHI="InChI=1S/C19H17N3O/c1-21-16-9-5-3-7-14(16)19(23)22-11-10-13-12-6-2-4-8-15(12)20-17(13)18(21)22/h2-9,18,20H,10-11H2,1H3"
SMILES=CN1c2ccccc2C(=O)N2CCc3c([nH]c4ccccc34)C21
SPECTRUMID=CCMSLIB00010105851
65.038849 3359.0 
67.037437 2814.0 
73.951393 3160.0 
77.039001 6561.0 
79.054451 7323.0 
91.054153 32103.0 
104.287491 3144.0 
106.040688 4895.0 
106.065002 92480.0 
109.064102 4370.0 
116.049339 63302.0 
118.064957 105855.0 
120.080582 38116.0 
134.059906 5260203.0 
144.080582 387944.0 
146.059998 3673.0 
161.07077 257559.0 
171.091431 1504470.0 
187.0867 19415.0 
200.093872 3738.0 
209.301773 11701.0 
304.143646 1865137.0 
END IONS

BEGIN IONS
NAME="8-{[2-(4-chlorophenoxy)ethyl]amino}-1,3,7-trimethyl-1,3,7-trihydropurine-2,6-d ione CollisionEnergy:102040" M+H
PRECURSOR_MZ=364.117
INCHI="InChI=1S/C16H18ClN5O3/c1-20-12-13(21(2)16(24)22(3)14(12)23)19-15(20)18-8-9-25-11-6-4-10(17)5-7-11/h4-7H,8-9H2,1-3H3,(H,18,19)"
SMILES=Cn1c(=O)c2c([nH]c(=NCCOc3ccc(Cl)cc3)n2C)n(C)c1=O
SPECTRUMID=CCMSLIB00010110226
60.53907 3141.0 
67.172218 2464.0 
67.533997 3301.0 
70.566521 2704.0 
79.422943 2619.0 
82.40078 3263.0 
83.060623 38056.0 
89.554916 3203.0 
94.039886 2882.0 
110.071136 41649.0 
111.055183 26585.0 
112.676582 2971.0 
113.459991 2932.0 
127.031273 3612.0 
136.073898 3440.0 
151.061188 5242.0 
151.097839 24894.0 
152.06897 12776.0 
155.025116 28872.0 
164.069016 13525.0 
168.075958 21745.0 
178.909821 2950.0 
179.09256 393381.0 
181.071991 4245.0 
202.314468 3087.0 
203.402496 3025.0 
203.726578 2844.0 
208.062729 8820.0 
208.082153 77249.0 
209.090439 528782.0 
210.098099 27435.0 
221.090973 6857.0 
222.09848 16727.0 
236.113724 380023.0 
237.121902 18092.0 
279.100098 33012.0 
307.094513 45878.0 
349.091064 3317.0 
364.116364 3246261.0 
END IONS

BEGIN IONS
NAME=5-Methoxyflavone CollisionEnergy:102040 M+Na
PRECURSOR_MZ=275.068
INCHI="InChI=1S/C16H12O3/c1-18-13-8-5-9-14-16(13)12(17)10-15(19-14)11-6-3-2-4-7-11/h2-10H,1H3"
SMILES=COc1cccc2oc(-c3ccccc3)cc(=O)c12
SPECTRUMID=CCMSLIB00010104372
73.94677 3199.0 
92.368912 3393.0 
97.865082 2945.0 
125.016983 2738.0 
136.195923 4050.0 
143.303207 2554.0 
145.950043 3460.0 
184.863358 3123.0 
210.95015 11109.0 
221.776611 2758.0 
258.026459 2813.0 
260.043213 19428.0 
273.889618 5589.0 
274.060089 3555.0 
275.067474 5923719.0 
276.253571 5233.0 
285.400726 2976.0 
293.077759 37342.0 
END IONS

BEGIN IONS
NAME="2,5-dichlorophenyl 2-1,2,3,4-tetrahydroisoquinolyl ketone CollisionEnergy:102040" M+H
PRECURSOR_MZ=306.045
INCHI="InChI=1S/C16H13Cl2NO/c17-13-5-6-15(18)14(9-13)16(20)19-8-7-11-3-1-2-4-12(11)10-19/h1-6,9H,7-8,10H2"
SMILES=O=C(c1cc(Cl)ccc1Cl)N1CCc2ccccc2C1
SPECTRUMID=CCMSLIB00010106329
58.539532 2642.0 
73.948662 3497.0 
82.391197 2846.0 
90.976913 5038.0 
91.05442 3270.0 
93.069832 20800.0 
98.905586 3058.0 
104.277473 4620.0 
105.069946 17354.0 
107.085709 3998.0 
107.966721 12546.0 
117.069939 61583.0 
132.080704 5483.0 
135.080688 24592.0 
144.960464 3265.0 
160.075943 6952.0 
171.972076 16378.0 
172.955612 2530765.0 
190.96582 21931.0 
201.98349 3865.0 
220.934814 4185.0 
304.665344 3784.0 
306.044434 5018136.0 
307.431366 4493.0 
END IONS

BEGIN IONS
NAME="{5-[(dimethylamino)sulfonyl]-2,4-dichlorophenyl}-N-[2-(7-chloro-2-methylindol- 3-yl)ethyl]carboxamide CollisionEnergy:102040" M+formate
PRECURSOR_MZ=532.027
INCHI="InChI=1S/C20H20Cl3N3O3S/c1-11-12(13-5-4-6-15(21)19(13)25-11)7-8-24-20(27)14-9-18(17(23)10-16(14)22)30(28,29)26(2)3/h4-6,9-10,25H,7-8H2,1-3H3,(H,24,27)"
SMILES=Cc1[nH]c2c(Cl)cccc2c1CCN=C(O)c1cc(S(=O)(=O)N(C)C)c(Cl)cc1Cl
SPECTRUMID=CCMSLIB00010111817
73.968262 3342.0 
80.526207 2406.0 
82.417397 2736.0 
86.151512 2541.0 
86.485382 2379.0 
92.394821 4278.0 
102.622513 2712.0 
104.306999 2757.0 
124.037338 2526.0 
126.865807 2384.0 
158.006256 3289.0 
233.048264 17250.0 
251.965302 4097.0 
290.953857 2550.0 
378.212372 3308.0 
405.024017 2759.0 
486.021149 115691.0 
END IONS

BEGIN IONS
NAME="6-amino-4-(7-methoxy(2H-benzo[3,4-d]1,3-dioxolan-5-yl))-3-phenyl-4H-pyrano[2,3 -c]pyrazole-5-carbonitrile CollisionEnergy:102040" M-H
PRECURSOR_MZ=387.11
INCHI="InChI=1S/C21H16N4O4/c1-26-14-7-12(8-15-19(14)28-10-27-15)16-13(9-22)20(23)29-21-17(16)18(24-25-21)11-5-3-2-4-6-11/h2-8,16H,10,23H2,1H3,(H,24,25)"
SMILES=COc1cc(C2C(C#N)=C(N)Oc3n[nH]c(-c4ccccc4)c32)cc2c1OCO2
SPECTRUMID=CCMSLIB00010111366
56.89267 2794.0 
63.999748 2744.0 
65.01413 99434.0 
73.965973 3034.0 
77.975357 3314.0 
81.175842 2966.0 
86.622253 2979.0 
92.392799 3763.0 
104.301537 2993.0 
108.021851 13060.0 
111.633728 2988.0 
136.01709 15710.0 
157.040909 25212.0 
165.046326 32972.0 
184.027649 12365.0 
185.035675 47285.0 
185.431656 3166.0 
198.119339 3297.0 
199.051895 3614.0 
200.02327 4015.0 
208.052078 20259.0 
212.023819 11954.0 
222.070618 3236.0 
228.292892 2966.0 
235.062683 227547.0 
250.065643 3127.0 
256.087494 5256.0 
259.088593 4345.0 
270.070953 4910.0 
272.083954 13993.0 
274.064728 2856.0 
278.070435 14162.0 
279.077911 34421.0 
285.08078 4644.0 
286.078949 3883.0 
287.084137 4089.0 
298.06131 3693.0 
300.078308 45665.0 
307.073608 4855.0 
315.089264 46724.0 
317.080719 5452.0 
321.089203 13380.0 
342.075378 25834.0 
343.084167 321251.0 
344.09201 143803.0 
344.599335 3355.0 
357.101532 5771.0 
359.082733 3655.0 
359.11731 40653.0 
371.025757 4622.0 
371.078552 121250.0 
372.086853 133732.0 
387.110596 4256900.0 
389.114349 5412.0 
END IONS

BEGIN IONS
NAME=5'-deoxyadenosine CollisionEnergy:205060 M+Cl
PRECURSOR_MZ=286.071
INCHI="InChI=1S/C10H13N5O3/c1-4-6(16)7(17)10(18-4)15-3-14-5-8(11)12-2-13-9(5)15/h2-4,6-7,10,16-17H,1H3,(H2,11,12,13)/t4-,6-,7-,10-/m1/s1"
SMILES=CC1OC(n2cnc3c(N)ncnc32)C(O)C1O
SPECTRUMID=CCMSLIB00010120177
62.175549 2435.0 
67.800537 1888.0 
69.698837 1874.0 
92.368446 3083.0 
108.992531 2149.0 
132.771149 2037.0 
140.946869 2339.0 
140.959869 2271.0 
147.916077 2486.0 
177.437347 2332.0 
179.603867 2235.0 
181.897385 18773.0 
182.905701 2359.0 
183.912521 16893.0 
204.35289 2200.0 
213.553024 2306.0 
257.914825 10137.0 
END IONS

BEGIN IONS
NAME="2-(methylethoxy)ethyl 6-(3-bromo-4-hydroxy-5-methoxyphenyl)-4-methyl-2-oxo-1,3 ,6-trihydropyrimidine-5-carboxylate CollisionEnergy:205060" M-H
PRECURSOR_MZ=441.067
INCHI="InChI=1S/C18H23BrN2O6/c1-9(2)26-5-6-27-17(23)14-10(3)20-18(24)21-15(14)11-7-12(19)16(22)13(8-11)25-4/h7-9,15,22H,5-6H2,1-4H3,(H2,20,21,24)"
SMILES=COc1cc(C2NC(O)=NC(C)=C2C(=O)OCCOC(C)C)cc(Br)c1O
SPECTRUMID=CCMSLIB00010123735
56.30085 2863.0 
65.998123 16303.0 
66.437279 2978.0 
66.751663 3371.0 
68.463753 2580.0 
78.918587 871716.0 
80.916443 4302.0 
82.029556 23230.0 
92.39151 2925.0 
108.009087 2693.0 
115.160118 2822.0 
116.050591 30194.0 
118.669083 3048.0 
120.008781 3038.0 
127.556343 2668.0 
144.045517 35695.0 
145.05397 3311.0 
146.960846 20587.0 
149.02449 2695.0 
157.017029 3063.0 
160.040375 4362.0 
161.011795 4603.0 
162.056412 4805.0 
172.040497 15386.0 
174.955841 11949.0 
178.601547 2797.0 
188.035309 68388.0 
190.051392 11746.0 
194.879059 2934.0 
198.829742 3171.0 
209.957184 4632.0 
209.976288 3448.0 
216.032898 3192.0 
223.934952 6706.0 
235.971542 4939.0 
237.950989 6124.0 
239.103989 4955.0 
239.930923 2976.0 
250.958145 3321.0 
251.966949 4437.0 
258.57962 3377.0 
264.125305 5516.0 
279.960419 3080.0 
292.119385 17318.0 
294.947632 2966.0 
295.956665 4625.0 
304.915527 19560.0 
321.493195 3229.0 
322.856873 2948.0 
366.034882 124808.0 
368.013367 102602.0 
368.0625 5500.0 
382.029663 420480.0 
383.037933 4275.0 
398.060883 1020246.0 
420.367798 2820.0 
441.066071 87102.0 
END IONS

BEGIN IONS
NAME=CHEBI:28051 CollisionEnergy:205060 M+Na
PRECURSOR_MZ=696.335
INCHI="InChI=1S/C36H51NO11/c1-19-6-11-26-31(3,40)35(43)25(17-37(26)16-19)33(42)18-34-24(32(33,41)15-27(35)38)10-9-23-30(34,2)13-12-28(36(23,44)48-34)47-29(39)20-7-8-21(45-4)22(14-20)46-5/h7-8,14,19,23-28,38,40-44H,6,9-13,15-18H2,1-5H3/t19-,23-,24-,25-,26-,27-,28-,30-,31+,32+,33+,34+,35-,36-/m0/s1"
SMILES=COc1ccc(C(=O)OC2CCC3(C)C4CCC5C6(O)CC(O)C7(O)C(CN8CC(C)CCC8C7(C)O)C6(O)CC53OC24O)cc1OC
SPECTRUMID=CCMSLIB00010121201
61.00808 3006.0 
68.933998 2829.0 
82.391243 4270.0 
90.048843 2828.0 
90.25795 3283.0 
91.856888 3075.0 
97.860497 2907.0 
98.096588 16940.0 
128.107025 3266.0 
154.122833 11306.0 
157.962112 3897.0 
166.707687 3243.0 
192.523972 2750.0 
215.104446 3380.0 
438.264313 5884.0 
456.279358 4255.0 
514.279541 11471.0 
696.335144 468411.0 
END IONS

BEGIN IONS
NAME=2-[3-(6-ethyl-2-phenylchromen-4-ylidene)-3-azapropanoylamino]acetic acid CollisionEnergy:102040 M+H
PRECURSOR_MZ=365.15
INCHI="InChI=1S/C21H20N2O4/c1-2-14-8-9-18-16(10-14)17(22-12-20(24)23-13-21(25)26)11-19(27-18)15-6-4-3-5-7-15/h3-11H,2,12-13H2,1H3,(H,23,24)(H,25,26)/b22-17+"
SMILES=CCc1ccc2oc(-c3ccccc3)cc(=NCC(O)=NCC(=O)O)c2c1
SPECTRUMID=CCMSLIB00010103998
64.919739 3908.0 
66.741364 4537.0 
72.044563 19034.0 
73.953552 4133.0 
76.812737 6317.0 
76.816818 5698.0 
104.284973 5262.0 
111.600853 4179.0 
233.083099 97781.0 
234.129486 5701.0 
246.092834 6000.0 
247.099213 20411.0 
248.107239 5645.0 
250.093048 10506.0 
250.122009 256241.0 
261.116058 7758.0 
262.122314 9364825.0 
263.127319 42393.0 
264.137451 24579.0 
290.119385 41873.0 
307.143158 20936.0 
308.127289 456944.0 
319.143463 1121696.0 
320.151672 22371.0 
321.158966 67762.0 
350.127808 21062.0 
363.346191 6607.0 
364.138977 18777.0 
365.149109 26697152.0 
END IONS

BEGIN IONS
NAME=N-(3-methylthiophenyl)-2-[2-oxo-4-(pyrrolidinylcarbonyl)hydroquinolyl]acetamid e CollisionEnergy:205060 M-H
PRECURSOR_MZ=420.139
INCHI="InChI=1S/C23H23N3O3S/c1-30-17-8-6-7-16(13-17)24-21(27)15-26-20-10-3-2-9-18(20)19(14-22(26)28)23(29)25-11-4-5-12-25/h2-3,6-10,13-14H,4-5,11-12,15H2,1H3,(H,24,27)"
SMILES=CSc1cccc(N=C(O)Cn2c(=O)cc(C(=O)N3CCCC3)c3ccccc32)c1
SPECTRUMID=CCMSLIB00010124748
51.189949 2415.0 
52.42252 2737.0 
56.6152 2414.0 
59.215199 2284.0 
82.409233 2583.0 
94.718407 2609.0 
104.210678 2970.0 
104.300453 2670.0 
106.887108 2639.0 
123.014832 53602.0 
126.70649 2615.0 
128.050629 202919.0 
138.038544 30480.0 
142.066299 11094.0 
144.045044 25431.0 
146.060822 21825.0 
150.002106 13747.0 
156.045898 32899.0 
157.053421 71068.0 
158.02507 11646.0 
164.126373 2668.0 
167.060562 4431.0 
169.077301 3886.0 
172.040512 51682.0 
174.055954 12064.0 
176.034927 12094.0 
183.093262 6135.0 
184.040451 192898.0 
185.047714 10766.0 
195.056747 3410.0 
202.050293 2602.0 
209.181351 6047.0 
211.12294 5684.0 
212.108582 3648.0 
213.103668 41130.0 
221.105774 2753.0 
223.087402 12187.0 
225.102356 3037.0 
225.796494 2885.0 
227.119064 21149.0 
229.097641 3839.0 
233.606216 2635.0 
241.098312 166523.0 
255.11412 77377.0 
257.093506 53051.0 
281.092987 66292.0 
395.009583 2639.0 
397.24884 2996.0 
420.138855 447108.0 
END IONS

BEGIN IONS
NAME=hypotaurine CollisionEnergy:102040 M-H
PRECURSOR_MZ=108.012
INCHI="InChI=1S/C2H7NO2S/c3-1-2-6(4)5/h1-3H2,(H,4,5)"
SMILES=NCCS(=O)O
SPECTRUMID=CCMSLIB00010126160
51.179199 17233.0 
55.066101 21833.5 
63.962101 6881580.0 
64.969803 566111.0 
73.972702 24304.400391 
82.4189 25889.199219 
88.240799 17670.0 
92.405502 18201.400391 
101.318001 17822.599609 
108.012001 222010.0 
END IONS

BEGIN IONS
NAME=Myriocin CollisionEnergy:102040 M+H
PRECURSOR_MZ=402.285
INCHI="InChI=1S/C21H39NO6/c1-2-3-4-10-13-17(24)14-11-8-6-5-7-9-12-15-18(25)19(26)21(22,16-23)20(27)28/h9,12,18-19,23,25-26H,2-8,10-11,13-16,22H2,1H3,(H,27,28)/b12-9+/t18-,19+,21+/m1/s1"
SMILES=CCCCCCC(=O)CCCCCCC=CCC(O)C(O)C(N)(CO)C(=O)O
SPECTRUMID=CCMSLIB00010109948
51.782509 2383.0 
52.463211 2788.0 
55.79771 2732.0 
56.05003 4723.0 
57.07029 15422.0 
58.029129 17022.0 
60.044891 49819.0 
66.735909 3195.0 
67.054527 18817.0 
69.070107 11756.0 
72.044792 171964.0 
79.054337 15370.0 
80.049744 3024.0 
81.07019 24667.0 
82.065163 2553.0 
83.012901 3801.0 
83.049438 2525.0 
83.085548 4226.0 
85.10144 68392.0 
86.060051 2917.0 
88.039421 5093.0 
90.05513 55698.0 
91.054253 12025.0 
93.069939 21177.0 
94.065392 10996.0 
95.085564 29884.0 
97.06459 14749.0 
97.101189 5205.0 
98.059761 5700.0 
100.039497 10579.0 
104.034187 115124.0 
105.069687 6753.0 
107.048523 3366.0 
107.085663 5735.0 
109.10128 11080.0 
111.080528 3101.0 
113.096062 65791.0 
117.069298 3345.0 
118.049973 5168.0 
119.085426 14381.0 
121.101044 36055.0 
125.502029 2914.0 
131.085709 4814.0 
133.100998 13676.0 
135.117035 5218.0 
138.054428 2967.0 
141.127228 3175.0 
145.101624 5274.0 
147.117538 4973.0 
149.132309 3054.0 
157.101028 4408.0 
159.116119 5400.0 
161.131653 2909.0 
175.111694 2913.0 
231.210236 22477.0 
241.215485 5062.0 
249.221573 5482.0 
266.247223 10445.0 
267.231934 49706.0 
290.247345 18848.0 
292.264954 6322.0 
302.247253 14831.0 
304.263062 24316.0 
318.242401 4885.0 
320.258392 50297.0 
322.273834 22557.0 
332.395111 2767.0 
336.253357 5670.0 
338.268066 33503.0 
348.254791 4046.0 
349.23642 4075.0 
356.279083 37285.0 
366.261292 23032.0 
384.273987 247251.0 
402.284637 1750023.0 
419.212708 3150.0 
END IONS

BEGIN IONS
NAME=2-heptylhexanedioic acid CollisionEnergy:205060 2M-H
PRECURSOR_MZ=487.328
INCHI="InChI=1S/C13H24O4/c1-2-3-4-5-6-8-11(13(16)17)9-7-10-12(14)15/h11H,2-10H2,1H3,(H,14,15)(H,16,17)"
SMILES=CCCCCCCC(CCCC(=O)O)C(=O)O
SPECTRUMID=CCMSLIB00010118201
60.540852 2450.0 
64.028328 2261.0 
66.745377 3011.0 
73.955177 3208.0 
90.086731 2489.0 
92.382538 2664.0 
92.853111 2687.0 
104.289917 2724.0 
159.406326 2767.0 
179.143982 12474.0 
181.160004 33958.0 
184.082108 2823.0 
199.170441 13812.0 
243.160797 73267.0 
278.335083 2517.0 
END IONS

BEGIN IONS
NAME=2-(4-chloro-3-methylphenoxy)-N-[3-methyl-4-(2-oxochromen-3-yl)phenyl]acetamide CollisionEnergy:102040 M+H
PRECURSOR_MZ=434.115
INCHI="InChI=1S/C25H20ClNO4/c1-15-11-18(27-24(28)14-30-19-8-10-22(26)16(2)12-19)7-9-20(15)21-13-17-5-3-4-6-23(17)31-25(21)29/h3-13H,14H2,1-2H3,(H,27,28)"
SMILES=Cc1cc(OCC(=O)Nc2ccc(-c3cc4ccccc4oc3=O)c(C)c2)ccc1Cl
SPECTRUMID=CCMSLIB00010112351
57.2551 3762.0 
62.45834 3816.0 
65.039032 122871.0 
67.054611 8189.0 
74.65918 4381.0 
76.627747 3610.0 
82.394073 5652.0 
84.73317 4234.0 
89.038483 14880.0 
91.054413 235515.0 
93.033752 5181.0 
94.041557 6128.0 
99.000023 4911.0 
104.279259 5384.0 
106.040756 4186.0 
106.065063 35765.0 
109.064491 18156.0 
115.053513 3924.0 
118.041153 9211.0 
119.049217 96618.0 
119.059937 15992.0 
119.073357 5048.0 
121.028137 36629.0 
121.063744 3636.0 
121.305672 3600.0 
125.015167 114631.0 
127.030861 504086.0 
131.049026 5463.0 
131.072876 15118.0 
133.028473 78532.0 
134.059906 85195.0 
143.025772 33240.0 
143.07254 4818.0 
146.059814 19749.0 
147.043655 7167.0 
147.067902 99457.0 
148.075623 134761.0 
153.021439 96325.0 
155.025787 1748827.0 
158.783768 4026.0 
159.044739 11054.0 
177.09137 37957.0 
178.077652 17868.0 
178.468933 3885.0 
183.020264 23799.0 
193.084839 7635.0 
193.103317 57543.0 
194.097092 5322.0 
196.050385 4544.0 
196.111923 40785.0 
202.078064 4155.0 
203.085297 25166.0 
204.080582 16826.0 
205.08815 24282.0 
206.094971 4262.0 
207.080276 23498.0 
207.100922 4998.0 
208.111801 81981.0 
208.332718 10141.0 
208.35257 5650.0 
209.083115 9615.0 
214.240158 4097.0 
218.095306 20925.0 
219.0802 56104.0 
219.102768 9481.0 
220.086716 16917.0 
220.111786 70867.0 
221.081848 21552.0 
221.096542 32376.0 
222.107407 28464.0 
223.09935 38927.0 
224.106873 141317.0 
231.08168 6442.0 
233.097885 32049.0 
234.090988 78304.0 
235.074921 23132.0 
236.106796 812026.0 
237.0896 8270.0 
237.11467 4782.0 
238.086426 5826.0 
246.091156 40239.0 
247.074677 77042.0 
247.09993 10336.0 
248.081696 24978.0 
248.107773 17038.0 
249.080521 128252.0 
250.083939 172575.0 
251.093964 131048.0 
252.101669 775545.0 
262.085114 7483.0 
263.092896 7029.0 
264.101685 6530414.0 
265.109283 56318.0 
275.093414 23754.0 
276.103271 32161.0 
277.073029 18117.0 
278.080841 785218.0 
292.096436 676188.0 
293.104095 250746.0 
302.153259 4024.0 
348.159119 17893.0 
362.173218 7423.0 
381.134552 7338.0 
390.198181 4050.0 
406.117706 4748.0 
416.102753 33793.0 
434.114868 7793007.0 
434.610748 15973.0 
452.125305 360804.0 
END IONS

BEGIN IONS
NAME="2-(4-chlorophenyl)-2-oxoethyl 2-[(3,4-dimethoxyphenyl)carbonylamino]benzoate CollisionEnergy:102040" M+Cl
PRECURSOR_MZ=488.067
INCHI="InChI=1S/C24H20ClNO6/c1-30-21-12-9-16(13-22(21)31-2)23(28)26-19-6-4-3-5-18(19)24(29)32-14-20(27)15-7-10-17(25)11-8-15/h3-13H,14H2,1-2H3,(H,26,28)"
SMILES=COc1ccc(C(O)=Nc2ccccc2C(=O)OCC(=O)c2ccc(Cl)cc2)cc1OC
SPECTRUMID=CCMSLIB00010109735
62.23246 2230.0 
66.744659 3026.0 
78.507507 2237.0 
92.048714 2745.0 
103.526993 2489.0 
136.220215 3191.0 
169.006561 5609.0 
244.21283 2291.0 
256.098053 3388.0 
287.91748 2768.0 
300.088013 34822.0 
392.065094 2719.0 
420.030823 14708.0 
END IONS

BEGIN IONS
NAME=ipriflavone CollisionEnergy:205060 M+Na
PRECURSOR_MZ=303.099
INCHI="InChI=1S/C18H16O3/c1-12(2)21-14-8-9-15-17(10-14)20-11-16(18(15)19)13-6-4-3-5-7-13/h3-12H,1-2H3"
SMILES=CC(C)Oc1ccc2c(=O)c(-c3ccccc3)coc2c1
SPECTRUMID=CCMSLIB00010116954
53.438061 1963.0 
57.944172 2139.0 
59.454681 2154.0 
60.702629 2097.0 
88.021927 2745.0 
118.636269 3031.0 
261.052155 3115.0 
303.098694 1298404.0 
321.107941 3441.0 
END IONS

BEGIN IONS
NAME=2-({4-[(7-methyl-2-oxochromen-4-yl)methyl]piperazinyl}methyl)benzenecarbonitri le CollisionEnergy:205060 M+Na
PRECURSOR_MZ=396.168
INCHI="InChI=1S/C23H23N3O2/c1-17-6-7-21-20(13-23(27)28-22(21)12-17)16-26-10-8-25(9-11-26)15-19-5-3-2-4-18(19)14-24/h2-7,12-13H,8-11,15-16H2,1H3"
SMILES=Cc1ccc2c(CN3CCN(Cc4ccccc4C#N)CC3)cc(=O)oc2c1
SPECTRUMID=CCMSLIB00010119531
73.945702 3135.0 
79.760277 3085.0 
88.50145 3067.0 
181.504044 2991.0 
222.099869 2811.0 
279.334686 2798.0 
396.167908 2125959.0 
END IONS

BEGIN IONS
NAME=CK 666 CollisionEnergy:205060 M+Na
PRECURSOR_MZ=319.122
INCHI="InChI=1S/C18H17FN2O/c1-12-13(14-6-3-5-9-17(14)21-12)10-11-20-18(22)15-7-2-4-8-16(15)19/h2-9,21H,10-11H2,1H3,(H,20,22)"
SMILES=Cc1[nH]c2ccccc2c1CCN=C(O)c1ccccc1F
SPECTRUMID=CCMSLIB00010116772
67.59549 3098.0 
130.039368 3164.0 
168.683807 3361.0 
185.377518 2976.0 
295.859863 3295.0 
319.12146 5024319.0 
END IONS

BEGIN IONS
NAME=l-isoleucine CollisionEnergy:102040 M+H
PRECURSOR_MZ=132.102
INCHI="InChI=1S/C6H13NO2/c1-3-4(2)5(7)6(8)9/h4-5H,3,7H2,1-2H3,(H,8,9)/t4-,5-/m0/s1"
SMILES=CCC(C)C(N)C(=O)O
SPECTRUMID=CCMSLIB00010109480
56.359482 22079.0 
57.420559 19139.0 
69.070297 532667.0 
71.665192 21627.0 
73.968674 19899.0 
83.154259 18535.0 
83.161057 22212.0 
86.096672 5219059.0 
90.903458 40753.0 
92.901367 23259.0 
94.832451 18763.0 
99.003357 25265.0 
114.001442 19071.0 
122.019119 28953.0 
132.101761 42251.0 
END IONS

BEGIN IONS
NAME="3-[(4-methoxyphenyl)amino]-1-(3,4,5-trimethoxyphenyl)propan-1-one CollisionEnergy:102040" M-e
PRECURSOR_MZ=345.157
INCHI="InChI=1S/C19H23NO5/c1-22-15-7-5-14(6-8-15)20-10-9-16(21)13-11-17(23-2)19(25-4)18(12-13)24-3/h5-8,11-12,20H,9-10H2,1-4H3"
SMILES=COc1ccc(NCCC(=O)c2cc(OC)c(OC)c(OC)c2)cc1
SPECTRUMID=CCMSLIB00010104631
82.4011 3973.0 
100.591919 2563.0 
108.044563 3973.0 
120.044342 10168.0 
123.067833 34151.0 
134.060196 4114.0 
135.068054 37962.0 
136.075836 292989.0 
149.060242 3046.0 
149.083649 43340.0 
150.09166 4462.0 
153.054779 19621.0 
168.078537 13639.0 
169.085907 9396.0 
182.093781 4421.0 
183.065781 12195.0 
185.407059 2539.0 
195.065201 123478.0 
196.073135 20898.0 
197.081161 4288.0 
210.088776 558277.0 
223.095764 3953.0 
296.12674 4522.0 
326.139435 11406.0 
330.133148 12306.0 
345.156921 1168104.0 
399.785614 3108.0 
END IONS

BEGIN IONS
NAME=ZINC2566164 CollisionEnergy:205060 M+H
PRECURSOR_MZ=483.129
INCHI="InChI=1S/C25H22O10/c1-32-17-6-11(2-4-14(17)28)24-20(10-26)33-16-5-3-12(7-18(16)34-24)25-23(31)22(30)21-15(29)8-13(27)9-19(21)35-25/h2-9,20,23-29,31H,10H2,1H3/t20-,23+,24-,25+/m1/s1"
SMILES=COc1cc(C2Oc3cc(C4Oc5cc(O)cc(O)c5C(=O)C4O)ccc3OC2CO)ccc1O
SPECTRUMID=CCMSLIB00010124283
52.006802 2407.0 
55.0182 3238.0 
65.038971 17515.0 
66.838242 2755.0 
67.01815 15835.0 
68.997414 17793.0 
69.033791 3532.0 
79.054573 3531.0 
89.038986 2815.0 
91.054367 27450.0 
94.041351 3777.0 
95.048843 3761.0 
102.046089 15768.0 
103.053993 42556.0 
105.033577 5052.0 
105.069748 5671.0 
107.049301 11668.0 
111.044022 31450.0 
116.135834 3150.0 
117.033638 4404.0 
119.04908 27034.0 
121.028236 36765.0 
121.064407 10925.0 
122.036003 5259.0 
123.044006 13244.0 
124.051964 15325.0 
127.038872 4810.0 
130.041138 29512.0 
131.048996 123846.0 
133.028152 38602.0 
133.065292 6650.0 
135.044037 21564.0 
136.209549 3704.0 
137.059692 115811.0 
137.071732 4373.0 
139.038956 25937.0 
146.03511 3905.0 
147.043991 81529.0 
149.023239 97560.0 
149.05954 38518.0 
150.06752 33336.0 
151.038361 4834.0 
151.075317 3191.0 
153.018082 324207.0 
153.070084 3584.0 
154.026627 4012.0 
155.04834 3864.0 
157.064575 5015.0 
159.043655 15461.0 
161.059219 32321.0 
162.067352 75512.0 
163.075241 90546.0 
165.054321 6505.0 
165.069901 5851.0 
167.033691 24208.0 
171.028519 10107.0 
171.043411 3697.0 
173.059937 12161.0 
175.038742 4592.0 
177.017868 3732.0 
177.054489 18164.0 
179.070511 11593.0 
180.07814 16030.0 
181.064484 6235.0 
182.072388 2682.0 
183.078384 3186.0 
187.03862 6084.0 
195.028671 97753.0 
195.079971 6478.0 
197.059067 6697.0 
201.054199 15143.0 
203.033569 13588.0 
205.065475 4099.0 
213.054077 34547.0 
221.058884 5205.0 
222.066315 3170.0 
223.075485 6364.0 
227.035004 3903.0 
227.070404 4034.0 
229.049103 37299.0 
231.065536 3088.0 
235.072983 3262.0 
237.054077 5634.0 
239.068893 6302.0 
241.048874 19386.0 
242.058029 5070.0 
243.062973 3442.0 
251.068985 16281.0 
253.085358 4279.0 
255.065094 11108.0 
257.044312 23410.0 
269.081421 6061.0 
271.097809 5815.0 
283.063141 8759.0 
283.096039 16983.0 
285.037201 3641.0 
285.073792 3139.0 
295.058655 4132.0 
301.10672 19805.0 
311.054718 31655.0 
329.065735 16072.0 
331.092651 3301.0 
387.088867 4057.0 
407.112213 19457.0 
415.081787 4401.0 
417.096741 3459.0 
419.112885 30550.0 
433.090607 25223.0 
435.106689 52250.0 
437.122833 49329.0 
447.109436 21274.0 
465.117096 41191.0 
492.444885 3035.0 
END IONS

BEGIN IONS
NAME=Galangin CollisionEnergy:102040 M-H
PRECURSOR_MZ=269.046
INCHI="InChI=1S/C15H10O5/c16-9-6-10(17)12-11(7-9)20-15(14(19)13(12)18)8-4-2-1-3-5-8/h1-7,16-17,19H"
SMILES=O=c1c(O)c(-c2ccccc2)oc2cc(O)cc(O)c12
SPECTRUMID=CCMSLIB00010107534
57.975189 9755.0 
75.783478 2562.0 
79.858078 2270.0 
82.407043 2449.0 
104.298058 3440.0 
146.717285 2490.0 
153.072083 2991.0 
169.066467 11023.0 
171.045975 4402.0 
173.061234 2991.0 
185.06105 3672.0 
195.046707 4729.0 
197.06105 19687.0 
198.031479 4757.0 
199.03978 5573.0 
200.881256 12505.0 
201.337418 2642.0 
213.055862 19900.0 
223.040604 5412.0 
227.035324 5443.0 
240.038956 4105.0 
241.051208 4575.0 
269.045654 2871968.0 
273.18924 2466.0 
END IONS

BEGIN IONS
NAME="4-nitro-12-oxa-8,17-diazaheptacyclo[15.5.2.0<1,18>.0<2,7>.0<8,22>.0<11,21>.0<1 5,20>]tetracosa-2(7),3,5,14-tetraen-9-one CollisionEnergy:102040" M+H
PRECURSOR_MZ=380.16
INCHI="InChI=1S/C21H21N3O4/c25-18-9-16-19-13-8-17-21(4-5-22(17)10-11(13)3-6-28-16)14-7-12(24(26)27)1-2-15(14)23(18)20(19)21/h1-3,7,13,16-17,19-20H,4-6,8-10H2"
SMILES=O=C1CC2OCC=C3CN4CCC56c7cc([N+](=O)[O-])ccc7N1C5C2C3CC46
SPECTRUMID=CCMSLIB00010105432
56.0499 5987.0 
68.566963 3678.0 
71.049301 3585.0 
73.964378 4017.0 
76.512321 3755.0 
81.070107 5265.0 
92.392029 3780.0 
93.070137 4810.0 
94.9571 3517.0 
104.300194 3445.0 
108.080711 4110.0 
121.065201 4643.0 
121.648628 4015.0 
124.075523 4911.0 
140.029739 3541.0 
155.798813 4405.0 
162.423859 3327.0 
183.067642 13562.0 
189.066605 7030.0 
221.083374 15889.0 
229.060226 41257.0 
235.245575 4329.0 
241.061218 4263.0 
243.075546 8386.0 
248.079269 3958.0 
255.076492 6463.0 
261.116058 5141.0 
265.060486 14837.0 
267.076141 17911.0 
279.074493 7497.0 
281.126892 4151.0 
293.091003 8308.0 
307.109314 5178.0 
309.088409 33832.0 
311.102844 7252.0 
319.111572 6129.0 
334.168732 19186.0 
352.129089 20492.0 
366.158752 23070.0 
378.257202 15597.0 
380.16037 15440624.0 
382.079468 17614.0 
END IONS

BEGIN IONS
NAME=(2-methoxyphenyl)-N-{2-[2-methyl-5-(phenylmethoxy)indol-3-yl]ethyl}carboxamide CollisionEnergy:205060 M+formate
PRECURSOR_MZ=459.193
INCHI="InChI=1S/C26H26N2O3/c1-18-21(14-15-27-26(29)22-10-6-7-11-25(22)30-2)23-16-20(12-13-24(23)28-18)31-17-19-8-4-3-5-9-19/h3-13,16,28H,14-15,17H2,1-2H3,(H,27,29)"
SMILES=COc1ccccc1C(O)=NCCc1c(C)[nH]c2ccc(OCc3ccccc3)cc12
SPECTRUMID=CCMSLIB00010117816
53.552818 3000.0 
58.5662 2516.0 
59.71656 2266.0 
60.555309 2542.0 
68.995499 6096.0 
71.979301 2763.0 
92.995972 2620.0 
99.989052 2496.0 
101.306374 2886.0 
112.985748 2640.0 
118.691872 3142.0 
124.406479 2890.0 
130.992294 2950.0 
136.62146 2420.0 
144.045242 2623.0 
154.991959 3957.0 
158.061096 86987.0 
171.070206 2559.0 
173.048187 10642.0 
242.986252 4225.0 
304.984283 10615.0 
322.132202 139817.0 
354.980011 41213.0 
374.986755 14467.0 
413.1875 72944.0 
458.980591 5946.0 
END IONS

BEGIN IONS
NAME=N-(4-fluorophenyl)-2-(9-methyl-6-oxohydropurin-8-ylthio)acetamide CollisionEnergy:102040 M+H
PRECURSOR_MZ=334.077
INCHI="InChI=1S/C14H12FN5O2S/c1-20-12-11(13(22)17-7-16-12)19-14(20)23-6-10(21)18-9-4-2-8(15)3-5-9/h2-5,7H,6H2,1H3,(H,18,21)(H,16,17,22)"
SMILES=Cn1c(SCC(=O)Nc2ccc(F)cc2)nc2c(O)ncnc21
SPECTRUMID=CCMSLIB00010113128
60.115971 3036.0 
77.896347 2613.0 
84.98703 2550.0 
102.128014 3038.0 
109.045036 3806.0 
124.055817 26630.0 
136.214264 3261.0 
150.054245 3765.0 
151.061127 6405.0 
154.42981 2593.0 
181.017563 146288.0 
195.033356 682140.0 
209.016708 11711.0 
213.04364 3355.0 
223.028168 3197400.0 
232.096329 12290.0 
233.09964 23147.0 
236.058945 5090.0 
253.434464 2903.0 
270.083801 3187.0 
283.85788 2853.0 
316.06601 27862.0 
334.076202 318324.0 
334.220367 15362.0 
347.766388 3005.0 
359.371307 2963.0 
END IONS

BEGIN IONS
NAME=abscisic aldehyde CollisionEnergy:205060 M+K
PRECURSOR_MZ=287.104
INCHI="InChI=1S/C15H20O3/c1-11(6-8-16)5-7-15(18)12(2)9-13(17)10-14(15,3)4/h5-9,18H,10H2,1-4H3/b7-5+,11-6-/t15-/m1/s1"
SMILES=CC1=CC(=O)CC([C@]1(/C=C/C(=C\C=O)/C)O)(C)C
SPECTRUMID=CCMSLIB00010102293
55.934273 4093.159668 
63.965179 3270.177734 
72.293602 3249.69165 
91.303062 3117.317383 
99.482979 3504.475342 
159.291626 3363.09082 
175.701553 3686.581787 
221.277847 3277.519775 
247.187363 3224.48584 
287.101746 11972.057617 
END IONS

BEGIN IONS
NAME=N-[3-methyl-4-(2-oxochromen-3-yl)phenyl]pentanamide CollisionEnergy:205060 M-H
PRECURSOR_MZ=334.145
INCHI="InChI=1S/C21H21NO3/c1-3-4-9-20(23)22-16-10-11-17(14(2)12-16)18-13-15-7-5-6-8-19(15)25-21(18)24/h5-8,10-13H,3-4,9H2,1-2H3,(H,22,23)"
SMILES=CCCCC(=O)Nc1ccc(-c2cc3ccccc3oc2=O)c(C)c1
SPECTRUMID=CCMSLIB00010117400
59.845001 2720.0 
61.98785 46419.0 
73.965874 2362.0 
92.206322 2603.0 
92.394997 2775.0 
104.303726 3153.0 
124.811562 2795.0 
129.975357 28059.0 
195.081558 3046.0 
212.63472 2887.0 
220.075607 17254.0 
221.084167 5062.0 
222.092148 377898.0 
223.076355 2828.0 
250.087036 112017.0 
250.115143 4655.0 
252.615768 2665.0 
262.089539 2956.0 
306.14975 41235.0 
334.144867 801633.0 
END IONS

BEGIN IONS
NAME=7-Diethylamino-3-phenylcoumarin CollisionEnergy:205060 M+H
PRECURSOR_MZ=294.149
INCHI="InChI=1S/C19H19NO2/c1-3-20(4-2)16-11-10-15-12-17(14-8-6-5-7-9-14)19(21)22-18(15)13-16/h5-13H,3-4H2,1-2H3"
SMILES=CCN(CC)c1ccc2cc(-c3ccccc3)c(=O)oc2c1
SPECTRUMID=CCMSLIB00010114776
56.96529 6064.0 
59.889069 2947.0 
68.013474 4486.0 
70.058731 3124.0 
73.622719 2905.0 
85.894218 2975.0 
91.0541 5235.0 
104.295593 3509.0 
105.033707 6171.0 
110.239853 3092.0 
115.964333 4184.0 
121.028313 24667.0 
123.999474 13935.0 
132.080734 5586.0 
133.004639 17681.0 
145.065582 4372.0 
155.084015 3780.0 
163.039246 12287.0 
165.070526 19210.0 
166.077972 4056.0 
167.085236 50014.0 
175.006393 15031.0 
178.07753 7818.0 
179.085892 3564.0 
180.080215 7743.0 
181.08847 7981.0 
182.096359 3664.0 
183.081848 3340.0 
191.033615 37812.0 
193.017303 37840.0 
193.08815 5656.0 
194.072876 19394.0 
194.096573 35834.0 
195.103546 4179.0 
196.009064 4437.0 
205.01532 6407.0 
206.096405 7301.0 
208.076538 4135.0 
208.112244 20708.0 
209.083267 21386.0 
209.11972 3662.0 
210.127487 156652.0 
211.028183 6277.0 
221.119476 3850.0 
222.069138 22181.0 
222.090942 543652.0 
223.136169 6862.0 
233.037247 5554.0 
236.105957 7569.0 
237.007065 6151.0 
237.079056 25030.0 
237.114258 391436.0 
238.122467 74639.0 
238.158676 113965.0 
238.184219 6040.0 
242.040512 63729.0 
250.0858 4197772.0 
251.045944 107955.0 
253.54837 49128.0 
262.553955 32885.0 
264.100983 67189.0 
265.109253 2171919.0 
266.117371 127045.0 
266.152283 17888.0 
274.062653 16544.0 
279.119263 4736.0 
291.112488 6021.0 
294.148132 2994715.0 
END IONS

BEGIN IONS
NAME="6-amino-4-(7-methoxy(2H-benzo[3,4-d]1,3-dioxolan-5-yl))-3-phenyl-4H-pyrano[2,3 -c]pyrazole-5-carbonitrile CollisionEnergy:102040" M+Na
PRECURSOR_MZ=411.106
INCHI="InChI=1S/C21H16N4O4/c1-26-14-7-12(8-15-19(14)28-10-27-15)16-13(9-22)20(23)29-21-17(16)18(24-25-21)11-5-3-2-4-6-11/h2-8,16H,10,23H2,1H3,(H,24,25)"
SMILES=COc1cc(C2C(C#N)=C(N)Oc3n[nH]c(-c4ccccc4)c32)cc2c1OCO2
SPECTRUMID=CCMSLIB00010111367
53.445278 2735.0 
59.871849 2279.0 
68.460182 2456.0 
72.78466 2191.0 
81.076942 2715.0 
92.376419 3236.0 
100.94323 2294.0 
104.286484 2581.0 
105.818336 2312.0 
137.288406 2544.0 
211.376938 2990.0 
375.218292 2402.0 
408.751495 2659.0 
411.10553 856479.0 
END IONS

BEGIN IONS
NAME=Oxethazaine CollisionEnergy:102040 M+H
PRECURSOR_MZ=468.322
INCHI="InChI=1S/C28H41N3O3/c1-27(2,19-23-13-9-7-10-14-23)29(5)25(33)21-31(17-18-32)22-26(34)30(6)28(3,4)20-24-15-11-8-12-16-24/h7-16,32H,17-22H2,1-6H3"
SMILES=CN(C(=O)CN(CCO)CC(=O)N(C)C(C)(C)Cc1ccccc1)C(C)(C)Cc1ccccc1
SPECTRUMID=CCMSLIB00010107952
56.04998 49269.0 
56.54612 3410.0 
58.06559 23240.0 
60.532299 4040.0 
66.735313 3235.0 
70.203278 3155.0 
72.044571 43454.0 
74.06041 1133187.0 
86.060257 267381.0 
91.054367 178170.0 
92.370483 3416.0 
100.841019 3956.0 
101.071053 23994.0 
105.069672 4693.0 
115.086617 58485.0 
115.095123 4859.0 
132.065781 6915.0 
133.101196 106052.0 
136.196442 3631.0 
143.081711 17299.0 
144.647049 4470.0 
145.097137 5118295.0 
145.55014 4577.0 
157.962112 3481.0 
164.143524 83947.0 
173.092316 20690.0 
174.540833 3793.0 
186.123413 38016.0 
195.454788 3414.0 
204.134201 1309183.0 
210.050064 3588.0 
251.857025 4491.0 
263.598175 3689.0 
277.190704 1065939.0 
305.188416 6511.0 
336.227539 702677.0 
373.68219 4533.0 
440.224762 4397.0 
465.713898 5361.0 
468.321747 4660706.0 
END IONS

BEGIN IONS
NAME=RUTIN CollisionEnergy:102040 M+H
PRECURSOR_MZ=611.161
INCHI="InChI=1S/C27H30O16/c1-8-17(32)20(35)22(37)26(40-8)39-7-15-18(33)21(36)23(38)27(42-15)43-25-19(34)16-13(31)5-10(28)6-14(16)41-24(25)9-2-3-11(29)12(30)4-9/h2-6,8,15,17-18,20-23,26-33,35-38H,7H2,1H3/t8-,15+,17-,18+,20+,21-,22+,23+,26+,27-/m0/s1"
SMILES=CC1OC(OCC2OC(Oc3c(-c4ccc(O)c(O)c4)oc4cc(O)cc(O)c4c3=O)C(O)C(O)C2O)C(O)C(O)C1O
SPECTRUMID=CCMSLIB00010113848
55.018131 2780.0 
57.033932 5461.0 
57.83802 3168.0 
66.734909 2909.0 
71.049431 73902.0 
85.02858 136048.0 
86.922607 3369.0 
92.389511 3869.0 
97.028282 4065.0 
118.670341 3217.0 
127.038696 5172.0 
129.054443 56023.0 
145.049561 5415.0 
147.065186 19271.0 
197.131073 3238.0 
303.049194 1209993.0 
315.04895 3065.0 
449.106934 12433.0 
465.102203 174715.0 
611.160522 35272.0 
END IONS

BEGIN IONS
NAME=N-(3-bromophenyl)-2-(4-hydroxyquinazolin-2-ylthio)acetamide CollisionEnergy:102040 M+H
PRECURSOR_MZ=389.991
INCHI="InChI=1S/C16H12BrN3O2S/c17-10-4-3-5-11(8-10)18-14(21)9-23-16-19-13-7-2-1-6-12(13)15(22)20-16/h1-8H,9H2,(H,18,21)(H,19,20,22)"
SMILES=OC(CSc1nc(O)c2ccccc2n1)=Nc1cccc(Br)c1
SPECTRUMID=CCMSLIB00010111006
70.191254 3183.0 
132.044357 1176872.0 
133.051559 31193.0 
145.040451 13833.0 
150.054871 221655.0 
162.000992 3710.0 
171.975189 16624.0 
172.075516 18766.0 
183.975677 16229.0 
191.027222 1055676.0 
193.042267 4624.0 
218.022186 6265.0 
219.022079 9041500.0 
371.98288 11574.0 
389.989929 1445805.0 
390.09671 170721.0 
561.911011 3969.0 
END IONS

BEGIN IONS
NAME=5-hydroxy-2-methylindole-3-carboxylic acid CollisionEnergy:205060 M+H
PRECURSOR_MZ=192.066
INCHI="InChI=1S/C10H9NO3/c1-5-9(10(13)14)7-4-6(12)2-3-8(7)11-5/h2-4,11-12H,1H3,(H,13,14)"
SMILES=Cc1[nH]c2ccc(O)cc2c1C(=O)O
SPECTRUMID=CCMSLIB00010125347
61.011108 53991.0 
62.018909 3115.0 
70.958321 10446.0 
71.929939 3634.0 
72.937317 6172.0 
79.054497 33955.0 
79.067711 2480.0 
80.044449 2849.0 
80.049744 3641.0 
88.228104 2582.0 
91.05439 13742.0 
93.070229 16005.0 
103.054138 62780.0 
104.319206 3432.0 
106.064911 39651.0 
107.049103 11000.0 
117.057114 4583.0 
118.065041 49788.0 
119.049149 4490.0 
120.080727 554062.0 
120.940117 10974.0 
121.064613 25100.0 
130.064957 52477.0 
131.049362 35129.0 
131.072723 23808.0 
133.052155 857934.0 
134.059982 28888.0 
146.059982 270832.0 
146.073334 5081.0 
147.067581 42704.0 
148.075623 3036117.0 
148.544006 3605.0 
150.055557 3395.0 
150.950958 69384.0 
153.084946 3606.0 
158.071259 20633.0 
161.046539 3226.0 
168.961395 14895.0 
174.054886 1634544.0 
183.644165 2698.0 
192.065277 782005.0 
193.19809 3080.0 
290.011169 2538.0 
361.767303 2850.0 
END IONS

BEGIN IONS
NAME="(2E)-3-(4-methoxyphenyl)-1-[1-(4-methoxyphenyl)(1,2,3,4-tetrahydrobeta-carboli n-2-yl)]prop-2-en-1-one CollisionEnergy:102040" M+Na
PRECURSOR_MZ=461.184
INCHI="InChI=1S/C28H26N2O3/c1-32-21-12-7-19(8-13-21)9-16-26(31)30-18-17-24-23-5-3-4-6-25(23)29-27(24)28(30)20-10-14-22(33-2)15-11-20/h3-16,28-29H,17-18H2,1-2H3/b16-9+"
SMILES=COc1ccc(C=CC(=O)N2CCc3c([nH]c4ccccc34)C2c2ccc(OC)cc2)cc1
SPECTRUMID=CCMSLIB00010110976
57.40546 2397.0 
66.733559 2677.0 
73.608727 2391.0 
92.361427 4446.0 
194.132706 3223.0 
212.068008 188606.0 
230.077621 4084.0 
247.640076 3142.0 
253.093414 5775.0 
272.100647 3080.0 
461.183044 1691005.0 
477.072632 2889.0 
END IONS

BEGIN IONS
NAME=5-hydroxylysine CollisionEnergy:102040 M-H
PRECURSOR_MZ=161.093
INCHI="InChI=1S/C6H14N2O3/c7-3-4(9)1-2-5(8)6(10)11/h4-5,9H,1-3,7-8H2,(H,10,11)"
SMILES=NCC(O)CCC(N)C(=O)O
SPECTRUMID=CCMSLIB00010102493
58.4319 3911.169922 
60.556301 5762.830078 
70.029602 5918.330078 
72.008797 34137.601562 
72.045197 57882.699219 
74.024597 7785.790039 
80.5261 4446.77002 
82.029999 5685.390137 
84.045601 31167.699219 
85.040604 7696.129883 
95.061501 22914.699219 
97.029503 7973.930176 
97.040703 33566.800781 
98.061302 7739.540039 
99.044998 6063.589844 
102.056 39628.601562 
104.317001 7277.200195 
109.514999 4838.189941 
112.040001 30903.599609 
113.071999 93254.703125 
113.134003 4622.790039 
115.087997 239796.0 
117.102997 9266.990234 
123.056999 6557.5 
125.071999 137338.0 
126.056 16212.299805 
141.067001 137942.0 
143.082993 379666.0 
146.938995 5267.359863 
148.240997 4341.209961 
152.778 5047.620117 
159.076996 92568.796875 
160.891006 4831.410156 
161.093002 2361810.0 
END IONS

BEGIN IONS
NAME=4-methoxyquinoline-2-carboxylic acid CollisionEnergy:102040 M+Na
PRECURSOR_MZ=226.047
INCHI="InChI=1S/C11H9NO3/c1-15-10-6-9(11(13)14)12-8-5-3-2-4-7(8)10/h2-6H,1H3,(H,13,14)"
SMILES=COc1cc(C(=O)O)nc2ccccc12
SPECTRUMID=CCMSLIB00010104935
56.10915 1985.0 
57.079739 1910.0 
81.226212 2301.0 
82.413689 2347.0 
82.864609 2127.0 
83.231087 2016.0 
92.395973 2212.0 
104.30706 2912.0 
161.969681 3356.0 
182.057571 163445.0 
184.0961 2583.0 
199.094635 15014.0 
202.894791 2480.0 
202.972229 2583.0 
203.024506 2589.0 
209.378143 2384.0 
220.907715 2849.0 
226.047379 568235.0 
226.139572 5822.0 
226.161255 4947.0 
END IONS

BEGIN IONS
NAME="(2E)-1-(2H-benzo[3,4-d]1,3-dioxolan-5-yl)-3-(2-methoxyphenyl)prop-2-en-1-one CollisionEnergy:205060" M+H
PRECURSOR_MZ=283.096
INCHI="InChI=1S/C17H14O4/c1-19-15-5-3-2-4-12(15)6-8-14(18)13-7-9-16-17(10-13)21-11-20-16/h2-10H,11H2,1H3/b8-6+"
SMILES=COc1ccccc1C=CC(=O)c1ccc2c(c1)OCO2
SPECTRUMID=CCMSLIB00010116189
50.015808 45423.0 
51.023762 52005.0 
53.002762 55649.0 
55.018311 359353.0 
57.47826 33829.0 
58.897339 33835.0 
63.02356 59553.0 
65.03904 875903.0 
66.046829 1985908.0 
68.026123 184178.0 
68.997543 504033.0 
75.172798 36710.0 
77.034576 32835.0 
77.039062 129968.0 
79.05455 4548602.0 
81.033821 140921.0 
89.038742 648893.0 
90.046532 693821.0 
91.054451 620343.0 
92.026031 121427.0 
93.033768 136091.0 
94.041451 292147.0 
95.012863 462178.0 
95.049179 238344.0 
102.045959 264532.0 
103.054237 8071871.0 
105.069923 6100955.0 
107.049103 133057.0 
108.056686 234467.0 
109.064857 660518.0 
115.054207 251268.0 
117.033501 611838.0 
118.041344 23811718.0 
121.028572 149346.0 
121.064957 199109.0 
122.036011 133820.0 
125.023216 77663.0 
131.049164 209784.0 
131.059891 38804.0 
133.06485 52704484.0 
135.044037 1399914.0 
137.059998 74458.0 
139.040161 58308.0 
145.028748 486415.0 
146.036057 517291.0 
147.044037 1399965.0 
149.023361 9013781.0 
153.070877 74333.0 
154.077744 73128.0 
161.059738 82498448.0 
163.038437 303168.0 
165.069824 859186.0 
166.077438 156718.0 
168.057785 70520.0 
174.091431 137439.0 
175.038895 5645999.0 
177.071304 64787.0 
178.077118 32508.0 
179.085861 71397.0 
181.065002 179469.0 
182.072708 736401.0 
183.081619 292366.0 
192.056396 152744.0 
193.064514 67633.0 
194.072342 196630.0 
195.082123 40238.0 
196.051315 61803.0 
197.095901 571375.0 
207.081116 46346.0 
209.095993 47245.0 
210.05011 45037.0 
210.068634 440450.0 
211.074707 478657.0 
220.052307 118836.0 
221.058884 40792.0 
222.067123 370836.0 
225.054047 52136.0 
225.067413 47225.0 
225.090607 652065.0 
235.074554 394076.0 
235.787308 37203.0 
237.054428 42115.0 
238.062775 148422.0 
241.085571 431502.0 
250.062408 200844.0 
253.05336 69067.0 
253.085419 1918364.0 
255.100082 274076.0 
265.085724 848423.0 
268.072449 205837.0 
276.38327 38329.0 
283.096161 52533672.0 
END IONS

BEGIN IONS
NAME=6-{[4-(2-furylcarbonyl)piperazinyl]sulfonyl}-4-methylhydroquinolin-2-one CollisionEnergy:205060 M+Na
PRECURSOR_MZ=424.094
INCHI="InChI=1S/C19H19N3O5S/c1-13-11-18(23)20-16-5-4-14(12-15(13)16)28(25,26)22-8-6-21(7-9-22)19(24)17-3-2-10-27-17/h2-5,10-12H,6-9H2,1H3,(H,20,23)"
SMILES=Cc1cc(O)nc2ccc(S(=O)(=O)N3CCN(C(=O)c4ccco4)CC3)cc12
SPECTRUMID=CCMSLIB00010122093
51.024719 2559.0 
56.641071 2524.0 
57.287411 2823.0 
59.477589 3228.0 
82.392677 3219.0 
86.524513 2739.0 
95.012711 3422.0 
110.242447 2740.0 
121.681213 2366.0 
136.204834 2432.0 
180.001114 2586.0 
208.113327 6833.0 
217.024796 2328.0 
264.547394 2479.0 
337.437592 3139.0 
424.092926 1203608.0 
END IONS

BEGIN IONS
NAME="methyl 2-(3-methyl-2,6-dioxo-1,3,7-trihydropurin-7-yl)acetate CollisionEnergy:102040" M+H
PRECURSOR_MZ=239.077
INCHI="InChI=1S/C9H10N4O4/c1-12-7-6(8(15)11-9(12)16)13(4-10-7)3-5(14)17-2/h4H,3H2,1-2H3,(H,11,15,16)"
SMILES=COC(=O)Cn1cnc2c1c(O)nc(=O)n2C
SPECTRUMID=CCMSLIB00010112999
60.537022 3385.0 
65.975883 2878.0 
72.044731 58779.0 
81.045013 14190.0 
84.959846 2802.0 
89.878448 2608.0 
99.188797 2864.0 
100.039322 202420.0 
104.286507 3152.0 
108.055443 13707.0 
109.039673 28667.0 
113.070557 3567.0 
113.138046 2756.0 
119.653297 2663.0 
124.050583 4685.0 
127.050171 10828.0 
135.066833 4666.0 
136.050385 33209.0 
138.066315 4094.0 
141.065765 51609.0 
142.061951 2875.0 
154.061081 17070.0 
161.044891 3690.0 
168.07666 363717.0 
170.09198 29086.0 
179.056213 332814.0 
180.064423 3674.0 
196.07164 206568.0 
197.066864 1593137.0 
207.051025 307498.0 
207.069336 6805.0 
214.082092 256687.0 
221.091537 3334.0 
239.077209 3717943.0 
242.46048 3361.0 
END IONS

BEGIN IONS
NAME=2-octyltridecanedioic acid CollisionEnergy:205060 M+H-H2O
PRECURSOR_MZ=339.289
INCHI="InChI=1S/C21H40O4/c1-2-3-4-5-10-13-16-19(21(24)25)17-14-11-8-6-7-9-12-15-18-20(22)23/h19H,2-18H2,1H3,(H,22,23)(H,24,25)"
SMILES=CCCCCCCCC(CCCCCCCCCCC(=O)O)C(=O)O
SPECTRUMID=CCMSLIB00010118643
53.0028 2716.0 
55.054729 61272.0 
57.070381 88046.0 
66.735046 2626.0 
67.051239 3239.0 
67.054657 42094.0 
69.07029 90950.0 
71.085938 64814.0 
75.026398 3386.0 
79.054527 18377.0 
81.070137 52382.0 
82.390053 3278.0 
83.049469 4162.0 
83.085907 53708.0 
85.101463 29365.0 
87.019867 2603.0 
92.369118 2814.0 
93.069992 37938.0 
95.085693 46316.0 
97.064972 21934.0 
97.10125 38714.0 
99.080383 3197.0 
102.27478 2228.0 
107.085678 32313.0 
109.10099 23037.0 
111.080353 9527.0 
111.116631 10284.0 
115.075478 2640.0 
121.101357 25726.0 
123.117027 4962.0 
125.096046 15897.0 
129.090714 4997.0 
135.116623 22544.0 
137.132568 2533.0 
139.111038 14676.0 
143.106644 2355.0 
149.132507 15045.0 
151.148026 2694.0 
153.12706 12016.0 
163.147629 12312.0 
167.143051 13357.0 
168.805344 2356.0 
171.13736 2896.0 
177.163544 9372.0 
181.157837 10112.0 
185.154175 3155.0 
191.179306 3253.0 
195.173965 3020.0 
205.194458 4635.0 
209.190094 4362.0 
210.092865 3035.0 
210.111465 4133.0 
225.36084 2445.0 
241.542191 2537.0 
275.271851 27127.0 
293.283508 33472.0 
339.270111 3633.0 
END IONS

BEGIN IONS
NAME="3-{[1-(tert-butyl)(1,2,3,4-tetraazol-5-yl)][4-benzylpiperazinyl]methyl}-6-etho xyhydroquinolin-2-one CollisionEnergy:102040" M+H
PRECURSOR_MZ=502.293
INCHI="InChI=1S/C28H35N7O2/c1-5-37-22-11-12-24-21(17-22)18-23(27(36)29-24)25(26-30-31-32-35(26)28(2,3)4)34-15-13-33(14-16-34)19-20-9-7-6-8-10-20/h6-12,17-18,25H,5,13-16,19H2,1-4H3,(H,29,36)"
SMILES=CCOc1ccc2[nH]c(=O)c(C(c3nnnn3C(C)(C)C)N3CCN(Cc4ccccc4)CC3)cc2c1
SPECTRUMID=CCMSLIB00010106630
52.609982 3884.0 
56.049919 7577.0 
69.045151 5434.0 
71.060783 24031.0 
75.329231 4026.0 
83.060638 1095274.0 
84.067879 4003.0 
91.05423 77076.0 
92.384201 4653.0 
105.606491 4185.0 
109.346413 3873.0 
119.167473 4509.0 
132.080643 7474.0 
134.096222 28293.0 
145.503708 5899.0 
158.060059 5794.0 
161.107391 29620.0 
163.123215 5629.0 
173.107101 46718.0 
173.51918 5009.0 
174.115112 4541676.0 
175.063019 6818.0 
175.123123 91793.0 
177.13858 35899.0 
186.054657 133312.0 
200.069275 6259.0 
202.086136 482415.0 
203.093887 343412.0 
214.063202 6914.0 
214.086395 162971.0 
215.094345 24058.0 
216.101807 19604.0 
217.094955 37445.0 
226.086197 276385.0 
227.117447 6012.0 
228.10228 97870.0 
230.105469 24239.0 
235.08287 37602.0 
242.091949 72121.0 
243.112762 92719.0 
256.108582 20112.0 
257.131622 33728.0 
267.113403 8827.0 
268.119598 54526.0 
269.124878 7345.0 
270.095856 20329.0 
270.123901 46100.0 
271.143097 10694.0 
284.137939 46132.0 
285.146881 2741819.0 
294.061707 5285.0 
298.154602 49092.0 
302.11615 20150.0 
316.133545 31161.0 
326.161682 24240.0 
333.159973 9076.0 
347.164459 18570.0 
360.171631 17974.0 
374.312958 9647.0 
376.201569 14880569.0 
378.104523 8680.0 
446.230682 61685.0 
502.291931 3167660.0 
END IONS

BEGIN IONS
NAME=N-(2-methylphenyl)-2-[2-oxo-4-(N-propylcarbamoyl)hydroquinolyl]acetamide CollisionEnergy:205060 M+Na
PRECURSOR_MZ=400.163
INCHI="InChI=1S/C22H23N3O3/c1-3-12-23-22(28)17-13-21(27)25(19-11-7-5-9-16(17)19)14-20(26)24-18-10-6-4-8-15(18)2/h4-11,13H,3,12,14H2,1-2H3,(H,23,28)(H,24,26)"
SMILES=CCCN=C(O)c1cc(=O)n(CC(O)=Nc2ccccc2C)c2ccccc12
SPECTRUMID=CCMSLIB00010125232
55.972408 2394.0 
67.554024 2493.0 
82.152458 2564.0 
82.387321 2928.0 
103.188362 2207.0 
104.270523 3377.0 
107.850601 2478.0 
110.132759 2840.0 
118.640244 2951.0 
126.987984 2429.0 
130.054016 2734.0 
130.064713 3965.0 
152.128281 3076.0 
156.197388 2997.0 
158.05896 3007.0 
243.114548 3982.0 
293.087463 3448.0 
311.619507 3078.0 
382.152985 14976.0 
388.943146 2882.0 
400.162598 2444811.0 
418.174316 4303.0 
END IONS

BEGIN IONS
NAME="(3,4-dimethoxyphenyl)-N-(2-phenyl(2-hydrobenzotriazol-5-yl))carboxamide CollisionEnergy:205060" M+Na
PRECURSOR_MZ=397.127
INCHI="InChI=1S/C21H18N4O3/c1-27-19-11-8-14(12-20(19)28-2)21(26)22-15-9-10-17-18(13-15)24-25(23-17)16-6-4-3-5-7-16/h3-13H,1-2H3,(H,22,26)"
SMILES=COc1ccc(C(O)=Nc2ccc3nn(-c4ccccc4)nc3c2)cc1OC
SPECTRUMID=CCMSLIB00010120493
59.943161 2397.0 
61.009029 2203.0 
63.727329 2136.0 
66.744713 2844.0 
119.085564 9956.0 
141.730026 2390.0 
175.623672 2397.0 
250.583908 2624.0 
275.980072 2167.0 
313.332367 2422.0 
338.687469 2471.0 
397.126617 244440.0 
415.136047 12371.0 
END IONS

BEGIN IONS
NAME=N-(3-fluoro-4-methylphenyl)-2-[4-(N-methylcarbamoyl)-2-oxohydroquinolyl]acetam ide CollisionEnergy:102040 M-H
PRECURSOR_MZ=366.126
INCHI="InChI=1S/C20H18FN3O3/c1-12-7-8-13(9-16(12)21)23-18(25)11-24-17-6-4-3-5-14(17)15(10-19(24)26)20(27)22-2/h3-10H,11H2,1-2H3,(H,22,27)(H,23,25)"
SMILES=CN=C(O)c1cc(=O)n(CC(O)=Nc2ccc(C)c(F)c2)c2ccccc12
SPECTRUMID=CCMSLIB00010113459
58.029259 4079.0 
59.013321 27495.0 
61.051861 3181.0 
65.164673 4092.0 
66.744476 4049.0 
72.04496 4641.0 
77.822731 3546.0 
85.44593 3254.0 
88.797668 3179.0 
92.050331 15556.0 
103.920647 4811.0 
115.055519 5535.0 
116.050652 62866.0 
124.056763 148352.0 
128.050568 158371.0 
130.066223 281699.0 
131.037903 13556.0 
132.04567 55549.0 
133.322556 3312.0 
134.719513 3709.0 
142.029282 3635.0 
142.066498 39986.0 
143.061951 25156.0 
144.045486 1276677.0 
156.046692 7500.0 
156.069443 126873.0 
158.025253 10209.0 
158.048431 313624.0 
158.061478 278340.0 
160.040466 490004.0 
164.051865 68869.0 
167.061111 13885.0 
169.077194 85527.0 
171.092911 963508.0 
172.040085 30980.0 
172.076813 5738.0 
173.072067 614879.0 
174.055695 17079.0 
174.956253 17716.0 
176.071716 149195.0 
179.937576 4558.0 
182.049438 5591.0 
183.056824 15817.0 
184.040573 102984.0 
185.072144 582472.0 
187.087967 146685.0 
197.072311 18645.0 
199.051605 14087.0 
200.060257 5356.0 
201.067169 779394.0 
202.051178 177715.0 
203.082886 7600.0 
207.967316 3466.0 
208.554993 7931.0 
208.57785 11235.0 
215.082855 237028.0 
217.061951 443504.0 
228.031784 6218.0 
229.913605 5635.0 
235.926498 4786.0 
241.062073 456096.0 
247.073013 18615.0 
259.07309 22584.0 
263.119781 5501.0 
277.098175 17794.0 
287.081024 4414.0 
289.098602 330425.0 
297.901825 20237.0 
309.104645 594483.0 
339.811005 3817.0 
353.096771 6420.0 
366.126312 5412009.0 
END IONS

BEGIN IONS
NAME="2-phenylethyl 4-(3-bromo-5-ethoxy-4-hydroxyphenyl)-2-methyl-5-oxo-1,4,6,7,8-pe ntahydroquinoline-3-carboxylate CollisionEnergy:205060" M+Na
PRECURSOR_MZ=548.104
INCHI="InChI=1S/C27H28BrNO5/c1-3-33-22-15-18(14-19(28)26(22)31)24-23(16(2)29-20-10-7-11-21(30)25(20)24)27(32)34-13-12-17-8-5-4-6-9-17/h4-6,8-9,14-15,24,29,31H,3,7,10-13H2,1-2H3"
SMILES=CCOc1cc(C2C(C(=O)OCCc3ccccc3)=C(C)NC3=C2C(=O)CCC3)cc(Br)c1O
SPECTRUMID=CCMSLIB00010121521
50.670078 3093.0 
73.950653 3503.0 
79.054413 6289.0 
92.375648 5190.0 
103.054337 4499.0 
104.284378 3688.0 
105.06974 59669.0 
106.072937 7799.0 
111.968224 3485.0 
133.699738 2972.0 
164.511856 3285.0 
184.072571 5607.0 
206.080948 16435.0 
206.639664 3672.0 
228.062881 5209.0 
241.157135 3575.0 
257.540039 4314.0 
444.043732 17561.0 
519.06427 14675.0 
544.78186 8475.0 
548.103882 7838635.0 
551.449402 7929.0 
END IONS

BEGIN IONS
NAME="N-{2-[(2-methylpiperidyl)carbonyl]phenyl}(2,3,4-trimethoxyphenyl)carboxamide CollisionEnergy:205060" M+H
PRECURSOR_MZ=413.207
INCHI="InChI=1S/C23H28N2O5/c1-15-9-7-8-14-25(15)23(27)16-10-5-6-11-18(16)24-22(26)17-12-13-19(28-2)21(30-4)20(17)29-3/h5-6,10-13,15H,7-9,14H2,1-4H3,(H,24,26)"
SMILES=COc1ccc(C(O)=Nc2ccccc2C(=O)N2CCCCC2C)c(OC)c1OC
SPECTRUMID=CCMSLIB00010118986
55.054871 26218.0 
65.038673 3648.0 
78.046593 14860.0 
80.026176 13109.0 
83.085793 26285.0 
88.750481 3183.0 
90.034103 8113.0 
93.03363 19740.0 
93.057472 49485.0 
94.065353 15617.0 
95.049004 4711.0 
100.112137 855410.0 
105.033333 4628.0 
106.041344 18148.0 
109.028633 14347.0 
119.036697 7953.0 
120.04425 44539.0 
121.028473 21046.0 
122.036598 6869.0 
123.043991 32087.0 
134.036545 14326.0 
135.043808 12914.0 
137.023315 4763.0 
137.047287 18966.0 
138.032303 3227.0 
139.038864 49955.0 
139.075302 7189.0 
146.023605 340968.0 
149.023712 15034.0 
150.031052 14073.0 
151.038895 178399.0 
152.046661 66614.0 
157.959091 3583.0 
162.030762 51212.0 
163.039337 13550.0 
164.03363 3786.0 
165.018768 15039.0 
167.033905 205094.0 
179.033783 450366.0 
180.041702 152632.0 
180.060165 4115.0 
181.04921 7461.0 
182.020981 3626.0 
195.065186 2668836.0 
195.773712 3588.0 
196.074631 4614.0 
197.044098 34707.0 
198.052841 20734.0 
209.082718 3871.0 
212.070282 4630.0 
214.049301 14382.0 
214.086044 48568.0 
222.054428 4638.0 
224.070328 7227.0 
225.077911 13764.0 
228.065033 60333.0 
230.878342 3466.0 
233.94249 3977.0 
235.063843 5462.0 
236.070679 5064.0 
238.048874 5551.0 
240.064102 7157.0 
242.080887 81845.0 
243.087753 12028.0 
245.068085 5622.0 
252.065369 22330.0 
253.073196 6489.0 
256.060211 48864.0 
263.057739 26739.0 
266.044434 19416.0 
268.059357 29621.0 
270.075928 84029.0 
280.059509 13740.0 
281.067932 43750.0 
282.07724 4147.0 
284.055206 115443.0 
298.071503 40115.0 
299.078094 46375.0 
308.880829 3522.0 
308.918854 3239.0 
312.659607 3933.0 
314.101776 2781490.0 
315.551208 3883.0 
359.575623 3672.0 
372.671234 3322.0 
END IONS

BEGIN IONS
NAME="1-(1,1,2,2,3,3,4,4-octafluorobutyl)-1,2,3,4-tetrahydrobeta-carboline-3-carboxy lic acid CollisionEnergy:205060" 2M-H
PRECURSOR_MZ=831.147
INCHI="InChI=1S/C16H12F8N2O2/c17-13(18)15(21,22)16(23,24)14(19,20)11-10-7(5-9(26-11)12(27)28)6-3-1-2-4-8(6)25-10/h1-4,9,11,13,25-26H,5H2,(H,27,28)"
SMILES=O=C(O)C1Cc2c([nH]c3ccccc23)C(C(F)(F)C(F)(F)C(F)(F)C(F)F)N1
SPECTRUMID=CCMSLIB00010117441
63.90086 3090.0 
74.990822 2902.0 
82.402687 3494.0 
86.356361 3433.0 
104.28521 4355.0 
116.050621 13885.0 
142.066132 63569.0 
167.061676 34934.0 
169.077164 394659.0 
171.640198 3501.0 
213.06749 23004.0 
267.084717 3119.0 
271.049469 14313.0 
395.063293 4776.0 
415.069763 205269.0 
415.131989 8596.0 
429.953003 4079.0 
464.526123 3421.0 
END IONS

BEGIN IONS
NAME=hexyl 2-[(4-hydroxy-2-oxo-3-hydroquinolyl)carbonylamino]benzoate CollisionEnergy:205060 M-H
PRECURSOR_MZ=407.161
INCHI="InChI=1S/C23H24N2O5/c1-2-3-4-9-14-30-23(29)16-11-6-8-13-18(16)25-22(28)19-20(26)15-10-5-7-12-17(15)24-21(19)27/h5-8,10-13H,2-4,9,14H2,1H3,(H,25,28)(H2,24,26,27)"
SMILES=CCCCCCOC(=O)c1ccccc1N=C(O)c1c(O)nc2ccccc2c1O
SPECTRUMID=CCMSLIB00010123695
65.998207 1644938.0 
73.671913 7160.0 
92.050537 310612.0 
92.374763 8008.0 
102.034973 288787.0 
107.037743 9419.0 
113.235474 8649.0 
114.03511 29168.0 
118.03006 63158.0 
136.040405 266573.0 
142.029861 22210596.0 
142.474884 10396.0 
146.024628 17069.0 
158.02478 211584.0 
160.040634 251249.0 
176.034164 30083.0 
185.015671 13661.0 
185.03566 647315.0 
186.01976 16301390.0 
204.03038 241153.0 
211.189545 8225.0 
261.067291 15611.0 
305.056824 445964.0 
407.16153 11091764.0 
END IONS

BEGIN IONS
NAME=N-(4-methoxyphenyl)-2-(9-methyl-6-oxohydropurin-8-ylthio)acetamide CollisionEnergy:102040 M+H
PRECURSOR_MZ=346.097
INCHI="InChI=1S/C15H15N5O3S/c1-20-13-12(14(22)17-8-16-13)19-15(20)24-7-11(21)18-9-3-5-10(23-2)6-4-9/h3-6,8H,7H2,1-2H3,(H,18,21)(H,16,17,22)"
SMILES=COc1ccc(NC(=O)CSc2nc3c(O)ncnc3n2C)cc1
SPECTRUMID=CCMSLIB00010112074
62.00499 3259.0 
66.712936 2934.0 
104.049347 7568.0 
107.46344 3393.0 
109.064613 4697.0 
111.578484 4208.0 
118.65242 5188.0 
121.054863 3263.0 
121.064796 14888.0 
132.044693 7369.0 
133.052475 17818.0 
136.075562 152919.0 
147.067657 73683.0 
149.047195 23460.0 
150.054321 5330.0 
151.061172 14684.0 
157.974579 3309.0 
162.054626 13031.0 
163.062042 6608.0 
164.070389 71551.0 
168.02179 4852.0 
178.031174 4055.0 
181.017563 323356.0 
183.033401 3545.0 
195.03334 1570163.0 
213.043793 20792.0 
222.169296 15820.0 
223.028122 8698281.0 
223.892288 17999.0 
236.06015 6309.0 
297.065033 5276.0 
328.085846 72392.0 
329.589417 3483.0 
346.096161 680728.0 
END IONS

BEGIN IONS
NAME="3-(2-methylpropyl)-3a,4,5,6-tetrahydro-2-benzofuran-1(3h)-one CollisionEnergy:205060" M+H
PRECURSOR_MZ=195.138
INCHI="InChI=1S/C12H18O2/c1-8(2)7-11-9-5-3-4-6-10(9)12(13)14-11/h6,8-9,11H,3-5,7H2,1-2H3"
SMILES=CC(C)CC1OC(=O)C2=CCCCC21
SPECTRUMID=CCMSLIB00010125158
53.0392 21341.0 
55.054699 3094.0 
56.965118 3024.0 
57.034031 4485.0 
57.070301 4336.0 
59.04969 4614.0 
59.50618 2235.0 
60.53828 2441.0 
65.039047 10792.0 
67.054626 110440.0 
69.034058 2352.0 
69.070236 30859.0 
79.054497 633191.0 
81.070107 243310.0 
83.049217 29012.0 
83.085602 10762.0 
84.959831 3158.0 
91.054451 26168.0 
92.377083 3557.0 
93.033562 13454.0 
93.063202 4896.0 
93.069962 170662.0 
95.049202 411801.0 
95.085487 17294.0 
97.064819 178215.0 
105.069656 13226.0 
107.049057 31497.0 
107.077637 5057.0 
107.085411 102448.0 
109.101067 2407.0 
111.044037 85088.0 
111.080467 4392.0 
117.06974 21503.0 
117.182777 2354.0 
119.085037 18872.0 
121.028374 73827.0 
121.064743 3479.0 
121.101067 38677.0 
123.080276 30007.0 
125.059677 251972.0 
131.085251 5438.0 
133.101044 14513.0 
135.080276 12594.0 
135.116821 47598.0 
136.210266 2974.0 
138.066071 4371.0 
139.038666 11587.0 
139.075043 10813.0 
143.07016 4846.0 
149.059662 105535.0 
149.13237 363591.0 
159.116898 37661.0 
167.07016 279212.0 
177.127197 179786.0 
195.104477 19956.0 
195.137482 138301.0 
333.438934 2426.0 
404.239685 2716.0 
END IONS

BEGIN IONS
NAME=(R)-(-)-Mandelic acid CollisionEnergy:102040 M-H
PRECURSOR_MZ=151.04
INCHI="InChI=1S/C8H8O3/c9-7(8(10)11)6-4-2-1-3-5-6/h1-5,7,9H,(H,10,11)/t7-/m1/s1"
SMILES=O=C(O)[C@H](O)c1ccccc1
SPECTRUMID=CCMSLIB00010126346
52.602699 204072.0 
65.460297 210060.0 
67.271599 214050.0 
73.9795 280036.0 
76.790398 220386.0 
106.769997 268698.0 
107.050003 170394000.0 
118.695 232364.0 
124.306999 224899.0 
131.992004 235714.0 
151.039993 4483300.0 
END IONS

BEGIN IONS
NAME=2-(4-methyl-6-(2-naphthyloxy)pyrimidin-2-ylthio)-1-phenylethan-1-one CollisionEnergy:205060 M+H
PRECURSOR_MZ=387.116
INCHI="InChI=1S/C23H18N2O2S/c1-16-13-22(27-20-12-11-17-7-5-6-10-19(17)14-20)25-23(24-16)28-15-21(26)18-8-3-2-4-9-18/h2-14H,15H2,1H3"
SMILES=Cc1cc(Oc2ccc3ccccc3c2)nc(SCC(=O)c2ccccc2)n1
SPECTRUMID=CCMSLIB00010115003
50.015839 3525.0 
51.02343 12110.0 
53.036171 3755.0 
53.039101 116286.0 
55.018299 4552.0 
60.84774 2575.0 
63.216961 2768.0 
65.039001 10606.0 
65.163063 2601.0 
67.018051 11561.0 
77.03894 5434.0 
81.033653 16103.0 
84.04454 34890.0 
84.812172 2950.0 
91.05439 294780.0 
95.049187 46216.0 
103.054077 27909.0 
104.283447 2886.0 
105.033524 996027.0 
105.069801 13748.0 
105.535027 2671.0 
109.039619 3646.0 
110.023537 3596.0 
115.758163 2731.0 
119.049133 29623.0 
129.070145 38567.0 
135.026016 16929.0 
141.069946 3389.0 
144.057297 10578.0 
145.065277 20257.0 
151.020447 4338.0 
154.064941 16684.0 
155.060211 16204.0 
157.064468 14305.0 
159.02713 3179.0 
165.293304 2920.0 
166.064575 3062.0 
167.059494 4377.0 
169.076309 5097.0 
174.037216 14139.0 
185.029266 46267.0 
188.052689 3327.0 
192.880035 2872.0 
194.060547 4154.0 
195.054749 24823.0 
198.036591 3008.0 
207.093002 3031.0 
221.107819 3284.0 
225.048447 4257.0 
230.096619 5723.0 
235.086426 45267.0 
239.062424 3925.0 
243.058716 3869.0 
248.093826 23558.0 
249.10199 80421.0 
267.058746 30318.0 
281.0737 3721.0 
286.067932 10808.0 
303.093872 10422.0 
369.102814 12863.0 
375.327362 2951.0 
387.115753 906624.0 
END IONS

BEGIN IONS
NAME=N-(2-fluorophenyl)-2-{2-oxo-4-[N-benzylcarbamoyl]hydroquinolyl}acetamide CollisionEnergy:205060 M+H
PRECURSOR_MZ=430.156
INCHI="InChI=1S/C25H20FN3O3/c26-20-11-5-6-12-21(20)28-23(30)16-29-22-13-7-4-10-18(22)19(14-24(29)31)25(32)27-15-17-8-2-1-3-9-17/h1-14H,15-16H2,(H,27,32)(H,28,30)"
SMILES=O=c1cc(C(O)=NCc2ccccc2)c2ccccc2n1CC(O)=Nc1ccccc1F
SPECTRUMID=CCMSLIB00010123801
65.039169 21521.0 
82.028893 14960.0 
82.394112 3518.0 
84.075607 2827.0 
86.859734 2644.0 
91.054367 1476064.0 
126.581818 2727.0 
128.049301 6221.0 
130.065674 10301.0 
132.914337 3060.0 
136.20546 3157.0 
146.05928 3862.0 
156.045181 2908.0 
158.060318 3711.0 
174.335709 3145.0 
180.080521 71757.0 
187.160934 2939.0 
199.049927 13314.0 
204.080627 14105.0 
206.05957 14851.0 
217.088303 36000.0 
218.096313 209940.0 
231.361496 3027.0 
232.075378 24478.0 
233.106689 54456.0 
235.086838 5624.0 
261.102539 42552.0 
279.111359 20686.0 
291.112274 158519.0 
301.315765 3196.0 
319.107178 964896.0 
332.137817 13106.0 
374.252533 3117.0 
398.047394 3043.0 
430.199585 423814.0 
441.419678 3131.0 
817.249573 3365.0 
863.84198 3074.0 
END IONS

BEGIN IONS
NAME="N-(4-(2H-benzo[3,4-d]1,3-dioxolan-5-yl)(1Z,3Z)-2-methyl-1-azabuta-1,3-dienyl)( 5-bromo(3-pyridyl))carboxamide CollisionEnergy:102040" M-H
PRECURSOR_MZ=386.015
INCHI="InChI=1S/C17H14BrN3O3/c1-11(20-21-17(22)13-7-14(18)9-19-8-13)2-3-12-4-5-15-16(6-12)24-10-23-15/h2-9H,10H2,1H3,(H,21,22)/b3-2-,20-11-"
SMILES=CC(C=Cc1ccc2c(c1)OCO2)=NN=C(O)c1cncc(Br)c1
SPECTRUMID=CCMSLIB00010109654
65.002739 6536.0 
73.239288 3540.0 
78.918556 2656943.0 
81.045502 94573.0 
91.018753 26055.0 
93.034264 26496.0 
109.029648 7515.0 
112.985588 13294.0 
113.988617 4114.0 
117.034561 5285.0 
119.050072 137557.0 
121.029221 26193.0 
130.042297 17984.0 
130.065781 6064.0 
133.028778 5072.0 
143.049683 25635.0 
144.045654 19346.0 
145.065216 31200.0 
147.045059 69200.0 
155.945297 117712.0 
156.04599 4701.0 
157.052277 4424.0 
158.037247 17467.0 
158.061081 37939.0 
159.057632 5328.0 
160.040405 6596.0 
160.07637 23795.0 
171.04509 6644.0 
172.053329 6852.0 
173.060349 31786.0 
173.072235 32793.0 
180.940033 5808.0 
184.051117 22156.0 
188.071426 7344.0 
195.951721 13799.0 
198.951065 160074.0 
199.05098 38083.0 
199.935379 13519.0 
200.059387 49459.0 
201.067032 114712.0 
212.107391 5295.0 
213.961441 24839.0 
222.949936 6726.0 
229.06163 356831.0 
235.975098 4569.0 
237.962479 24624.0 
249.079071 6821.0 
249.962875 4425.0 
250.087799 8413.0 
263.977814 47636.0 
306.091095 4565.0 
315.984009 26174.0 
317.980804 4394.0 
329.005646 47967.0 
337.993164 17588.0 
339.000824 17067.0 
340.009674 50231.0 
356.003174 46683.0 
357.010559 34888.0 
358.012115 61087.0 
368.003601 195864.0 
369.979553 4844.0 
386.014587 8897547.0 
END IONS

BEGIN IONS
NAME=(2S)-2-[(tert-butoxy)carbonylamino]-3-[4-(tert-butoxy)phenyl]propanoic acid CollisionEnergy:102040 M+Na
PRECURSOR_MZ=360.178
INCHI="InChI=1S/C18H27NO5/c1-17(2,3)23-13-9-7-12(8-10-13)11-14(15(20)21)19-16(22)24-18(4,5)6/h7-10,14H,11H2,1-6H3,(H,19,22)(H,20,21)/t14-/m0/s1"
SMILES=CC(C)(C)OC(O)=NC(Cc1ccc(OC(C)(C)C)cc1)C(=O)O
SPECTRUMID=CCMSLIB00010109901
61.28891 2615.0 
136.203415 3182.0 
204.062729 70301.0 
210.34819 4728.0 
248.052673 5929.0 
260.125061 948031.0 
278.134949 4252.0 
301.150513 3789.0 
304.114716 1624439.0 
322.126465 3938.0 
345.143524 4529.0 
360.177002 960187.0 
END IONS

BEGIN IONS
NAME="methylpropyl 4-(3-bromo-5-ethoxy-4-hydroxyphenyl)-7-(4-methoxyphenyl)-2-methyl -5-oxo-1,4,6,7,8-pentahydroquinoline-3-carboxylate CollisionEnergy:102040" M+formate
PRECURSOR_MZ=628.155
INCHI="InChI=1S/C30H34BrNO6/c1-6-16(3)38-30(35)26-17(4)32-23-13-19(18-8-10-21(36-5)11-9-18)14-24(33)28(23)27(26)20-12-22(31)29(34)25(15-20)37-7-2/h8-12,15-16,19,27,32,34H,6-7,13-14H2,1-5H3"
SMILES=CCOc1cc(C2C(C(=O)OC(C)CC)=C(C)NC3=C2C(=O)CC(c2ccc(OC)cc2)C3)cc(Br)c1O
SPECTRUMID=CCMSLIB00010113065
104.301392 3462.0 
112.985123 3856.0 
136.23291 3227.0 
185.931717 13136.0 
186.939148 4874.0 
280.139099 3019.0 
287.969879 3345.0 
293.533813 2910.0 
355.960815 3607.0 
366.173492 5202.0 
395.378998 2869.0 
401.209015 2699.0 
491.935852 3429.0 
582.14978 186315.0 
857.615234 4174.0 
1276.912476 3824.0 
END IONS

BEGIN IONS
NAME="2-phenoxyethyl 4-(3-bromo-4-methoxyphenyl)-2,7,7-trimethyl-5-oxo-1,4,6,7,8-pen tahydroquinoline-3-carboxylate CollisionEnergy:205060" M+Na
PRECURSOR_MZ=562.12
INCHI="InChI=1S/C28H30BrNO5/c1-17-24(27(32)35-13-12-34-19-8-6-5-7-9-19)25(18-10-11-23(33-4)20(29)14-18)26-21(30-17)15-28(2,3)16-22(26)31/h5-11,14,25,30H,12-13,15-16H2,1-4H3"
SMILES=COc1ccc(C2C(C(=O)OCCOc3ccccc3)=C(C)NC3=C2C(=O)CC(C)(C)C3)cc1Br
SPECTRUMID=CCMSLIB00010120797
112.800201 3555.0 
118.6521 3480.0 
119.250923 3486.0 
260.704071 3388.0 
294.06543 73773.0 
312.075104 22450.0 
335.091675 5412.0 
338.055878 53789.0 
404.066803 5470.0 
506.133209 156064.0 
547.171509 6409.0 
562.117004 4505641.0 
562.197876 2642372.0 
580.204956 15206.0 
603.22522 95633.0 
END IONS

BEGIN IONS
NAME=Hippuric acid CollisionEnergy:102040 M-H
PRECURSOR_MZ=178.051
INCHI="InChI=1S/C9H9NO3/c11-8(12)6-10-9(13)7-4-2-1-3-5-7/h1-5H,6H2,(H,10,13)(H,11,12)"
SMILES=O=C(O)CN=C(O)c1ccccc1
SPECTRUMID=CCMSLIB00010108562
52.65847 2271.0 
56.013901 3422.0 
60.813141 2098.0 
62.38903 2017.0 
77.039787 2635.0 
81.817108 2615.0 
93.034554 19301.0 
100.191437 1991.0 
102.035217 15104.0 
108.021729 2533.0 
121.02961 10183.0 
132.045349 21520.0 
134.06134 1274407.0 
134.988159 2936.0 
136.19487 2614.0 
137.229538 2800.0 
146.024979 2449.0 
148.040344 15386.0 
149.957809 3549.0 
150.954056 10285.0 
160.040741 4133.0 
178.051254 975825.0 
179.120132 2118.0 
END IONS

BEGIN IONS
NAME=(2-iminochromen-3-yl)-N-(4-methylphenyl)carboxamide CollisionEnergy:205060 M+H
PRECURSOR_MZ=279.113
INCHI="InChI=1S/C17H14N2O2/c1-11-6-8-13(9-7-11)19-17(20)14-10-12-4-2-3-5-15(12)21-16(14)18/h2-10,18H,1H3,(H,19,20)"
SMILES=Cc1ccc(NC(=O)c2cc3ccccc3oc2=N)cc1
SPECTRUMID=CCMSLIB00010115472
51.023472 6888.0 
53.039131 7133.0 
62.221241 2596.0 
65.038986 17229.0 
72.146973 2794.0 
77.03891 16316.0 
80.948097 5433.0 
89.03862 18094.0 
91.054367 83336.0 
116.049438 183122.0 
119.048843 5503.0 
128.049393 658064.0 
129.044617 24396.0 
134.060074 3238.0 
144.044266 69758.0 
146.046753 4995.0 
146.059875 142670.0 
146.072525 6621.0 
149.023224 5937.0 
156.044266 17169.0 
169.076187 7317.0 
171.054993 4393.0 
172.039185 2637776.0 
190.049683 917187.0 
206.095825 16695.0 
213.065353 11758.0 
218.083435 3669.0 
232.098358 6762.0 
233.083664 3927.0 
233.106262 24415.0 
234.091354 16165.0 
242.230621 4018.0 
245.070267 4441.0 
246.078217 60028.0 
260.092102 21262.0 
261.101898 1674608.0 
262.085632 16951.0 
279.112427 2044988.0 
END IONS

BEGIN IONS
NAME=8-[(2-chlorophenyl)methylthio]-9-(4-methylphenyl)hydropurin-6-one CollisionEnergy:205060 M+Na
PRECURSOR_MZ=405.055
INCHI="InChI=1S/C19H15ClN4OS/c1-12-6-8-14(9-7-12)24-17-16(18(25)22-11-21-17)23-19(24)26-10-13-4-2-3-5-15(13)20/h2-9,11H,10H2,1H3,(H,21,22,25)"
SMILES=Cc1ccc(-n2c(SCc3ccccc3Cl)nc3c(O)ncnc32)cc1
SPECTRUMID=CCMSLIB00010123497
68.542557 2401.0 
68.587128 2505.0 
79.914833 2668.0 
82.395668 2736.0 
104.73407 2691.0 
127.012383 4807.0 
136.855347 3227.0 
138.656158 2642.0 
155.945557 3028.0 
211.565582 4105.0 
279.030701 75946.0 
280.038177 84021.0 
314.114319 3701.0 
347.095032 5926.0 
364.025696 4368.0 
369.076874 3412.0 
405.054169 1288946.0 
END IONS

BEGIN IONS
NAME="3-methylpyrazolyl 3,4,5-trimethoxyphenyl ketone CollisionEnergy:102040" M+H
PRECURSOR_MZ=277.118
INCHI="InChI=1S/C14H16N2O4/c1-9-5-6-16(15-9)14(17)10-7-11(18-2)13(20-4)12(8-10)19-3/h5-8H,1-4H3"
SMILES=COc1cc(C(=O)n2ccc(C)n2)cc(OC)c1OC
SPECTRUMID=CCMSLIB00010110929
53.388569 2158.0 
60.173489 2017.0 
79.054573 5925.0 
81.034172 2376.0 
81.069939 3771.0 
82.204147 2290.0 
82.403503 2728.0 
84.960068 5101.0 
90.052528 2289.0 
109.065048 4222.0 
111.080658 2721.0 
113.05941 2524.0 
114.468803 2484.0 
115.863647 2224.0 
122.03598 2737.0 
124.051872 5206.0 
128.046021 2481.0 
136.223511 2215.0 
139.075089 24635.0 
141.018173 2778.0 
152.046951 20538.0 
156.041794 10769.0 
157.979385 2917.0 
170.083664 4094.0 
178.042328 3536.0 
188.026169 16021.0 
195.065231 1191595.0 
203.036942 4008.0 
205.052643 44828.0 
212.94635 5032.0 
230.956116 5374.0 
231.032028 16759.0 
249.042465 81572.0 
277.073639 192303.0 
277.140747 13170.0 
277.17688 14481.0 
END IONS

BEGIN IONS
NAME=guanine CollisionEnergy:102040 M+H
PRECURSOR_MZ=152.057
INCHI="InChI=1S/C5H5N5O/c6-5-9-3-2(4(11)10-5)7-1-8-3/h1H,(H4,6,7,8,9,10,11)"
SMILES=N=c1nc(O)c2nc[nH]c2[nH]1
SPECTRUMID=CCMSLIB00010126511
55.030102 60051.0 
58.2215 63629.398438 
62.557499 66252.101562 
65.546204 58352.898438 
72.740097 49004.699219 
82.867203 60753.699219 
88.635597 53071.199219 
95.968903 54490.101562 
106.809998 60860.0 
109.051003 2223760.0 
110.035004 9414720.0 
128.033997 89173.101562 
128.046005 5168990.0 
134.046997 974016.0 
135.029999 18213100.0 
136.014008 602708.0 
136.235001 82845.398438 
151.570999 280594.0 
152.057007 281599008.0 
152.544998 246403.0 
153.041 28284300.0 
154.024994 617221.0 
END IONS

BEGIN IONS
NAME=N6-isopentyl adenosine CollisionEnergy:205060 M+Na
PRECURSOR_MZ=358.149
INCHI="InChI=1S/C15H21N5O4/c1-8(2)3-4-16-13-10-14(18-6-17-13)20(7-19-10)15-12(23)11(22)9(5-21)24-15/h3,6-7,9,11-12,15,21-23H,4-5H2,1-2H3,(H,16,17,18)/t9-,11-,12-,15-/m1/s1"
SMILES=CC(=CCNC1=C2C(=NC=N1)N(C=N2)[C@H]3[C@@H]([C@@H]([C@H](O3)CO)O)O)C
SPECTRUMID=CCMSLIB00010102009
75.925247 3437.216797 
89.148872 3048.536377 
104.213676 3419.806152 
118.720512 4015.992188 
143.630127 3906.527344 
184.29541 3370.60498 
226.105804 3817.586182 
248.648941 3116.626709 
321.248535 4210.349609 
358.144379 194166.671875 
358.363861 6804.631348 
666.546753 3662.011963 
END IONS

BEGIN IONS
NAME="(2E)-3-(2H-benzo[3,4-d]1,3-dioxolen-5-yl)-2-(acetylamino)-N-benzylprop-2-enami de CollisionEnergy:102040" M-H
PRECURSOR_MZ=337.119
INCHI="InChI=1S/C19H18N2O4/c1-13(22)21-16(19(23)20-11-14-5-3-2-4-6-14)9-15-7-8-17-18(10-15)25-12-24-17/h2-10H,11-12H2,1H3,(H,20,23)(H,21,22)/b16-9+"
SMILES=CC(O)=NC(=Cc1ccc2c(c1)OCO2)C(O)=NCc1ccccc1
SPECTRUMID=CCMSLIB00010110510
50.807941 3072.0 
50.93544 2677.0 
58.029339 2441.0 
66.117973 2856.0 
73.955101 2604.0 
74.407448 2993.0 
93.033974 5138.0 
103.679817 2691.0 
106.041893 2921.0 
107.049713 16300.0 
121.029243 3521.0 
121.221382 3425.0 
130.029602 14955.0 
130.066086 3372.0 
131.037689 67433.0 
132.034973 3018.0 
132.045364 73619.0 
133.028183 3932.0 
133.052963 5721.0 
134.037186 35761.0 
134.060852 26044.0 
135.044037 15282.0 
144.044907 3672.0 
145.029297 4203.0 
147.044159 4737.0 
148.040283 5358.0 
148.053024 79105.0 
148.076569 153101.0 
149.060715 62570.0 
149.991226 2908.0 
151.039429 3960.0 
157.076584 3583.0 
158.024521 20149.0 
159.056213 253014.0 
160.040298 314773.0 
162.055878 100983.0 
176.071304 4029.0 
177.055573 538164.0 
199.051163 16911.0 
200.058777 30420.0 
200.88118 6711.0 
204.065796 18415.0 
207.761993 2924.0 
213.066711 3104.0 
228.053345 15779.0 
230.044189 3587.0 
232.984406 6291.0 
263.120667 3742.0 
268.868988 14894.0 
275.082794 14809.0 
276.090546 12354.0 
289.096283 5891.0 
290.071716 4718.0 
290.10614 108348.0 
291.114258 39890.0 
294.752441 2739.0 
295.108643 1494032.0 
304.083588 24581.0 
316.983704 3208.0 
319.108612 752878.0 
321.087769 12210.0 
335.500916 3159.0 
337.119507 1737226.0 
END IONS

BEGIN IONS
NAME=Sumaresinolic acid CollisionEnergy:102040 M+H
PRECURSOR_MZ=473.363
INCHI="InChI=1S/C30H48O4/c1-25(2)12-14-30(24(33)34)15-13-28(6)18(19(30)16-25)8-9-21-27(5)11-10-22(32)26(3,4)23(27)20(31)17-29(21,28)7/h8,19-23,31-32H,9-17H2,1-7H3,(H,33,34)/t19?,20-,21?,22+,23?,27-,28-,29-,30+/m1/s1"
SMILES=CC1(C)CCC2(C(=O)O)CCC3(C)C(=CCC4C5(C)CCC(O)C(C)(C)C5C(O)CC43C)C2C1
SPECTRUMID=CCMSLIB00010112303
64.829529 3219.0 
67.054321 7002.0 
69.070137 7154.0 
71.558403 2661.0 
72.663292 3033.0 
73.944283 3519.0 
81.07003 32623.0 
83.085564 5347.0 
85.248428 2699.0 
91.65435 3217.0 
92.366913 3455.0 
93.069298 13757.0 
95.085564 113023.0 
99.08046 3845.0 
101.349426 2752.0 
105.06929 14935.0 
107.085243 34524.0 
108.772003 3009.0 
109.101097 79280.0 
111.116257 5032.0 
119.085381 55272.0 
121.101013 46935.0 
123.116814 29023.0 
133.064285 15490.0 
133.100861 31571.0 
135.080338 35152.0 
135.116577 46495.0 
137.095642 17237.0 
137.131943 5077.0 
145.100754 18872.0 
147.116425 29012.0 
149.095749 6801.0 
149.132431 46841.0 
151.111862 4295.0 
152.323349 3131.0 
159.116364 34787.0 
161.132858 25386.0 
163.112076 4115.0 
163.14801 47485.0 
165.162903 4453.0 
171.116302 3411.0 
173.13179 19031.0 
175.147888 39071.0 
177.126373 16278.0 
177.163589 110865.0 
179.142456 6387.0 
185.131592 12482.0 
185.374741 3092.0 
187.14801 68506.0 
189.163544 110423.0 
191.161087 3887.0 
191.179199 74221.0 
199.147491 4321.0 
201.163803 29572.0 
203.145187 5497.0 
203.179352 217131.0 
205.137039 6591.0 
205.158646 188358.0 
205.193161 57580.0 
207.173569 12413.0 
213.163376 14200.0 
215.179688 12555.0 
217.157837 17291.0 
217.194321 11934.0 
219.174332 37258.0 
227.178131 5524.0 
231.174606 33904.0 
231.210007 3448.0 
233.188705 12092.0 
235.169022 5991.0 
245.188782 6674.0 
249.184113 3759.0 
257.225586 3512.0 
320.172638 3225.0 
329.585968 3581.0 
391.334351 36132.0 
409.345795 911245.0 
427.355316 33715.0 
437.340698 175936.0 
437.408691 5961.0 
452.831848 6213.0 
455.351349 499325.0 
473.361908 583335.0 
END IONS

BEGIN IONS
NAME=caffeic acid CollisionEnergy:205060 M+H-H2O
PRECURSOR_MZ=163.039
INCHI="InChI=1S/C9H8O4/c10-7-3-1-6(5-8(7)11)2-4-9(12)13/h1-5,10-11H,(H,12,13)/b4-2+"
SMILES=O=C(O)C=Cc1ccc(O)c(O)c1
SPECTRUMID=CCMSLIB00010122408
54.139809 2927.0 
56.96521 77989.0 
60.531761 2721.0 
62.018959 20146.0 
63.023418 4968.0 
65.038887 4050.0 
67.045418 3098.0 
71.952148 113670.0 
73.940353 2757.0 
74.975609 3965.0 
79.054413 117054.0 
82.383003 2581.0 
84.959831 4580579.0 
88.93692 5377.0 
89.038643 590539.0 
91.054367 4652.0 
92.358719 2911.0 
94.935318 2911.0 
95.049294 6468.0 
99.232117 3359.0 
102.970123 648916.0 
107.049011 159113.0 
117.025673 5466.0 
117.03334 681587.0 
120.980629 145725.0 
125.986053 46627.0 
134.978485 84077.0 
135.0439 1330175.0 
138.991257 15401.0 
143.99675 28295.0 
145.028244 541270.0 
147.95076 3676.0 
152.98909 66649.0 
154.262558 2911.0 
158.060318 4106.0 
162.973495 71995.0 
163.038788 1221409.0 
165.960968 14453.0 
166.179565 3042.0 
167.976974 3200.0 
171.0 3210.0 
180.983917 183475.0 
185.861191 2755.0 
186.055222 11273.0 
198.995132 19329.0 
204.000732 4358.0 
213.952576 3129.0 
289.312561 2831.0 
318.530731 2920.0 
349.08783 3858.0 
END IONS

BEGIN IONS
NAME=2-{4-[(6-ethoxy-2-oxochromen-4-yl)methyl]piperazinyl}-N-(4-fluorophenyl)acetam ide CollisionEnergy:102040 M-H
PRECURSOR_MZ=438.183
INCHI="InChI=1S/C24H26FN3O4/c1-2-31-20-7-8-22-21(14-20)17(13-24(30)32-22)15-27-9-11-28(12-10-27)16-23(29)26-19-5-3-18(25)4-6-19/h3-8,13-14H,2,9-12,15-16H2,1H3,(H,26,29)"
SMILES=CCOc1ccc2oc(=O)cc(CN3CCN(CC(=O)Nc4ccc(F)cc4)CC3)c2c1
SPECTRUMID=CCMSLIB00010106452
64.927399 2805.0 
66.779533 3591.0 
82.029694 28749.0 
110.041092 171910.0 
136.055878 3316.0 
161.024673 4634.0 
161.061295 3816.0 
167.062805 116564.0 
173.047638 7357.0 
173.81311 3490.0 
174.032089 17701.0 
179.062866 4386.0 
188.034607 13969.0 
189.041611 26046.0 
193.078186 63911.0 
195.093933 160458.0 
197.048035 12157.0 
201.042023 4776.0 
202.087311 20325.0 
203.071381 34143.0 
207.094009 4176.0 
214.051071 6281.0 
215.058594 24259.0 
216.066223 17709.0 
217.074554 15799.0 
218.082916 4933.0 
219.096695 3040.0 
220.089615 3259.0 
220.757217 3044.0 
230.081909 5074.0 
234.105286 10217.0 
236.120483 55386.0 
243.078033 20958.0 
244.086411 4168.0 
254.106506 5262.0 
256.085327 16536.0 
257.093567 56806.0 
270.100342 11494.0 
271.107941 46083.0 
272.11673 167592.0 
298.095612 18985.0 
299.102692 3453.0 
327.135315 6954.0 
373.11145 3000.0 
408.136871 4830.0 
409.14386 104378.0 
410.152344 39522.0 
438.183563 2814965.0 
453.859619 2976.0 
463.380676 3062.0 
END IONS

BEGIN IONS
NAME=cyclic gmp CollisionEnergy:102040 M-H
PRECURSOR_MZ=344.04
INCHI="InChI=1S/C10H12N5O7P/c11-10-13-7-4(8(17)14-10)12-2-15(7)9-5(16)6-3(21-9)1-20-23(18,19)22-6/h2-3,5-6,9,16H,1H2,(H,18,19)(H3,11,13,14,17)/t3-,5-,6-,9-/m1/s1"
SMILES=N=c1nc(O)c2ncn([C@@H]3O[C@@H]4COP(=O)(O)O[C@H]4[C@H]3O)c2[nH]1
SPECTRUMID=CCMSLIB00010126098
55.576698 10423.299805 
61.645802 11060.700195 
73.9795 13643.0 
78.9589 433589.0 
82.425201 12687.099609 
92.409897 19424.0 
96.969398 48207.398438 
114.656998 10929.400391 
133.016006 196936.0 
135.688995 12081.400391 
150.042007 1068070.0 
258.812012 11881.0 
344.040009 2832420.0 
END IONS

BEGIN IONS
NAME="methylethyl 2-amino-4-(4-fluorophenyl)-6-(hydroxymethyl)-8-oxo-4H-pyrano[3,2-b ]pyran-3-carboxylate CollisionEnergy:102040" M-H
PRECURSOR_MZ=374.105
INCHI="InChI=1S/C19H18FNO6/c1-9(2)25-19(24)15-14(10-3-5-11(20)6-4-10)17-16(27-18(15)21)13(23)7-12(8-22)26-17/h3-7,9,14,22H,8,21H2,1-2H3"
SMILES=CC(C)OC(=O)C1=C(N)Oc2c(oc(CO)cc2=O)C1c1ccc(F)cc1
SPECTRUMID=CCMSLIB00010108153
54.10685 2829.0 
65.9981 1070027.0 
66.383682 2945.0 
67.987083 2829.0 
83.013557 6152.0 
84.008873 15453.0 
85.029167 5149.0 
99.008751 16838.0 
113.024406 3632.0 
126.056107 4118910.0 
126.427391 3567.0 
127.040283 3533.0 
141.019394 316713.0 
160.057022 4839.0 
186.036072 3636.0 
208.857895 11466.0 
214.031174 3506.0 
219.047516 3172.0 
230.463806 3343.0 
231.032501 4974.0 
246.056244 3222.0 
246.093292 32361.0 
247.041 21429.0 
270.057831 16848.0 
274.088898 3397.0 
314.046875 62009.0 
347.095184 3311.0 
374.10498 123314.0 
384.557861 3127.0 
END IONS

BEGIN IONS
NAME=Haploperozide CollisionEnergy:102040 M+Na
PRECURSOR_MZ=669.2
INCHI="InChI=1S/C28H38O17/c1-9-17(30)20(33)23(36)26(40-9)39-8-15-19(32)22(35)25(45-27-24(37)21(34)18(31)10(2)41-27)28(44-15)43-14-7-12-11(6-13(14)38-3)4-5-16(29)42-12/h4-7,9-10,15,17-28,30-37H,8H2,1-3H3"
SMILES=COc1cc2ccc(=O)oc2cc1OC1OC(COC2OC(C)C(O)C(O)C2O)C(O)C(O)C1OC1OC(C)C(O)C(O)C1O
SPECTRUMID=CCMSLIB00010114067
51.8624 3562.0 
53.46706 3179.0 
59.1824 3338.0 
59.537498 3585.0 
66.135551 3268.0 
69.405899 3783.0 
71.049347 15476.0 
75.409309 3773.0 
84.234596 3721.0 
85.028679 18663.0 
92.363853 5257.0 
103.63295 3778.0 
104.270622 5064.0 
111.00547 3638.0 
135.687256 3702.0 
167.030777 6180.0 
169.046997 20966.0 
185.040543 35847.0 
187.057266 16723.0 
215.031067 411969.0 
243.084076 25744.0 
257.040771 22313.0 
268.552704 4555.0 
287.051605 58959.0 
289.088806 5551.0 
315.10495 21686.0 
331.099152 274389.0 
377.082886 105405.0 
381.205994 4307.0 
477.156342 293642.0 
523.139954 110955.0 
664.727661 6103.0 
669.198914 8967277.0 
673.711792 6189.0 
END IONS

BEGIN IONS
NAME="(3,4-dimethoxyphenyl)-N-[2-(3-phenoxyphenoxy)ethyl]carboxamide CollisionEnergy:205060" M+H
PRECURSOR_MZ=394.165
INCHI="InChI=1S/C23H23NO5/c1-26-21-12-11-17(15-22(21)27-2)23(25)24-13-14-28-19-9-6-10-20(16-19)29-18-7-4-3-5-8-18/h3-12,15-16H,13-14H2,1-2H3,(H,24,25)"
SMILES=COc1ccc(C(O)=NCCOc2cccc(Oc3ccccc3)c2)cc1OC
SPECTRUMID=CCMSLIB00010117691
51.023312 5852.0 
51.34156 2703.0 
53.039009 68882.0 
55.018219 5180.0 
59.332951 2845.0 
63.865978 2963.0 
64.171059 3081.0 
65.038902 32134.0 
66.046753 64308.0 
68.997414 25042.0 
69.033852 13986.0 
73.961258 3193.0 
77.038788 18798.0 
77.294724 3186.0 
78.046669 3911.0 
79.017868 6589.0 
79.054413 208098.0 
80.025352 2822.0 
80.355164 2920.0 
80.64431 2909.0 
81.033623 22714.0 
81.070007 38734.0 
82.041298 13721.0 
83.049156 6412.0 
91.054062 15190.0 
92.025627 7603.0 
94.041183 119610.0 
95.012894 5103.0 
95.048973 33358.0 
97.028137 3539.0 
98.036003 42026.0 
104.061203 3229.0 
105.033142 23357.0 
105.044724 5915.0 
107.012604 3700.0 
107.048798 21393.0 
108.896797 2699.0 
109.028221 54033.0 
109.064583 124146.0 
111.007362 29430.0 
113.059853 5153.0 
117.057091 73126.0 
118.666367 3167.0 
121.028137 22837.0 
122.035957 167395.0 
123.043709 20289.0 
126.03083 95307.0 
131.049347 3536.0 
132.056961 3916.0 
135.043503 6372.0 
136.051468 16907.0 
136.221832 3849.0 
137.022354 10520.0 
137.059097 11915.0 
141.05423 26287.0 
146.035706 14614.0 
147.06813 3798.0 
149.058792 3893.0 
150.030685 6913.0 
150.067078 36775.0 
153.053574 5479.0 
154.025696 34542.0 
155.069962 160294.0 
155.084229 5492.0 
164.06987 36853.0 
165.05426 4833540.0 
179.055939 3573.0 
192.065048 147079.0 
193.072769 67096.0 
208.096344 1743301.0 
210.090988 19458.0 
212.070068 17430.0 
220.075241 43015.0 
221.938858 4143.0 
238.084259 23320.0 
256.096344 29607.0 
376.154907 15360.0 
394.1633 60806.0 
END IONS

BEGIN IONS
NAME=Tschimganidin CollisionEnergy:205060 M+2Na]
PRECURSOR_MZ=217.102
INCHI="InChI=1S/C23H32O5/c1-14(2)22-19(25)11-15(3)7-6-8-16(4)12-21(22)28-23(26)17-9-10-18(24)20(13-17)27-5/h8-11,13-14,19,21-22,24-25H,6-7,12H2,1-5H3/b15-11+,16-8?/t19-,21+,22-/m1/s1"
SMILES=COc1cc(C(=O)OC2CC(C)=CCCC(C)=CC(O)C2C(C)C)ccc1O
SPECTRUMID=CCMSLIB00010125795
66.304489 1924.0 
80.266243 2368.0 
92.377541 3325.0 
104.285988 2600.0 
126.375427 2134.0 
162.02626 2378.0 
168.953735 2227.0 
217.104492 723052.0 
END IONS

BEGIN IONS
NAME=2-methoxyethyl 5-hydroxy-1-[2-(3-methoxyphenoxy)ethyl]-2-methylbenzo[g]indole- 3-carboxylate CollisionEnergy:205060 M+formate
PRECURSOR_MZ=494.182
INCHI="InChI=1S/C26H27NO6/c1-17-24(26(29)33-14-13-30-2)22-16-23(28)20-9-4-5-10-21(20)25(22)27(17)11-12-32-19-8-6-7-18(15-19)31-3/h4-10,15-16,28H,11-14H2,1-3H3"
SMILES=COCCOC(=O)c1c(C)n(CCOc2cccc(OC)c2)c2c1cc(O)c1ccccc12
SPECTRUMID=CCMSLIB00010122880
90.24913 2747.0 
92.392693 2858.0 
101.857681 2819.0 
123.045448 3700.0 
124.876282 2677.0 
133.214493 2343.0 
147.16716 3018.0 
163.606323 2606.0 
181.170898 3115.0 
182.459015 2582.0 
194.061356 34532.0 
195.069 12341.0 
222.056229 3179.0 
238.051117 15446.0 
239.058746 4116.0 
266.082367 3654.0 
297.100891 47438.0 
388.326569 2460.0 
448.17688 43693.0 
END IONS

BEGIN IONS
NAME="N-(3,5-dimethoxyphenyl)-2-(9-methyl-6-oxohydropurin-8-ylthio)acetamide CollisionEnergy:205060" M-H
PRECURSOR_MZ=374.093
INCHI="InChI=1S/C16H17N5O4S/c1-21-14-13(15(23)18-8-17-14)20-16(21)26-7-12(22)19-9-4-10(24-2)6-11(5-9)25-3/h4-6,8H,7H2,1-3H3,(H,19,22)(H,17,18,23)"
SMILES=COc1cc(N=C(O)CSc2nc3c(O)ncnc3n2C)cc(OC)c1
SPECTRUMID=CCMSLIB00010121608
57.064369 2714.0 
57.97514 58549.0 
65.014137 3752.0 
65.998199 12917.0 
73.97213 2954.0 
79.029984 95164.0 
92.025307 6597.0 
92.402451 4364.0 
106.040993 44272.0 
122.03611 14647.0 
122.989037 3958.0 
134.023376 74271.0 
135.030563 3692.0 
137.005264 14258.0 
138.013046 85414.0 
147.030899 39574.0 
149.046753 783652.0 
152.028595 45674.0 
160.0392 4875.0 
161.011032 5360.0 
162.054977 4559.0 
165.041992 23808.0 
176.0354 28219.0 
177.067093 10810.0 
179.003159 311187.0 
180.011047 1361610.0 
181.018814 588868.0 
186.630661 3064.0 
193.018494 64122.0 
193.991714 49193.0 
195.034546 146650.0 
208.008133 5266.0 
209.014755 17146.0 
221.01387 96007.0 
221.037003 5768.0 
224.038498 120905.0 
269.055542 5367.0 
270.063232 5101.0 
284.078857 59258.0 
285.085999 17401.0 
300.109924 98756.0 
331.087341 5862.0 
374.092438 610573.0 
END IONS

BEGIN IONS
NAME=Capsaicin CollisionEnergy:102040 M+Na
PRECURSOR_MZ=328.188
INCHI="InChI=1S/C18H27NO3/c1-14(2)8-6-4-5-7-9-18(21)19-13-15-10-11-16(20)17(12-15)22-3/h6,8,10-12,14,20H,4-5,7,9,13H2,1-3H3,(H,19,21)/b8-6+"
SMILES=COc1cc(CN=C(O)CCCCC=CC(C)C)ccc1O
SPECTRUMID=CCMSLIB00010104714
52.518589 2758.0 
62.76873 2412.0 
67.616287 2547.0 
74.39785 3420.0 
88.183502 2833.0 
92.368591 3108.0 
98.983871 11270.0 
117.103363 2788.0 
118.645531 2898.0 
130.02037 2747.0 
143.417343 3018.0 
266.846375 3159.0 
328.187714 4705246.0 
END IONS

BEGIN IONS
NAME=N-(3-bromophenyl)-2-[2-oxo-4-(N-propylcarbamoyl)hydroquinolyl]acetamide CollisionEnergy:205060 M+Na
PRECURSOR_MZ=464.058
INCHI="InChI=1S/C21H20BrN3O3/c1-2-10-23-21(28)17-12-20(27)25(18-9-4-3-8-16(17)18)13-19(26)24-15-7-5-6-14(22)11-15/h3-9,11-12H,2,10,13H2,1H3,(H,23,28)(H,24,26)"
SMILES=CCCN=C(O)c1cc(=O)n(CC(O)=Nc2cccc(Br)c2)c2ccccc12
SPECTRUMID=CCMSLIB00010125485
76.160263 2368.0 
77.567757 2333.0 
91.054428 25648.0 
104.269417 3340.0 
130.108551 2231.0 
136.19223 2534.0 
210.351852 3839.0 
353.511902 2470.0 
428.019135 2501.0 
451.971619 2449.0 
463.549011 2705.0 
464.057587 242667.0 
END IONS

BEGIN IONS
NAME=hesperidin CollisionEnergy:205060 M+Na
PRECURSOR_MZ=633.179
INCHI="InChI=1S/C28H34O15/c1-10-21(32)23(34)25(36)27(40-10)39-9-19-22(33)24(35)26(37)28(43-19)41-12-6-14(30)20-15(31)8-17(42-18(20)7-12)11-3-4-16(38-2)13(29)5-11/h3-7,10,17,19,21-30,32-37H,8-9H2,1-2H3/t10-,17-,19+,21-,22+,23+,24-,25+,26+,27+,28+/m0/s1"
SMILES=COc1ccc(C2CC(=O)c3c(O)cc(OC4OC(COC5OC(C)C(O)C(O)C5O)C(O)C(O)C4O)cc3O2)cc1O
SPECTRUMID=CCMSLIB00010124715
55.505852 3455.0 
60.735039 3141.0 
66.746078 3787.0 
82.399834 4138.0 
87.120033 2763.0 
93.285698 4347.0 
107.634247 3257.0 
130.953598 3461.0 
175.001312 11047.0 
209.931595 5660.0 
325.068268 16154.0 
331.099548 73802.0 
337.054016 8130.0 
483.112854 15024.0 
487.117615 5968.0 
633.178162 4270124.0 
END IONS

BEGIN IONS
NAME=Butylidenephthalide CollisionEnergy:205060 M+H
PRECURSOR_MZ=189.091
INCHI="InChI=1S/C12H12O2/c1-2-3-8-11-9-6-4-5-7-10(9)12(13)14-11/h4-8H,2-3H2,1H3/b11-8-"
SMILES=CCCC=C1OC(=O)c2ccccc21
SPECTRUMID=CCMSLIB00010121876
55.01833 121595.0 
63.023609 8348.0 
64.76033 8730.0 
65.038979 64498.0 
67.054642 77294.0 
75.86985 7344.0 
77.039146 6477.0 
79.054459 64045.0 
82.386742 8449.0 
91.054329 1187045.0 
98.430939 6870.0 
101.277191 7089.0 
102.046448 14113.0 
103.054169 1069738.0 
105.033653 93232.0 
105.069893 497354.0 
107.049057 12451.0 
109.176064 6593.0 
115.054199 1378860.0 
115.43782 7110.0 
116.062141 86812.0 
117.069817 1745535.0 
119.049057 41588.0 
126.046402 8567.0 
127.05394 137184.0 
128.062027 7536022.0 
129.033554 132471.0 
129.069794 926373.0 
130.077652 418664.0 
131.048996 195781.0 
131.085373 14198.0 
133.02832 473598.0 
135.035065 7363.0 
135.043961 409235.0 
141.069855 395216.0 
142.041428 29303.0 
142.077896 122988.0 
143.0495 738983.0 
143.085541 4009660.0 
144.057419 27991.0 
145.064865 597763.0 
145.101151 793149.0 
147.043884 157306.0 
151.054077 15961.0 
152.062027 1529007.0 
153.069839 5519754.0 
153.596512 7559.0 
154.077774 24893.0 
155.060287 595157.0 
156.056931 44901.0 
157.064697 47376.0 
159.080902 13258.0 
160.051727 34981.0 
161.059479 9041.0 
161.095947 37979.0 
169.064545 158586.0 
170.072617 63183.0 
171.080383 9278516.0 
179.060776 38853.0 
181.075943 170860.0 
189.090897 7465244.0 
END IONS

