BEGIN IONS
NAME=FLAVANONE CollisionEnergy:205060 M+H
PRECURSOR_MZ=225.091
INCHI="InChI=1S/C15H12O2/c16-13-10-15(11-6-2-1-3-7-11)17-14-9-5-4-8-12(13)14/h1-9,15H,10H2"
SMILES=O=C1CC(c2ccccc2)Oc2ccccc21
SPECTRUMID=CCMSLIB00010118029
53.03915 4539.0 
53.81292 2904.0 
55.018341 7193.0 
55.290821 3327.0 
56.965431 2973.0 
57.999691 2551.0 
65.038979 193059.0 
67.330276 2667.0 
69.070343 3506.0 
69.317909 2512.0 
70.548721 2963.0 
79.054451 57165.0 
80.02597 3168.0 
86.697563 3367.0 
91.054382 76365.0 
93.033539 106789.0 
95.04921 87410.0 
98.036217 25328.0 
101.949883 4781.0 
103.054169 642072.0 
104.264008 3818.0 
105.033432 76811.0 
105.069733 39101.0 
107.04921 48750.0 
108.020477 2665.0 
111.044144 41723.0 
119.049408 46547.0 
121.028412 3207008.0 
129.033691 5062.0 
131.049149 746061.0 
139.038834 26159.0 
141.069519 4514.0 
147.044037 337229.0 
153.070175 3961.0 
154.077957 4189.0 
155.085342 14517.0 
156.975082 12107.0 
165.069794 19342.0 
166.06517 34617.0 
178.077667 205914.0 
178.957214 4928.0 
178.976913 14772.0 
179.085434 530424.0 
181.065079 29250.0 
182.070236 26371.0 
183.07869 13092.0 
183.092163 18911.0 
197.096085 28126.0 
201.972748 12099.0 
201.993454 8778.0 
207.080292 221769.0 
210.067398 576223.0 
225.090897 1970846.0 
225.139359 54730.0 
227.03978 3651.0 
END IONS

BEGIN IONS
NAME="7-[(6-chloro-2-fluorophenyl)methyl]-8-[(4-ethylpiperazinyl)methyl]-3-methyl-1, 3,7-trihydropurine-2,6-dione CollisionEnergy:205060" M+H
PRECURSOR_MZ=435.171
INCHI="InChI=1S/C20H24ClFN6O2/c1-3-26-7-9-27(10-8-26)12-16-23-18-17(19(29)24-20(30)25(18)2)28(16)11-13-14(21)5-4-6-15(13)22/h4-6H,3,7-12H2,1-2H3,(H,24,29,30)"
SMILES=CCN1CCN(Cc2nc3c(c(O)nc(=O)n3C)n2Cc2c(F)cccc2Cl)CC1
SPECTRUMID=CCMSLIB00010119406
56.049931 57777.0 
58.065632 85786.0 
66.654442 3453.0 
70.065514 697220.0 
72.081177 70751.0 
82.388847 4621.0 
83.029282 8540.0 
84.06855 23108.0 
84.081009 868008.0 
86.096703 6858.0 
90.757828 3878.0 
97.044441 4397.0 
97.076103 18849.0 
98.083809 122300.0 
99.09156 18803.0 
107.028999 75322.0 
108.036919 20902.0 
112.099579 70581.0 
113.107246 400466.0 
115.122841 23863.0 
116.990288 9038.0 
125.107246 5800.0 
127.122917 998818.0 
130.217148 4028.0 
142.563095 9323.0 
143.005829 13995364.0 
143.450897 9049.0 
148.055923 47444.0 
184.032181 137043.0 
189.082153 26230.0 
214.077637 24775.0 
215.084427 7285.0 
230.050003 5209.0 
242.072739 20885.0 
243.079514 8347.0 
250.052917 70157.0 
285.040894 5221.0 
285.07782 520399.0 
286.085541 603481.0 
296.058655 58960.0 
318.073212 9266.0 
321.054291 2500445.0 
334.753082 5239.0 
339.064911 57759.0 
435.16983 3559332.0 
END IONS

BEGIN IONS
NAME=N-(3-fluorophenyl)-2-[2-oxo-4-(N-propylcarbamoyl)hydroquinolyl]acetamide CollisionEnergy:205060 M-H
PRECURSOR_MZ=380.142
INCHI="InChI=1S/C21H20FN3O3/c1-2-10-23-21(28)17-12-20(27)25(18-9-4-3-8-16(17)18)13-19(26)24-15-7-5-6-14(22)11-15/h3-9,11-12H,2,10,13H2,1H3,(H,23,28)(H,24,26)"
SMILES=CCCN=C(O)c1cc(=O)n(CC(O)=Nc2cccc(F)c2)c2ccccc12
SPECTRUMID=CCMSLIB00010121952
59.0135 35301.0 
80.050346 5446.0 
86.060822 22200.0 
90.03492 24005.0 
92.050377 39246.0 
92.379387 5724.0 
100.07679 41641.0 
102.03521 5871.0 
110.041153 637256.0 
115.055397 68100.0 
116.050529 328238.0 
128.050552 1437544.0 
130.066147 1232306.0 
131.037628 18077.0 
132.045349 37100.0 
132.081802 5036.0 
136.020493 3527.0 
136.211441 3626.0 
141.045105 4223.0 
142.018372 4327.0 
142.029602 31982.0 
142.066132 68246.0 
143.061661 32161.0 
144.04541 1288687.0 
144.080002 34894.0 
146.024948 19434.0 
146.061035 51164.0 
147.045166 14609.0 
150.036148 16743.0 
152.051315 16477.0 
156.0457 145923.0 
156.068817 99637.0 
156.082886 5496.0 
157.054581 27247.0 
157.07695 114154.0 
158.048233 426208.0 
158.061218 970154.0 
159.032822 4736.0 
160.040344 260718.0 
160.077042 13073.0 
167.061554 21983.0 
169.07695 24279.0 
172.040329 285779.0 
174.055862 104281.0 
176.071564 237882.0 
182.048416 54634.0 
183.032532 6037.0 
183.056198 21802.0 
183.092529 30706.0 
184.040207 281503.0 
186.056396 4702.0 
188.034424 3984.0 
195.092346 38973.0 
197.10817 127338.0 
199.123978 491088.0 
200.03595 5765.0 
200.108307 5757.0 
201.103271 252107.0 
202.050842 226654.0 
208.479492 6442.0 
208.501633 14909.0 
213.103287 406644.0 
214.087097 22474.0 
215.118744 73510.0 
225.103012 15554.0 
227.081375 6522.0 
228.029922 13034.0 
229.098007 677627.0 
231.114456 24064.0 
243.113785 211550.0 
245.093002 249609.0 
269.093048 347133.0 
275.10376 250826.0 
287.102936 17127.0 
295.088562 1317800.0 
303.248169 5260.0 
339.078186 15828.0 
380.141418 2499921.0 
END IONS

BEGIN IONS
NAME=lumichrome CollisionEnergy:205060 M+H
PRECURSOR_MZ=243.088
INCHI="InChI=1S/C12H10N4O2/c1-5-3-7-8(4-6(5)2)14-10-9(13-7)11(17)16-12(18)15-10/h3-4H,1-2H3,(H2,14,15,16,17,18)"
SMILES=Cc1cc2nc3nc(O)nc(O)c3nc2cc1C
SPECTRUMID=CCMSLIB00010117148
50.22123 327828.0 
50.92976 336474.0 
60.189911 448645.0 
69.217102 333506.0 
91.054497 433216.0 
103.054558 1444107.0 
116.04966 389414.0 
118.065247 1575580.0 
130.065079 2738781.0 
136.211456 399957.0 
136.798721 379907.0 
145.075775 11601768.0 
157.063095 2138442.0 
157.075882 594494.0 
170.071136 10957910.0 
172.0867 103574184.0 
174.101852 609372.0 
190.097427 3077038.0 
192.371521 357885.0 
197.082657 748791.0 
198.065903 44166748.0 
199.098068 798845.0 
200.081635 9990185.0 
212.755264 374783.0 
216.076538 70699640.0 
218.092087 803284.0 
225.076874 845093.0 
243.08728 170141088.0 
244.071487 2130256.0 
END IONS

BEGIN IONS
NAME=3-{3-[(3-chlorophenyl)amino]propanoyl}chromen-2-one CollisionEnergy:205060 M+H-H2O
PRECURSOR_MZ=310.063
INCHI="InChI=1S/C18H14ClNO3/c19-13-5-3-6-14(11-13)20-9-8-16(21)15-10-12-4-1-2-7-17(12)23-18(15)22/h1-7,10-11,20H,8-9H2"
SMILES=O=C(CCNc1cccc(Cl)c1)c1cc2ccccc2oc1=O
SPECTRUMID=CCMSLIB00010117427
51.023602 2918.0 
51.223129 2795.0 
53.03912 4018.0 
70.165421 2622.0 
73.947403 2830.0 
79.054222 16168.0 
91.054237 43412.0 
92.623413 2533.0 
102.046951 3123.0 
103.054131 144069.0 
107.041298 5320.0 
107.049026 119077.0 
115.054123 109721.0 
117.070419 4485.0 
118.650223 3488.0 
127.018082 3678.0 
128.049866 6352.0 
130.065125 16445.0 
131.049332 33579.0 
131.764343 2875.0 
133.029526 3420.0 
137.014877 18326.0 
138.010162 19836.0 
140.02565 38090.0 
145.064514 5207.0 
147.043884 127844.0 
148.919144 2788.0 
154.065628 5194.0 
155.048767 85135.0 
159.043655 111938.0 
164.025909 891935.0 
166.004837 4010.0 
169.051788 13706.0 
173.059174 23583.0 
182.059402 5724.0 
183.043991 38249.0 
188.025909 160037.0 
188.045319 5750.0 
190.004364 5001.0 
202.077942 13914.0 
203.084671 6502.0 
204.020844 113568.0 
204.080658 4380.0 
206.037506 5389.0 
216.020844 247349.0 
217.028824 39144.0 
217.088745 30957.0 
218.095612 34313.0 
219.081558 8730.0 
219.103699 17346.0 
227.073059 4553.0 
228.079712 23182.0 
229.088409 46477.0 
230.097122 25685.0 
231.079742 6035.0 
232.075958 3378.0 
244.075165 149780.0 
245.083008 171434.0 
246.090866 210417.0 
247.073318 5411.0 
247.098953 52391.0 
254.073135 4443.0 
256.07486 6417.0 
257.08432 32207.0 
258.06601 12214.0 
258.092346 38002.0 
260.069672 13157.0 
261.077515 4920.0 
263.905518 3519.0 
264.056793 81933.0 
267.044006 6388.0 
272.069977 57979.0 
273.077942 198580.0 
274.085663 1171636.0 
275.093506 160657.0 
280.052673 6257.0 
282.030487 17865.0 
282.066956 44065.0 
286.91864 4177.0 
292.052795 18979.0 
295.039734 4737.0 
308.046112 65967.0 
310.062164 1093209.0 
END IONS

BEGIN IONS
NAME=methyl 4-{N-[2-(5-methoxy-2-methylindol-3-yl)ethyl]carbamoyl}benzoate CollisionEnergy:102040 M+Na
PRECURSOR_MZ=389.147
INCHI="InChI=1S/C21H22N2O4/c1-13-17(18-12-16(26-2)8-9-19(18)23-13)10-11-22-20(24)14-4-6-15(7-5-14)21(25)27-3/h4-9,12,23H,10-11H2,1-3H3,(H,22,24)"
SMILES=COC(=O)c1ccc(C(=O)NCCc2c(C)[nH]c3ccc(OC)cc23)cc1
SPECTRUMID=CCMSLIB00010109490
68.940224 2871.0 
88.440247 2800.0 
93.664253 3167.0 
104.297897 2859.0 
131.82428 2686.0 
159.477448 3011.0 
201.491058 2973.0 
209.313583 5644.0 
323.795685 3288.0 
330.136902 5265.0 
374.123383 14227.0 
387.168365 4339.0 
389.146637 5886453.0 
391.138947 4995.0 
396.167145 3043.0 
END IONS

BEGIN IONS
NAME=ethyl 1-[2-(2-chlorophenoxy)ethyl]-5-hydroxy-2-methylindole-3-carboxylate CollisionEnergy:205060 M+H
PRECURSOR_MZ=374.115
INCHI="InChI=1S/C20H20ClNO4/c1-3-25-20(24)19-13(2)22(17-9-8-14(23)12-15(17)19)10-11-26-18-7-5-4-6-16(18)21/h4-9,12,23H,3,10-11H2,1-2H3"
SMILES=CCOC(=O)c1c(C)n(CCOc2ccccc2Cl)c2ccc(O)cc12
SPECTRUMID=CCMSLIB00010121558
51.750401 3334.0 
63.514 3030.0 
79.054459 2988.0 
91.054413 50520.0 
103.054169 6999.0 
105.069862 16771.0 
107.049438 6327.0 
115.054878 3367.0 
117.057533 13368.0 
117.069359 4490.0 
118.06488 6934.0 
118.644852 2906.0 
119.048927 5557.0 
120.05722 23719.0 
120.080994 4025.0 
125.014687 4317.0 
127.031273 12012.0 
128.061234 6242.0 
129.069946 35123.0 
130.065231 21526.0 
131.049149 13387.0 
131.073074 134985.0 
132.080688 27907.0 
133.052322 76305.0 
133.063416 7186.0 
133.088974 4356.0 
134.05954 5542.0 
139.056412 3012.0 
144.044556 3218.0 
144.080643 26339.0 
145.05246 49307.0 
145.064102 7850.0 
145.088531 23186.0 
146.060181 99001.0 
146.096405 204356.0 
147.067886 180905.0 
148.075073 27610.0 
153.010025 4639.0 
155.025482 35921.0 
156.080856 23077.0 
157.088638 3891.0 
158.060104 44390.0 
158.095963 3533.0 
159.067856 117441.0 
159.10405 10915.0 
160.075668 966030.0 
162.054382 5319.0 
172.039536 3924.0 
172.075684 101988.0 
173.047211 698548.0 
173.083389 461927.0 
174.055435 37000.0 
174.091324 447381.0 
175.063004 28030.0 
175.09903 87474.0 
176.070801 10791.0 
186.054825 53699.0 
186.090927 3610.0 
187.098846 18610.0 
188.070526 5984.0 
188.106628 58687.0 
200.070709 119414.0 
201.0784 163128.0 
202.122559 63971.0 
203.130173 5139.0 
204.065613 72489.0 
217.073273 3694.0 
218.081131 42780.0 
234.091507 5331.0 
246.112381 32267.0 
249.116043 3689.0 
287.224365 3610.0 
301.085388 60007.0 
302.093842 139541.0 
328.073059 849378.0 
330.125519 90056.0 
346.083679 63753.0 
374.11496 1040202.0 
END IONS

BEGIN IONS
NAME=D-Sorbitol CollisionEnergy:102040 M-H
PRECURSOR_MZ=181.072
INCHI="InChI=1S/C6H14O6/c7-1-3(9)5(11)6(12)4(10)2-8/h3-12H,1-2H2/t3-,4+,5-,6-/m1/s1"
SMILES=OC[C@H](O)[C@@H](O)[C@H](O)[C@H](O)CO
SPECTRUMID=CCMSLIB00010102811
57.034199 18333.400391 
58.005501 83497.101562 
59.013302 867563.0 
69.034103 28624.800781 
71.013496 1588180.0 
72.992599 90301.101562 
73.029099 566430.0 
75.008301 19303.300781 
83.013603 89529.796875 
85.029297 320918.0 
87.008499 100351.0 
89.0242 1876480.0 
89.860001 17859.199219 
90.038696 16108.900391 
91.0401 28472.400391 
97.029297 136765.0 
101.024002 1695190.0 
104.321999 26315.300781 
113.024002 230452.0 
115.040001 140083.0 
119.035004 387591.0 
121.051003 29198.099609 
131.035004 105799.0 
142.563995 18691.199219 
149.044998 74492.5 
161.046005 35697.800781 
163.061005 213176.0 
181.072006 2797110.0 
END IONS

BEGIN IONS
NAME=dinoprost CollisionEnergy:102040 M+H-H2O
PRECURSOR_MZ=337.237
INCHI="InChI=1S/C20H34O5/c1-2-3-6-9-15(21)12-13-17-16(18(22)14-19(17)23)10-7-4-5-8-11-20(24)25/h4,7,12-13,15-19,21-23H,2-3,5-6,8-11,14H2,1H3,(H,24,25)/b7-4-,13-12+/t15-,16+,17+,18-,19+/m0/s1"
SMILES=CCCCCC(O)C=CC1C(O)CC(O)C1CC=CCCCC(=O)O
SPECTRUMID=CCMSLIB00010110522
54.704159 2594.0 
55.05481 13767.0 
57.07032 28963.0 
59.049622 6064.0 
65.169144 2838.0 
66.743668 2635.0 
67.054611 47911.0 
69.070297 17215.0 
71.049553 4143.0 
71.085876 5379.0 
79.054482 35571.0 
81.070007 41416.0 
83.049469 6060.0 
83.085907 5609.0 
85.065193 4075.0 
85.10141 24308.0 
87.044189 81470.0 
91.054314 33219.0 
93.069893 33249.0 
93.295563 2812.0 
95.085411 37936.0 
97.064552 13035.0 
97.101097 11155.0 
99.043777 5834.0 
99.080467 3942.0 
99.27301 3228.0 
101.059723 5538.0 
105.069717 34160.0 
107.085648 21881.0 
109.064163 4209.0 
109.101044 13630.0 
111.043747 3710.0 
113.096046 17395.0 
115.038872 78378.0 
117.069839 38426.0 
119.085274 37194.0 
121.065018 5411.0 
121.100899 41965.0 
123.116447 20347.0 
125.059593 5064.0 
127.111687 3877.0 
129.069824 27076.0 
131.085403 44967.0 
133.049377 3965.0 
133.064545 12245.0 
133.101105 35166.0 
135.080688 4863.0 
135.116898 21695.0 
137.132309 10558.0 
141.069687 4145.0 
143.085175 33354.0 
145.101135 38594.0 
147.080338 17534.0 
147.116867 29739.0 
149.096222 15049.0 
149.132507 15252.0 
155.085098 6530.0 
157.101074 43055.0 
159.0793 3902.0 
159.116455 22939.0 
161.095673 25016.0 
161.131958 14930.0 
163.111771 3928.0 
163.147812 6761.0 
167.085922 6727.0 
167.10585 5706.0 
169.101807 23011.0 
171.116608 57937.0 
173.095963 14707.0 
173.132339 22470.0 
175.076111 3076.0 
175.111725 33791.0 
175.147858 19113.0 
177.091629 3601.0 
179.106781 5466.0 
181.101135 10547.0 
181.121597 4435.0 
183.116821 11444.0 
185.096313 36271.0 
185.132568 25246.0 
187.111908 49302.0 
187.147797 19767.0 
189.127182 19305.0 
189.163116 13015.0 
191.106186 13285.0 
191.14209 4541.0 
193.121475 5526.0 
195.11734 4690.0 
195.137863 3118.0 
199.111359 34265.0 
199.147766 13039.0 
201.126862 16596.0 
201.163254 5616.0 
203.106827 35035.0 
203.142181 12226.0 
203.179184 28324.0 
205.121979 59448.0 
205.195114 26495.0 
207.137192 6891.0 
209.13205 11618.0 
213.126373 12997.0 
213.164124 12548.0 
215.143616 4780.0 
215.178131 11552.0 
217.12291 22704.0 
217.15715 19186.0 
219.138626 23058.0 
219.173355 4530.0 
221.115677 5559.0 
221.152573 3745.0 
223.168808 6467.0 
227.142303 10501.0 
227.177643 4170.0 
229.194733 16873.0 
231.137589 16606.0 
231.210068 4510.0 
235.168915 13277.0 
239.179001 18220.0 
241.170502 2591.0 
241.195404 35604.0 
245.154449 4102.0 
245.187988 3672.0 
247.204895 17598.0 
255.177383 6471.0 
255.209717 39185.0 
257.189819 55868.0 
259.173035 7108.0 
259.20517 56830.0 
263.199493 26385.0 
265.192291 19706.0 
265.219055 83393.0 
271.203644 3059.0 
273.188416 5288.0 
273.220734 45666.0 
275.200378 47130.0 
277.215118 47095.0 
283.204926 165523.0 
291.231171 34268.0 
293.210236 12210.0 
301.215454 681610.0 
319.225922 416266.0 
329.065765 3656.0 
337.236267 480637.0 
356.454163 2756.0 
END IONS

BEGIN IONS
NAME="4-({4-[(2,4-dimethoxyphenyl)carbonyl]piperazinyl}methyl)-7-methylchromen-2-one CollisionEnergy:205060" M+Na
PRECURSOR_MZ=445.173
INCHI="InChI=1S/C24H26N2O5/c1-16-4-6-19-17(13-23(27)31-22(19)12-16)15-25-8-10-26(11-9-25)24(28)20-7-5-18(29-2)14-21(20)30-3/h4-7,12-14H,8-11,15H2,1-3H3"
SMILES=COc1ccc(C(=O)N2CCN(Cc3cc(=O)oc4cc(C)ccc34)CC2)c(OC)c1
SPECTRUMID=CCMSLIB00010118820
50.15229 2412.0 
59.39661 2575.0 
73.955269 3053.0 
74.569107 2460.0 
187.289627 2432.0 
206.767365 2496.0 
257.720245 2531.0 
271.105988 3407.0 
445.172791 1880369.0 
END IONS

BEGIN IONS
NAME=Methylthioadenosine CollisionEnergy:205060 M-H
PRECURSOR_MZ=296.082
INCHI="InChI=1S/C11H15N5O3S/c1-20-2-5-7(17)8(18)11(19-5)16-4-15-6-9(12)13-3-14-10(6)16/h3-5,7-8,11,17-18H,2H2,1H3,(H2,12,13,14)/t5-,7-,8-,11-/m1/s1"
SMILES=CSCC1OC(n2cnc3c(N)ncnc32)C(O)C1O
SPECTRUMID=CCMSLIB00010119654
51.126438 2085.0 
73.958183 2531.0 
86.174217 2838.0 
92.025391 63587.0 
92.380791 2595.0 
107.03627 181722.0 
107.675308 2475.0 
134.047241 2990801.0 
148.062485 3009.0 
176.257568 3136.0 
217.046967 2364.0 
239.065933 2625.0 
280.761078 2359.0 
296.082306 253502.0 
END IONS

BEGIN IONS
NAME="3-(3,4-Dimethoxyphenyl)-7-hydroxy-4-phenylcoumarin CollisionEnergy:205060" M+H
PRECURSOR_MZ=375.123
INCHI="InChI=1S/C23H18O5/c1-26-18-11-8-15(12-20(18)27-2)22-21(14-6-4-3-5-7-14)17-10-9-16(24)13-19(17)28-23(22)25/h3-13,24H,1-2H3"
SMILES=COc1ccc(-c2c(-c3ccccc3)c3ccc(O)cc3oc2=O)cc1OC
SPECTRUMID=CCMSLIB00010119509
53.039108 39814.0 
55.018311 279321.0 
65.039017 99831.0 
68.997353 206053.0 
75.044373 82550.0 
78.057022 20606.0 
79.054703 104814.0 
81.033791 40527.0 
91.054337 2190335.0 
95.012497 19611.0 
95.049263 91942.0 
105.033386 411689.0 
107.049057 2775342.0 
111.044006 26312.0 
115.054176 72754.0 
121.028252 241823.0 
121.064453 30913.0 
122.035843 36348.0 
123.043617 239011.0 
127.171272 18131.0 
129.070053 25723.0 
131.04924 37415.0 
135.043991 24086.0 
137.023178 687361.0 
137.059662 107478.0 
138.067108 25700.0 
141.069717 45956.0 
149.022324 159982.0 
151.039368 35095.0 
152.061462 216120.0 
153.069672 1335637.0 
154.077332 38257.0 
155.049362 26418.0 
155.085876 42736.0 
157.06398 26605.0 
161.024368 22991.0 
163.038773 90858.0 
165.05452 380204.0 
165.069916 891883.0 
166.07724 33540.0 
167.085251 179559.0 
168.056091 38851.0 
169.065109 78498.0 
170.072449 82056.0 
171.080338 38988.0 
177.070175 28898.0 
178.078293 95746.0 
179.085831 40121.0 
180.057251 46259.0 
181.06459 3418160.0 
182.07251 662771.0 
183.080124 356436.0 
185.095139 31514.0 
191.085861 35335.0 
193.064484 482501.0 
194.072342 257716.0 
195.07991 310934.0 
196.051865 95689.0 
197.059387 862373.0 
198.067596 348150.0 
199.035065 24348.0 
199.074829 435448.0 
202.07695 200895.0 
203.085129 165118.0 
205.064606 28625.0 
205.100937 41245.0 
207.079956 121062.0 
208.989334 40813.0 
209.059479 463237.0 
209.095581 36253.0 
210.067062 569682.0 
210.087875 33341.0 
211.0755 372804.0 
212.048309 34431.0 
213.054764 55570.0 
213.090729 1843321.0 
215.085144 427909.0 
216.09314 108994.0 
217.100571 207003.0 
218.073212 46615.0 
219.080551 161479.0 
221.059738 216768.0 
222.067383 82306.0 
223.038208 79466.0 
223.075974 194155.0 
224.082352 80134.0 
225.054016 253136.0 
225.09079 799607.0 
225.114822 39730.0 
226.060089 128943.0 
226.082855 195537.0 
227.069794 480274.0 
227.08905 160534.0 
228.093323 262848.0 
229.101349 349676.0 
230.072571 35349.0 
231.080383 558149.0 
232.087387 42437.0 
233.095551 275456.0 
234.067795 123689.0 
237.05426 508388.0 
237.091904 28460.0 
238.062073 48136.0 
238.100494 24852.0 
239.086853 744185.0 
240.093414 166762.0 
241.085037 422750.0 
241.103897 241969.0 
242.072556 79952.0 
243.080475 351113.0 
244.087875 1001463.0 
245.095657 1246427.0 
246.103378 108439.0 
247.075089 432033.0 
247.108383 46349.0 
248.083328 30512.0 
249.055023 317208.0 
249.085327 39990.0 
250.078537 39429.0 
251.067245 76466.0 
251.088776 78965.0 
252.093185 164233.0 
253.049591 40625.0 
253.082855 86079.0 
253.104126 40432.0 
255.080795 2534604.0 
256.087952 696280.0 
257.095642 2396045.0 
258.068024 170302.0 
258.103699 334157.0 
259.075531 176148.0 
259.111572 216762.0 
260.082947 136812.0 
261.05896 49386.0 
261.090393 1310855.0 
262.062683 84212.0 
262.098877 101704.0 
263.10556 104612.0 
265.048798 337591.0 
266.068542 24724.0 
267.079071 209405.0 
268.087769 650720.0 
269.095459 1527206.0 
270.068787 26332.0 
270.103912 133452.0 
271.075073 4054184.0 
272.082367 1096426.0 
272.111725 37215.0 
273.090515 3429268.0 
274.061737 170855.0 
274.09845 113899.0 
275.070007 267472.0 
275.106293 888732.0 
276.079407 29274.0 
276.113068 82744.0 
277.121521 163084.0 
279.092255 179303.0 
281.095734 115507.0 
282.067261 39744.0 
282.103424 41808.0 
283.078156 912950.0 
284.082703 1779751.0 
285.090546 2934424.0 
286.062195 83569.0 
286.097565 728916.0 
287.070038 535878.0 
287.106415 1291881.0 
288.077423 163213.0 
288.114349 394893.0 
289.085266 2730158.0 
290.09259 189298.0 
291.101776 23685.0 
295.07547 25368.0 
296.082886 92829.0 
297.090363 1205445.0 
298.063782 34158.0 
298.097046 198317.0 
299.070374 2534868.0 
299.105957 419208.0 
300.077545 1291171.0 
300.114319 378960.0 
301.085297 4001402.0 
302.057587 38684.0 
302.093262 243796.0 
303.064728 54128.0 
303.100464 996052.0 
304.109406 325164.0 
305.119507 31743.0 
311.070801 49410.0 
312.077942 49330.0 
313.042603 40253.0 
313.085114 2112116.0 
314.093109 3691491.0 
315.064117 240124.0 
315.101227 778939.0 
316.108795 5214991.0 
317.0802 1732607.0 
319.132233 3453393.0 
325.08493 242429.0 
327.064331 729328.0 
327.101135 87634.0 
328.072021 916802.0 
329.079956 539640.0 
331.096069 1057691.0 
332.103577 5667365.0 
341.080048 606327.0 
342.088776 91017.0 
343.095734 1785833.0 
344.06366 220586.0 
344.104095 89148.0 
345.074402 275707.0 
347.127686 399190.0 
359.090576 1262702.0 
360.098602 834879.0 
365.754425 22196.0 
373.241821 34195.0 
375.122009 53012632.0 
377.018311 31880.0 
END IONS

BEGIN IONS
NAME="(2-methoxycyclohexyl)[(3,4,5-trimethoxyphenyl)methyl]amine CollisionEnergy:205060" M+Na
PRECURSOR_MZ=332.183
INCHI="InChI=1S/C17H27NO4/c1-19-14-8-6-5-7-13(14)18-11-12-9-15(20-2)17(22-4)16(10-12)21-3/h9-10,13-14,18H,5-8,11H2,1-4H3"
SMILES=COc1cc(CNC2CCCCC2OC)cc(OC)c1OC
SPECTRUMID=CCMSLIB00010115298
68.382874 2183.0 
82.388321 2579.0 
84.959702 4129.0 
92.369583 2127.0 
95.851936 1984.0 
218.868301 4053.0 
332.183197 412510.0 
350.194946 2730.0 
END IONS

BEGIN IONS
NAME=azelaic acid CollisionEnergy:205060 M+H
PRECURSOR_MZ=189.112
INCHI="InChI=1S/C9H16O4/c10-8(11)6-4-2-1-3-5-7-9(12)13/h1-7H2,(H,10,11)(H,12,13)"
SMILES=O=C(O)CCCCCCCC(=O)O
SPECTRUMID=CCMSLIB00010118560
53.482639 9741.0 
55.01862 9494.0 
55.054981 257992.0 
56.938568 8390.0 
58.863201 9117.0 
66.730927 10718.0 
67.055008 22476.0 
69.034317 15506.0 
69.070686 39011.0 
79.054832 57746.0 
81.070488 58605.0 
83.086197 158662.0 
93.070877 13077.0 
97.101547 236421.0 
103.833473 9796.0 
104.265251 12043.0 
107.085579 71511.0 
125.096283 210593.0 
135.080597 13343.0 
189.112274 115732.0 
END IONS

BEGIN IONS
NAME="3-[2-(3,4-dimethoxyphenyl)-2-oxoethyl]-3-hydroxyindolin-2-one CollisionEnergy:102040" M+Na
PRECURSOR_MZ=350.1
INCHI="InChI=1S/C18H17NO5/c1-23-15-8-7-11(9-16(15)24-2)14(20)10-18(22)12-5-3-4-6-13(12)19-17(18)21/h3-9,22H,10H2,1-2H3,(H,19,21)"
SMILES=COc1ccc(C(=O)CC2(O)C(O)=Nc3ccccc32)cc1OC
SPECTRUMID=CCMSLIB00010110813
60.955509 2632.0 
62.100159 2862.0 
64.806671 2869.0 
76.977043 3087.0 
165.05452 12417.0 
170.021194 4394570.0 
188.032333 27889.0 
203.067734 75643.0 
211.047211 36408.0 
215.293762 3737.0 
350.099426 3338769.0 
END IONS

BEGIN IONS
NAME="17-{[(6-azabicyclo[4.4.0]dec-2-yl)methyl]oxycarbonyl}-1,2,6,6,10,17,20-heptame thyl-12-oxopentacyclo[12.8.0.0<2,11>.0<5,10>.0<15,20>]docos-13-en-7-yl acetate CollisionEnergy:102040" M+Na
PRECURSOR_MZ=686.475
INCHI="InChI=1S/C42H65NO5/c1-27(44)48-34-15-16-40(6)33(37(34,2)3)14-17-42(8)35(40)32(45)24-29-30-25-39(5,19-18-38(30,4)20-21-41(29,42)7)36(46)47-26-28-12-11-23-43-22-10-9-13-31(28)43/h24,28,30-31,33-35H,9-23,25-26H2,1-8H3"
SMILES=CC(=O)OC1CCC2(C)C(CCC3(C)C2C(=O)C=C2C4CC(C)(C(=O)OCC5CCCN6CCCCC56)CCC4(C)CCC23C)C1(C)C
SPECTRUMID=CCMSLIB00010106253
60.473759 3052.0 
120.875237 2713.0 
143.583176 3341.0 
151.296768 2749.0 
152.143433 76697.0 
315.40448 3204.0 
328.777527 3565.0 
577.204895 3122.0 
604.471252 28761.0 
626.454102 88467.0 
686.475342 1837810.0 
END IONS

BEGIN IONS
NAME=Pinocembrine CollisionEnergy:205060 M+H
PRECURSOR_MZ=257.081
INCHI="InChI=1S/C15H12O4/c16-10-6-11(17)15-12(18)8-13(19-14(15)7-10)9-4-2-1-3-5-9/h1-7,13,16-17H,8H2/t13-/m1/s1"
SMILES=O=C1CC(c2ccccc2)Oc2cc(O)cc(O)c21
SPECTRUMID=CCMSLIB00010116989
55.018311 3114.0 
57.691589 2833.0 
59.376831 2777.0 
67.018219 116106.0 
67.022072 6002.0 
68.997437 68345.0 
69.001427 3905.0 
69.033821 56152.0 
69.909416 3270.0 
77.038948 7468.0 
79.017998 3776.0 
79.054497 162167.0 
81.033318 10639.0 
83.013008 14947.0 
85.027893 2905.0 
91.054337 137352.0 
91.060791 5549.0 
94.132446 3058.0 
95.049049 16676.0 
97.028198 31562.0 
102.046257 3258.0 
103.054161 1223580.0 
105.033577 24473.0 
105.069946 19861.0 
107.049019 152217.0 
110.467216 3691.0 
111.007713 29814.0 
117.069847 17754.0 
123.04406 78700.0 
125.022797 5380.0 
127.039047 7697.0 
129.017761 5589.0 
131.049149 2043568.0 
132.33345 3437.0 
141.069351 11317.0 
145.064407 39041.0 
147.080139 16329.0 
151.038834 116195.0 
153.018173 4933751.0 
165.069809 6040.0 
166.025452 4202.0 
169.064636 6928.0 
171.028915 65976.0 
173.059677 115333.0 
179.033676 55288.0 
191.070374 23030.0 
208.589432 3079.0 
215.070389 47892.0 
239.069794 32625.0 
257.080475 4115564.0 
260.224823 3359.0 
END IONS

BEGIN IONS
NAME="1-(2H-benzo[3,4-d]1,3-dioxolen-5-yl)-3-[(4-propoxyphenyl)amino]propan-1-one CollisionEnergy:205060" M+H
PRECURSOR_MZ=328.154
INCHI="InChI=1S/C19H21NO4/c1-2-11-22-16-6-4-15(5-7-16)20-10-9-17(21)14-3-8-18-19(12-14)24-13-23-18/h3-8,12,20H,2,9-11,13H2,1H3"
SMILES=CCCOc1ccc(NCCC(=O)c2ccc3c(c2)OCO3)cc1
SPECTRUMID=CCMSLIB00010123955
50.595291 2543.0 
53.039108 2918.0 
62.98193 3129.0 
65.038773 3137.0 
79.170013 3009.0 
84.959213 2906.0 
92.36467 3194.0 
94.041344 55750.0 
94.064949 10888.0 
95.049248 29534.0 
97.715187 2592.0 
104.274193 2591.0 
113.428307 2621.0 
120.044563 9770.0 
121.052223 3057.0 
122.059898 1358916.0 
123.063026 14633.0 
149.022842 5365.0 
164.106827 2167298.0 
165.052399 4948.0 
165.110931 19584.0 
200.537079 2764.0 
269.854126 3039.0 
290.21936 2640.0 
328.148254 58394.0 
END IONS

BEGIN IONS
NAME="(15S,17S,2R,14R)-17-hydroxy-14-(2-hydroxyacetyl)-2,15-dimethyl-5-oxotetracyclo [8.7.0.0<2,7>.0<11,15>]heptadec-6-en-14-yl acetate CollisionEnergy:102040" M+H
PRECURSOR_MZ=405.227
INCHI="InChI=1S/C23H32O6/c1-13(25)29-23(19(28)12-24)9-7-17-16-5-4-14-10-15(26)6-8-21(14,2)20(16)18(27)11-22(17,23)3/h10,16-18,20,24,27H,4-9,11-12H2,1-3H3/t16?,17?,18-,20?,21-,22-,23-/m0/s1"
SMILES=CC(=O)OC1(C(=O)CO)CCC2C3CCC4=CC(=O)CCC4(C)C3C(O)CC21C
SPECTRUMID=CCMSLIB00010109395
61.028831 4542.0 
67.054604 8542.0 
79.05439 15644.0 
81.070068 31228.0 
83.049332 34915.0 
91.04834 5433.0 
91.054337 97413.0 
93.07003 46906.0 
95.085564 43604.0 
97.064827 120902.0 
99.04409 5184.0 
105.069893 40476.0 
107.085442 41574.0 
109.039421 20650.0 
109.064758 52243.0 
109.100998 7582.0 
111.08033 15914.0 
117.06987 16729.0 
118.709908 3117.0 
119.085533 56753.0 
119.273399 3363.0 
119.657356 3320.0 
121.064728 1190916.0 
121.101051 22059.0 
123.080353 121459.0 
129.069427 26178.0 
131.085388 52661.0 
133.064163 13966.0 
133.100998 38694.0 
135.080185 81950.0 
135.116379 21108.0 
137.095398 27183.0 
141.069687 48108.0 
143.085358 107202.0 
145.06456 7739.0 
145.100998 103641.0 
146.109589 4531.0 
147.080383 54714.0 
147.116623 141854.0 
149.095917 27188.0 
149.132309 29851.0 
150.065704 4562.0 
151.0755 6657.0 
151.111374 4146.0 
155.085312 55693.0 
157.064392 3802.0 
157.101028 86821.0 
159.080093 41651.0 
159.116608 60609.0 
161.095963 50096.0 
161.132065 24751.0 
163.111374 64177.0 
165.089813 3902.0 
167.084976 37353.0 
169.100937 81306.0 
171.080017 49202.0 
171.116898 39743.0 
172.124527 6526.0 
173.095566 87258.0 
173.132462 32504.0 
175.111526 48112.0 
177.127213 12307.0 
179.085754 6104.0 
181.101334 33788.0 
183.116867 50454.0 
185.095947 50557.0 
185.113724 3821.0 
185.116974 3849.0 
185.132217 44767.0 
187.111572 76756.0 
187.147812 7645.0 
189.126968 27303.0 
193.101089 25739.0 
193.120483 6079.0 
195.116425 34968.0 
197.096054 21671.0 
197.13208 28922.0 
199.087158 6357.0 
199.111343 23531.0 
199.147644 16258.0 
201.127228 25848.0 
203.106384 5097.0 
205.102524 5186.0 
205.12265 15396.0 
207.116623 48461.0 
207.138016 20615.0 
209.132248 113988.0 
210.141037 3871.0 
211.111435 13108.0 
211.148514 31662.0 
213.127365 31741.0 
215.143188 20395.0 
219.116501 6642.0 
221.132874 27200.0 
223.11055 17172.0 
223.147919 27109.0 
225.126785 51708.0 
225.163773 19528.0 
227.141678 30362.0 
231.137939 21450.0 
233.131958 14366.0 
235.148514 15318.0 
236.153381 4578.0 
237.127136 15764.0 
237.162216 5762.0 
239.142853 55223.0 
239.179382 12109.0 
241.158112 19758.0 
243.137436 13349.0 
243.17392 13973.0 
245.154999 4469.0 
247.148682 28436.0 
248.121719 3891.0 
249.131668 11285.0 
249.16304 101757.0 
250.12645 3150.0 
250.1707 4661.0 
251.142822 71185.0 
251.178864 54904.0 
253.157913 55689.0 
253.72467 3868.0 
261.163513 17788.0 
262.122253 42134.0 
263.14328 14212.0 
263.179504 21024.0 
265.158081 32609.0 
266.167725 3613.0 
267.173737 292237.0 
268.181824 119836.0 
269.15448 23103.0 
269.189209 222237.0 
269.222473 4452.0 
273.16333 22622.0 
279.174225 113409.0 
280.132721 4573.0 
281.153748 27184.0 
281.190063 71444.0 
283.16803 4861.0 
285.184326 18579.0 
286.192749 5423.0 
287.200012 77277.0 
291.173981 111594.0 
294.162537 4892.0 
296.126068 37908.0 
297.184296 275804.0 
299.164612 11740.0 
299.199005 6447.0 
309.142517 6473.0 
309.184204 311676.0 
315.194397 36325.0 
327.194946 544371.0 
329.211121 16341.0 
345.205505 596743.0 
387.176788 120524.0 
387.232574 4820.0 
405.22702 3245790.0 
END IONS

BEGIN IONS
NAME=ethyl 3-butyl-4-hydroxy-2-oxohydroquinoline-6-carboxylate CollisionEnergy:102040 2M+H
PRECURSOR_MZ=579.27
INCHI="InChI=1S/C16H19NO4/c1-3-5-6-11-14(18)12-9-10(16(20)21-4-2)7-8-13(12)17-15(11)19/h7-9H,3-6H2,1-2H3,(H2,17,18,19)"
SMILES=CCCCc1c(O)nc2ccc(C(=O)OCC)cc2c1O
SPECTRUMID=CCMSLIB00010106154
51.722031 2895.0 
53.172859 2422.0 
65.758247 2910.0 
115.735771 3034.0 
122.54348 2578.0 
128.807617 2895.0 
130.002762 2949.0 
262.107361 95325.0 
290.138397 561511.0 
327.577606 2888.0 
364.509369 2850.0 
384.736389 2726.0 
END IONS

BEGIN IONS
NAME="methyl 2-[(3,4-diethoxyphenyl)methylene]-3-oxobenzo[b]furan-5-carboxylate CollisionEnergy:102040" M+H
PRECURSOR_MZ=369.133
INCHI="InChI=1S/C21H20O6/c1-4-25-17-8-6-13(10-18(17)26-5-2)11-19-20(22)15-12-14(21(23)24-3)7-9-16(15)27-19/h6-12H,4-5H2,1-3H3/b19-11+"
SMILES=CCOc1ccc(C=C2Oc3ccc(C(=O)OC)cc3C2=O)cc1OCC
SPECTRUMID=CCMSLIB00010106621
53.03521 2892.0 
70.322121 3196.0 
73.51474 3164.0 
74.848007 2851.0 
95.049248 4253.0 
95.085426 3849.0 
104.296768 4047.0 
110.035767 13098.0 
118.668037 4390.0 
121.028099 5633.0 
121.065109 4147.0 
123.043907 173099.0 
123.079582 3127.0 
131.048782 4414.0 
133.064209 4383.0 
135.043991 5279.0 
136.226395 3253.0 
137.058701 4297.0 
138.067627 7011.0 
145.064713 6838.0 
149.059021 7471.0 
151.061798 4175.0 
151.075317 94353.0 
151.63652 2979.0 
161.023117 14062.0 
161.060089 4898.0 
165.018433 31409.0 
165.05397 19231.0 
167.085663 6542.0 
178.869339 3662.0 
179.033707 229113.0 
189.055222 3505.0 
191.033218 3641.0 
195.080185 12446.0 
201.055267 4784.0 
203.069885 95847.0 
205.048981 4590.0 
213.090897 6105.0 
219.064789 96346.0 
223.074554 14522.0 
225.054535 11856.0 
226.064102 5395.0 
229.087021 3745.0 
231.065781 5098.0 
232.07193 51942.0 
236.046143 6355.0 
239.070633 13951.0 
243.064377 12637.0 
251.069443 13176.0 
253.04866 28774.0 
254.056961 4549.0 
257.080353 54531.0 
263.03125 5363.0 
263.069733 7802.0 
266.05777 6924.0 
267.032715 6827.0 
267.065155 187176.0 
281.043823 38240.0 
281.079865 19400.0 
283.059052 13268.0 
284.031158 5305.0 
284.066467 15036.0 
285.074799 32668.0 
285.111816 7136.0 
294.05188 4062.0 
295.060638 223754.0 
295.096558 39851.0 
297.075226 13128.0 
298.046173 6342.0 
305.080902 16474.0 
309.076019 4991.0 
310.121368 14307.0 
311.054688 117569.0 
312.061859 177766.0 
313.070038 891723.0 
321.074341 14012.0 
322.083771 6465.0 
323.091125 69316.0 
325.069214 32198.0 
339.08432 21334.0 
340.093506 153557.0 
341.101318 731620.0 
369.132721 5908232.0 
371.507568 3233.0 
END IONS

BEGIN IONS
NAME="8-{[5-methyl-2-(3-methylphenyl)(1,3-oxazol-4-yl)]methylthio}-9-phenylhydropuri n-6-one CollisionEnergy:205060" M-H
PRECURSOR_MZ=428.119
INCHI="InChI=1S/C23H19N5O2S/c1-14-7-6-8-16(11-14)22-26-18(15(2)30-22)12-31-23-27-19-20(24-13-25-21(19)29)28(23)17-9-4-3-5-10-17/h3-11,13H,12H2,1-2H3,(H,24,25,29)"
SMILES=Cc1cccc(-c2nc(CSc3nc4c(O)ncnc4n3-c3ccccc3)c(C)o2)c1
SPECTRUMID=CCMSLIB00010119559
56.33667 2570.0 
57.97522 97567.0 
61.98806 3172.0 
62.877831 2354.0 
65.01413 5076.0 
65.998009 3016.0 
73.968513 2503.0 
74.706299 2465.0 
80.090698 2464.0 
92.383659 4311.0 
104.289421 3983.0 
121.434937 2943.0 
141.045822 131463.0 
142.040909 38502.0 
173.017273 14252.0 
183.043716 107231.0 
183.06012 2963.0 
184.051453 26956.0 
200.027802 3005.0 
209.047195 13392.0 
211.062576 87997.0 
214.008011 71044.0 
239.497665 2890.0 
241.018814 589704.0 
242.026703 1241194.0 
243.034378 130324.0 
243.331924 3314.0 
291.883423 6014.0 
332.783661 2809.0 
343.981018 4270.0 
428.118256 113463.0 
END IONS

BEGIN IONS
NAME="phenyl(1,2,9,10-tetramethoxy-6-methyl-5,6-dihydro-4H-dibenzo[de,g]quinolin-7-yl)methanone CollisionEnergy:205060" M-e
PRECURSOR_MZ=457.188
INCHI="InChI=1S/C28H27NO5/c1-29-12-11-17-13-22(33-4)28(34-5)24-18-14-20(31-2)21(32-3)15-19(18)25(26(29)23(17)24)27(30)16-9-7-6-8-10-16/h6-10,13-15H,11-12H2,1-5H3"
SMILES=COc1cc2c(C(=O)c3ccccc3)c3c4c(cc(OC)c(OC)c4c2cc1OC)CCN3C
SPECTRUMID=CCMSLIB00010117983
53.03896 2724.0 
53.58144 2793.0 
57.23185 2694.0 
65.696007 2856.0 
65.890457 2805.0 
73.93885 2908.0 
75.002441 2579.0 
91.054352 17907.0 
91.863274 2852.0 
104.266037 3097.0 
105.03344 43455.0 
118.6353 4165.0 
142.111298 2763.0 
185.400558 2971.0 
251.094299 6706.0 
252.10257 6565.0 
256.515961 2802.0 
278.082245 5583.0 
278.115295 3711.0 
279.089722 13050.0 
280.0961 16370.0 
292.096436 11197.0 
294.111969 21381.0 
304.09906 4487.0 
306.075775 6212.0 
306.114929 23710.0 
308.091736 18317.0 
318.073975 3299.0 
322.106812 44360.0 
323.12616 5805.0 
334.109253 14522.0 
335.130066 59292.0 
336.133148 12957.0 
338.115051 11056.0 
338.155731 6417.0 
339.126678 4738.0 
348.132721 3066.0 
349.136169 11703.0 
350.116516 31891.0 
351.126556 37694.0 
352.157684 8391.0 
354.149445 12496.0 
356.128265 6602.0 
363.125824 16240.0 
364.131653 16204.0 
365.141693 54349.0 
366.110687 13258.0 
366.150513 126222.0 
367.121124 15132.0 
368.12912 16870.0 
370.141449 3231.0 
378.111267 6508.0 
379.119598 13879.0 
380.137787 18532.0 
381.135956 6497.0 
382.145477 43048.0 
383.11319 3518.0 
384.122528 42735.0 
392.128082 12984.0 
393.137238 16725.0 
394.143616 247601.0 
396.159454 16960.0 
398.139282 15722.0 
399.146606 3418.0 
409.167145 121587.0 
410.138763 73646.0 
424.154846 11456.0 
425.161896 6539.0 
426.132202 17672.0 
440.185181 211923.0 
442.163727 84178.0 
445.880768 2972.0 
457.188263 641726.0 
END IONS

BEGIN IONS
NAME="3',4'-Dimethoxyflavanone CollisionEnergy:205060" M+H
PRECURSOR_MZ=285.112
INCHI="InChI=1S/C17H16O4/c1-19-15-8-7-11(9-17(15)20-2)16-10-13(18)12-5-3-4-6-14(12)21-16/h3-9,16H,10H2,1-2H3"
SMILES=COc1ccc(C2CC(=O)c3ccccc3O2)cc1OC
SPECTRUMID=CCMSLIB00010117408
50.776649 2396.0 
53.03904 3165.0 
55.01841 10651.0 
57.667339 2553.0 
65.03894 162296.0 
69.838219 2879.0 
73.974197 3351.0 
74.096977 2970.0 
77.038818 3120.0 
78.477676 2457.0 
79.054543 6929.0 
91.054298 35799.0 
92.400673 2677.0 
93.033447 80129.0 
95.049179 75090.0 
98.036034 20111.0 
102.046692 3594.0 
103.054077 25236.0 
105.033318 10685.0 
105.069908 24087.0 
107.049248 21761.0 
111.043922 44569.0 
111.585587 2729.0 
118.041481 4680.0 
119.04908 39105.0 
120.056923 16669.0 
121.028328 1845419.0 
124.051849 22429.0 
124.781616 2922.0 
129.033569 19345.0 
131.048996 5564.0 
132.056641 30567.0 
133.02803 10783.0 
133.064453 16223.0 
135.043991 3352.0 
135.079697 4424.0 
136.051453 4477.0 
136.253006 3456.0 
137.059525 15625.0 
139.039001 18469.0 
139.075104 22756.0 
146.036255 4338.0 
147.043869 395340.0 
148.05162 81771.0 
148.064011 4863.0 
149.059418 5219.0 
150.06694 4222.0 
151.074966 19791.0 
152.078659 4045.0 
160.051605 26430.0 
161.059555 4829.0 
163.075089 218521.0 
165.069702 12850.0 
165.09079 18716.0 
176.046585 29043.0 
178.077286 5248.0 
179.085449 6797.0 
181.064819 11306.0 
191.069992 382556.0 
193.064606 5916.0 
195.080154 20269.0 
197.636459 3591.0 
199.075195 2807.0 
205.064514 6774.0 
207.081238 3270.0 
208.087875 23341.0 
209.059937 17136.0 
210.067337 3625.0 
211.074539 5170.0 
212.380615 3670.0 
221.059204 14056.0 
223.074875 32411.0 
224.082428 22039.0 
225.090546 3206.0 
226.061356 3858.0 
227.070129 30806.0 
235.074982 11796.0 
236.083374 16640.0 
237.054749 5360.0 
239.069733 13854.0 
239.106262 38240.0 
243.101578 4014.0 
251.068253 19839.0 
252.078217 3992.0 
253.085281 6007.0 
254.091873 5061.0 
255.065811 22579.0 
257.116608 3533.0 
262.55188 4204.0 
267.100708 62486.0 
269.080139 3574.0 
270.056427 5783.0 
270.087891 82126.0 
285.111511 1271313.0 
289.994202 3137.0 
END IONS

BEGIN IONS
NAME=Trans-zeatin-riboside CollisionEnergy:205060 M-H
PRECURSOR_MZ=350.147
INCHI="InChI=1S/C15H21N5O5/c1-8(4-21)2-3-16-13-10-14(18-6-17-13)20(7-19-10)15-12(24)11(23)9(5-22)25-15/h2,6-7,9,11-12,15,21-24H,3-5H2,1H3,(H,16,17,18)/b8-2+/t9-,11-,12-,15-/m1/s1"
SMILES=C/C(=C\CNC1=C2C(=NC=N1)N(C=N2)[C@H]3[C@@H]([C@@H]([C@H](O3)CO)O)O)/CO
SPECTRUMID=CCMSLIB00010102076
65.014038 7608.967285 
69.309143 7961.47998 
92.025307 119274.507812 
105.658257 8211.587891 
106.028175 10738.202148 
107.03627 234583.359375 
117.020981 6585.557617 
130.476746 6419.645996 
132.031357 20058.714844 
133.039352 419887.75 
134.04718 5430360.5 
144.031769 14362.407227 
146.047195 16685.478516 
148.063202 24987.439453 
158.046463 12306.864258 
160.063385 15279.822266 
170.606979 7661.039551 
173.083618 10271.104492 
176.792557 8206.731445 
186.078827 25880.578125 
188.094284 161256.15625 
200.094086 329344.25 
207.333252 7331.132812 
209.33638 13130.0625 
209.356384 13657.836914 
218.104736 1452855.0 
245.706436 6969.523438 
266.089417 1436968.75 
350.14679 545544.5625 
END IONS

BEGIN IONS
NAME=kinetin CollisionEnergy:102040 M-H
PRECURSOR_MZ=214.073
INCHI="InChI=1S/C10H9N5O/c1-2-7(16-3-1)4-11-9-8-10(13-5-12-8)15-6-14-9/h1-3,5-6H,4H2,(H2,11,12,13,14,15)"
SMILES=c1coc(CNc2nc[nH]c3ncnc2-3)c1
SPECTRUMID=CCMSLIB00010105087
50.79694 2276.0 
69.034073 3157.0 
77.145561 2462.0 
92.025337 3624.0 
103.920982 3377.0 
107.036507 3227.0 
107.731987 2564.0 
117.020538 17775.0 
123.821297 2638.0 
132.031387 3459.0 
133.039505 721828.0 
134.047333 654252.0 
146.047546 6074.0 
158.047699 18695.0 
160.02597 4052.0 
160.062881 5365.0 
169.052155 5747.0 
170.047638 66653.0 
170.805756 2726.0 
172.063705 4674.0 
173.034271 5530.0 
181.897507 3265.0 
186.078812 54732.0 
187.062149 22869.0 
196.063202 254659.0 
199.050171 4543.0 
208.304337 5385.0 
208.326172 5726.0 
214.073837 1958943.0 
END IONS

BEGIN IONS
NAME="1-(2H-benzo[d]1,3-dioxolen-5-yl)-3-[(3,4-dimethylphenyl)amino]propan-1-one CollisionEnergy:205060" M+H
PRECURSOR_MZ=298.144
INCHI="InChI=1S/C18H19NO3/c1-12-3-5-15(9-13(12)2)19-8-7-16(20)14-4-6-17-18(10-14)22-11-21-17/h3-6,9-10,19H,7-8,11H2,1-2H3"
SMILES=Cc1ccc(NCCC(=O)c2ccc3c(c2)OCO3)cc1C
SPECTRUMID=CCMSLIB00010114970
53.039051 3118.0 
63.258739 3222.0 
63.305099 2934.0 
72.274071 2858.0 
73.949821 3420.0 
77.038963 3322.0 
79.054482 39051.0 
91.054222 38922.0 
92.049316 3762.0 
103.054077 18059.0 
105.069817 114999.0 
106.065117 6909.0 
106.07769 84406.0 
107.08551 88452.0 
107.908012 2635.0 
109.06472 3855.0 
115.053467 4191.0 
115.888947 3010.0 
117.069977 5190.0 
118.06501 12127.0 
119.072723 61162.0 
132.080124 6381.0 
133.075546 3719.0 
133.692734 5124.0 
134.096313 6166055.0 
134.500381 4813.0 
135.100708 28332.0 
149.023178 11117.0 
165.053619 17676.0 
298.141113 49777.0 
298.174622 5410.0 
312.313629 3488.0 
END IONS

BEGIN IONS
NAME=dl-O-Phosphoserine CollisionEnergy:102040 M-H
PRECURSOR_MZ=184.002
INCHI="InChI=1S/C3H8NO6P/c4-2(3(5)6)1-10-11(7,8)9/h2H,1,4H2,(H,5,6)(H2,7,8,9)"
SMILES=NC(COP(=O)(O)O)C(=O)O
SPECTRUMID=CCMSLIB00010102848
76.420502 3624.389893 
78.9589 512010.0 
96.969704 1860400.0 
104.317001 4540.419922 
143.524994 4221.620117 
154.593002 4283.169922 
172.556 4291.930176 
184.001999 45896.800781 
END IONS

BEGIN IONS
NAME=N-Acetyl-D-Glucosamine CollisionEnergy:102040 M+Cl
PRECURSOR_MZ=256.059
INCHI="InChI=1S/C8H15NO6/c1-3(11)9-5-7(13)6(12)4(2-10)15-8(5)14/h4-8,10,12-14H,2H2,1H3,(H,9,11)/t4-,5-,6-,7-,8?/m1/s1"
SMILES=CC(O)=N[C@H]1C(O)O[C@H](CO)[C@@H](O)[C@@H]1O
SPECTRUMID=CCMSLIB00010102454
59.013401 22775.5 
71.013496 2466.860107 
71.237099 2409.909912 
89.0243 21075.0 
92.400902 2249.719971 
99.925797 2853.48999 
100.040001 28705.199219 
100.352997 2413.080078 
101.025002 42253.398438 
119.035004 113859.0 
120.885002 2301.52002 
136.244003 2270.97998 
140.035004 2972.73999 
142.050995 3639.929932 
173.957993 2343.429932 
190.835999 2249.790039 
190.962997 2344.909912 
210.072998 4848.930176 
220.082993 13644.5 
220.513 2577.790039 
220.697998 2239.73999 
237.869003 11342.700195 
255.882004 29296.900391 
255.906998 4447.02002 
256.028992 4494.240234 
256.05899 133698.0 
256.238007 9791.719727 
END IONS

BEGIN IONS
NAME="N-(3,5-dimethoxyphenyl)-2-[2-oxo-4-(2-1,2,3,4-tetrahydroisoquinolylcarbonyl)hy droquinolyl]acetamide CollisionEnergy:102040" M+Na
PRECURSOR_MZ=520.184
INCHI="InChI=1S/C29H27N3O5/c1-36-22-13-21(14-23(15-22)37-2)30-27(33)18-32-26-10-6-5-9-24(26)25(16-28(32)34)29(35)31-12-11-19-7-3-4-8-20(19)17-31/h3-10,13-16H,11-12,17-18H2,1-2H3,(H,30,33)"
SMILES=COc1cc(N=C(O)Cn2c(=O)cc(C(=O)N3CCc4ccccc4C3)c3ccccc32)cc(OC)c1
SPECTRUMID=CCMSLIB00010114051
50.33036 2882.0 
63.690552 2875.0 
66.74839 2974.0 
106.42408 3235.0 
136.22644 3077.0 
139.509689 3105.0 
148.62915 3408.0 
192.115051 3240.0 
227.55011 3051.0 
269.37616 3252.0 
287.832031 3450.0 
332.583832 3485.0 
389.110107 78686.0 
502.172058 27386.0 
518.167542 3350.0 
520.183899 4225519.0 
END IONS

BEGIN IONS
NAME=cytosine CollisionEnergy:102040 M+H
PRECURSOR_MZ=112.051
INCHI="InChI=1S/C4H5N3O/c5-3-1-2-6-4(8)7-3/h1-2H,(H3,5,6,7,8)"
SMILES=N=c1ccnc(O)[nH]1
SPECTRUMID=CCMSLIB00010103130
52.018902 2307580.0 
66.752502 1211480.0 
67.0299 4822260.0 
68.013702 5264920.0 
68.370499 1251120.0 
69.045303 83355696.0 
71.024399 2165890.0 
82.411301 1343450.0 
84.802803 1174190.0 
86.392197 1194590.0 
94.040398 28607600.0 
95.024399 219368000.0 
111.742996 1518370.0 
112.051003 1429229952.0 
112.360001 1635510.0 
END IONS

BEGIN IONS
NAME=maltose CollisionEnergy:102040 M+Cl
PRECURSOR_MZ=377.086
INCHI="InChI=1S/C12H22O11/c13-1-3-5(15)6(16)9(19)12(22-3)23-10-4(2-14)21-11(20)8(18)7(10)17/h3-20H,1-2H2/t3-,4-,5-,6+,7-,8-,9-,10-,11?,12-/m1/s1"
SMILES=OC[C@H]1O[C@H](O[C@@H]2[C@@H](CO)OC(O)[C@H](O)[C@H]2O)[C@H](O)[C@@H](O)[C@@H]1O
SPECTRUMID=CCMSLIB00010126396
55.5382 3024.459961 
68.456802 2047.47998 
71.013603 2753.560059 
85.138802 2269.389893 
89.024696 9490.120117 
101.025002 12111.5 
104.333 3361.820068 
119.035004 3101.959961 
136.279007 2450.0 
143.035004 3307.429932 
161.044998 27498.099609 
179.056 15003.0 
221.067001 11504.299805 
263.078003 3855.629883 
281.088013 2867.659912 
377.084015 22133.099609 
END IONS

BEGIN IONS
NAME="N-[2-(2-methylphenoxy)ethyl](3,4,5-trimethoxyphenyl)carboxamide CollisionEnergy:205060" M+Na
PRECURSOR_MZ=368.147
INCHI="InChI=1S/C19H23NO5/c1-13-7-5-6-8-15(13)25-10-9-20-19(21)14-11-16(22-2)18(24-4)17(12-14)23-3/h5-8,11-12H,9-10H2,1-4H3,(H,20,21)"
SMILES=COc1cc(C(O)=NCCOc2ccccc2C)cc(OC)c1OC
SPECTRUMID=CCMSLIB00010117072
55.702801 2411.0 
77.896553 2496.0 
87.748909 2220.0 
92.366463 3716.0 
98.346764 2436.0 
105.266693 2289.0 
112.545143 2479.0 
126.564407 2291.0 
142.177597 2627.0 
347.202881 2445.0 
368.14621 1422129.0 
END IONS

BEGIN IONS
NAME=N-(3-fluoro-4-methylphenyl)-2-(9-methyl-6-oxohydropurin-8-ylthio)acetamide CollisionEnergy:205060 M+Na
PRECURSOR_MZ=370.074
INCHI="InChI=1S/C15H14FN5O2S/c1-8-3-4-9(5-10(8)16)19-11(22)6-24-15-20-12-13(21(15)2)17-7-18-14(12)23/h3-5,7H,6H2,1-2H3,(H,19,22)(H,17,18,23)"
SMILES=Cc1ccc(N=C(O)CSc2nc3c(O)ncnc3n2C)cc1F
SPECTRUMID=CCMSLIB00010121350
51.254749 2725.0 
57.821861 2188.0 
78.089363 2813.0 
83.29187 4312.0 
111.272339 2503.0 
173.043213 3457.0 
195.024963 3001.0 
204.007278 37329.0 
211.396164 2729.0 
245.009949 5248.0 
370.073792 2143570.0 
END IONS

BEGIN IONS
NAME=kynurenic acid CollisionEnergy:102040 2M-H
PRECURSOR_MZ=377.078
INCHI="InChI=1S/C10H7NO3/c12-9-5-8(10(13)14)11-7-4-2-1-3-6(7)9/h1-5H,(H,11,12)(H,13,14)"
SMILES=O=C(O)c1cc(=O)c2ccccc2[nH]1
SPECTRUMID=CCMSLIB00010126389
57.9035 10649.200195 
58.971401 10477.299805 
69.486702 11038.400391 
106.656998 10407.099609 
144.044998 17214.800781 
158.134003 10694.0 
165.791 10547.5 
185.440994 12001.5 
188.035004 20973.199219 
295.858002 13096.099609 
303.002991 12908.0 
312.519989 11939.599609 
332.394012 12812.5 
END IONS

BEGIN IONS
NAME=Chelidonine CollisionEnergy:102040 M+H-H2O
PRECURSOR_MZ=336.123
INCHI="InChI=1S/C20H19NO5/c1-21-7-13-11(2-3-15-20(13)26-9-23-15)18-14(22)4-10-5-16-17(25-8-24-16)6-12(10)19(18)21/h2-3,5-6,14,18-19,22H,4,7-9H2,1H3"
SMILES=CN1Cc2c(ccc3c2OCO3)C2C(O)Cc3cc4c(cc3C21)OCO4
SPECTRUMID=CCMSLIB00010104359
55.714981 2741.0 
64.998581 2713.0 
95.782051 2711.0 
111.387909 2582.0 
128.424469 2626.0 
135.043442 4178.0 
136.220139 2996.0 
161.059052 3671.0 
176.070557 40900.0 
188.070541 122945.0 
189.070633 4941.0 
197.974411 2813.0 
209.900391 6359.0 
217.064194 16614.0 
217.633636 3181.0 
235.074173 5483.0 
245.059448 13119.0 
247.045853 4570.0 
247.07515 190552.0 
275.069855 872974.0 
277.085907 4532.0 
293.078522 5865.0 
294.953857 4626.0 
305.080292 780094.0 
307.097748 21326.0 
312.910248 4242.0 
330.919342 3179.0 
334.107574 12956.0 
336.122528 1993763.0 
END IONS

BEGIN IONS
NAME=piperine CollisionEnergy:205060 M+Na
PRECURSOR_MZ=308.126
INCHI="InChI=1S/C17H19NO3/c19-17(18-10-4-1-5-11-18)7-3-2-6-14-8-9-15-16(12-14)21-13-20-15/h2-3,6-9,12H,1,4-5,10-11,13H2/b6-2+,7-3+"
SMILES=O=C(C=CC=Cc1ccc2c(c1)OCO2)N1CCCCC1
SPECTRUMID=CCMSLIB00010116024
51.337212 1963.0 
82.408234 2811.0 
84.673111 2374.0 
92.385353 2162.0 
116.116631 2465.0 
118.667877 2804.0 
213.365356 3314.0 
252.973373 2404.0 
308.125061 1833831.0 
326.135498 26956.0 
END IONS

BEGIN IONS
NAME="8-{[2-(2-methoxyphenyl)-5-methyl(1,3-oxazol-4-yl)]methylthio}-9-(4-methylpheny l)hydropurin-6-one CollisionEnergy:205060" M-H
PRECURSOR_MZ=458.129
INCHI="InChI=1S/C24H21N5O3S/c1-14-8-10-16(11-9-14)29-21-20(22(30)26-13-25-21)28-24(29)33-12-18-15(2)32-23(27-18)17-6-4-5-7-19(17)31-3/h4-11,13H,12H2,1-3H3,(H,25,26,30)"
SMILES=COc1ccccc1-c1nc(CSc2nc3c(O)ncnc3n2-c2ccc(C)cc2)c(C)o1
SPECTRUMID=CCMSLIB00010117826
57.97517 249399.0 
65.013901 17418.0 
65.998016 5505.0 
73.959053 3027.0 
92.024879 3377.0 
92.385651 2735.0 
108.70536 2794.0 
136.217789 3696.0 
155.061523 162632.0 
156.056808 68777.0 
187.033066 15840.0 
197.059479 161029.0 
198.06723 34889.0 
223.062561 18022.0 
225.078491 87497.0 
228.023605 84295.0 
255.034698 628930.0 
256.042511 1247930.0 
257.050323 111377.0 
271.065887 21037.0 
427.365387 3081.0 
458.129395 99915.0 
END IONS

BEGIN IONS
NAME="4-nitro-12-oxa-8,17-diazaheptacyclo[15.5.2.0<1,18>.0<2,7>.0<8,22>.0<11,21>.0<1 5,20>]tetracosa-2(7),3,5,14-tetraen-9-one CollisionEnergy:205060" M+H
PRECURSOR_MZ=380.16
INCHI="InChI=1S/C21H21N3O4/c25-18-9-16-19-13-8-17-21(4-5-22(17)10-11(13)3-6-28-16)14-7-12(24(26)27)1-2-15(14)23(18)20(19)21/h1-3,7,13,16-17,19-20H,4-6,8-10H2"
SMILES=O=C1CC2OCC=C3CN4CCC56c7cc([N+](=O)[O-])ccc7N1C5C2C3CC46
SPECTRUMID=CCMSLIB00010116770
53.038952 15190.0 
55.018269 8215.0 
55.05471 6761.0 
56.049992 65283.0 
58.06575 3645.0 
60.468189 3109.0 
65.03862 3858.0 
67.054527 24701.0 
68.049843 37079.0 
69.033798 22631.0 
70.065399 8669.0 
71.049454 21429.0 
79.04998 4190.0 
79.054604 78241.0 
80.049637 17524.0 
81.033432 4710.0 
81.070221 101137.0 
82.065086 5722.0 
83.049171 8232.0 
91.054337 71690.0 
92.387878 4286.0 
93.05732 17212.0 
93.070061 105873.0 
94.065292 52521.0 
95.085533 23020.0 
96.080681 23046.0 
97.064789 5422.0 
98.060432 4381.0 
103.053749 4521.0 
105.033188 5931.0 
105.070007 38384.0 
106.065613 29393.0 
107.048721 5129.0 
107.073021 6629.0 
107.085617 24143.0 
108.080833 63344.0 
109.064651 25361.0 
109.088173 18816.0 
110.096352 6999.0 
117.069603 6467.0 
119.085403 23456.0 
120.080818 20101.0 
121.06472 85963.0 
121.101311 4878.0 
122.059662 20012.0 
122.096001 16340.0 
123.080177 7420.0 
124.075737 25661.0 
129.069687 4694.0 
131.085266 15803.0 
131.763016 3631.0 
132.080719 4497.0 
134.096222 22641.0 
135.080246 7054.0 
138.091354 15613.0 
143.072739 13942.0 
143.084946 6584.0 
144.080627 5839.0 
147.080521 13326.0 
148.076508 4296.0 
149.059433 7446.0 
149.097183 5285.0 
154.065918 4690.0 
155.073105 41884.0 
157.987885 4169.0 
161.474823 3546.0 
167.0728 41359.0 
168.081039 6197.0 
170.083771 14591.0 
175.048462 25131.0 
175.064255 12332.0 
176.961899 3368.0 
180.079269 4725.0 
181.088577 30019.0 
183.067841 346997.0 
185.068741 4378.0 
188.471817 3774.0 
189.065765 134873.0 
193.088715 24596.0 
196.062027 4988.0 
197.083298 21672.0 
198.080429 4280.0 
200.05722 7284.0 
201.065414 57402.0 
202.073212 4262.0 
204.079803 3793.0 
205.087814 6996.0 
212.057343 13448.0 
213.065399 22097.0 
214.060898 38282.0 
215.044922 7797.0 
215.081146 16905.0 
216.076416 51230.0 
218.095963 16674.0 
219.067474 34684.0 
219.104553 15322.0 
220.074905 7810.0 
221.083237 109789.0 
225.064865 8127.0 
226.072769 4723.0 
227.045929 12084.0 
227.081009 32179.0 
229.060486 300574.0 
229.097656 16371.0 
230.055389 5082.0 
232.073425 3915.0 
233.084106 38550.0 
233.119583 4713.0 
234.09198 4064.0 
235.098511 14812.0 
239.08165 76455.0 
241.059769 43688.0 
241.096817 4137.0 
242.097183 3959.0 
243.046051 5818.0 
243.075684 76472.0 
243.103012 6109.0 
244.111374 5487.0 
245.055313 4682.0 
245.089218 4086.0 
245.119247 8021.0 
246.090149 19823.0 
247.098068 17193.0 
249.113663 6471.0 
250.073395 8173.0 
253.060913 7376.0 
253.095932 7489.0 
255.076035 60446.0 
257.055573 15053.0 
257.091492 25518.0 
258.090149 17811.0 
259.071106 7427.0 
260.107513 7997.0 
261.11499 46281.0 
263.093048 6314.0 
265.060699 73138.0 
265.097473 17701.0 
267.075867 62875.0 
267.112274 18811.0 
269.0914 7385.0 
270.088806 3730.0 
271.070526 6957.0 
271.099243 15149.0 
272.106171 17065.0 
273.113586 19080.0 
276.101013 6794.0 
277.099457 7050.0 
277.135437 3773.0 
278.105286 5796.0 
279.076202 58257.0 
279.111023 7144.0 
281.093719 7370.0 
281.127899 17874.0 
282.087769 17452.0 
283.072083 6525.0 
283.104553 3811.0 
284.103973 14122.0 
289.102509 3722.0 
290.103333 6140.0 
291.075867 20907.0 
291.114838 21287.0 
293.091431 71408.0 
293.12674 3799.0 
294.094177 4999.0 
295.110046 12350.0 
302.106354 4709.0 
305.13205 6557.0 
307.107483 40634.0 
309.086548 86208.0 
309.122009 18120.0 
311.104187 34610.0 
312.131989 5165.0 
317.090424 15473.0 
319.1073 27474.0 
320.113037 4274.0 
323.140594 6147.0 
333.124664 8213.0 
334.122345 5234.0 
334.16745 7961.0 
335.137787 6085.0 
336.132568 14549.0 
337.11731 14704.0 
337.15509 39057.0 
338.156128 7151.0 
350.159576 16199.0 
351.134338 27765.0 
352.127991 49720.0 
362.150208 5010.0 
366.157104 326624.0 
380.160156 8448551.0 
END IONS

BEGIN IONS
NAME="3-[(3,4-diethoxyphenyl)carbonylamino]-3-(4-chlorophenyl)propanoic acid CollisionEnergy:205060" M+Na
PRECURSOR_MZ=414.108
INCHI="InChI=1S/C20H22ClNO5/c1-3-26-17-10-7-14(11-18(17)27-4-2)20(25)22-16(12-19(23)24)13-5-8-15(21)9-6-13/h5-11,16H,3-4,12H2,1-2H3,(H,22,25)(H,23,24)"
SMILES=CCOc1ccc(C(O)=NC(CC(=O)O)c2ccc(Cl)cc2)cc1OCC
SPECTRUMID=CCMSLIB00010120626
55.64817 2695.0 
64.050789 2833.0 
72.06916 2307.0 
99.823067 2288.0 
104.286774 3378.0 
104.296333 2324.0 
133.110229 2797.0 
137.023697 19927.0 
165.054565 14929.0 
193.086136 12503.0 
211.036469 4359.0 
232.094437 157543.0 
233.07901 12465.0 
250.105988 4514.0 
273.12149 9158.0 
274.687622 2766.0 
296.603424 2722.0 
383.313232 2884.0 
414.108002 963354.0 
END IONS

BEGIN IONS
NAME="5,7-dimethyl-4-[(4-piperidylpiperidyl)methyl]chromen-2-one CollisionEnergy:102040" M+Na
PRECURSOR_MZ=377.22
INCHI="InChI=1S/C22H30N2O2/c1-16-12-17(2)22-18(14-21(25)26-20(22)13-16)15-23-10-6-19(7-11-23)24-8-4-3-5-9-24/h12-14,19H,3-11,15H2,1-2H3"
SMILES=Cc1cc(C)c2c(CN3CCC(N4CCCCC4)CC3)cc(=O)oc2c1
SPECTRUMID=CCMSLIB00010105749
60.962341 2172.0 
74.832626 2328.0 
127.430237 2234.0 
356.830933 2583.0 
377.219421 653555.0 
395.229248 48524.0 
END IONS

BEGIN IONS
NAME=7-Hydroxy-5-methylflavone CollisionEnergy:102040 M+H
PRECURSOR_MZ=253.086
INCHI="InChI=1S/C16H12O3/c1-10-7-12(17)8-15-16(10)13(18)9-14(19-15)11-5-3-2-4-6-11/h2-9,17H,1H3"
SMILES=Cc1cc(O)cc2oc(-c3ccccc3)cc(=O)c12
SPECTRUMID=CCMSLIB00010103554
51.541359 3601.0 
60.80687 3485.0 
66.740479 3946.0 
71.875603 3381.0 
98.983932 13984.0 
102.424713 3134.0 
103.053932 18573.0 
123.044281 3759.0 
129.033173 34929.0 
151.025238 5596.0 
151.038696 148463.0 
169.049576 14861.0 
222.75087 4100.0 
236.084976 4796.0 
238.063187 23360.0 
243.196686 3761.0 
252.078018 17849.0 
253.085464 15574136.0 
END IONS

BEGIN IONS
NAME=ABSCISIC ACID GLUCOSYL ESTER CollisionEnergy:205060 2M-H
PRECURSOR_MZ=851.371
INCHI="InChI=1S/C21H30O9/c1-11(5-6-21(28)12(2)8-13(23)9-20(21,3)4)7-15(24)30-19-18(27)17(26)16(25)14(10-22)29-19/h5-8,14,16-19,22,25-28H,9-10H2,1-4H3/b6-5+,11-7-/t14-,16-,17+,18-,19+,21-/m1/s1"
SMILES=CC1=CC(=O)CC([C@]1(/C=C/C(=C\C(=O)O[C@H]2[C@@H]([C@H]([C@@H]([C@H](O2)CO)O)O)O)/C)O)(C)C
SPECTRUMID=CCMSLIB00010102036
61.620754 4693.23584 
66.781136 4743.030762 
69.802277 6720.035645 
70.782722 4690.804688 
72.735893 4782.964844 
82.443138 5962.148438 
82.448586 5455.967285 
104.346268 5477.727051 
113.024239 6649.664062 
125.060516 8754.657227 
138.068619 5134.016113 
139.076904 8560.708984 
151.076248 18327.990234 
152.083847 10506.396484 
152.271637 5868.030273 
161.740494 5990.603027 
188.066544 4972.617676 
201.128632 15579.230469 
204.115494 16178.282227 
215.658615 5162.834473 
219.138031 24765.214844 
263.128571 107553.898438 
263.157959 7966.571777 
287.128326 6972.925293 
305.139801 13316.022461 
307.731354 5440.780762 
338.699524 5229.001953 
390.999939 5703.959473 
435.494965 5848.336914 
443.740082 5338.513184 
END IONS

BEGIN IONS
NAME="N-(2,5-dimethylphenyl)-2-[2-oxo-4-(N-propylcarbamoyl)hydroquinolyl]acetamide CollisionEnergy:205060" M-H
PRECURSOR_MZ=390.182
INCHI="InChI=1S/C23H25N3O3/c1-4-11-24-23(29)18-13-22(28)26(20-8-6-5-7-17(18)20)14-21(27)25-19-12-15(2)9-10-16(19)3/h5-10,12-13H,4,11,14H2,1-3H3,(H,24,29)(H,25,27)"
SMILES=CCCN=C(O)c1cc(=O)n(CC(O)=Nc2cc(C)ccc2C)c2ccccc12
SPECTRUMID=CCMSLIB00010125037
52.854801 2328.0 
59.013321 2906.0 
60.541889 2563.0 
90.580688 2172.0 
92.050217 3909.0 
100.076599 4592.0 
115.055183 10244.0 
116.050613 39059.0 
120.081757 17388.0 
128.050537 200814.0 
130.066208 177796.0 
132.045395 12027.0 
136.223068 2587.0 
142.065536 9342.0 
143.061111 3411.0 
144.04541 191759.0 
144.081116 3088.0 
146.061127 5768.0 
156.045654 10914.0 
156.069199 14278.0 
157.053192 3344.0 
157.077057 14709.0 
158.048187 59003.0 
158.061279 118849.0 
160.040359 57128.0 
160.076767 4199.0 
172.040329 37539.0 
174.05571 15110.0 
176.071869 34943.0 
182.047516 3272.0 
184.039993 35507.0 
195.092316 2850.0 
197.108582 20615.0 
199.124191 77232.0 
201.103027 51765.0 
202.051361 5500.0 
213.103012 66277.0 
215.11911 13172.0 
229.098114 77953.0 
243.114197 47677.0 
245.093277 60195.0 
259.124084 2812.0 
269.093781 20771.0 
275.103333 55034.0 
305.129272 145008.0 
305.168427 5388.0 
315.364746 2733.0 
376.133148 2873.0 
390.182495 147185.0 
END IONS

BEGIN IONS
NAME=Panaxatriol CollisionEnergy:102040 M+H-H2O
PRECURSOR_MZ=459.383
INCHI="InChI=1S/C30H52O4/c1-25(2)12-9-13-30(8,34-25)18-10-15-28(6)23(18)19(31)16-21-27(5)14-11-22(33)26(3,4)24(27)20(32)17-29(21,28)7/h18-24,31-33H,9-17H2,1-8H3/t18-,19+,20-,21+,22-,23-,24-,27+,28+,29+,30-/m0/s1"
SMILES=CC1(C)CCCC(C)(C2CCC3(C)C2C(O)CC2C4(C)CCC(O)C(C)(C)C4C(O)CC23C)O1
SPECTRUMID=CCMSLIB00010107918
50.245628 4234.0 
53.03944 4507.0 
55.054649 46051.0 
57.07021 40080.0 
59.04607 9183.0 
59.04948 221307.0 
65.3144 3864.0 
67.054543 137811.0 
67.686974 4072.0 
69.033737 6162.0 
69.070152 317248.0 
69.812233 4378.0 
71.049347 31194.0 
71.08577 35664.0 
78.683907 4378.0 
79.054352 60264.0 
81.070007 564497.0 
83.048538 4383.0 
83.085632 143912.0 
85.064941 27496.0 
85.101303 8024.0 
91.054253 45495.0 
93.069839 198347.0 
95.085457 746262.0 
97.064774 23018.0 
97.101059 56397.0 
99.080276 448176.0 
105.069702 174730.0 
107.08532 502609.0 
109.06456 49173.0 
109.101013 1325680.0 
111.080338 52033.0 
111.1166 97855.0 
113.095879 75151.0 
117.069633 8396.0 
119.085327 525902.0 
121.090714 9500.0 
121.100922 424688.0 
123.080177 31678.0 
123.116562 792743.0 
125.096268 23484.0 
125.132278 5933.0 
127.100517 7797.0 
127.111458 372186.0 
131.085342 68957.0 
133.100952 686244.0 
135.080002 22842.0 
135.116531 350539.0 
136.238037 4178.0 
137.09581 65731.0 
137.132294 108534.0 
139.111496 85371.0 
141.127106 10671.0 
143.085434 16885.0 
145.100906 272615.0 
147.116501 374384.0 
149.095383 33128.0 
149.132233 221313.0 
151.111435 142007.0 
151.124115 7481.0 
151.14772 32774.0 
153.126999 33543.0 
157.101089 55177.0 
158.10878 5283.0 
159.116501 210470.0 
161.132095 366738.0 
163.11171 50708.0 
163.147766 227224.0 
165.127274 30197.0 
165.1633 10055.0 
167.144073 5483.0 
169.100937 8642.0 
169.122391 17268.0 
169.970932 5198.0 
171.11647 73614.0 
172.124725 7943.0 
173.132172 183396.0 
175.111374 9445.0 
175.147751 207544.0 
177.127121 38192.0 
177.163452 141004.0 
179.143082 41015.0 
179.179153 18610.0 
183.116653 23955.0 
185.132278 108808.0 
187.147644 648416.0 
189.127396 18719.0 
189.163269 345289.0 
191.14267 47835.0 
191.178955 77165.0 
193.158234 26268.0 
193.194427 9936.0 
195.117142 4782.0 
197.132156 30515.0 
199.147781 78550.0 
201.163177 150660.0 
203.145721 50848.0 
203.178925 312429.0 
205.158432 180965.0 
205.191772 37194.0 
207.173782 237921.0 
211.148605 42032.0 
213.163239 81971.0 
215.178772 270682.0 
217.157593 27431.0 
217.19458 338652.0 
219.173553 53863.0 
219.209595 34907.0 
221.189529 162805.0 
223.147415 9249.0 
223.170578 8043.0 
225.163132 29698.0 
227.178421 59740.0 
229.194611 91590.0 
231.17421 22540.0 
231.210052 49412.0 
233.189377 98453.0 
235.204361 55016.0 
237.162811 20417.0 
239.179703 38651.0 
241.194458 86056.0 
243.209167 65263.0 
245.190201 25381.0 
245.224945 44558.0 
253.194824 49149.0 
255.209534 75089.0 
257.190277 37817.0 
257.226379 67960.0 
259.205139 53621.0 
259.241608 21215.0 
261.219513 8969.0 
267.209595 29350.0 
269.193237 9364.0 
269.225433 75113.0 
271.205872 30118.0 
271.241547 69349.0 
273.220551 36165.0 
273.255981 19787.0 
275.235596 9058.0 
279.210297 11376.0 
281.224976 40679.0 
283.241943 43485.0 
285.220245 26382.0 
285.257812 22115.0 
287.236786 19485.0 
289.252472 21710.0 
293.225159 37254.0 
295.241852 70530.0 
297.220459 14988.0 
297.257294 42599.0 
299.235809 25769.0 
301.252258 31075.0 
309.255859 18377.0 
311.235535 25764.0 
311.27301 73987.0 
313.25058 55195.0 
315.268616 20186.0 
321.257385 27418.0 
323.273895 24515.0 
325.287231 7698.0 
327.269531 42312.0 
329.244019 8895.0 
329.282959 57848.0 
331.261353 7753.0 
335.27301 28884.0 
337.288239 44208.0 
339.266724 30860.0 
339.305145 7675.0 
341.28537 18956.0 
345.278625 6327.0 
347.25708 22318.0 
349.285675 45676.0 
353.281219 19158.0 
355.300751 17268.0 
357.275269 7611.0 
363.301117 6562.0 
365.319519 123594.0 
367.298462 68898.0 
371.292847 9304.0 
383.330536 106442.0 
385.308899 32241.0 
395.369354 6217.0 
403.320679 24373.0 
405.350433 441668.0 
423.360687 1248314.0 
441.29892 7772.0 
441.371155 867879.0 
459.381958 15222686.0 
END IONS

BEGIN IONS
NAME=4-Hexylresorcinol CollisionEnergy:102040 M-H
PRECURSOR_MZ=193.123
INCHI="InChI=1S/C12H18O2/c1-2-3-4-5-6-10-7-8-11(13)9-12(10)14/h7-9,13-14H,2-6H2,1H3"
SMILES=CCCCCCc1ccc(O)cc1O
SPECTRUMID=CCMSLIB00010114378
57.773781 2146.0 
62.30859 2284.0 
65.827751 1939.0 
69.467293 2040.0 
73.974182 2164.0 
76.680603 2384.0 
89.925148 2611.0 
90.933388 43789.0 
104.313118 3112.0 
108.021858 2481.0 
109.0289 2714.0 
121.029053 15250.0 
122.037514 2995.0 
125.078056 2258.0 
128.995728 2222.0 
131.712692 2549.0 
149.133484 20936.0 
151.112503 11020.0 
162.243713 2135.0 
192.989395 61720.0 
193.12326 943132.0 
END IONS

BEGIN IONS
NAME="3-methyl-7-[(3-methylphenyl)methyl]-8-(2-oxopropylthio)-1,3,7-trihydropurine-2 ,6-dione CollisionEnergy:102040" M-H
PRECURSOR_MZ=357.103
INCHI="InChI=1S/C17H18N4O3S/c1-10-5-4-6-12(7-10)8-21-13-14(18-17(21)25-9-11(2)22)20(3)16(24)19-15(13)23/h4-7H,8-9H2,1-3H3,(H,19,23,24)"
SMILES=CC(=O)CSc1nc2c(c(O)nc(=O)n2C)n1Cc1cccc(C)c1
SPECTRUMID=CCMSLIB00010112798
57.97522 101279.0 
57.978439 5252.0 
63.996262 2354.0 
66.743721 2659.0 
95.710167 2076.0 
102.389343 2354.0 
117.173653 2344.0 
177.469086 2235.0 
195.517365 2371.0 
197.017365 2257.0 
209.013474 3594.0 
220.791489 2267.0 
266.968536 2183.0 
292.984436 4003.0 
298.117981 4442.0 
300.068726 5333.0 
312.84024 3985.0 
356.986938 4776.0 
357.103271 32817.0 
357.230377 3661.0 
464.501862 2309.0 
END IONS

BEGIN IONS
NAME="1-{3-[(2-cyclohexylphenoxy)methyl]-4-methoxyphenyl}-1,2,3,4-tetrahydrobeta-car boline-3-carboxylic acid CollisionEnergy:102040" M-H
PRECURSOR_MZ=509.245
INCHI="InChI=1S/C32H34N2O4/c1-37-28-16-15-21(17-22(28)19-38-29-14-8-6-11-23(29)20-9-3-2-4-10-20)30-31-25(18-27(34-30)32(35)36)24-12-5-7-13-26(24)33-31/h5-8,11-17,20,27,30,33-34H,2-4,9-10,18-19H2,1H3,(H,35,36)"
SMILES=COc1ccc(C2NC(C(=O)O)Cc3c2[nH]c2ccccc32)cc1COc1ccccc1C1CCCCC1
SPECTRUMID=CCMSLIB00010113537
50.63271 2532.0 
58.868011 2320.0 
72.008797 74479.0 
73.304092 2955.0 
82.400467 2734.0 
82.738808 2603.0 
92.050484 87515.0 
92.379051 3365.0 
104.286537 3679.0 
116.050499 101558.0 
116.059608 4023.0 
163.797241 2623.0 
169.077438 5371.0 
174.955994 11434.0 
175.112961 134116.0 
211.435959 4281.0 
244.112976 3340.0 
246.091324 6449.0 
260.108398 4012.0 
260.61377 3995.0 
261.140106 4998.0 
275.117737 14322.0 
289.135742 36002.0 
303.240753 3785.0 
304.913208 19682.0 
306.101044 12584.0 
372.903687 4327.0 
380.185699 25706.0 
404.977234 3873.0 
436.225708 4992.0 
437.227203 12335.0 
446.171661 2711.0 
448.225983 5658.0 
463.240662 45728.0 
465.254761 140077.0 
509.244934 586645.0 
END IONS

BEGIN IONS
NAME="7,8-Dihydroxyflavone CollisionEnergy:205060" M-H
PRECURSOR_MZ=253.051
INCHI="InChI=1S/C15H10O4/c16-11-7-6-10-12(17)8-13(19-15(10)14(11)18)9-4-2-1-3-5-9/h1-8,16,18H"
SMILES=O=c1cc(-c2ccccc2)oc2c(O)c(O)ccc12
SPECTRUMID=CCMSLIB00010115563
50.8857 2596.0 
51.023369 14045.0 
61.216751 2844.0 
67.018494 4421.0 
69.034286 12757.0 
82.673607 2786.0 
89.20224 2606.0 
95.013947 26420.0 
97.029243 3041.0 
101.039757 49666.0 
107.013962 98122.0 
117.034554 10027.0 
119.050423 2608.0 
123.008904 108237.0 
127.045303 4527.0 
127.055359 64501.0 
141.070953 34571.0 
143.049667 4609.0 
145.030426 4885.0 
145.065109 3885.0 
151.003662 137731.0 
151.055298 5166.0 
152.062988 20267.0 
152.931503 3354.0 
153.07103 75137.0 
155.050537 3279.0 
158.48497 2790.0 
165.070511 10984.0 
167.050583 3066.0 
168.999176 3593.0 
169.01442 48607.0 
169.065918 122319.0 
171.045212 5872.0 
171.08165 30013.0 
179.050476 5724.0 
180.057449 28377.0 
181.065872 59504.0 
187.075912 12921.0 
195.043396 3037.0 
196.052963 14716.0 
197.060867 193973.0 
199.075775 3294.0 
207.04422 12187.0 
208.053391 69812.0 
209.060837 109838.0 
211.041687 2905.0 
216.922272 6168.0 
217.498901 2429.0 
223.039291 4319.0 
224.047455 26021.0 
225.055801 219953.0 
234.932068 2959.0 
236.046783 12460.0 
252.043091 59274.0 
253.050797 2424680.0 
END IONS

BEGIN IONS
NAME=tert-butyl 4-[(7-methyl-2-oxochromen-4-yl)methyl]piperazinecarboxylate CollisionEnergy:102040 M+Na
PRECURSOR_MZ=381.178
INCHI="InChI=1S/C20H26N2O4/c1-14-5-6-16-15(12-18(23)25-17(16)11-14)13-21-7-9-22(10-8-21)19(24)26-20(2,3)4/h5-6,11-12H,7-10,13H2,1-4H3"
SMILES=Cc1ccc2c(CN3CCN(C(=O)OC(C)(C)C)CC3)cc(=O)oc2c1
SPECTRUMID=CCMSLIB00010105827
60.076721 2582.0 
74.606056 2550.0 
76.855972 2383.0 
118.63813 2911.0 
136.191635 3629.0 
281.125397 1484051.0 
299.135925 66663.0 
322.151703 112928.0 
325.11499 63054.0 
381.177582 1656464.0 
383.170349 2947.0 
END IONS

BEGIN IONS
NAME=ethyl 5-methoxy-2-methyl-1-(3-methylphenyl)indole-3-carboxylate CollisionEnergy:102040 M-e
PRECURSOR_MZ=323.152
INCHI="InChI=1S/C20H21NO3/c1-5-24-20(22)19-14(3)21(15-8-6-7-13(2)11-15)18-10-9-16(23-4)12-17(18)19/h6-12H,5H2,1-4H3"
SMILES=CCOC(=O)c1c(C)n(-c2cccc(C)c2)c2ccc(OC)cc12
SPECTRUMID=CCMSLIB00010105401
54.676922 2669.0 
60.53965 3115.0 
60.652821 2825.0 
60.861031 2487.0 
61.90514 2718.0 
68.347107 3157.0 
75.026138 3221.0 
132.080688 16990.0 
218.096191 6072.0 
234.091629 20680.0 
235.098663 20928.0 
236.106873 86701.0 
248.106873 30027.0 
249.11412 18205.0 
250.122406 174784.0 
251.130203 390147.0 
252.10141 6422.0 
262.08548 3555.0 
264.10257 29100.0 
266.116272 32279.0 
276.101624 115175.0 
276.8526 6148.0 
277.109497 158197.0 
278.117279 214396.0 
279.089386 15530.0 
279.122894 10005.0 
280.097534 105374.0 
280.132812 16328.0 
282.112244 6044.0 
294.112183 136536.0 
295.119843 222794.0 
308.127502 217648.0 
323.151245 3842930.0 
543.19519 2706.0 
547.545715 3299.0 
563.127625 3128.0 
END IONS

BEGIN IONS
NAME="2-amino-15-[(4-chlorophenyl)methyl]-5,16-dioxospiro[4H-pyrano[3,2-c]chromene-4 ,3'-indoline]-3-carbonitrile CollisionEnergy:205060" M+Na
PRECURSOR_MZ=504.072
INCHI="InChI=1S/C27H16ClN3O4/c28-16-11-9-15(10-12-16)14-31-20-7-3-2-6-18(20)27(26(31)33)19(13-29)24(30)35-23-17-5-1-4-8-21(17)34-25(32)22(23)27/h1-12H,14,30H2"
SMILES=N#CC1=C(N)Oc2c(c(=O)oc3ccccc23)C12C(=O)N(Cc1ccc(Cl)cc1)c1ccccc12
SPECTRUMID=CCMSLIB00010122793
50.342239 2210.0 
62.028519 2648.0 
92.366158 3388.0 
101.384857 2821.0 
102.153023 2300.0 
104.270752 2672.0 
125.015343 5323.0 
127.012199 13700.0 
138.95079 2761.0 
149.848404 2749.0 
289.525513 2996.0 
313.35202 2933.0 
438.051544 2630.0 
504.071594 957908.0 
END IONS

BEGIN IONS
NAME="2-amino-6-(hydroxymethyl)-4-(2-nitrophenyl)-8-oxo-4H-pyrano[3,2-b]pyran-3-carb onitrile CollisionEnergy:102040" M+Cl
PRECURSOR_MZ=376.034
INCHI="InChI=1S/C16H11N3O6/c17-6-10-13(9-3-1-2-4-11(9)19(22)23)15-14(25-16(10)18)12(21)5-8(7-20)24-15/h1-5,13,20H,7,18H2"
SMILES=N#CC1=C(N)Oc2c(oc(CO)cc2=O)C1c1ccccc1[N+](=O)[O-]
SPECTRUMID=CCMSLIB00010112376
58.321911 2616.0 
65.014137 40651.0 
69.962288 2011.0 
74.173393 2021.0 
135.680267 2262.0 
183.91301 3455.0 
257.912964 5105.0 
340.056244 3950.0 
END IONS

BEGIN IONS
NAME=7-Hydroxyflavanone CollisionEnergy:205060 M-H
PRECURSOR_MZ=239.071
INCHI="InChI=1S/C15H12O3/c16-11-6-7-12-13(17)9-14(18-15(12)8-11)10-4-2-1-3-5-10/h1-8,14,16H,9H2"
SMILES=O=C1CC(c2ccccc2)Oc2cc(O)ccc21
SPECTRUMID=CCMSLIB00010118822
65.002853 5336.0 
65.039352 17514.0 
69.618584 2503.0 
84.644508 2898.0 
91.018799 945701.0 
92.386101 3439.0 
95.01368 5227.0 
102.95694 13929.0 
104.295143 3950.0 
107.013809 5369.0 
107.223267 2841.0 
108.021767 31693.0 
108.990677 2679.0 
109.029381 83123.0 
117.034714 4475.0 
135.008743 729380.0 
136.219559 3354.0 
141.070648 21651.0 
142.409271 2797.0 
143.050385 4691.0 
144.615509 2557.0 
148.016586 99863.0 
152.062988 2842.0 
153.019272 279647.0 
153.071793 5461.0 
155.050278 2945.0 
157.981766 3098.0 
159.425598 2702.0 
167.086884 28898.0 
167.895554 3260.0 
169.065765 84302.0 
171.080978 3178.0 
178.99234 2379.0 
180.006332 43142.0 
193.065826 16438.0 
195.081619 57814.0 
196.053772 4401.0 
197.060852 1254684.0 
210.081558 5301.0 
210.101425 3318.0 
211.076004 5504.0 
228.917511 3062.0 
239.071487 2533335.0 
END IONS

BEGIN IONS
NAME=O-phospho-L-serine CollisionEnergy:102040 M-H
PRECURSOR_MZ=184.002
INCHI="InChI=1S/C3H8NO6P/c4-2(3(5)6)1-10-11(7,8)9/h2H,1,4H2,(H,5,6)(H2,7,8,9)/t2-/m0/s1"
SMILES=N[C@@H](COP(=O)(O)O)C(=O)O
SPECTRUMID=CCMSLIB00010102849
57.262699 3004.610107 
63.115299 2683.389893 
68.306702 2792.620117 
73.976601 3109.02002 
78.958801 375682.0 
82.423599 3666.679932 
84.214401 3119.459961 
92.404099 3602.429932 
96.969597 1255130.0 
108.169998 2975.810059 
136.251999 4161.939941 
165.990997 4120.689941 
184.001007 27926.300781 
END IONS

BEGIN IONS
NAME=cis-4-Hydroxy-D-proline CollisionEnergy:102040 M-H
PRECURSOR_MZ=130.051
INCHI="InChI=1S/C5H9NO3/c7-3-1-4(5(8)9)6-2-3/h3-4,6-7H,1-2H2,(H,8,9)/t3-,4-/m1/s1"
SMILES=O=C(O)[C@H]1C[C@@H](O)CN1
SPECTRUMID=CCMSLIB00010102631
56.688202 51839.300781 
57.0341 74270.203125 
66.034599 485411.0 
68.050102 565507.0 
71.013496 426448.0 
73.029099 435829.0 
77.486801 44802.898438 
82.029503 321694.0 
84.045303 1424280.0 
92.415604 48201.398438 
112.040001 1326120.0 
128.035004 198862.0 
130.050995 14309700.0 
END IONS

BEGIN IONS
NAME="(3,4-dimethoxyphenyl)-N-[3-(4-pyridylcarbonyl)phenyl]carboxamide CollisionEnergy:102040" M+H
PRECURSOR_MZ=363.134
INCHI="InChI=1S/C21H18N2O4/c1-26-18-7-6-16(13-19(18)27-2)21(25)23-17-5-3-4-15(12-17)20(24)14-8-10-22-11-9-14/h3-13H,1-2H3,(H,23,25)"
SMILES=COc1ccc(C(O)=Nc2cccc(C(=O)c3ccncc3)c2)cc1OC
SPECTRUMID=CCMSLIB00010105416
50.84903 8456.0 
51.59779 6735.0 
54.077351 8105.0 
55.152359 7651.0 
58.885052 14421.0 
58.887959 10555.0 
65.039047 9918.0 
66.046738 9218.0 
68.997307 11157.0 
77.03907 12547.0 
78.033943 80249.0 
79.018204 10249.0 
79.054443 100163.0 
80.049538 14682.0 
89.705643 7375.0 
94.041283 36600.0 
95.048599 7977.0 
98.036461 10207.0 
104.293091 9457.0 
106.028603 890472.0 
107.048897 280124.0 
108.056702 36142.0 
109.028389 98661.0 
109.064774 64751.0 
111.007599 20188.0 
111.031357 34194.0 
111.042809 8189.0 
121.028397 8075.0 
122.035698 65485.0 
123.043762 11683.0 
124.051743 3278991.0 
125.059464 9956.0 
126.031281 59602.0 
133.027725 20021.0 
137.023422 10869.0 
137.058609 9709.0 
139.075119 2048408.0 
141.05394 17790.0 
151.038666 779824.0 
154.065063 20400.0 
155.070374 108146.0 
165.054398 18919700.0 
170.059586 10884.0 
182.060074 131531.0 
184.074936 19804.0 
186.053909 18349.0 
197.070847 254249.0 
197.089645 15821.0 
198.053726 13488.0 
198.077377 20363.0 
200.068741 14380.0 
225.065475 1590494.0 
240.101456 46679.0 
284.091492 63792.0 
319.105438 51706.0 
335.136688 16256.0 
345.124786 13607.0 
347.10083 240060.0 
348.1091 311481.0 
348.151978 10917.0 
361.297943 12107.0 
361.348785 18379.0 
362.125549 15691.0 
363.133087 47943244.0 
364.926727 33451.0 
END IONS

BEGIN IONS
NAME=methyl 2-(3-oxo-2-pentylcyclopentyl)acetate CollisionEnergy:102040 M+Na
PRECURSOR_MZ=249.146
INCHI="InChI=1S/C13H22O3/c1-3-4-5-6-11-10(7-8-12(11)14)9-13(15)16-2/h10-11H,3-9H2,1-2H3"
SMILES=CCCCCC1C(CCC1=O)CC(=O)OC
SPECTRUMID=CCMSLIB00010102395
70.193962 8314.044922 
82.434227 9314.019531 
85.795982 8415.857422 
92.227142 8116.439453 
110.179138 9018.152344 
116.445946 8867.995117 
139.909714 8297.676758 
157.868469 9970.09375 
202.586746 9875.973633 
249.14534 2879829.75 
256.527191 10291.915039 
260.215698 9676.735352 
END IONS

BEGIN IONS
NAME="N-(2,5-dimethylphenyl)-2-{4-[(7-methyl-2-oxochromen-4-yl)methyl]piperazinyl}ac etamide CollisionEnergy:102040" M+H
PRECURSOR_MZ=420.228
INCHI="InChI=1S/C25H29N3O3/c1-17-4-6-19(3)22(12-17)26-24(29)16-28-10-8-27(9-11-28)15-20-14-25(30)31-23-13-18(2)5-7-21(20)23/h4-7,12-14H,8-11,15-16H2,1-3H3,(H,26,29)"
SMILES=Cc1ccc(C)c(N=C(O)CN2CCN(Cc3cc(=O)oc4cc(C)ccc34)CC2)c1
SPECTRUMID=CCMSLIB00010108058
50.816799 2726.0 
53.890949 2937.0 
56.049919 45556.0 
58.065498 34802.0 
69.044693 3449.0 
70.065437 253025.0 
72.081108 42610.0 
73.977921 4298.0 
74.667648 2808.0 
80.47345 3471.0 
82.052773 25475.0 
85.076187 7321.0 
92.411728 4063.0 
97.076019 1588841.0 
98.083817 26685.0 
99.091599 18066.0 
104.319557 4927.0 
111.091614 18413.0 
134.096497 4614.0 
145.064972 5174.0 
174.862656 3219.0 
186.09108 22556.0 
187.074387 4126.0 
214.085785 33048.0 
216.100647 4213.0 
226.086166 7006.0 
228.101334 50883.0 
243.1474 4263.0 
256.119141 3960.0 
271.143524 1537235.0 
420.227234 3787772.0 
422.459564 4908.0 
END IONS

BEGIN IONS
NAME=6-methyl-4-[(1-methyl-5-phenylimidazol-2-ylthio)methyl]hydroquinolin-2-one CollisionEnergy:102040 M+H
PRECURSOR_MZ=362.132
INCHI="InChI=1S/C21H19N3OS/c1-14-8-9-18-17(10-14)16(11-20(25)23-18)13-26-21-22-12-19(24(21)2)15-6-4-3-5-7-15/h3-12H,13H2,1-2H3,(H,23,25)"
SMILES=Cc1ccc2nc(O)cc(CSc3ncc(-c4ccccc4)n3C)c2c1
SPECTRUMID=CCMSLIB00010104089
56.797001 2989.0 
66.740387 3687.0 
69.892227 3016.0 
82.398567 3654.0 
104.283493 4005.0 
130.065445 7247.0 
131.072906 14506.0 
144.080856 115382.0 
148.021545 218953.0 
148.196075 3577.0 
159.091736 191967.0 
171.091919 14189.0 
172.061966 4508.0 
172.075638 188821.0 
173.083496 796459.0 
176.05307 20087.0 
189.048065 1213957.0 
190.055878 3022432.0 
191.062851 7399.0 
195.033554 4273.0 
204.047485 84068.0 
204.067551 6422.0 
218.325333 3913.0 
320.899078 6128.0 
328.142517 34425.0 
329.152069 19466.0 
360.35257 5835.0 
362.131836 7799193.0 
363.92865 7437.0 
END IONS

BEGIN IONS
NAME=DL-PHENYLALANINE CollisionEnergy:205060 M+H
PRECURSOR_MZ=166.086
INCHI="InChI=1S/C9H11NO2/c10-8(9(11)12)6-7-4-2-1-3-5-7/h1-5,8H,6,10H2,(H,11,12)"
SMILES=NC(Cc1ccccc1)C(=O)O
SPECTRUMID=CCMSLIB00010119931
51.023651 39013.0 
52.322491 21988.0 
67.169258 20978.0 
74.024139 37087.0 
74.753258 20257.0 
77.039238 99003.0 
79.054588 1434656.0 
80.049927 40232.0 
91.054314 757564.0 
91.06076 28228.0 
93.070107 2652188.0 
94.065117 31612.0 
103.054337 10846091.0 
105.070168 44253.0 
107.049263 2258881.0 
118.065331 168728.0 
119.072693 110235.0 
119.742317 47255.0 
120.080887 97866552.0 
120.420982 64061.0 
120.429977 22221.0 
121.064484 43860.0 
131.049271 2306875.0 
148.075424 25811.0 
149.059845 762134.0 
166.08638 2349480.0 
END IONS

BEGIN IONS
NAME=Indigo Red CollisionEnergy:205060 M+Na
PRECURSOR_MZ=285.063
INCHI="InChI=1S/C16H10N2O2/c19-15-10-6-2-4-8-12(10)17-14(15)13-9-5-1-3-7-11(9)18-16(13)20/h1-8,17H,(H,18,20)/b14-13-"
SMILES=O=C1C(=C2C(O)=Nc3ccccc32)Nc2ccccc21
SPECTRUMID=CCMSLIB00010121004
57.330551 2087.0 
66.736801 2278.0 
68.271301 2157.0 
90.030907 2660.0 
100.324013 1957.0 
111.138931 2411.0 
134.726669 2653.0 
144.210693 2288.0 
176.987106 2285.0 
183.645996 2698.0 
209.84314 4067.0 
216.828293 1945.0 
285.062805 349341.0 
END IONS

BEGIN IONS
NAME="methyl 4-{N-[2-(4-fluoro-2,7-dimethylindol-3-yl)ethyl]carbamoyl}benzoate CollisionEnergy:205060" M+H
PRECURSOR_MZ=369.161
INCHI="InChI=1S/C21H21FN2O3/c1-12-4-9-17(22)18-16(13(2)24-19(12)18)10-11-23-20(25)14-5-7-15(8-6-14)21(26)27-3/h4-9,24H,10-11H2,1-3H3,(H,23,25)"
SMILES=COC(=O)c1ccc(C(=O)NCCc2c(C)[nH]c3c(C)ccc(F)c23)cc1
SPECTRUMID=CCMSLIB00010120034
53.038872 4308.0 
72.837067 2813.0 
73.961601 3072.0 
74.78067 2972.0 
75.0233 5901.0 
79.017998 4301.0 
83.049477 5925.0 
89.453217 2951.0 
100.633209 3172.0 
103.0177 34060.0 
109.044273 5793.0 
111.043983 12290.0 
120.020943 4168.0 
123.060493 4515.0 
128.0616 13694.0 
135.0439 74037.0 
143.085693 22966.0 
147.059769 3844.0 
148.05574 23756.0 
149.062927 41761.0 
149.076035 39609.0 
153.054459 13345.0 
153.069366 4713.0 
154.064682 5981.0 
155.072632 20336.0 
162.071274 36924.0 
163.038406 362702.0 
163.078552 11783.0 
163.091568 17984.0 
164.086609 16258.0 
168.080688 4339.0 
170.081345 5096.0 
170.096222 57802.0 
171.124451 3331.0 
173.075745 17020.0 
174.070999 93179.0 
175.079071 1359497.0 
176.086594 4156.0 
177.089981 6245.0 
178.102219 6403.0 
180.064865 5480.0 
188.08609 11844.0 
189.094543 17041.0 
190.102448 4196726.0 
206.080841 152275.0 
239.091904 3506.0 
352.135345 3294.0 
369.160248 146209.0 
END IONS

BEGIN IONS
NAME="3,4,5-trimethoxyphenyl 3,4,5-trimethylpyrazolyl ketone CollisionEnergy:102040" M+H
PRECURSOR_MZ=305.15
INCHI="InChI=1S/C16H20N2O4/c1-9-10(2)17-18(11(9)3)16(19)12-7-13(20-4)15(22-6)14(8-12)21-5/h7-8H,1-6H3"
SMILES=COc1cc(C(=O)n2nc(C)c(C)c2C)cc(OC)c1OC
SPECTRUMID=CCMSLIB00010103909
53.038841 2986.0 
60.30941 2476.0 
74.098488 2396.0 
76.265129 2503.0 
79.054459 14824.0 
81.07029 4716.0 
84.959778 3417.0 
90.976967 4985.0 
92.379173 3270.0 
102.9804 2429.0 
104.291946 2681.0 
109.064789 18750.0 
113.023438 4684.0 
113.245079 2474.0 
122.036133 6191.0 
124.052048 18658.0 
128.046829 12379.0 
139.075363 45922.0 
141.018539 12022.0 
152.0466 57678.0 
156.042206 23011.0 
157.981491 2990.0 
185.080887 11185.0 
186.442047 2725.0 
195.065338 3230222.0 
195.771866 3001.0 
258.880188 13700.0 
305.171509 15142.0 
305.210266 5735.0 
305.30365 5344.0 
327.562805 2602.0 
END IONS

BEGIN IONS
NAME=N-(5-chloro-2-methylphenyl)-2-[2-oxo-4-(N-propylcarbamoyl)hydroquinolyl]acetam ide CollisionEnergy:102040 M-H
PRECURSOR_MZ=410.128
INCHI="InChI=1S/C22H22ClN3O3/c1-3-10-24-22(29)17-12-21(28)26(19-7-5-4-6-16(17)19)13-20(27)25-18-11-15(23)9-8-14(18)2/h4-9,11-12H,3,10,13H2,1-2H3,(H,24,29)(H,25,27)"
SMILES=CCCN=C(O)c1cc(=O)n(CC(O)=Nc2cc(Cl)ccc2C)c2ccccc12
SPECTRUMID=CCMSLIB00010113604
54.523121 2874.0 
57.19828 2852.0 
59.013439 5621.0 
66.169807 3086.0 
67.907669 2778.0 
73.953529 3601.0 
92.376984 3526.0 
100.076782 3693.0 
116.050552 22642.0 
128.050552 94160.0 
130.066086 134785.0 
130.425217 2789.0 
131.036209 3178.0 
132.045578 28359.0 
140.027344 81016.0 
140.103119 3115.0 
142.06572 13248.0 
143.061295 4660.0 
144.045395 130708.0 
144.082031 5949.0 
156.069168 34555.0 
157.052765 3499.0 
157.077484 22459.0 
158.04834 93059.0 
158.061325 149474.0 
160.040527 111745.0 
166.006409 3268.0 
172.04071 17532.0 
174.056213 6843.0 
176.071686 88380.0 
183.092667 10994.0 
184.040741 57429.0 
197.10881 42500.0 
199.124115 306755.0 
201.103561 93400.0 
201.679779 3053.0 
202.05098 35132.0 
213.103439 223341.0 
215.11908 46211.0 
225.101822 3591.0 
229.098206 213023.0 
231.114761 11503.0 
243.113739 100454.0 
245.093063 84873.0 
269.093018 62899.0 
275.103973 97083.0 
287.102936 3785.0 
305.986084 6422.0 
325.07486 305842.0 
337.980194 3519.0 
386.868408 3684.0 
410.127808 2254716.0 
END IONS

BEGIN IONS
NAME=3-acetyl-2-(4-chlorophenyl)-4-hydroxy-1-(2-indol-3-ylethyl)-5-oxo-3-pyrroline CollisionEnergy:102040 M+Na
PRECURSOR_MZ=417.098
INCHI="InChI=1S/C22H19ClN2O3/c1-13(26)19-20(14-6-8-16(23)9-7-14)25(22(28)21(19)27)11-10-15-12-24-18-5-3-2-4-17(15)18/h2-9,12,20,24,27H,10-11H2,1H3"
SMILES=CC(=O)C1=C(O)C(=O)N(CCc2c[nH]c3ccccc23)C1c1ccc(Cl)cc1
SPECTRUMID=CCMSLIB00010113015
51.240589 2895.0 
53.69389 2927.0 
54.336811 2628.0 
61.370659 2923.0 
64.367233 2813.0 
90.172623 2892.0 
92.386368 3699.0 
103.070152 2907.0 
116.519722 2804.0 
119.085098 20965.0 
120.088661 17496.0 
144.080231 6147.0 
148.076294 4817.0 
157.992722 4130.0 
210.581039 5851.0 
274.02356 13279.0 
417.09729 5817001.0 
END IONS

BEGIN IONS
NAME="ethyl 2-amino-4-(4-bromophenyl)-5-oxo-4H-pyrano[3,2-c]chromene-3-carboxylate CollisionEnergy:205060" M+Na
PRECURSOR_MZ=464.01
INCHI="InChI=1S/C21H16BrNO5/c1-2-26-20(24)17-15(11-7-9-12(22)10-8-11)16-18(28-19(17)23)13-5-3-4-6-14(13)27-21(16)25/h3-10,15H,2,23H2,1H3"
SMILES=CCOC(=O)C1=C(N)Oc2c(c(=O)oc3ccccc23)C1c1ccc(Br)cc1
SPECTRUMID=CCMSLIB00010121972
54.444962 3084.0 
56.964981 5852.0 
71.086823 2845.0 
98.669487 3268.0 
119.059647 3926.0 
120.877693 5739.0 
121.016617 3549.0 
121.028084 4325.0 
127.011513 3759.0 
130.065323 69554.0 
131.069122 31310.0 
133.075027 20363.0 
136.036926 226540.0 
139.01152 20426.0 
140.014893 5980.0 
141.071579 3232.0 
154.076752 7938.0 
156.067535 14118.0 
157.075974 542075.0 
158.079529 328776.0 
167.007248 49928.0 
168.009842 20698.0 
171.085052 3378.0 
183.091049 34041.0 
184.09462 22141.0 
185.070847 387051.0 
186.074295 281568.0 
187.075089 5901.0 
191.033432 4607.0 
198.07756 6715.0 
211.086258 24705.0 
212.089264 32135.0 
213.642044 3157.0 
221.058563 12987.0 
245.107147 3496.0 
246.110794 5543.0 
249.054321 51336.0 
250.059799 32179.0 
251.062256 4486.0 
259.120941 5146.0 
260.123657 5192.0 
271.090271 4390.0 
283.080933 4237.0 
284.081879 5847.0 
286.10434 5113.0 
287.11795 29023.0 
288.121094 56896.0 
289.126404 4616.0 
290.084351 4992.0 
308.083191 12196.0 
323.093475 12653.0 
324.097382 41609.0 
325.091431 752068.0 
326.094513 1778277.0 
328.978516 11469.0 
330.978119 46145.0 
331.980835 23411.0 
344.961456 12040.0 
345.962891 4778.0 
350.96228 70824.0 
362.970795 15595.0 
363.975464 7061.0 
364.968292 3701.0 
391.989044 4687.0 
417.964874 3504.0 
435.978607 4406.0 
460.758453 3406.0 
464.010223 1048408.0 
464.16333 173439.0 
END IONS

BEGIN IONS
NAME="ethyl 2-amino-4-(2,4-difluorophenyl)-5-oxo-4H-pyrano[3,2-c]chromene-3-carboxyl ate CollisionEnergy:205060" M-H
PRECURSOR_MZ=398.085
INCHI="InChI=1S/C21H15F2NO5/c1-2-27-20(25)17-15(11-8-7-10(22)9-13(11)23)16-18(29-19(17)24)12-5-3-4-6-14(12)28-21(16)26/h3-9,15H,2,24H2,1H3"
SMILES=CCOC(=O)C1=C(N)Oc2c(c(=O)oc3ccccc23)C1c1ccc(F)cc1F
SPECTRUMID=CCMSLIB00010120386
59.96418 2548.0 
65.998131 2160829.0 
67.077637 2684.0 
84.008904 14678.0 
92.143463 3219.0 
99.925797 4064.0 
100.92347 2869.0 
112.040268 1584246.0 
117.034378 167727.0 
118.689201 3759.0 
136.246674 3504.0 
150.915726 2941.0 
161.024078 685127.0 
165.546432 2990.0 
191.139023 3036.0 
212.276184 3754.0 
254.057022 3365.0 
258.978088 3133.0 
352.041809 18577.0 
371.274292 2933.0 
378.077301 11535.0 
398.082336 5262.0 
END IONS

BEGIN IONS
NAME=naringenin CollisionEnergy:205060 M-H
PRECURSOR_MZ=271.061
INCHI="InChI=1S/C15H12O5/c16-9-3-1-8(2-4-9)13-7-12(19)15-11(18)5-10(17)6-14(15)20-13/h1-6,13,16-18H,7H2"
SMILES=O=C1CC(c2ccc(O)cc2)Oc2cc(O)cc(O)c21
SPECTRUMID=CCMSLIB00010116557
54.07074 2155.0 
63.02354 23786.0 
65.002892 126403.0 
68.99778 3781.0 
74.890808 2228.0 
83.013603 83795.0 
92.385849 3267.0 
93.034416 24050.0 
107.013809 188819.0 
117.034561 5607.0 
119.050194 336564.0 
125.0243 5398.0 
130.312256 2351.0 
133.029465 3508.0 
136.218216 3772.0 
143.050171 20465.0 
143.452637 3132.0 
145.029465 14544.0 
151.003662 378310.0 
156.955597 2846.0 
157.066162 4247.0 
161.061096 28327.0 
165.018967 13489.0 
169.014709 14443.0 
172.389114 2413.0 
177.018982 9641.0 
184.053467 2603.0 
185.060715 27794.0 
185.621307 2375.0 
187.022537 3793.0 
187.040146 75131.0 
203.07106 2457.0 
227.071838 23434.0 
252.756287 2473.0 
253.504105 2341.0 
271.061188 451173.0 
280.962341 2704.0 
END IONS

BEGIN IONS
NAME=2-{1-[(4-chlorophenyl)carbonyl]-5-methoxy-2-methylindol-3-yl}-N-[2-(4-chloroph enoxy)ethyl]acetamide CollisionEnergy:205060 M+Na
PRECURSOR_MZ=533.101
INCHI="InChI=1S/C27H24Cl2N2O4/c1-17-23(16-26(32)30-13-14-35-21-9-7-20(29)8-10-21)24-15-22(34-2)11-12-25(24)31(17)27(33)18-3-5-19(28)6-4-18/h3-12,15H,13-14,16H2,1-2H3,(H,30,32)"
SMILES=COc1ccc2c(c1)c(CC(O)=NCCOc1ccc(Cl)cc1)c(C)n2C(=O)c1ccc(Cl)cc1
SPECTRUMID=CCMSLIB00010123173
50.738972 2711.0 
52.86581 2614.0 
56.965069 3499.0 
64.932541 3709.0 
78.208282 3005.0 
104.331673 4233.0 
135.195129 2882.0 
138.994278 6671.0 
140.991348 5056.0 
158.042923 2898.0 
185.4776 2620.0 
212.750793 4748.0 
258.986359 3255.0 
522.673645 3081.0 
533.099609 1602225.0 
533.347961 25033.0 
549.059387 2887.0 
END IONS

BEGIN IONS
NAME="(3,4-dimethoxyphenyl)-N-[(2-methyl(4-quinolyl))methyl]carboxamide CollisionEnergy:205060" M+formate
PRECURSOR_MZ=381.146
INCHI="InChI=1S/C20H20N2O3/c1-13-10-15(16-6-4-5-7-17(16)22-13)12-21-20(23)14-8-9-18(24-2)19(11-14)25-3/h4-11H,12H2,1-3H3,(H,21,23)"
SMILES=COc1ccc(C(O)=NCc2cc(C)nc3ccccc23)cc1OC
SPECTRUMID=CCMSLIB00010116016
54.341019 2207.0 
62.87463 2177.0 
69.703087 2312.0 
89.025757 2195.0 
103.585777 2163.0 
123.008362 4555.0 
136.21843 2990.0 
142.065689 2593.0 
234.200485 2796.0 
318.209747 2644.0 
335.141571 15839.0 
END IONS

BEGIN IONS
NAME=tert-butyl 1-(2-furylmethyl)-5-hydroxy-2-methylbenzo[g]indole-3-carboxylate CollisionEnergy:205060 M+H
PRECURSOR_MZ=378.17
INCHI="InChI=1S/C23H23NO4/c1-14-20(22(26)28-23(2,3)4)18-12-19(25)16-9-5-6-10-17(16)21(18)24(14)13-15-8-7-11-27-15/h5-12,25H,13H2,1-4H3"
SMILES=Cc1c(C(=O)OC(C)(C)C)c2cc(O)c3ccccc3c2n1Cc1ccco1
SPECTRUMID=CCMSLIB00010125605
51.023441 11191.0 
53.002739 3905.0 
53.03616 4830.0 
53.039082 124750.0 
53.04179 5382.0 
57.07037 363547.0 
81.033768 3364060.0 
82.037018 148138.0 
82.40419 3009.0 
132.265488 3325.0 
136.217209 3141.0 
196.075653 52700.0 
197.083176 148968.0 
198.091263 14724.0 
210.056549 2801.0 
210.090805 43076.0 
212.069443 4024.0 
222.05455 4505.0 
223.058929 15599.0 
236.069946 33804.0 
240.065781 19677.0 
241.070999 35688.0 
254.081009 113429.0 
276.101746 3732.0 
277.109467 12224.0 
278.117126 330436.0 
304.095001 3545.0 
313.997162 3336.0 
321.097565 60994.0 
322.103973 387005.0 
332.00238 2978.0 
350.730713 3321.0 
378.115784 10746.0 
378.163635 67994.0 
END IONS

BEGIN IONS
NAME="3-methyl-7-[(3-methylphenyl)methyl]-8-nonylthio-1,3,7-trihydropurine-2,6-dione CollisionEnergy:205060" M+H
PRECURSOR_MZ=429.232
INCHI="InChI=1S/C23H32N4O2S/c1-4-5-6-7-8-9-10-14-30-23-24-20-19(21(28)25-22(29)26(20)3)27(23)16-18-13-11-12-17(2)15-18/h11-13,15H,4-10,14,16H2,1-3H3,(H,25,28,29)"
SMILES=CCCCCCCCCSc1nc2c(c(O)nc(=O)n2C)n1Cc1cccc(C)c1
SPECTRUMID=CCMSLIB00010121531
51.02346 3666.0 
53.03912 28686.0 
55.05476 5538.0 
69.070267 19382.0 
77.039108 2968.0 
79.05455 100166.0 
79.20565 2817.0 
83.08564 3124.0 
84.592209 2592.0 
95.0495 9478.0 
103.054298 60640.0 
104.280746 3369.0 
105.069946 1684189.0 
106.072884 5826.0 
118.647263 3243.0 
129.380371 2581.0 
131.072876 10240.0 
140.028091 5427.0 
142.042984 4341.0 
146.096466 3846.0 
160.075714 3378.0 
168.022842 10356.0 
170.03804 9555.0 
173.108261 4647.0 
186.035095 3290.0 
199.028076 6578.0 
211.028473 15891.0 
213.043839 40694.0 
303.090271 11846.0 
337.168365 32133.0 
429.231323 718610.0 
END IONS

BEGIN IONS
NAME=7-Benzyloxytryptamine CollisionEnergy:205060 M+formate
PRECURSOR_MZ=311.14
INCHI="InChI=1S/C17H18N2O/c18-10-9-14-11-19-17-15(14)7-4-8-16(17)20-12-13-5-2-1-3-6-13/h1-8,11,19H,9-10,12,18H2"
SMILES=NCCc1c[nH]c2c(OCc3ccccc3)cccc12
SPECTRUMID=CCMSLIB00010117770
60.961449 2364.0 
61.296791 2578.0 
82.411827 2136.0 
82.98114 2261.0 
118.966248 54734.0 
146.961075 483934.0 
161.948151 3039.0 
174.079605 12119.0 
174.955963 561898.0 
207.975754 8775.0 
207.998535 4433.0 
242.943558 52048.0 
249.039108 2378.0 
265.134766 282151.0 
267.089813 17900.0 
274.88382 14544.0 
292.891785 4775.0 
END IONS

BEGIN IONS
NAME=8-[2-(4-methylphenoxy)ethylthio]purine-6-ylamine CollisionEnergy:102040 M-H
PRECURSOR_MZ=300.092
INCHI="InChI=1S/C14H15N5OS/c1-9-2-4-10(5-3-9)20-6-7-21-14-18-11-12(15)16-8-17-13(11)19-14/h2-5,8H,6-7H2,1H3,(H3,15,16,17,18,19)"
SMILES=Cc1ccc(OCCSc2nc3c(N)ncnc3[nH]2)cc1
SPECTRUMID=CCMSLIB00010104039
54.093121 2950.0 
56.979912 3647.0 
57.97509 10269.0 
64.019463 3010.0 
65.014137 2738.0 
69.331757 3114.0 
86.984047 3457.0 
106.042542 4113.0 
106.760513 4776.0 
107.050209 7371485.0 
107.34095 5993.0 
123.045303 4857.0 
124.462227 3757.0 
133.051987 13493.0 
134.047241 111933.0 
158.046463 5600.0 
165.011475 32840.0 
165.021255 6595.0 
165.025131 7690.0 
166.019119 653638.0 
185.388565 4409.0 
191.339172 4649.0 
192.034882 6431126.0 
231.932312 4267.0 
300.092133 1338235.0 
END IONS

BEGIN IONS
NAME="2,8-dimethyl-3-(pyrrolidinylmethyl)quinolin-4-ol CollisionEnergy:205060" M+H
PRECURSOR_MZ=257.165
INCHI="InChI=1S/C16H20N2O/c1-11-6-5-7-13-15(11)17-12(2)14(16(13)19)10-18-8-3-4-9-18/h5-7H,3-4,8-10H2,1-2H3,(H,17,19)"
SMILES=Cc1[nH]c2c(C)cccc2c(=O)c1CN1CCCC1
SPECTRUMID=CCMSLIB00010116306
61.175999 3609.0 
71.922867 4139.0 
72.0811 4940738.0 
72.239952 4795.0 
80.130814 3960.0 
80.840988 4957.0 
91.054657 7212.0 
115.053589 4585.0 
116.107048 8611.0 
126.102669 4590.0 
128.063248 4223.0 
131.085831 5291.0 
132.080658 53926.0 
141.069443 5303.0 
143.072708 189468.0 
156.080765 18169.0 
157.088394 9884.0 
157.988998 4600.0 
158.096252 889976.0 
171.067963 25441.0 
185.081909 6179.0 
185.438599 31101.0 
186.091095 23255462.0 
186.748306 32064.0 
188.105194 7276.0 
208.389725 6641.0 
231.14801 7633.0 
246.150955 5720.0 
257.164276 3613940.0 
END IONS

BEGIN IONS
NAME="1-(3,4-dimethoxyphenyl)-2-methylpropan-2-ol CollisionEnergy:102040" M+H-H2O
PRECURSOR_MZ=193.122
INCHI="InChI=1S/C12H18O3/c1-12(2,13)8-9-5-6-10(14-3)11(7-9)15-4/h5-7,13H,8H2,1-4H3"
SMILES=COc1ccc(CC(C)(C)O)cc1OC
SPECTRUMID=CCMSLIB00010111327
50.436939 2371.0 
53.0392 14886.0 
55.05471 64850.0 
75.504829 2644.0 
78.532463 2611.0 
82.388123 3051.0 
85.065063 32764.0 
87.510277 2676.0 
90.631813 2819.0 
91.054329 25382.0 
92.364197 3591.0 
105.069717 12722.0 
107.048927 18814.0 
107.959747 5747.0 
108.057549 2806.0 
118.640877 2833.0 
119.049004 15084.0 
121.064682 32302.0 
122.036102 16020.0 
123.043938 10114.0 
123.079887 11829.0 
124.051857 54146.0 
125.060501 3734.0 
125.963928 4020.0 
126.063591 2970.0 
128.964783 3036.0 
129.070084 4033.0 
131.085556 6041.0 
133.064423 5284.0 
133.101257 5852.0 
135.044205 4534.0 
135.080338 3075.0 
136.051849 296782.0 
137.059692 4365.0 
138.06749 385821.0 
139.075348 146332.0 
146.072479 29116.0 
146.974533 15182.0 
147.02298 5014.0 
147.080063 4199.0 
150.067612 13789.0 
151.075302 2439955.0 
155.974869 3022.0 
161.096008 152745.0 
162.103958 23775.0 
163.076019 3741.0 
165.033737 17850.0 
165.090958 220464.0 
169.08577 3950.0 
169.990356 28358.0 
178.098892 71868.0 
193.122192 2150082.0 
END IONS

BEGIN IONS
NAME="2-methoxyethyl 4-(3-bromo-4-hydroxy-5-methoxyphenyl)-2-methyl-5-oxo-1,4,6,7,8- pentahydroquinoline-3-carboxylate CollisionEnergy:102040" M+formate
PRECURSOR_MZ=510.077
INCHI="InChI=1S/C21H24BrNO6/c1-11-17(21(26)29-8-7-27-2)18(19-14(23-11)5-4-6-15(19)24)12-9-13(22)20(25)16(10-12)28-3/h9-10,18,23,25H,4-8H2,1-3H3"
SMILES=COCCOC(=O)C1=C(C)NC2=C(C(=O)CCC2)C1c1cc(Br)c(O)c(OC)c1
SPECTRUMID=CCMSLIB00010110312
60.539749 2568.0 
73.952682 3072.0 
78.913841 2481.0 
78.918472 23869.0 
92.377937 3113.0 
101.291992 2318.0 
104.290459 3252.0 
118.655746 3470.0 
185.932663 19908.0 
207.624603 14307.0 
236.600922 2673.0 
252.998108 3116.0 
262.108246 5876.0 
464.071503 114529.0 
END IONS

BEGIN IONS
NAME="3,4-Diphenyl-7-hydroxycoumarin CollisionEnergy:205060" M-H
PRECURSOR_MZ=313.087
INCHI="InChI=1S/C21H14O3/c22-16-11-12-17-18(13-16)24-21(23)20(15-9-5-2-6-10-15)19(17)14-7-3-1-4-8-14/h1-13,22H"
SMILES=O=c1oc2cc(O)ccc2c(-c2ccccc2)c1-c1ccccc1
SPECTRUMID=CCMSLIB00010116196
63.02356 5348.0 
65.002708 20614.0 
82.927223 2954.0 
83.328194 2830.0 
91.018761 54157.0 
92.381599 4067.0 
117.034569 300197.0 
135.008591 14781.0 
137.215057 3330.0 
165.070999 12441.0 
167.049286 3007.0 
180.058426 22396.0 
193.066208 6878.0 
208.052979 177623.0 
208.378586 7396.0 
208.397766 4321.0 
215.086609 35376.0 
217.102341 18648.0 
228.094788 4855.0 
229.101761 18410.0 
235.040634 3869.0 
236.047333 5467.0 
237.055573 3711.0 
239.086685 30624.0 
241.102203 126820.0 
243.081497 61254.0 
245.098129 24739.0 
248.047424 3373.0 
256.088593 34448.0 
257.096832 17742.0 
267.081757 146284.0 
268.090118 12444.0 
269.097382 1543097.0 
271.076385 144324.0 
276.888 3529.0 
283.076141 17309.0 
284.084564 60107.0 
285.092194 422319.0 
311.072235 20474.0 
311.643829 3738.0 
312.080719 4821.0 
313.087219 6911154.0 
END IONS

BEGIN IONS
NAME=ferulic acid CollisionEnergy:102040 M-H
PRECURSOR_MZ=193.051
INCHI="InChI=1S/C10H10O4/c1-14-9-6-7(2-4-8(9)11)3-5-10(12)13/h2-6,11H,1H3,(H,12,13)/b5-3+"
SMILES=COc1cc(C=CC(=O)O)ccc1O
SPECTRUMID=CCMSLIB00010111587
63.154709 2163.0 
90.93351 30611.0 
93.034622 3259.0 
106.042892 2264.0 
109.391006 2283.0 
117.035248 8866.0 
121.029442 16650.0 
133.030045 5206.0 
134.037659 679096.0 
137.013474 4970.0 
137.024689 106892.0 
139.040253 34760.0 
149.060944 214926.0 
150.032578 12316.0 
157.984436 2367.0 
178.027451 527474.0 
193.050903 330286.0 
END IONS

BEGIN IONS
NAME="6-amino-4-(3,5-dimethoxyphenyl)-3-methyl-4H-pyrano[2,3-c]pyrazole-5-carbonitri le CollisionEnergy:102040" M-H
PRECURSOR_MZ=311.115
INCHI="InChI=1S/C16H16N4O3/c1-8-13-14(9-4-10(21-2)6-11(5-9)22-3)12(7-17)15(18)23-16(13)20-19-8/h4-6,14H,18H2,1-3H3,(H,19,20)"
SMILES=COc1cc(OC)cc(C2C(C#N)=C(N)Oc3n[nH]c(C)c32)c1
SPECTRUMID=CCMSLIB00010108270
52.260311 2148.0 
53.963661 2044.0 
56.947811 2372.0 
61.641411 2445.0 
65.014023 39615.0 
73.969963 2636.0 
75.947304 2293.0 
82.41494 2852.0 
92.398193 3055.0 
104.304657 2743.0 
111.470909 2126.0 
118.679153 2477.0 
146.961411 30215.0 
165.920059 2219.0 
173.047058 40673.0 
174.956161 186933.0 
242.943298 33758.0 
270.984955 2547.0 
281.067535 9987.0 
284.1073 3888.0 
296.091553 72931.0 
310.996643 13608.0 
311.115112 843734.0 
363.909332 2407.0 
END IONS

BEGIN IONS
NAME="3,4-dimethoxyphenyl 8-methoxy(1,2,3,4-tetrahydroquinolyl) ketone CollisionEnergy:102040" M+Na
PRECURSOR_MZ=350.136
INCHI="InChI=1S/C19H21NO4/c1-22-15-10-9-14(12-17(15)24-3)19(21)20-11-5-7-13-6-4-8-16(23-2)18(13)20/h4,6,8-10,12H,5,7,11H2,1-3H3"
SMILES=COc1ccc(C(=O)N2CCCc3cccc(OC)c32)cc1OC
SPECTRUMID=CCMSLIB00010105041
58.236759 2859.0 
66.477013 2920.0 
88.52784 3024.0 
92.364906 2879.0 
93.844673 3694.0 
170.057205 3764.0 
207.987869 14899.0 
208.009262 3599.0 
293.043274 3050.0 
301.065338 4122.0 
335.112976 18613.0 
350.135559 6902810.0 
368.145935 22848.0 
END IONS

BEGIN IONS
NAME=SYRINGALDEHYDE CollisionEnergy:205060 M+H
PRECURSOR_MZ=183.065
INCHI="InChI=1S/C9H10O4/c1-12-7-3-6(5-10)4-8(13-2)9(7)11/h3-5,11H,1-2H3"
SMILES=COc1cc(C=O)cc(OC)c1O
SPECTRUMID=CCMSLIB00010121266
50.015751 4401.0 
51.023418 20251.0 
53.00285 2834.0 
53.039101 181289.0 
53.45731 2516.0 
55.018341 34746.0 
55.934849 23712.0 
56.94273 139646.0 
65.039017 59411.0 
67.054672 158363.0 
68.997566 4619.0 
71.929489 2698.0 
72.937508 464989.0 
73.959778 3557.0 
74.952972 10104.0 
77.03878 6892.0 
81.033813 42373.0 
84.959671 3418.0 
88.93222 36081.0 
88.938042 3471.0 
89.939758 19107.0 
90.947899 226508.0 
92.383751 3254.0 
95.049278 1857258.0 
99.948036 26327.0 
104.294083 3617.0 
105.044891 42273.0 
106.942596 37931.0 
107.950462 27933.0 
108.958252 27790.0 
110.035721 4002.0 
111.043533 2998.0 
112.955887 5561.0 
113.963707 556882.0 
117.958328 6499.0 
118.942627 12418.0 
118.967194 6575.0 
121.039627 4473.0 
123.044037 1752587.0 
124.953087 20412.0 
125.023338 56611.0 
125.961403 27087.0 
129.958557 3177.0 
130.966293 42584.0 
131.974243 221078.0 
132.94519 3630.0 
136.953156 5735.0 
140.046768 662822.0 
141.05426 6329.0 
141.958618 187191.0 
148.976868 73338.0 
150.92569 2875.0 
150.956131 13411.0 
154.990051 37530.0 
155.07019 535609.0 
157.981644 3962.0 
159.969009 209398.0 
171.993057 5083.0 
181.959183 2975.0 
182.985275 41310.0 
183.065094 176581.0 
END IONS

BEGIN IONS
NAME=Epicatechin CollisionEnergy:102040 M+H
PRECURSOR_MZ=291.086
INCHI="InChI=1S/C15H14O6/c16-8-4-11(18)9-6-13(20)15(21-14(9)5-8)7-1-2-10(17)12(19)3-7/h1-5,13,15-20H,6H2/t13-,15-/m1/s1"
SMILES=Oc1cc(O)c2c(c1)OC(c1ccc(O)c(O)c1)C(O)C2
SPECTRUMID=CCMSLIB00010112793
56.76812 2871.0 
60.536671 2880.0 
66.740929 2929.0 
68.997673 4121.0 
83.048813 2476.0 
85.028992 2892.0 
95.04908 18575.0 
104.285316 2866.0 
118.652679 2946.0 
119.049156 27997.0 
123.044006 906016.0 
127.038673 16433.0 
135.043793 4763.0 
137.059265 5057.0 
139.039001 1648022.0 
143.049286 5124.0 
144.036423 3127.0 
147.044022 234992.0 
151.038818 51842.0 
153.054291 12794.0 
161.059601 65139.0 
163.038574 21605.0 
165.054596 422512.0 
167.722595 2728.0 
169.049316 42917.0 
177.054657 5686.0 
179.06987 42773.0 
181.049057 20556.0 
189.054138 24155.0 
207.065186 118097.0 
218.133789 2571.0 
231.064255 10927.0 
249.076126 40890.0 
273.075195 51390.0 
291.085876 402408.0 
END IONS

BEGIN IONS
NAME="2-(2,5-dimethoxyphenyl)-3-hydroxychromen-4-one CollisionEnergy:205060" M+Na
PRECURSOR_MZ=321.073
INCHI="InChI=1S/C17H14O5/c1-20-10-7-8-13(21-2)12(9-10)17-16(19)15(18)11-5-3-4-6-14(11)22-17/h3-9,19H,1-2H3"
SMILES=COc1ccc(OC)c(-c2oc3ccccc3c(=O)c2O)c1
SPECTRUMID=CCMSLIB00010115523
70.131882 2519.0 
71.323708 2540.0 
72.300392 3097.0 
72.470421 2628.0 
79.176018 3086.0 
95.086014 2991.0 
104.300232 3149.0 
157.99086 3437.0 
162.680832 3133.0 
177.228409 3113.0 
213.563446 3268.0 
213.920486 2728.0 
217.365204 2806.0 
230.224457 2751.0 
301.324249 3916.0 
306.049713 28590.0 
310.916107 2941.0 
319.58609 3835.0 
321.073303 5351416.0 
322.568451 4366.0 
339.083832 24693.0 
END IONS

BEGIN IONS
NAME=Cianidanol CollisionEnergy:102040 M-H
PRECURSOR_MZ=289.072
INCHI="InChI=1S/C15H14O6/c16-8-4-11(18)9-6-13(20)15(21-14(9)5-8)7-1-2-10(17)12(19)3-7/h1-5,13,15-20H,6H2/t13-,15+/m0/s1"
SMILES=Oc1cc(O)c2c(c1)OC(c1ccc(O)c(O)c1)C(O)C2
SPECTRUMID=CCMSLIB00010111119
57.033989 13380.0 
60.155891 3395.0 
76.189453 3124.0 
81.034401 26229.0 
83.013634 29866.0 
88.979141 2855.0 
95.050179 43256.0 
97.029503 86628.0 
104.299606 3321.0 
108.022141 4542.0 
109.029587 370174.0 
121.029701 37844.0 
122.037209 3718.0 
123.045288 160002.0 
125.024551 344108.0 
135.045364 26258.0 
136.245193 2998.0 
137.024551 178144.0 
138.03241 13838.0 
139.040222 60631.0 
145.030228 10549.0 
145.826355 3314.0 
146.037445 14078.0 
146.96167 3569.0 
149.024414 83315.0 
150.032578 5662.0 
151.040253 179785.0 
158.978714 5234.0 
159.044952 24616.0 
160.053253 20861.0 
161.024353 14724.0 
161.06105 96707.0 
162.032486 24230.0 
163.039948 20946.0 
164.011749 44264.0 
165.005051 5010.0 
165.019562 104683.0 
166.026855 14169.0 
167.035309 47519.0 
173.06131 6285.0 
174.032791 4604.0 
174.956512 16051.0 
175.040298 43986.0 
175.076431 26520.0 
177.057114 3615.0 
179.035233 207040.0 
185.061081 17567.0 
187.040298 83980.0 
188.04776 65860.0 
199.077637 6958.0 
201.056107 6565.0 
202.063889 43749.0 
203.035507 25598.0 
203.071548 313664.0 
205.050705 216503.0 
205.073151 5495.0 
209.008469 9432.0 
212.048096 10343.0 
217.051376 4194.0 
217.086975 12477.0 
218.058029 3321.0 
221.082047 98066.0 
221.105972 3265.0 
227.071228 48078.0 
229.050308 4648.0 
230.058441 17779.0 
231.031296 23316.0 
245.082016 816393.0 
247.060974 32697.0 
271.061218 28912.0 
289.072021 3458253.0 
END IONS

BEGIN IONS
NAME="3,6-Dimethyl-4-hydroxycoumarin CollisionEnergy:102040" M+H
PRECURSOR_MZ=191.07
INCHI="InChI=1S/C11H10O3/c1-6-3-4-9-8(5-6)10(12)7(2)11(13)14-9/h3-5,12H,1-2H3"
SMILES=Cc1ccc2oc(=O)c(C)c(O)c2c1
SPECTRUMID=CCMSLIB00010104807
53.81076 3192.0 
55.018459 23055.0 
65.039047 5513.0 
69.034233 4349.0 
72.93737 7233.0 
77.039383 5330.0 
79.054382 12552.0 
82.411926 4021.0 
83.012993 1193007.0 
90.947952 4718.0 
91.054291 192061.0 
93.069901 7785.0 
99.570923 3598.0 
103.0541 4283.0 
105.069946 20959.0 
105.963028 6247.0 
107.048592 32540.0 
107.085426 5079.0 
109.064743 18918.0 
113.963722 35472.0 
115.054871 6816.0 
117.069748 180128.0 
119.085487 617614.0 
128.062393 16487.0 
128.950821 6727.0 
129.069733 88650.0 
131.974045 5167.0 
132.056961 92623.0 
135.043915 483548.0 
135.080322 92851.0 
136.461761 6255.0 
140.036758 4196.0 
141.959015 5841.0 
145.064957 25387.0 
145.467941 22445.0 
147.080429 126916.0 
149.955521 19510.0 
153.053864 18178.0 
159.969406 4618.0 
163.076981 5071.0 
170.468323 4823.0 
173.059677 8816.0 
176.047119 17141.0 
190.063141 5951.0 
190.370728 4637.0 
190.389771 8240.0 
191.070068 24979008.0 
191.754608 7315.0 
210.676529 5576.0 
END IONS

BEGIN IONS
NAME="2-(2,9-dimethyl-6-oxohydropurin-8-ylthio)-N-(3-fluorophenyl)acetamide CollisionEnergy:205060" M+H
PRECURSOR_MZ=348.093
INCHI="InChI=1S/C15H14FN5O2S/c1-8-17-13-12(14(23)18-8)20-15(21(13)2)24-7-11(22)19-10-5-3-4-9(16)6-10/h3-6H,7H2,1-2H3,(H,19,22)(H,17,18,23)"
SMILES=Cc1nc(O)c2nc(SCC(O)=Nc3cccc(F)c3)n(C)c2n1
SPECTRUMID=CCMSLIB00010119360
59.060928 3599.0 
65.543739 2370.0 
69.531059 2740.0 
78.346153 3011.0 
84.985741 75448.0 
84.991081 5938.0 
85.961021 2785.0 
86.006157 4911.0 
96.037163 3392.0 
97.044807 18435.0 
99.160187 2962.0 
104.049744 4485.0 
105.372162 2803.0 
106.039932 3741.0 
108.055611 2732.0 
118.653679 3838.0 
122.040848 2704.0 
124.055962 153309.0 
125.058342 5385.0 
126.01194 18638.0 
134.034058 4213.0 
135.047638 4148.0 
140.02829 5359.0 
147.066315 6712.0 
150.013367 4452.0 
150.034943 14885.0 
150.996155 12769.0 
151.061172 69882.0 
154.006912 298014.0 
163.061218 64260.0 
164.069107 70554.0 
165.076996 159753.0 
166.043823 20874.0 
166.058289 2742.0 
167.038437 5935.0 
168.022675 69238.0 
175.061676 6342.0 
176.069305 60245.0 
177.022858 3518.0 
177.07692 52667.0 
186.032593 13286.0 
191.038086 21094.0 
191.405014 2619.0 
194.026794 4132.0 
195.033493 1687678.0 
196.019913 5986.0 
196.041046 41938.0 
197.04921 13049.0 
209.049057 1117662.0 
210.032715 11778.0 
237.043839 2047054.0 
250.076019 6178.0 
330.080017 4837.0 
348.091797 84609.0 
END IONS

BEGIN IONS
NAME="2H-benzo[3,4-d]1,3-dioxolen-5-yl-N-(1,3-thiazol-2-yl)carboxamide CollisionEnergy:205060" M+H
PRECURSOR_MZ=249.033
INCHI="InChI=1S/C11H8N2O3S/c14-10(13-11-12-3-4-17-11)7-1-2-8-9(5-7)16-6-15-8/h1-5H,6H2,(H,12,13,14)"
SMILES=OC(=Nc1nccs1)c1ccc2c(c1)OCO2
SPECTRUMID=CCMSLIB00010115254
50.015659 4816.0 
51.023472 13081.0 
53.002621 48089.0 
55.018291 58748.0 
63.023701 7043.0 
65.038933 279344.0 
66.744293 4520.0 
67.018158 35949.0 
68.997437 275918.0 
69.033699 17416.0 
71.012947 21398.0 
77.245819 3281.0 
95.012787 224848.0 
96.165459 3431.0 
102.000633 8479.0 
109.028488 23558.0 
110.800133 3542.0 
121.02887 15943.0 
123.00843 5668.0 
125.023178 76760.0 
126.995827 46553.0 
137.023407 16130.0 
139.038712 40703.0 
148.542145 3956.0 
148.555176 7412.0 
149.023209 12906974.0 
149.49382 6106.0 
157.974457 3847.0 
194.080338 3474.0 
210.458817 3565.0 
212.155273 3702.0 
231.021851 105577.0 
240.14798 4257.0 
249.032379 2766214.0 
250.542221 3839.0 
END IONS

BEGIN IONS
NAME="5-acetyl-2-(3,4-dimethoxyphenyl)-1-hydroxy-4-methylimidazole CollisionEnergy:102040" M+H
PRECURSOR_MZ=277.118
INCHI="InChI=1S/C14H16N2O4/c1-8-13(9(2)17)16(18)14(15-8)10-5-6-11(19-3)12(7-10)20-4/h5-7,18H,1-4H3"
SMILES=COc1ccc(-c2nc(C)c(C(C)=O)n2O)cc1OC
SPECTRUMID=CCMSLIB00010103879
51.43475 3903.0 
55.45118 2987.0 
66.746979 3420.0 
72.044487 3309.0 
75.445351 3041.0 
79.054527 4664.0 
92.380989 4324.0 
104.290962 3422.0 
107.575829 3220.0 
114.055222 6096.0 
122.035561 4246.0 
155.070297 14335.0 
164.07019 23806.0 
165.054443 1232763.0 
175.085785 5235.0 
189.102264 5070.0 
190.066666 3180.0 
190.08699 3958.0 
199.086456 24431.0 
200.296234 3197.0 
201.101898 19785.0 
203.080673 6716.0 
212.945129 3494.0 
214.109482 12853.0 
216.089081 19818.0 
217.097092 84301.0 
218.104355 6623.0 
219.075638 7270.0 
220.083572 3136.0 
227.081131 15978.0 
229.096588 42644.0 
230.956345 3958.0 
231.112976 19264.0 
232.084702 3771.0 
232.090668 4018.0 
232.119995 78978.0 
233.091705 36322.0 
235.107483 151065.0 
244.084015 25473.0 
245.091599 543523.0 
246.099899 32698.0 
247.070389 5258.0 
253.87764 5146.0 
259.107422 128864.0 
260.115173 5257513.0 
261.086731 21514.0 
262.093536 30386.0 
263.102081 646293.0 
277.117828 6048455.0 
END IONS

BEGIN IONS
NAME=2-(4-hydroxy-6-methylpyrimidin-2-ylthio)-N-(4-methylphenyl)acetamide CollisionEnergy:205060 M+H
PRECURSOR_MZ=290.096
INCHI="InChI=1S/C14H15N3O2S/c1-9-3-5-11(6-4-9)16-13(19)8-20-14-15-10(2)7-12(18)17-14/h3-7H,8H2,1-2H3,(H,16,19)(H,15,17,18)"
SMILES=Cc1ccc(NC(=O)CSc2nc(C)cc(O)n2)cc1
SPECTRUMID=CCMSLIB00010116121
55.01836 169956.0 
67.018341 51234.0 
69.034073 3594.0 
71.990479 23167.0 
84.044594 4950.0 
89.004112 3155.0 
91.05455 19699.0 
93.05751 30680.0 
93.070007 43021.0 
95.801338 3357.0 
96.044548 4786860.0 
96.289047 3762.0 
103.054199 6801.0 
105.069893 17436.0 
108.080788 397519.0 
117.01181 3594.0 
120.080788 159418.0 
126.000847 55745.0 
127.032593 7003.0 
133.052261 6638.0 
143.02739 150919.0 
146.05983 20620.0 
148.075928 13014.0 
155.027374 2733753.0 
157.044113 4213.0 
165.241348 4049.0 
182.382599 5363.0 
183.022308 4742770.0 
183.665268 4489.0 
204.241501 3234.0 
236.444061 4431.0 
249.109329 3647.0 
272.08493 8053.0 
290.095306 230047.0 
296.317444 3590.0 
END IONS

BEGIN IONS
NAME=cyclopentyl(2-piperazinylquinazolin-4-yl)amine CollisionEnergy:102040 M+H
PRECURSOR_MZ=298.203
INCHI="InChI=1S/C17H23N5/c1-2-6-13(5-1)19-16-14-7-3-4-8-15(14)20-17(21-16)22-11-9-18-10-12-22/h3-4,7-8,13,18H,1-2,5-6,9-12H2,(H,19,20,21)"
SMILES=c1ccc2c(=NC3CCCC3)[nH]c(N3CCNCC3)nc2c1
SPECTRUMID=CCMSLIB00010104235
54.968948 3324.0 
70.065559 122744.0 
76.408546 3234.0 
82.398804 4160.0 
83.886574 3456.0 
99.009804 4035.0 
104.287407 3873.0 
116.281319 3154.0 
118.936813 3658.0 
161.082153 127660.0 
185.082062 25948.0 
187.097717 645620.0 
213.112534 27321.0 
229.144699 645724.0 
230.14003 89909.0 
241.144867 17180.0 
247.182297 3467.0 
253.144501 8088.0 
255.160217 1037278.0 
281.177948 33185.0 
296.188477 5817.0 
296.863861 5609.0 
297.193817 7440.0 
298.202332 15040619.0 
299.547333 6290.0 
300.062439 8124.0 
END IONS

BEGIN IONS
NAME="3-(3-ethoxy-2-hydroxyphenyl)-5-(2-methoxyphenyl)-1-methyl-4,6-dioxo-1,2,3,5,3a ,6a-hexahydro-2,5-diazapentalenecarboxylic acid CollisionEnergy:205060" M-H
PRECURSOR_MZ=439.151
INCHI="InChI=1S/C23H24N2O7/c1-4-32-15-11-7-8-12(19(15)26)18-16-17(23(2,24-18)22(29)30)21(28)25(20(16)27)13-9-5-6-10-14(13)31-3/h5-11,16-18,24,26H,4H2,1-3H3,(H,29,30)"
SMILES=CCOc1cccc(C2NC(C)(C(=O)O)C3C(=O)N(c4ccccc4OC)C(=O)C23)c1O
SPECTRUMID=CCMSLIB00010118277
55.36142 2224.0 
66.76384 3034.0 
86.02462 22854.0 
96.045113 2679.0 
105.13279 2833.0 
107.037773 95769.0 
109.029404 3143.0 
118.02964 4868.0 
121.029602 9948.0 
122.03775 19374.0 
122.061119 57454.0 
123.045486 21317.0 
134.024902 18821.0 
135.0327 14778.0 
136.040436 22437.0 
144.045654 5952.0 
147.044922 2568.0 
161.04808 10334.0 
163.064011 44429.0 
164.072067 75862.0 
164.691559 2677.0 
174.032455 15388.0 
176.071701 4531.0 
189.080093 3848.0 
191.082779 67757.0 
192.10347 70501.0 
203.071487 16494.0 
204.06662 13015.0 
213.066254 2784.0 
217.072327 2845.0 
230.082474 59595.0 
230.122345 3237.0 
236.09317 40105.0 
245.093552 71424.0 
246.114594 3708.0 
301.095093 2690.0 
341.150513 34050.0 
352.116882 3727.0 
395.162262 47754.0 
439.152374 5567.0 
END IONS

BEGIN IONS
NAME=paclitaxel CollisionEnergy:205060 M+H
PRECURSOR_MZ=854.338
INCHI="InChI=1S/C47H51NO14/c1-25-31(60-43(56)36(52)35(28-16-10-7-11-17-28)48-41(54)29-18-12-8-13-19-29)23-47(57)40(61-42(55)30-20-14-9-15-21-30)38-45(6,32(51)22-33-46(38,24-58-33)62-27(3)50)39(53)37(59-26(2)49)34(25)44(47,4)5/h7-21,31-33,35-38,40,51-52,57H,22-24H2,1-6H3,(H,48,54)/t31-,32-,33+,35-,36+,37+,38?,40-,45+,46-,47+/m0/s1"
SMILES=CC(=O)OC1C(=O)C2(C)C(O)CC3OCC3(OC(C)=O)C2C(OC(=O)c2ccccc2)C2(O)CC(OC(=O)C(O)C(N=C(O)c3ccccc3)c3ccccc3)C(C)=C1C2(C)C
SPECTRUMID=CCMSLIB00010125535
61.851021 3920.0 
65.038933 9118.0 
66.688042 5343.0 
67.054619 21271.0 
69.034027 23403.0 
69.070396 4943.0 
77.039032 22179.0 
79.054588 95525.0 
80.210907 4117.0 
81.033836 24479.0 
81.070282 20453.0 
85.028488 5589.0 
91.054413 229782.0 
91.060837 8054.0 
92.366943 4200.0 
93.070099 74256.0 
95.049347 90430.0 
95.055527 8374.0 
95.085564 31843.0 
101.234016 3781.0 
103.054268 23098.0 
104.280121 3631.0 
105.033569 1901182.0 
105.069847 152996.0 
106.065109 7830.0 
106.10273 4455.0 
107.049057 20177.0 
107.08564 40621.0 
109.064796 30193.0 
109.101387 4647.0 
111.043839 6688.0 
115.054237 9077.0 
116.062263 6737.0 
117.069946 19817.0 
118.065437 89421.0 
119.049347 54820.0 
119.085548 64629.0 
120.042953 4438.0 
121.064583 77215.0 
121.101547 33972.0 
122.060097 409578.0 
123.044411 6147.0 
123.080299 31974.0 
128.062149 16697.0 
129.070053 25449.0 
131.049301 4375.0 
131.085754 43416.0 
133.064774 79408.0 
133.101349 76548.0 
135.043976 7357.0 
135.080551 31573.0 
136.075806 6972.0 
137.059769 7315.0 
137.096268 4909.0 
139.075485 5179.0 
141.070206 10055.0 
142.07753 16517.0 
143.085175 42493.0 
145.065109 25649.0 
145.101379 32685.0 
147.044586 7287.0 
147.080276 32199.0 
149.059753 35414.0 
149.095963 37140.0 
151.075272 19357.0 
151.111877 7957.0 
153.580109 4797.0 
154.076767 7967.0 
155.0858 33109.0 
156.094086 9277.0 
157.064545 6659.0 
157.101822 37002.0 
157.114395 4576.0 
159.080597 52431.0 
159.116837 10701.0 
161.059845 18199.0 
161.095932 48473.0 
163.074905 7784.0 
165.070221 25651.0 
166.077728 8318.0 
167.071274 7953.0 
167.085724 25874.0 
168.093735 20294.0 
169.101273 40046.0 
170.109573 5815.0 
171.080551 24611.0 
171.117233 18615.0 
173.060806 5305.0 
173.095932 25480.0 
173.132843 4588.0 
175.075806 8099.0 
175.111725 4551.0 
177.054916 21061.0 
177.091171 24022.0 
178.07753 9945.0 
179.085739 50286.0 
180.093094 22473.0 
181.064621 5908.0 
181.100845 32357.0 
181.150253 4322.0 
182.109421 10289.0 
183.080856 18331.0 
183.116913 29159.0 
185.096298 23485.0 
187.07576 5106.0 
187.111862 17972.0 
189.090317 5241.0 
191.085693 6756.0 
192.09317 9591.0 
193.101837 36597.0 
194.109421 29194.0 
195.08165 18752.0 
195.117203 37562.0 
196.089066 15135.0 
196.12468 5450.0 
197.096283 27582.0 
197.132584 21379.0 
199.112961 6462.0 
201.09201 5273.0 
202.078461 5861.0 
205.101242 27048.0 
206.10939 41402.0 
207.08107 6966.0 
207.11734 25097.0 
207.90239 25627.0 
208.124176 4342.0 
209.09668 36324.0 
209.133209 22260.0 
210.106201 7122.0 
211.111664 21608.0 
211.147705 9652.0 
213.127838 10466.0 
215.085449 5756.0 
217.100418 6604.0 
219.080444 8948.0 
219.11734 9088.0 
220.125549 27211.0 
221.096848 8760.0 
221.132156 29740.0 
222.104385 19180.0 
223.112717 41553.0 
223.147812 6118.0 
224.11937 7715.0 
225.0914 8938.0 
225.127319 18255.0 
227.106659 6926.0 
227.141769 7767.0 
230.108871 8820.0 
233.096329 23608.0 
234.104828 5896.0 
235.111496 8154.0 
235.147049 18069.0 
237.126892 33256.0 
239.107239 9942.0 
239.143677 33401.0 
240.101562 239347.0 
245.13208 17208.0 
247.11142 8872.0 
248.12001 18174.0 
249.127274 25356.0 
251.106384 9560.0 
251.142792 9285.0 
253.123917 6598.0 
253.159195 27342.0 
255.138107 5874.0 
261.126099 6432.0 
263.143036 68638.0 
265.122803 10068.0 
266.128845 5846.0 
267.138153 29848.0 
268.096405 55033.0 
269.081268 8592.0 
269.11734 5209.0 
269.153961 6822.0 
271.16925 6885.0 
279.137787 8342.0 
281.153503 68124.0 
283.13208 5313.0 
285.147491 16095.0 
286.107086 291077.0 
291.137085 42885.0 
297.148682 8727.0 
299.16394 23978.0 
303.403534 7229.0 
309.148499 116811.0 
327.1586 125138.0 
345.169281 25490.0 
369.169067 18850.0 
387.180634 35503.0 
431.183105 6994.0 
439.196594 8441.0 
449.195221 8375.0 
509.216766 86293.0 
END IONS

BEGIN IONS
NAME="(2E)-3-(2H-benzo[3,4-d]1,3-dioxolan-5-yl)-1-{2-[4-(diethylamino)phenyl]-6-hydr oxy-3-azabicyclo[4.4.0]dec-3-yl}prop-2-en-1-one CollisionEnergy:102040" M+2H]
PRECURSOR_MZ=239.141
INCHI="InChI=1S/C29H36N2O4/c1-3-30(4-2)23-12-10-22(11-13-23)28-24-7-5-6-16-29(24,33)17-18-31(28)27(32)15-9-21-8-14-25-26(19-21)35-20-34-25/h8-15,19,24,28,33H,3-7,16-18,20H2,1-2H3/b15-9+"
SMILES=CCN(CC)c1ccc(C2C3CCCCC3(O)CCN2C(=O)C=Cc2ccc3c(c2)OCO3)cc1
SPECTRUMID=CCMSLIB00010107523
61.55138 2210.0 
65.604248 2327.0 
83.551712 2422.0 
89.038727 10090.0 
89.059731 3061.0 
94.065483 2345.0 
104.277046 3054.0 
113.582741 2591.0 
117.033539 23410.0 
122.096252 30492.0 
132.068771 2888.0 
134.096329 12614.0 
134.60672 3924.0 
135.044189 22544.0 
136.111908 23069.0 
136.196579 2659.0 
145.02832 137029.0 
147.044281 12954.0 
147.103867 3306.0 
148.09967 4914.0 
149.107025 5413.0 
150.12793 4866.0 
161.106888 71501.0 
163.038727 74197.0 
175.038864 1107804.0 
176.042374 54140.0 
177.138016 4119.0 
186.055527 4114.0 
226.157852 5426.0 
227.169006 19058.0 
228.161819 2890.0 
230.135483 118836.0 
230.637314 23053.0 
239.164917 3888.0 
255.185272 10639.0 
256.207703 53334.0 
257.202271 2906.0 
283.216034 4442.0 
285.231995 782054.0 
286.235168 77373.0 
303.242676 102384.0 
304.246185 10644.0 
END IONS

BEGIN IONS
NAME=5-Methoxyflavone CollisionEnergy:205060 M+Na
PRECURSOR_MZ=275.068
INCHI="InChI=1S/C16H12O3/c1-18-13-8-5-9-14-16(13)12(17)10-15(19-14)11-6-3-2-4-7-11/h2-10H,1H3"
SMILES=COc1cccc2oc(-c3ccccc3)cc(=O)c12
SPECTRUMID=CCMSLIB00010115705
66.731697 2490.0 
84.959839 5212.0 
87.039078 2299.0 
93.840874 2326.0 
95.66655 2144.0 
111.207809 2412.0 
136.187592 2836.0 
156.59111 2261.0 
260.042084 2897.0 
275.067505 1804945.0 
284.367401 2274.0 
293.078339 12200.0 
END IONS

BEGIN IONS
NAME="ethyl 2-[(2-oxochromen-3-yl)carbonylamino]-4,5,6,7,8,9,10,11,12,13-decahydrocy clododeca[2,1-b]thiophene-3-carboxylate CollisionEnergy:205060" M+H
PRECURSOR_MZ=482.2
INCHI="InChI=1S/C27H31NO5S/c1-2-32-27(31)23-19-14-9-7-5-3-4-6-8-10-16-22(19)34-25(23)28-24(29)20-17-18-13-11-12-15-21(18)33-26(20)30/h11-13,15,17H,2-10,14,16H2,1H3,(H,28,29)"
SMILES=CCOC(=O)c1c(N=C(O)c2cc3ccccc3oc2=O)sc2c1CCCCCCCCCC2
SPECTRUMID=CCMSLIB00010122943
51.023411 5381.0 
51.376099 2695.0 
60.237469 2904.0 
65.351898 3505.0 
77.038872 6697.0 
79.054642 4083.0 
81.070084 3092.0 
82.435516 2793.0 
89.038757 31736.0 
90.976334 11292.0 
91.054283 6412.0 
92.416344 3787.0 
105.069771 4868.0 
126.037613 3290.0 
129.034027 5149.0 
129.044479 7121.0 
145.028549 33910.0 
153.674438 2632.0 
158.042908 3519.0 
173.022934 34881.0 
180.011276 11514.0 
191.03392 2162442.0 
192.037643 22294.0 
193.037888 3858.0 
210.634247 4696.0 
210.6539 6828.0 
266.026825 6528.0 
280.044342 10526.0 
290.121582 3953.0 
326.047913 4007.0 
357.068451 3796.0 
358.070312 5275.0 
390.151428 5916.0 
392.168365 51200.0 
436.157623 1290452.0 
482.199341 89251.0 
482.277313 4419.0 
501.485229 3356.0 
505.260376 3190.0 
END IONS

BEGIN IONS
NAME=adenine CollisionEnergy:102040 M+H
PRECURSOR_MZ=136.062
INCHI="InChI=1S/C5H5N5/c6-4-3-5(9-1-7-3)10-2-8-4/h1-2H,(H3,6,7,8,9,10)"
SMILES=Nc1nc[nH]c2ncnc1-2
SPECTRUMID=CCMSLIB00010126900
51.394699 1870.099976 
91.054802 3051.110107 
94.040398 13543.200195 
119.035004 28284.0 
136.022003 55585.300781 
136.061996 1607820.0 
136.112 17469.599609 
137.046005 43758.800781 
END IONS

BEGIN IONS
NAME="2,9-dimethyl-8-{[5-methyl-2-(4-methylphenyl)(1,3-oxazol-4-yl)]methylthio}hydro purin-6-one CollisionEnergy:102040" M+Na
PRECURSOR_MZ=404.115
INCHI="InChI=1S/C19H19N5O2S/c1-10-5-7-13(8-6-10)18-22-14(11(2)26-18)9-27-19-23-15-16(24(19)4)20-12(3)21-17(15)25/h5-8H,9H2,1-4H3,(H,20,21,25)"
SMILES=Cc1ccc(-c2nc(CSc3nc4c(O)nc(C)nc4n3C)c(C)o2)cc1
SPECTRUMID=CCMSLIB00010107072
53.20274 2819.0 
74.121689 2831.0 
92.371017 3165.0 
104.278893 3689.0 
118.065033 110538.0 
122.919693 2718.0 
186.091141 810177.0 
218.022995 256587.0 
219.030884 659149.0 
232.32016 3020.0 
246.737259 3374.0 
259.312408 3136.0 
389.091003 4266.0 
404.114441 4932648.0 
END IONS

BEGIN IONS
NAME=hexyl 2-[(4-hydroxy-2-oxo-3-hydroquinolyl)carbonylamino]benzoate CollisionEnergy:102040 M+Na
PRECURSOR_MZ=431.158
INCHI="InChI=1S/C23H24N2O5/c1-2-3-4-9-14-30-23(29)16-11-6-8-13-18(16)25-22(28)19-20(26)15-10-5-7-12-17(15)24-21(19)27/h5-8,10-13H,2-4,9,14H2,1H3,(H,25,28)(H2,24,26,27)"
SMILES=CCCCCCOC(=O)c1ccccc1N=C(O)c1c(O)nc2ccccc2c1O
SPECTRUMID=CCMSLIB00010112367
54.352299 2623.0 
60.145309 3030.0 
61.67157 2782.0 
70.961433 2415.0 
73.953003 2784.0 
74.781807 2590.0 
90.976807 10667.0 
92.377296 3792.0 
95.916977 2666.0 
115.486397 2847.0 
118.653809 3569.0 
158.964523 3758.0 
208.692841 4945.0 
208.714264 5879.0 
210.016586 5076.0 
218.943375 2721.0 
226.951584 21185.0 
228.026489 35651.0 
244.130585 1185291.0 
247.385193 2830.0 
251.045517 2556.0 
262.141052 5361.0 
285.157562 55518.0 
292.133026 3120.0 
365.161224 3018.0 
431.157227 1103652.0 
END IONS

BEGIN IONS
NAME="2-methoxyethyl 2-amino-7,7-dimethyl-5-oxo-4-(3-pyridyl)-4H-6,7,8-trihydrochrom ene-3-carboxylate CollisionEnergy:205060" M+Na
PRECURSOR_MZ=395.158
INCHI="InChI=1S/C20H24N2O5/c1-20(2)9-13(23)16-14(10-20)27-18(21)17(19(24)26-8-7-25-3)15(16)12-5-4-6-22-11-12/h4-6,11,15H,7-10,21H2,1-3H3"
SMILES=COCCOC(=O)C1=C(N)OC2=C(C(=O)CC(C)(C)C2)C1c1cccnc1
SPECTRUMID=CCMSLIB00010115957
50.99374 2452.0 
53.889061 2447.0 
58.721539 2691.0 
63.800171 2427.0 
66.539261 2730.0 
74.317787 2377.0 
82.414268 2642.0 
99.041603 45453.0 
116.331963 2283.0 
185.436584 2529.0 
190.954819 3027.0 
223.39505 2697.0 
233.219284 2341.0 
238.064957 2419.0 
265.362213 2552.0 
275.817383 2311.0 
289.37561 2417.0 
319.062134 5730.0 
319.104553 184501.0 
395.15683 732406.0 
END IONS

BEGIN IONS
NAME=Glycocholic acid CollisionEnergy:102040 M+H-H2O
PRECURSOR_MZ=448.306
INCHI="InChI=1S/C26H43NO6/c1-14(4-7-22(31)27-13-23(32)33)17-5-6-18-24-19(12-21(30)26(17,18)3)25(2)9-8-16(28)10-15(25)11-20(24)29/h14-21,24,28-30H,4-13H2,1-3H3,(H,27,31)(H,32,33)/t14-,15+,16-,17-,18+,19+,20-,21+,24+,25+,26-/m1/s1"
SMILES=C[C@H](CCC(O)=NCC(=O)O)[C@H]1CC[C@H]2[C@H]3[C@H](C[C@H](O)[C@@]21C)[C@@]1(C)CC[C@@H](O)C[C@H]1C[C@H]3O
SPECTRUMID=CCMSLIB00010103070
60.550201 14619.400391 
73.967499 19602.800781 
75.352097 18894.199219 
76.040001 170228.0 
82.416397 17719.300781 
85.065102 25042.599609 
92.393997 19102.599609 
93.070396 22132.400391 
95.0858 31047.5 
105.07 28692.900391 
107.084999 55962.5 
119.085999 18666.199219 
121.100998 17416.5 
131.085007 34586.5 
133.100998 25084.5 
135.115997 19946.300781 
136.235992 17344.699219 
145.100998 26683.900391 
147.115997 22006.599609 
157.100998 31519.199219 
158.080994 79055.601562 
159.117004 52952.5 
161.132004 15653.0 
171.115997 21993.599609 
173.132004 16518.900391 
175.147003 15063.400391 
183.115997 20075.5 
185.132004 54477.601562 
187.147995 22478.0 
197.130997 25283.400391 
199.147995 58191.398438 
201.164001 22744.800781 
209.132996 171209.0 
211.147003 35319.601562 
213.162994 113025.0 
215.179993 17506.0 
223.147995 24607.0 
225.162994 26808.900391 
227.141998 91231.898438 
227.179001 79121.5 
239.811996 16726.699219 
241.195007 21455.300781 
243.175003 17824.800781 
273.204987 19099.199219 
289.200989 16779.400391 
293.229004 23643.5 
311.753998 15051.5 
319.240997 240938.0 
337.252014 563511.0 
355.261993 54924.199219 
412.28299 1782370.0 
417.692993 15214.900391 
430.294006 852335.0 
448.304993 605543.0 
END IONS

BEGIN IONS
NAME=AC1MJ3VH CollisionEnergy:205060 M+Na
PRECURSOR_MZ=550.168
INCHI="InChI=1S/C27H29NO10/c1-10-22(30)14(28)7-17(37-10)38-16-9-27(35,11(2)29)8-13-19(16)26(34)21-20(24(13)32)23(31)12-5-4-6-15(36-3)18(12)25(21)33/h4-6,10,14,16-17,22,30,32,34-35H,7-9,28H2,1-3H3/t10?,14?,16-,17?,22?,27-/m0/s1"
SMILES=COc1cccc2c1C(=O)c1c(O)c3c(c(O)c1C2=O)CC(O)(C(C)=O)CC3OC1CC(N)C(O)C(C)O1
SPECTRUMID=CCMSLIB00010124901
58.065552 53838.0 
60.044739 14856.0 
61.028782 3570.0 
67.054443 12977.0 
68.049843 4752.0 
69.033737 14067.0 
71.049591 22543.0 
72.044762 33921.0 
82.394577 3452.0 
84.080811 3358.0 
86.060226 218896.0 
92.374123 4316.0 
95.049011 11914.0 
113.059509 11800.0 
130.086304 13866.0 
152.068146 15700.0 
170.078033 3910.0 
312.038879 26508.0 
342.049133 84202.0 
343.057007 485638.0 
345.073914 3848.0 
359.050751 6391.0 
360.059967 6230.0 
385.067657 354589.0 
403.078125 620890.0 
418.779755 3495.0 
421.088409 200257.0 
550.167419 134002.0 
END IONS

BEGIN IONS
NAME=ethyl 3-{N-[2-(N-phenylcarbamoyl)phenyl]carbamoyl}propanoate CollisionEnergy:205060 M-H
PRECURSOR_MZ=339.135
INCHI="InChI=1S/C19H20N2O4/c1-2-25-18(23)13-12-17(22)21-16-11-7-6-10-15(16)19(24)20-14-8-4-3-5-9-14/h3-11H,2,12-13H2,1H3,(H,20,24)(H,21,22)"
SMILES=CCOC(=O)CCC(O)=Nc1ccccc1C(O)=Nc1ccccc1
SPECTRUMID=CCMSLIB00010116961
53.726891 2482.0 
59.237 2451.0 
63.381329 2747.0 
64.702492 2444.0 
73.029343 3336.0 
73.959618 3331.0 
92.050362 735703.0 
92.99559 12123.0 
98.024712 11387.0 
102.034683 23443.0 
104.289726 2500.0 
116.050453 21184.0 
117.045731 5853.0 
118.029701 4208.0 
118.065689 3724.0 
128.0504 41693.0 
130.055008 7414.0 
130.065994 225610.0 
131.037521 17025.0 
131.050018 15120.0 
132.045441 13074.0 
136.03981 3447.0 
136.220413 3838.0 
144.045303 179424.0 
145.040665 6035.0 
145.940002 3171.0 
146.025101 3513.0 
146.048645 5607.0 
146.061035 89671.0 
146.074127 3088.0 
156.045578 45321.0 
157.053177 161040.0 
157.980011 3719.0 
166.066254 60640.0 
168.081909 54508.0 
168.299713 3499.0 
171.056061 10807.0 
172.040543 39302.0 
173.071548 22718.0 
174.055954 51800.0 
190.038452 37532.0 
193.077072 377061.0 
198.042236 3810.0 
200.03537 42609.0 
206.097809 5020.0 
211.087677 308503.0 
212.16777 2863.0 
219.092285 6450.0 
221.108353 59962.0 
231.092712 13984.0 
232.984558 4323.0 
233.072174 79830.0 
234.079727 3603.0 
237.062897 3541.0 
247.087326 32951.0 
249.10321 421620.0 
254.986389 19116.0 
275.082703 189356.0 
278.984589 3804.0 
289.498444 2718.0 
293.09314 1614687.0 
318.982239 5134.0 
338.990051 11273.0 
339.21701 15502.0 
END IONS

BEGIN IONS
NAME="methyl 4-(3-bromophenyl)-2,7,7-trimethyl-5-oxo-1,4,6,7,8-pentahydroquinoline-3 -carboxylate CollisionEnergy:205060" M+H
PRECURSOR_MZ=404.086
INCHI="InChI=1S/C20H22BrNO3/c1-11-16(19(24)25-4)17(12-6-5-7-13(21)8-12)18-14(22-11)9-20(2,3)10-15(18)23/h5-8,17,22H,9-10H2,1-4H3"
SMILES=COC(=O)C1=C(C)NC2=C(C(=O)CC(C)(C)C2)C1c1cccc(Br)c1
SPECTRUMID=CCMSLIB00010116963
55.054878 3158.0 
66.61573 3293.0 
70.76442 3271.0 
83.049423 37091.0 
132.044174 15546.0 
136.038742 4093.0 
149.047043 70080.0 
150.090988 2974.0 
160.039322 89956.0 
164.070633 155454.0 
173.083618 5029.0 
180.080536 16375.0 
181.08812 21224.0 
182.943832 38097.0 
188.106949 309567.0 
189.114334 3747.0 
190.085999 4016.0 
190.12233 4196.0 
192.065521 429479.0 
194.191788 3852.0 
204.101562 5945.0 
208.075974 77091.0 
209.083557 468567.0 
210.090988 54915.0 
216.101913 458250.0 
218.081314 11563.0 
218.11853 5351.0 
221.103531 3572.0 
222.091019 6487.0 
222.127899 4471.0 
223.099365 97185.0 
234.091812 12551.0 
236.070465 162623.0 
237.078934 4425.0 
241.07309 5666.0 
248.128036 2325243.0 
249.149384 4309.0 
250.086029 19766.0 
250.122513 36864.0 
260.1073 6118.0 
264.110321 3550.0 
264.137878 30336.0 
265.144653 26459.0 
274.122101 3824.0 
276.103516 7815.0 
276.137024 67140.0 
278.117371 83042.0 
285.985535 21111.0 
288.001556 267962.0 
292.132874 583183.0 
293.140778 96877.0 
312.000793 3966.0 
313.980988 42310.0 
314.016144 5554.0 
315.996368 223701.0 
324.002594 26853.0 
328.032654 6873.0 
337.019989 3374.0 
338.015869 25506.0 
342.012695 5863.0 
344.063812 7205.0 
354.048798 29294.0 
356.026428 12381.0 
370.043274 115246.0 
372.059082 1363150.0 
404.085388 1239528.0 
END IONS

BEGIN IONS
NAME="5-(2H-benzo[3,4-d]1,3-dioxolen-5-ylmethylene)-1-benzyl-1,3-dihydropyrimidine-2 ,4,6-trione CollisionEnergy:205060" M+H
PRECURSOR_MZ=351.098
INCHI="InChI=1S/C19H14N2O5/c22-17-14(8-13-6-7-15-16(9-13)26-11-25-15)18(23)21(19(24)20-17)10-12-4-2-1-3-5-12/h1-9H,10-11H2,(H,20,22,24)/b14-8+"
SMILES=O=C1N=C(O)C(=Cc2ccc3c(c2)OCO3)C(=O)N1Cc1ccccc1
SPECTRUMID=CCMSLIB00010126036
63.270149 2427.0 
78.489182 2475.0 
91.424469 2211.0 
94.27359 2374.0 
94.684753 2480.0 
95.149269 2312.0 
104.277733 2884.0 
108.78167 2510.0 
128.734512 2465.0 
134.221008 2478.0 
135.118454 2387.0 
165.227783 2233.0 
234.089417 3406.0 
241.141663 2243.0 
258.089325 2440.0 
261.07431 3012.0 
262.083344 4083.0 
275.088226 2538.0 
277.098724 3795.0 
278.106415 2893.0 
279.109344 4715.0 
287.089294 5138.0 
288.069672 2943.0 
289.093658 11598.0 
290.077667 12698.0 
303.08374 16898.0 
304.089691 3016.0 
305.091125 56595.0 
306.103851 4496.0 
307.105621 53655.0 
312.155457 2823.0 
323.099152 9583.0 
333.083344 5589.0 
351.094513 791014.0 
366.439178 2515.0 
END IONS

BEGIN IONS
NAME=2-{1-[(4-chlorophenyl)carbonyl]-5-methoxy-2-methylindol-3-yl}-N-(3-piperidylpr opyl)acetamide CollisionEnergy:205060 M+Cl
PRECURSOR_MZ=516.183
INCHI="InChI=1S/C27H32ClN3O3/c1-19-23(18-26(32)29-13-6-16-30-14-4-3-5-15-30)24-17-22(34-2)11-12-25(24)31(19)27(33)20-7-9-21(28)10-8-20/h7-12,17H,3-6,13-16,18H2,1-2H3,(H,29,32)"
SMILES=COc1ccc2c(c1)c(CC(O)=NCCCN1CCCCC1)c(C)n2C(=O)c1ccc(Cl)cc1
SPECTRUMID=CCMSLIB00010115829
57.178101 2152.0 
61.988041 2582.0 
65.091797 2442.0 
79.792671 2298.0 
82.02401 2790.0 
82.409042 3679.0 
92.391228 3091.0 
104.296638 3725.0 
104.304047 3283.0 
118.669289 2925.0 
146.961212 3371.0 
END IONS

BEGIN IONS
NAME="2-[1-(4-methoxyphenyl)(1,2,3,4-tetrahydrobeta-carbolin-2-yl)]-N-naphthylacetam ide CollisionEnergy:102040" M+H
PRECURSOR_MZ=462.218
INCHI="InChI=1S/C30H27N3O2/c1-35-22-15-13-21(14-16-22)30-29-25(24-10-4-5-11-27(24)32-29)17-18-33(30)19-28(34)31-26-12-6-8-20-7-2-3-9-23(20)26/h2-16,30,32H,17-19H2,1H3,(H,31,34)"
SMILES=COc1ccc(C2c3[nH]c4ccccc4c3CCN2CC(O)=Nc2cccc3ccccc23)cc1
SPECTRUMID=CCMSLIB00010107369
50.62521 2695.0 
52.572109 2935.0 
53.55653 2613.0 
85.917412 3142.0 
91.111443 2795.0 
92.387413 3034.0 
104.22245 2478.0 
118.667351 3635.0 
121.064903 75940.0 
124.893661 2884.0 
136.22049 3284.0 
144.080734 84965.0 
145.064896 6263.0 
148.07547 12184.0 
152.880096 3172.0 
156.080673 754116.0 
171.090958 3714.0 
182.059998 7009.0 
184.075745 2915.0 
195.091339 3377.0 
213.101944 674222.0 
218.095474 4122.0 
230.095261 4384.0 
235.099503 6650.0 
236.106552 122474.0 
250.122284 984971.0 
262.122131 131101.0 
264.138794 15401.0 
281.163788 11129.0 
291.149414 26303.0 
319.143341 32391.0 
343.995575 3060.0 
442.68515 3168.0 
462.216644 962065.0 
END IONS

BEGIN IONS
NAME=N-(3-chloro-4-fluorophenyl)-2-[2-oxo-4-(piperidylcarbonyl)hydroquinolyl]acetam ide CollisionEnergy:102040 M+formate
PRECURSOR_MZ=486.124
INCHI="InChI=1S/C23H21ClFN3O3/c24-18-12-15(8-9-19(18)25)26-21(29)14-28-20-7-3-2-6-16(20)17(13-22(28)30)23(31)27-10-4-1-5-11-27/h2-3,6-9,12-13H,1,4-5,10-11,14H2,(H,26,29)"
SMILES=O=C(c1cc(=O)n(CC(O)=Nc2ccc(F)c(Cl)c2)c2ccccc12)N1CCCCC1
SPECTRUMID=CCMSLIB00010112954
61.504589 2226.0 
65.088623 2189.0 
73.96019 2798.0 
73.964577 3309.0 
79.524521 2390.0 
87.89711 2430.0 
92.388168 2924.0 
104.301941 3637.0 
118.6688 2937.0 
128.050613 3272.0 
187.782669 2284.0 
209.265213 2661.0 
223.229965 2785.0 
245.652557 2619.0 
295.105469 2995.0 
440.119354 71618.0 
END IONS

BEGIN IONS
NAME=CHEMBL66966 CollisionEnergy:205060 2M-H
PRECURSOR_MZ=719.162
INCHI="InChI=1S/C18H16O8/c19-12-4-1-10(7-14(12)21)3-6-17(23)26-16(18(24)25)9-11-2-5-13(20)15(22)8-11/h1-8,16,19-22H,9H2,(H,24,25)/b6-3+"
SMILES=O=C(C=Cc1ccc(O)c(O)c1)OC(Cc1ccc(O)c(O)c1)C(=O)O
SPECTRUMID=CCMSLIB00010122043
64.621964 3163.0 
72.992821 319862.0 
73.963341 4746.0 
78.673271 3215.0 
92.387863 3550.0 
104.299263 4087.0 
105.034187 3571.0 
122.705521 3622.0 
123.045197 150380.0 
128.816849 3693.0 
132.021255 4865.0 
133.029541 369684.0 
134.037292 14200.0 
135.045181 334326.0 
151.039719 4306.0 
161.024567 1431914.0 
174.956879 7193.0 
179.035095 218258.0 
182.257568 3421.0 
197.0457 186836.0 
215.006042 3616.0 
223.0233 4408.0 
359.077454 688269.0 
360.081665 3780.0 
615.825684 3444.0 
625.174011 4459.0 
END IONS

BEGIN IONS
NAME="1-(4-bromophenyl)-5-(indol-3-ylmethylene)-1,3-dihydropyrimidine-2,4,6-trione CollisionEnergy:102040" M+H
PRECURSOR_MZ=410.013
INCHI="InChI=1S/C19H12BrN3O3/c20-12-5-7-13(8-6-12)23-18(25)15(17(24)22-19(23)26)9-11-10-21-16-4-2-1-3-14(11)16/h1-10,21H,(H,22,24,26)/b15-9+"
SMILES=O=C1N=C(O)C(=Cc2c[nH]c3ccccc23)C(=O)N1c1ccc(Br)cc1
SPECTRUMID=CCMSLIB00010112219
54.80423 3183.0 
57.4188 2823.0 
69.992241 3818.0 
99.531616 3774.0 
104.294746 3642.0 
115.05423 5593.0 
118.064796 5732.0 
130.065887 4089.0 
140.049271 7705.0 
142.06459 14747.0 
145.075546 13958.0 
146.060104 7877.0 
167.060165 31323.0 
168.045044 12443.0 
170.059784 180528.0 
171.054932 130286.0 
171.071396 5060.0 
189.452087 2947.0 
195.055069 425132.0 
196.039032 377043.0 
197.954819 20340.0 
205.959351 46871.0 
211.050507 4691.0 
212.057007 13099.0 
213.065521 87351.0 
214.0495 599757.0 
234.572388 3537.0 
239.044617 362704.0 
243.091003 19702.0 
244.098663 61814.0 
260.094452 56239.0 
270.078094 233741.0 
270.112 6545.0 
287.080902 730571.0 
288.088593 297301.0 
288.126434 5061.0 
299.019043 6348.0 
312.073242 4712.0 
323.01709 68003.0 
330.086121 5667.0 
331.093994 49274.0 
339.013519 5094.0 
348.996887 38323.0 
367.006866 252497.0 
410.012604 6432256.0 
END IONS

BEGIN IONS
NAME=CHLOROGENIC ACID CollisionEnergy:102040 M-H
PRECURSOR_MZ=353.088
INCHI="InChI=1S/C16H18O9/c17-9-3-1-8(5-10(9)18)2-4-13(20)25-12-7-16(24,15(22)23)6-11(19)14(12)21/h1-5,11-12,14,17-19,21,24H,6-7H2,(H,22,23)/b4-2+/t11-,12-,14-,16+/m1/s1"
SMILES=O=C(C=Cc1ccc(O)c(O)c1)OC1CC(O)(C(=O)O)CC(O)C1O
SPECTRUMID=CCMSLIB00010113650
50.617489 2698.0 
59.013241 3027.0 
64.782852 3452.0 
71.01329 4175.0 
84.693832 2555.0 
85.029152 43139.0 
87.0084 12240.0 
92.388359 3104.0 
93.034241 15140.0 
111.045143 5236.0 
127.039749 21381.0 
130.072968 3258.0 
135.045074 21045.0 
157.992325 2987.0 
161.023956 90482.0 
173.045654 24569.0 
179.034729 77960.0 
190.512695 3288.0 
191.055908 6185409.0 
200.988693 2822.0 
216.922485 5829.0 
284.908325 12331.0 
353.087463 612204.0 
END IONS

BEGIN IONS
NAME=5-Hydroxyflavone CollisionEnergy:102040 M+H
PRECURSOR_MZ=239.07
INCHI="InChI=1S/C15H10O3/c16-11-7-4-8-13-15(11)12(17)9-14(18-13)10-5-2-1-3-6-10/h1-9,16H"
SMILES=O=c1cc(-c2ccccc2)oc2cccc(O)c12
SPECTRUMID=CCMSLIB00010104961
55.356609 2779.0 
58.192989 3609.0 
79.021652 5866.0 
92.37513 5046.0 
97.173912 3225.0 
104.28196 3412.0 
136.203232 3394.0 
137.023712 46074.0 
155.033524 3940.0 
186.043625 7045.0 
186.545898 3653.0 
187.039993 3961.0 
206.528015 7273.0 
215.920151 5535.0 
238.06221 15050.0 
238.115158 15721.0 
239.070114 13478258.0 
240.030762 14404.0 
END IONS

BEGIN IONS
NAME="3-(2,4-dichlorophenyl)-8-[(dimethylamino)methyl]-7-hydroxychromen-4-one CollisionEnergy:205060" M+Na
PRECURSOR_MZ=386.032
INCHI="InChI=1S/C18H15Cl2NO3/c1-21(2)8-13-16(22)6-5-12-17(23)14(9-24-18(12)13)11-4-3-10(19)7-15(11)20/h3-7,9,22H,8H2,1-2H3"
SMILES=CN(C)Cc1c(O)ccc2c(=O)c(-c3ccc(Cl)cc3Cl)coc12
SPECTRUMID=CCMSLIB00010116907
61.60284 2419.0 
70.211273 2768.0 
71.972107 2234.0 
73.956779 2522.0 
75.718231 2883.0 
82.397888 3001.0 
104.285683 3249.0 
118.654732 3472.0 
156.104324 2377.0 
174.313385 2682.0 
295.373383 2841.0 
340.974182 1364204.0 
344.966461 3106.0 
358.983978 59609.0 
382.001465 33073.0 
386.030548 12378.0 
END IONS

BEGIN IONS
NAME=para-topolin riboside CollisionEnergy:102040 2M-H
PRECURSOR_MZ=773.301
INCHI="InChI=1S/C18H21N5O5/c1-27-11-4-2-10(3-5-11)6-19-16-13-17(21-8-20-16)23(9-22-13)18-15(26)14(25)12(7-24)28-18/h2-5,8-9,12,14-15,18,24-26H,6-7H2,1H3,(H,19,20,21)/t12-,14-,15-,18-/m1/s1"
SMILES=COC1=CC=C(C=C1)CNC2=C3C(=NC=N2)N(C=N3)[C@H]4[C@@H]([C@@H]([C@H](O4)CO)O)O
SPECTRUMID=CCMSLIB00010102229
85.251846 4740.17627 
105.947792 4694.769531 
133.039185 32916.605469 
175.108582 5073.690918 
220.798798 4809.350098 
254.104599 451506.0625 
386.146881 102401.4375 
412.629517 5421.068848 
END IONS

BEGIN IONS
NAME=Indole-3-butyric acid CollisionEnergy:102040 M-H
PRECURSOR_MZ=202.087
INCHI="InChI=1S/C12H13NO2/c14-12(15)7-3-4-9-8-13-11-6-2-1-5-10(9)11/h1-2,5-6,8,13H,3-4,7H2,(H,14,15)"
SMILES=O=C(O)CCCc1c[nH]c2ccccc12
SPECTRUMID=CCMSLIB00010110866
50.792488 2299.0 
55.155979 2414.0 
59.013229 3020.0 
73.029068 3170.0 
76.811577 2174.0 
98.825127 2026.0 
107.931839 3022.0 
110.384369 2079.0 
116.05085 228317.0 
118.656952 2326.0 
128.012009 2428.0 
142.067032 4307.0 
156.082275 3580.0 
158.097839 291826.0 
161.048645 5350.0 
184.077271 30145.0 
202.08783 1196395.0 
208.206177 11570.0 
END IONS

BEGIN IONS
NAME="2-(6,8-dimethyl-4-oxochromen-2-yl)benzoic acid CollisionEnergy:102040" M+H
PRECURSOR_MZ=295.096
INCHI="InChI=1S/C18H14O4/c1-10-7-11(2)17-14(8-10)15(19)9-16(22-17)12-5-3-4-6-13(12)18(20)21/h3-9H,1-2H3,(H,20,21)"
SMILES=Cc1cc(C)c2oc(-c3ccccc3C(=O)O)cc(=O)c2c1
SPECTRUMID=CCMSLIB00010105323
52.72953 2549.0 
53.387878 2417.0 
60.53244 2545.0 
71.531837 2495.0 
71.76609 2470.0 
90.976768 3208.0 
92.370277 3121.0 
93.070236 2392.0 
104.277908 3396.0 
105.069809 6168.0 
118.644958 3113.0 
121.064934 3433.0 
129.03363 177460.0 
144.106201 2630.0 
147.04425 27303.0 
149.059845 260250.0 
173.023514 5529.0 
195.080505 16819.0 
213.547318 3024.0 
216.978027 4175.0 
219.693787 3114.0 
221.096848 6123.0 
234.988083 65429.0 
249.090302 12727.0 
251.106033 16866.0 
277.085693 385680.0 
280.076599 3104.0 
295.096375 3519651.0 
296.405579 3417.0 
END IONS

BEGIN IONS
NAME="2',4'-DIHYDROXYACETOPHENONE CollisionEnergy:102040" M+H
PRECURSOR_MZ=153.055
INCHI="InChI=1S/C8H8O3/c1-5(9)7-3-2-6(10)4-8(7)11/h2-4,10-11H,1H3"
SMILES=CC(=O)c1ccc(O)cc1O
SPECTRUMID=CCMSLIB00010108256
58.16732 61084.0 
92.34938 89810.0 
93.034126 118746.0 
101.01622 64975.0 
104.25518 82838.0 
107.049622 1776339.0 
111.044647 665634.0 
111.968498 79328.0 
112.297028 66552.0 
125.060547 82594.0 
135.044235 10362989.0 
136.172058 96939.0 
153.054794 48327884.0 
157.928879 76099.0 
169.421082 73033.0 
END IONS

BEGIN IONS
NAME=3-({2-[2-methyl-5-(phenylmethoxy)indol-3-yl]ethyl}amino)-5-phenyl-2-propanoylc yclohex-2-en-1-one CollisionEnergy:102040 M-H
PRECURSOR_MZ=505.25
INCHI="InChI=1S/C33H34N2O3/c1-3-31(36)33-30(18-25(19-32(33)37)24-12-8-5-9-13-24)34-17-16-27-22(2)35-29-15-14-26(20-28(27)29)38-21-23-10-6-4-7-11-23/h4-15,20,25,34-35H,3,16-19,21H2,1-2H3"
SMILES=CCC(=O)C1=C(NCCc2c(C)[nH]c3ccc(OCc4ccccc4)cc23)CC(c2ccccc2)CC1=O
SPECTRUMID=CCMSLIB00010104764
73.972198 3776.0 
75.064613 2670.0 
103.604347 3050.0 
104.311043 3256.0 
120.711082 2596.0 
125.179352 2610.0 
158.061279 25958.0 
164.927536 5429.0 
171.069107 29174.0 
174.955338 3124.0 
186.093826 4194.0 
222.506012 2822.0 
226.087067 51418.0 
232.913757 5101.0 
240.103394 19944.0 
242.118561 470718.0 
242.942749 3276.0 
242.986343 3958.0 
254.119553 18781.0 
256.134216 5504.0 
300.903839 4927.0 
304.985901 4514.0 
354.979462 5820.0 
358.16864 5062.0 
368.888794 4561.0 
374.988525 3493.0 
378.978027 10881.0 
413.18689 3438.0 
414.194672 801282.0 
420.969208 3417.0 
444.973511 16684.0 
449.224121 6409.0 
464.976471 19010.0 
484.980469 19005.0 
504.977356 81271.0 
505.249725 703719.0 
847.42627 2937.0 
END IONS

BEGIN IONS
NAME=AC1L9PTI CollisionEnergy:205060 M-H
PRECURSOR_MZ=669.422
INCHI="InChI=1S/C36H62O11/c1-10-34(31-20(3)16-26(43-31)28-19(2)15-21(4)36(41,18-37)46-28)12-11-27(44-34)33(8)13-14-35(47-33)17-25(38)22(5)30(45-35)23(6)29(42-9)24(7)32(39)40/h19-31,37-38,41H,10-18H2,1-9H3,(H,39,40)/t19-,20-,21+,22+,23-,24?,25-,26+,27+,28-,29+,30-,31+,33-,34-,35+,36-/m0/s1"
SMILES=CCC1(C2OC(C3OC(O)(CO)C(C)CC3C)CC2C)CCC(C2(C)CCC3(CC(O)C(C)C(C(C)C(OC)C(C)C(=O)O)O3)O2)O1
SPECTRUMID=CCMSLIB00010117355
51.94315 2960.0 
55.884121 2865.0 
57.034119 35760.0 
58.005341 3789.0 
66.745567 3463.0 
68.45002 3028.0 
71.049744 5756.0 
73.95575 3317.0 
77.454193 2745.0 
85.029243 14131.0 
85.128906 2963.0 
87.044937 93573.0 
97.065643 4695.0 
99.044884 13419.0 
101.060791 72844.0 
104.287193 4593.0 
111.081581 12095.0 
113.061073 6121.0 
123.081123 3927.0 
125.060181 2961.0 
137.096909 24055.0 
137.624283 2689.0 
141.091858 6476.0 
141.890396 3285.0 
153.092407 4307.0 
177.128387 3526.0 
223.739883 3425.0 
253.643021 3008.0 
276.339478 2981.0 
293.676392 2898.0 
409.220764 3433.0 
526.931519 3636.0 
637.404907 5539.0 
669.423035 728981.0 
END IONS

BEGIN IONS
NAME="8-[(2,6-dimethylmorpholin-4-yl)methyl]-7-hydroxy-3-(2-methoxyphenyl)-2-(triflu oromethyl)chromen-4-one CollisionEnergy:102040" M-H
PRECURSOR_MZ=462.153
INCHI="InChI=1S/C24H24F3NO5/c1-13-10-28(11-14(2)32-13)12-17-18(29)9-8-16-21(30)20(15-6-4-5-7-19(15)31-3)23(24(25,26)27)33-22(16)17/h4-9,13-14,29H,10-12H2,1-3H3"
SMILES=COc1ccccc1-c1c(C(F)(F)F)oc2c(CN3CC(C)OC(C)C3)c(O)ccc2c1=O
SPECTRUMID=CCMSLIB00010103717
60.175911 21527.0 
60.538212 24149.0 
66.99189 20616.0 
68.995163 148738.0 
78.513451 24700.0 
92.377098 18109.0 
92.647614 18173.0 
96.921539 21154.0 
108.989769 24233.0 
118.655403 22764.0 
136.01622 344672.0 
139.6875 19497.0 
185.02327 26608.0 
188.780853 22821.0 
207.543854 116587.0 
227.031372 49119.0 
248.047379 108114.0 
251.031952 38515.0 
260.047485 127284.0 
261.053375 198673.0 
264.039459 42402.0 
265.050446 2199287.0 
269.042023 40830.0 
272.047638 31800.0 
273.052856 31944.0 
279.06604 1146789.0 
282.05014 49433.0 
285.038147 25623.0 
288.041779 37190.0 
289.048645 354068.0 
291.065155 32407.0 
293.025543 93926.0 
295.039642 114066.0 
297.034302 187015.0 
301.032104 24219.0 
304.072113 130807.0 
305.042114 549017.0 
308.05426 27177.0 
313.030701 111010.0 
316.037811 37575.0 
317.042572 414574.0 
319.057312 163825.0 
328.055054 24309.0 
333.03772 3418613.0 
334.047729 31690.0 
346.033386 84634.0 
347.053558 557316.0 
348.061035 3268612.0 
349.06955 1004017.0 
352.060944 26891.0 
362.140503 120578.0 
366.033356 139788.0 
376.079865 129261.0 
378.135651 392501.0 
380.051086 15183354.0 
382.056549 47575.0 
388.079681 598409.0 
404.075012 39009.0 
432.145233 36986.0 
461.14035 48219.0 
462.153381 102658288.0 
463.147919 34772.0 
END IONS

BEGIN IONS
NAME="2-amino-6-(hydroxymethyl)-4-(2-nitrophenyl)-8-oxo-4H-pyrano[3,2-b]pyran-3-carb onitrile CollisionEnergy:205060" M+Na
PRECURSOR_MZ=364.054
INCHI="InChI=1S/C16H11N3O6/c17-6-10-13(9-3-1-2-4-11(9)19(22)23)15-14(25-16(10)18)12(21)5-8(7-20)24-15/h1-5,13,20H,7,18H2"
SMILES=N#CC1=C(N)Oc2c(oc(CO)cc2=O)C1c1ccccc1[N+](=O)[O-]
SPECTRUMID=CCMSLIB00010123704
67.568336 2181.0 
92.364532 2445.0 
94.477043 2064.0 
98.345833 2257.0 
104.269386 2759.0 
157.942657 2220.0 
158.964981 3298.0 
254.046005 2921.0 
266.04129 4157.0 
270.778015 2384.0 
294.036835 19381.0 
337.040985 21636.0 
364.052979 164172.0 
END IONS

BEGIN IONS
NAME="(2Z)-2-(acetylamino)-N-(2,5-dimethylphenyl)-3-phenylprop-2-enamide CollisionEnergy:102040" M-H
PRECURSOR_MZ=307.145
INCHI="InChI=1S/C19H20N2O2/c1-13-9-10-14(2)17(11-13)21-19(23)18(20-15(3)22)12-16-7-5-4-6-8-16/h4-12H,1-3H3,(H,20,22)(H,21,23)/b18-12-"
SMILES=CC(O)=NC(=Cc1ccccc1)C(O)=Nc1cc(C)ccc1C
SPECTRUMID=CCMSLIB00010108992
60.733791 2505.0 
71.112053 2438.0 
92.396271 2374.0 
102.956802 78964.0 
104.304222 2639.0 
112.985153 11430.0 
116.050346 88207.0 
118.066147 70181.0 
120.081673 413576.0 
133.065765 63984.0 
142.065536 11885.0 
144.08165 13475.0 
162.092102 3595.0 
164.070755 3520.0 
170.943741 6081.0 
171.09169 2751.0 
172.100586 3536.0 
173.071793 6197.0 
185.428558 3307.0 
186.055817 257739.0 
208.096603 13946.0 
216.089752 3786.0 
216.988846 6149.0 
220.671051 2482.0 
220.983551 2767.0 
222.128265 3153.0 
242.985901 47090.0 
262.993469 3389.0 
263.15451 13022.0 
265.134399 569279.0 
266.986145 24936.0 
286.974304 11402.0 
289.134369 87064.0 
300.982819 2784.0 
303.220306 2818.0 
303.252625 3845.0 
306.986603 5197.0 
307.144897 528526.0 
END IONS

BEGIN IONS
NAME="(6-bromo-2-oxochromen-3-yl)-N-(2,2,6,6-tetramethyl(4-piperidyl))carboxamide CollisionEnergy:102040" M+Na
PRECURSOR_MZ=429.078
INCHI="InChI=1S/C19H23BrN2O3/c1-18(2)9-13(10-19(3,4)22-18)21-16(23)14-8-11-7-12(20)5-6-15(11)25-17(14)24/h5-8,13,22H,9-10H2,1-4H3,(H,21,23)"
SMILES=CC1(C)CC(N=C(O)c2cc3cc(Br)ccc3oc2=O)CC(C)(C)N1
SPECTRUMID=CCMSLIB00010106352
76.709099 2747.0 
82.416847 2595.0 
92.397926 2587.0 
99.075172 2529.0 
137.06694 2273.0 
207.966339 2442.0 
317.955048 2600.0 
369.018005 2597.0 
404.648956 3047.0 
429.077637 635052.0 
429.600983 3272.0 
END IONS

BEGIN IONS
NAME=Flt-3 inhibitor CollisionEnergy:102040 M-H
PRECURSOR_MZ=359.107
INCHI="InChI=1S/C18H20N2O4S/c1-23-12-8-7-10(9-13(12)24-2)17(22)20-18-15(16(19)21)11-5-3-4-6-14(11)25-18/h7-9H,3-6H2,1-2H3,(H2,19,21)(H,20,22)"
SMILES=COc1ccc(C(O)=Nc2sc3c(c2C(N)=O)CCCC3)cc1OC
SPECTRUMID=CCMSLIB00010112909
50.468719 2452.0 
50.578499 2367.0 
51.01342 2513.0 
62.87635 2461.0 
66.745941 2464.0 
74.401512 2634.0 
95.139008 2870.0 
117.860268 2705.0 
125.042931 40487.0 
136.2117 3212.0 
144.045517 3614.0 
150.001785 12096.0 
150.037384 3300.0 
151.046234 50533.0 
152.053864 81869.0 
159.056076 13340.0 
176.018066 3735.0 
178.033279 315227.0 
180.066467 40943.0 
181.051926 3486.0 
192.989243 5218.0 
194.051865 82863.0 
209.625107 5562.0 
242.987015 14465.0 
254.985519 21032.0 
263.003357 2674.0 
270.981201 4177.0 
274.993439 11178.0 
278.427887 2646.0 
292.983795 24514.0 
311.049744 3773.0 
318.983215 3594.0 
326.072479 4735.0 
329.061035 19234.0 
341.097321 23866.0 
343.077423 3778.0 
344.082916 29257.0 
358.973114 50331.0 
359.107269 1499475.0 
END IONS

BEGIN IONS
NAME="N-(2H-benzo[3,4-d]1,3-dioxolen-5-ylmethyl)(5-(1,2,4-triazolyl)adamantanyl)carb oxamide CollisionEnergy:205060" M+formate
PRECURSOR_MZ=425.183
INCHI="InChI=1S/C21H24N4O3/c26-19(23-9-14-1-2-17-18(4-14)28-13-27-17)20-5-15-3-16(6-20)8-21(7-15,10-20)25-12-22-11-24-25/h1-2,4,11-12,15-16H,3,5-10,13H2,(H,23,26)"
SMILES=OC(=NCc1ccc2c(c1)OCO2)C12CC3CC(C1)CC(n1cncn1)(C3)C2
SPECTRUMID=CCMSLIB00010114837
50.048 2560.0 
57.38493 2347.0 
58.580799 2360.0 
66.0084 2280.0 
68.025009 18320.0 
72.2463 2390.0 
73.983429 2705.0 
93.034508 4444.0 
121.029556 2550.0 
136.260025 3330.0 
191.610245 2574.0 
210.128372 4951.0 
245.140015 4478.0 
351.181091 4918.0 
379.177338 181307.0 
380.98877 2749.0 
425.186981 2712.0 
END IONS

BEGIN IONS
NAME=folic acid CollisionEnergy:102040 M-2H]
PRECURSOR_MZ=219.563
INCHI="InChI=1S/C19H19N7O6/c20-19-25-15-14(17(30)26-19)23-11(8-22-15)7-21-10-3-1-9(2-4-10)16(29)24-12(18(31)32)5-6-13(27)28/h1-4,8,12,21H,5-7H2,(H,24,29)(H,27,28)(H,31,32)(H3,20,22,25,26,30)/t12-/m0/s1"
SMILES=N=c1nc(O)c2nc(CNc3ccc(C(=O)N[C@@H](CCC(=O)O)C(=O)O)cc3)cnc2[nH]1
SPECTRUMID=CCMSLIB00010102644
59.013401 14152.0 
59.5989 8498.709961 
64.097198 9107.070312 
68.869003 9577.290039 
75.576302 8867.179688 
82.029701 33514.800781 
83.514297 8331.120117 
85.029099 15722.299805 
104.355003 10023.900391 
120.362999 8753.519531 
122.025002 33194.398438 
122.530998 8375.349609 
128.035004 10506.900391 
132.044006 41747.699219 
138.005005 9598.589844 
147.057007 34717.5 
154.548996 161080.0 
155.041 384097.0 
173.164001 9267.629883 
174.042007 44662.800781 
174.565002 9406.719727 
175.050003 262463.0 
175.087006 18497.0 
175.572998 197072.0 
176.059998 37636.601562 
176.095993 55344.898438 
177.102997 20175.800781 
197.567993 626387.0 
207.039001 129552.0 
210.559006 12194.0 
214.313995 9908.80957 
216.065994 8667.230469 
219.563004 82807.703125 
END IONS

BEGIN IONS
NAME="3-[2-(diethylamino)ethyl]-2-(3,4,5-trimethoxyphenyl)-1,2,3-trihydroquinazolin- 4-one CollisionEnergy:102040" M-e
PRECURSOR_MZ=413.231
INCHI="InChI=1S/C23H31N3O4/c1-6-25(7-2)12-13-26-22(24-18-11-9-8-10-17(18)23(26)27)16-14-19(28-3)21(30-5)20(15-16)29-4/h8-11,14-15,22,24H,6-7,12-13H2,1-5H3"
SMILES=CCN(CC)CCN1C(=O)c2ccccc2NC1c1cc(OC)c(OC)c(OC)c1
SPECTRUMID=CCMSLIB00010104237
68.339371 2678.0 
73.949516 2443.0 
74.265213 2631.0 
81.191879 2493.0 
83.940826 2616.0 
85.389671 2427.0 
86.096527 14630.0 
89.016197 2859.0 
93.486938 2859.0 
97.17424 2515.0 
100.112061 71894.0 
101.115089 22463.0 
103.683006 3003.0 
118.648048 2852.0 
127.360703 3359.0 
173.070663 13335.0 
176.947769 2857.0 
206.803177 2884.0 
246.160751 31510.0 
293.09137 5323.0 
294.096558 23290.0 
294.128448 2561.0 
298.108124 5115.0 
299.111145 3413.0 
307.102356 5132.0 
309.086395 3251.0 
310.089142 6204.0 
313.117676 16947.0 
324.106079 11829.0 
339.133392 221548.0 
340.136688 996777.0 
341.150421 42537.0 
342.152557 27908.0 
413.225433 1186795.0 
414.23877 56897.0 
END IONS

BEGIN IONS
NAME=2-{[(2-fluorophenyl)methyl]amino}-3-indol-3-ylpropanoic acid CollisionEnergy:102040 M+H
PRECURSOR_MZ=313.135
INCHI="InChI=1S/C18H17FN2O2/c19-15-7-3-1-5-12(15)10-21-17(18(22)23)9-13-11-20-16-8-4-2-6-14(13)16/h1-8,11,17,20-21H,9-10H2,(H,22,23)"
SMILES=O=C(O)C(Cc1c[nH]c2ccccc12)NCc1ccccc1F
SPECTRUMID=CCMSLIB00010105516
57.132179 3100.0 
82.396553 3712.0 
83.029228 4855.0 
84.960182 3709.0 
91.054253 46464.0 
109.044769 1382218.0 
115.054253 8333.0 
117.057297 16542.0 
118.064919 102369.0 
118.645767 5718.0 
126.071693 36738.0 
128.049561 3837.0 
130.054749 7182.0 
130.064926 127416.0 
131.073944 4344.0 
132.080704 3735963.0 
136.20285 4866.0 
142.065002 20175.0 
143.07312 19402.0 
143.094193 4179.0 
144.044113 8547.0 
144.080688 344764.0 
146.059952 1841023.0 
149.023102 21224.0 
158.083588 19297.0 
159.09169 18968.0 
160.075668 21613.0 
170.05957 101203.0 
182.06102 773125.0 
187.404175 7630.0 
188.070374 6893214.0 
188.741119 6577.0 
202.106354 4171.0 
224.086273 21959.0 
226.102066 22414.0 
230.889969 5481.0 
236.086761 77514.0 
238.100235 5545.0 
240.117432 40902.0 
248.900177 32150.0 
250.10054 26260.0 
252.117798 5602.0 
254.096909 70819.0 
266.910828 15876.0 
267.129028 219703.0 
278.096222 6843.0 
296.107574 431671.0 
313.134033 4916525.0 
END IONS

BEGIN IONS
NAME="10-methyl-3,10-dihydrobenzo[g]pteridine-2,4-dione CollisionEnergy:205060" M+Na
PRECURSOR_MZ=251.054
INCHI="InChI=1S/C11H8N4O2/c1-15-7-5-3-2-4-6(7)12-8-9(15)13-11(17)14-10(8)16/h2-5H,1H3,(H,14,16,17)"
SMILES=Cn1c2nc(=O)nc(O)c-2nc2ccccc21
SPECTRUMID=CCMSLIB00010121295
52.34972 2135.0 
59.04969 2336.0 
59.259171 1945.0 
66.88121 2125.0 
84.959877 2431.0 
98.984329 15933.0 
121.79924 2099.0 
147.030563 2218.0 
157.993591 2393.0 
200.648331 2520.0 
251.053833 306029.0 
END IONS

BEGIN IONS
NAME=3-hydroxy-7-methyl-2-[4-(phenylmethoxy)phenyl]chromen-4-one CollisionEnergy:205060 M+H
PRECURSOR_MZ=359.128
INCHI="InChI=1S/C23H18O4/c1-15-7-12-19-20(13-15)27-23(22(25)21(19)24)17-8-10-18(11-9-17)26-14-16-5-3-2-4-6-16/h2-13,25H,14H2,1H3"
SMILES=Cc1ccc2c(=O)c(O)c(-c3ccc(OCc4ccccc4)cc3)oc2c1
SPECTRUMID=CCMSLIB00010120433
65.035042 5951.0 
65.038933 140308.0 
66.046852 3421.0 
66.465408 3181.0 
81.472832 3107.0 
91.054314 3276611.0 
92.057617 6718.0 
104.277733 3280.0 
105.033478 14463.0 
106.041443 29664.0 
119.048607 7616.0 
119.371246 3437.0 
122.378792 2901.0 
123.009987 3125.0 
129.070389 3574.0 
134.036163 14294.0 
135.043991 118714.0 
141.069473 4789.0 
152.046844 59499.0 
155.084808 4895.0 
156.093201 6257.0 
156.441376 3040.0 
158.073044 5646.0 
160.015076 5007.0 
161.059738 6650.0 
166.077728 6126.0 
167.084824 3473.0 
169.063919 28234.0 
183.080032 49942.0 
184.088394 28846.0 
185.059525 4645.0 
189.054535 4272.0 
195.080521 53884.0 
197.05957 60848.0 
198.06752 6546.0 
201.053024 3488.0 
211.075027 262945.0 
212.082916 531897.0 
214.062042 5939.0 
224.082535 6530.0 
225.03096 3286.0 
225.054108 24212.0 
239.069489 65854.0 
240.077652 896152.0 
251.069305 15172.0 
253.049667 4910.0 
253.083389 3747.0 
267.065094 21504.0 
268.072449 570585.0 
315.241638 2982.0 
331.131775 22685.0 
359.127014 2657252.0 
363.623993 3451.0 
END IONS

BEGIN IONS
NAME=(1E)-2-(4-ethoxyphenyl)-1-azavinyl (2Z)-3-phenylprop-2-enoate CollisionEnergy:102040 M+H
PRECURSOR_MZ=296.128
INCHI="InChI=1S/C18H17NO3/c1-2-21-17-11-8-16(9-12-17)14-19-22-18(20)13-10-15-6-4-3-5-7-15/h3-14H,2H2,1H3/b13-10-,19-14+"
SMILES=CCOc1ccc(C=NOC(=O)C=Cc2ccccc2)cc1
SPECTRUMID=CCMSLIB00010107419
51.380859 2616.0 
52.523602 2750.0 
53.039139 33059.0 
56.639622 2612.0 
65.038986 62132.0 
66.750351 2635.0 
69.033813 11534.0 
71.013206 4748.0 
81.033783 4067.0 
82.405952 3919.0 
83.012863 18143.0 
88.948013 2397.0 
91.054398 87645.0 
91.198502 2696.0 
91.579109 2666.0 
92.025192 3977.0 
92.04982 9652.0 
92.387718 2953.0 
93.033157 3188.0 
93.069969 5063.0 
95.049301 13048.0 
97.028381 16331.0 
103.05423 75814.0 
103.231354 2802.0 
109.028633 3144.0 
111.043869 12474.0 
120.04438 492183.0 
121.040001 6235.0 
121.064758 14664.0 
125.023247 6124.0 
131.049118 366590.0 
139.075333 121774.0 
139.087509 4003.0 
148.075607 3257826.0 
149.05928 41585.0 
149.070999 101540.0 
189.102554 2581.0 
194.871307 2777.0 
211.535233 2773.0 
252.138809 3035.0 
268.085907 3279.0 
268.254578 2693.0 
296.118195 19279.0 
304.207397 3345.0 
END IONS

BEGIN IONS
NAME=N-Acetyl-D-Glucosamine CollisionEnergy:102040 M+Na
PRECURSOR_MZ=244.079
INCHI="InChI=1S/C8H15NO6/c1-3(11)9-5-7(13)6(12)4(2-10)15-8(5)14/h4-8,10,12-14H,2H2,1H3,(H,9,11)/t4-,5-,6-,7-,8?/m1/s1"
SMILES=CC(O)=N[C@H]1C(O)O[C@H](CO)[C@@H](O)[C@@H]1O
SPECTRUMID=CCMSLIB00010102908
58.2145 2780.189941 
72.832397 3277.780029 
82.743599 3287.090088 
83.011299 4559.47998 
84.170898 2820.97998 
104.920998 2815.810059 
112.051003 16187.0 
124.037003 99031.203125 
136.244003 5128.259766 
143.031998 111510.0 
148.037003 62982.199219 
166.046997 12180.099609 
167.031006 5772.490234 
184.059006 10984.700195 
205.608994 3578.0 
214.117004 3224.969971 
226.069 1101850.0 
244.078995 7555720.0 
END IONS

BEGIN IONS
NAME=2-(4-hydroxyquinazolin-2-ylthio)-N-[(4-methoxyphenyl)methyl]acetamide CollisionEnergy:205060 M+H
PRECURSOR_MZ=356.106
INCHI="InChI=1S/C18H17N3O3S/c1-24-13-8-6-12(7-9-13)10-19-16(22)11-25-18-20-15-5-3-2-4-14(15)17(23)21-18/h2-9H,10-11H2,1H3,(H,19,22)(H,20,21,23)"
SMILES=COc1ccc(CN=C(O)CSc2nc(O)c3ccccc3n2)cc1
SPECTRUMID=CCMSLIB00010121533
50.223061 2688.0 
53.039051 17907.0 
53.61557 2389.0 
65.038963 4818.0 
68.560097 2695.0 
73.946777 3237.0 
78.046669 15965.0 
91.05442 53030.0 
95.048981 5527.0 
104.049667 3553.0 
104.279297 3319.0 
106.041069 12657.0 
118.644173 2983.0 
121.06469 2404140.0 
132.04425 383389.0 
150.054855 77588.0 
165.963409 3038.0 
168.110611 2345.0 
191.02713 97311.0 
210.55159 2973.0 
219.021912 539860.0 
262.772217 2740.0 
325.808777 2782.0 
356.105652 33354.0 
END IONS

BEGIN IONS
NAME="N-[3-((1E)-3-oxo-3-phenylprop-1-enyl)phenyl](2E,4E)hexa-2,4-dienamide CollisionEnergy:102040" M+Na
PRECURSOR_MZ=340.131
INCHI="InChI=1S/C21H19NO2/c1-2-3-5-13-21(24)22-19-12-8-9-17(16-19)14-15-20(23)18-10-6-4-7-11-18/h2-16H,1H3,(H,22,24)/b3-2+,13-5+,15-14+"
SMILES=CC=CC=CC(O)=Nc1cccc(C=CC(=O)c2ccccc2)c1
SPECTRUMID=CCMSLIB00010105300
82.390877 23678.0 
85.389793 12881.0 
143.253693 17675.0 
207.379044 15959.0 
324.098114 28684.0 
338.513611 18508.0 
339.124512 18586.0 
340.13031 62839640.0 
358.14151 23926.0 
END IONS

BEGIN IONS
NAME=3-methoxy-4-(2-oxo-2-piperidylethoxy)benzaldehyde CollisionEnergy:102040 M+Na
PRECURSOR_MZ=300.121
INCHI="InChI=1S/C15H19NO4/c1-19-14-9-12(10-17)5-6-13(14)20-11-15(18)16-7-3-2-4-8-16/h5-6,9-10H,2-4,7-8,11H2,1H3"
SMILES=COc1cc(C=O)ccc1OCC(=O)N1CCCCC1
SPECTRUMID=CCMSLIB00010105534
50.481461 3138.0 
88.568398 3110.0 
88.729424 2613.0 
94.008507 2876.0 
106.062576 38292.0 
159.041794 3842.0 
174.027252 4175.0 
194.160767 3095.0 
209.978058 5568.0 
215.031143 22210.0 
262.626587 3231.0 
271.115692 6189.0 
272.126404 3012.0 
276.897614 10990.0 
285.097565 17701.0 
300.120087 11399065.0 
301.479248 4536.0 
END IONS

BEGIN IONS
NAME="methyl 2-amino-4-(2,4-dichlorophenyl)-6-(hydroxymethyl)-8-oxo-4H-pyrano[3,2-b] pyran-3-carboxylate CollisionEnergy:102040" M-H
PRECURSOR_MZ=396.005
INCHI="InChI=1S/C17H13Cl2NO6/c1-24-17(23)13-12(9-3-2-7(18)4-10(9)19)15-14(26-16(13)20)11(22)5-8(6-21)25-15/h2-5,12,21H,6,20H2,1H3"
SMILES=COC(=O)C1=C(N)Oc2c(oc(CO)cc2=O)C1c1ccc(Cl)cc1Cl
SPECTRUMID=CCMSLIB00010111826
50.478958 2656.0 
65.998161 348135.0 
66.756973 3410.0 
72.651939 2601.0 
79.934967 2820.0 
82.416344 2689.0 
83.013847 3014.0 
98.024834 1585095.0 
99.008728 3217.0 
111.84726 2649.0 
134.329926 2722.0 
136.237686 3016.0 
141.019516 110596.0 
159.641296 2370.0 
162.135178 2358.0 
185.434296 2428.0 
191.947113 5297.0 
268.028961 2789.0 
296.972656 5282.0 
363.979004 12413.0 
377.994873 16017.0 
396.005035 67413.0 
396.108765 3983.0 
END IONS

BEGIN IONS
NAME=methyl 4-{N-[2-(5-methoxy-2-methylindol-3-yl)ethyl]carbamoyl}benzoate CollisionEnergy:205060 M+formate
PRECURSOR_MZ=411.156
INCHI="InChI=1S/C21H22N2O4/c1-13-17(18-12-16(26-2)8-9-19(18)23-13)10-11-22-20(24)14-4-6-15(7-5-14)21(25)27-3/h4-9,12,23H,10-11H2,1-3H3,(H,22,24)"
SMILES=COC(=O)c1ccc(C(=O)NCCc2c(C)[nH]c3ccc(OC)cc23)cc1
SPECTRUMID=CCMSLIB00010120833
51.580311 2157.0 
67.392036 2230.0 
68.995483 4531.0 
73.990372 3123.0 
82.439346 2595.0 
110.933411 2551.0 
112.985893 5467.0 
121.029083 2825.0 
136.279495 2828.0 
138.909592 2490.0 
138.927246 3000.0 
178.051086 18558.0 
181.793304 2571.0 
189.080048 2516.0 
206.033127 2358.0 
206.897797 4441.0 
274.887573 4556.0 
275.960571 2492.0 
302.995178 2509.0 
340.307465 2412.0 
365.150574 143174.0 
411.237488 2986.0 
END IONS

BEGIN IONS
NAME="4-methyl-2-({[2,4,6-tris(methylethyl)phenyl]sulfonyl}amino)pentanoic acid CollisionEnergy:205060" M-H
PRECURSOR_MZ=396.221
INCHI="InChI=1S/C21H35NO4S/c1-12(2)9-19(21(23)24)22-27(25,26)20-17(14(5)6)10-16(13(3)4)11-18(20)15(7)8/h10-15,19,22H,9H2,1-8H3,(H,23,24)"
SMILES=CC(C)CC(NS(=O)(=O)c1c(C(C)C)cc(C(C)C)cc1C(C)C)C(=O)O
SPECTRUMID=CCMSLIB00010118012
61.988319 3997.0 
63.96196 87853.0 
64.970047 2827.0 
71.484558 2222.0 
78.973053 5259.0 
79.234138 2540.0 
79.980713 2896.0 
84.596497 2474.0 
87.214706 2325.0 
87.389671 2139.0 
90.933167 12277.0 
92.389427 3518.0 
93.960037 13197.0 
104.302803 2818.0 
118.668579 3603.0 
128.437531 2712.0 
152.109772 2471.0 
157.990051 3206.0 
191.946793 4388.0 
192.928543 3675.0 
267.109344 4324.0 
267.142181 136193.0 
282.152954 182953.0 
396.22113 484443.0 
399.058807 2696.0 
469.462097 3013.0 
614.766846 2496.0 
681.625793 2594.0 
697.529297 2699.0 
END IONS

BEGIN IONS
NAME="(2E)-1-(2H,3H-benzo[e]1,4-dioxin-6-yl)-3-(2,3,4-trimethoxyphenyl)prop-2-en-1-o ne CollisionEnergy:102040" M+H
PRECURSOR_MZ=357.133
INCHI="InChI=1S/C20H20O6/c1-22-17-9-5-13(19(23-2)20(17)24-3)4-7-15(21)14-6-8-16-18(12-14)26-11-10-25-16/h4-9,12H,10-11H2,1-3H3/b7-4+"
SMILES=COc1ccc(C=CC(=O)c2ccc3c(c2)OCCO3)c(OC)c1OC
SPECTRUMID=CCMSLIB00010114331
50.054211 2564.0 
51.226528 2475.0 
51.88213 2874.0 
53.397141 2323.0 
54.843189 2588.0 
73.871483 2889.0 
90.97731 3601.0 
122.665993 2842.0 
129.949524 3252.0 
149.05986 763539.0 
149.229858 2658.0 
153.055267 3038.0 
161.059647 27466.0 
163.039017 1036625.0 
163.946091 2944.0 
169.085403 6717.0 
177.054703 3520.0 
178.063034 6585.0 
185.372223 2834.0 
189.054672 631635.0 
190.062164 13927.0 
191.033859 73629.0 
193.086243 13842.0 
195.065216 165644.0 
206.057205 71512.0 
220.933685 5457.0 
221.080872 253422.0 
272.820831 3060.0 
277.865234 3603.0 
283.096466 3302.0 
315.122375 1304316.0 
342.107239 4754.0 
357.132935 1307683.0 
END IONS

BEGIN IONS
NAME=xanthosine CollisionEnergy:102040 M-H
PRECURSOR_MZ=283.068
INCHI="InChI=1S/C10H12N4O6/c15-1-3-5(16)6(17)9(20-3)14-2-11-4-7(14)12-10(19)13-8(4)18/h2-3,5-6,9,15-17H,1H2,(H2,12,13,18,19)/t3-,5-,6-,9-/m1/s1"
SMILES=OCC1OC(n2cnc3c(O)nc(O)nc32)C(O)C1O
SPECTRUMID=CCMSLIB00010114120
75.313263 3013.0 
104.289108 3516.0 
108.020447 44812.0 
125.583687 2899.0 
136.203827 2540.0 
151.026138 4085082.0 
165.040466 3090.0 
185.391052 3910.0 
193.037827 3225.0 
236.929825 4947.0 
283.068512 2366586.0 
290.04718 3150.0 
END IONS

BEGIN IONS
NAME="N-(4-acetylphenyl)[2-(2-thienylsulfonyl)(3-1,2,3,4-tetrahydroisoquinolyl)]carb oxamide CollisionEnergy:102040" M-H
PRECURSOR_MZ=439.079
INCHI="InChI=1S/C22H20N2O4S2/c1-15(25)16-8-10-19(11-9-16)23-22(26)20-13-17-5-2-3-6-18(17)14-24(20)30(27,28)21-7-4-12-29-21/h2-12,20H,13-14H2,1H3,(H,23,26)"
SMILES=CC(=O)c1ccc(NC(=O)C2Cc3ccccc3CN2S(=O)(=O)c2cccs2)cc1
SPECTRUMID=CCMSLIB00010110075
56.979939 3910.0 
66.756813 2719.0 
82.995888 1386122.0 
86.84481 2947.0 
87.126282 2699.0 
104.310112 3232.0 
108.20343 3015.0 
110.753838 2752.0 
118.680344 3347.0 
126.986061 12165.0 
136.239304 3891.0 
146.95784 2909212.0 
166.924026 3087.0 
266.986542 5082.0 
304.9823 12809.0 
354.979645 40434.0 
374.983185 10257.0 
398.970947 4553.0 
418.976929 5191.0 
419.111816 3245.0 
438.982574 25175.0 
439.078735 153933.0 
END IONS

BEGIN IONS
NAME="phenylmethyl 1-[4-(4-fluorophenyl)-1,3-thiazol-2-yl]pyrrolidine-2-carboxylate CollisionEnergy:205060" M+H
PRECURSOR_MZ=383.122
INCHI="InChI=1S/C21H19FN2O2S/c22-17-10-8-16(9-11-17)18-14-27-21(23-18)24-12-4-7-19(24)20(25)26-13-15-5-2-1-3-6-15/h1-3,5-6,8-11,14,19H,4,7,12-13H2"
SMILES=O=C(OCc1ccccc1)C1CCCN1c1nc(-c2ccc(F)cc2)cs1
SPECTRUMID=CCMSLIB00010114804
51.023521 3913.0 
56.049961 6359.0 
63.02335 6290.0 
63.12022 3174.0 
65.039017 356589.0 
68.049873 3745.0 
68.503014 3380.0 
70.065529 23209.0 
76.643387 3801.0 
82.400284 3875.0 
86.282059 3571.0 
89.039124 4002.0 
90.828552 5930.0 
91.054367 8626883.0 
91.280617 4876.0 
103.865753 3452.0 
109.045067 6743.0 
120.037132 5864.0 
132.080902 17041.0 
152.009171 28741.0 
153.01738 24512.0 
165.016953 5506.0 
180.027969 18293.0 
193.035461 224756.0 
205.017517 4888.0 
205.035507 247016.0 
206.04335 259180.0 
212.1008 3312.0 
219.038193 70749.0 
220.046158 177417.0 
230.042465 14510.0 
233.955719 3722.0 
245.054062 63428.0 
245.081253 5073.0 
247.069489 327482.0 
248.077591 24407.0 
275.063599 5244.0 
280.066864 79133.0 
291.059875 39631.0 
292.06665 27069.0 
337.117584 36153.0 
383.121826 3147741.0 
END IONS

BEGIN IONS
NAME=N-(5-chloro(2-pyridyl))-2-{1-[(4-chlorophenyl)carbonyl]-5-methoxy-2-methylindo l-3-yl}acetamide CollisionEnergy:102040 M+H
PRECURSOR_MZ=468.088
INCHI="InChI=1S/C24H19Cl2N3O3/c1-14-19(12-23(30)28-22-10-7-17(26)13-27-22)20-11-18(32-2)8-9-21(20)29(14)24(31)15-3-5-16(25)6-4-15/h3-11,13H,12H2,1-2H3,(H,27,28,30)"
SMILES=COc1ccc2c(c1)c(CC(O)=Nc1ccc(Cl)cn1)c(C)n2C(=O)c1ccc(Cl)cc1
SPECTRUMID=CCMSLIB00010108684
75.023232 16567.0 
78.491859 3660.0 
82.396263 4772.0 
86.999893 63848.0 
93.037773 4477.0 
110.999603 21679.0 
129.010757 20748.0 
129.021149 325285.0 
138.571274 5021.0 
138.9944 8113921.0 
139.419525 6744.0 
151.279861 4034.0 
153.021606 6878.0 
154.987656 6708.0 
155.000427 96972.0 
171.03241 6494.0 
174.091187 970421.0 
184.074478 5901.0 
202.085632 15811.0 
225.76976 3751.0 
248.99736 72227.0 
267.008331 125494.0 
270.066864 19738.0 
297.055206 16321.0 
310.073669 5870.0 
311.293915 39516.0 
312.077789 2256551.0 
314.093719 114459.0 
340.072327 142017.0 
351.614136 4053.0 
368.35141 52014.0 
435.052155 44894.0 
450.075897 266397.0 
468.086823 7023233.0 
468.438934 279002.0 
470.719696 5258.0 
928.997864 4775.0 
END IONS

BEGIN IONS
NAME="N-[2-(3,4-dimethoxyphenyl)ethyl]-4-chlorobutanamide CollisionEnergy:102040" M+H
PRECURSOR_MZ=286.12
INCHI="InChI=1S/C14H20ClNO3/c1-18-12-6-5-11(10-13(12)19-2)7-9-16-14(17)4-3-8-15/h5-6,10H,3-4,7-9H2,1-2H3,(H,16,17)"
SMILES=COc1ccc(CCN=C(O)CCCCl)cc1OC
SPECTRUMID=CCMSLIB00010114602
60.349701 2003.0 
65.328499 2705.0 
74.928391 2443.0 
76.131683 2209.0 
77.015457 4209.0 
80.530434 2386.0 
81.550331 2353.0 
92.327347 2423.0 
103.054443 2469.0 
104.275467 2381.0 
105.009987 40923.0 
105.069832 5528.0 
133.064606 11566.0 
135.080429 3340.0 
136.197784 3127.0 
150.067444 65272.0 
150.090836 10073.0 
165.090973 1211464.0 
182.117447 372170.0 
262.929993 4186.0 
269.093262 57159.0 
286.119873 276516.0 
END IONS

BEGIN IONS
NAME=minocycline///MinocyclineHCl///minocycline(1-)///minocycline hydrochloride///Minocycline///minocycline zwitterion CollisionEnergy:205060 M+H
PRECURSOR_MZ=458.192
INCHI="InChI=1S/C23H27N3O7/c1-25(2)12-5-6-13(27)15-10(12)7-9-8-11-17(26(3)4)19(29)16(22(24)32)21(31)23(11,33)20(30)14(9)18(15)28/h5-6,9,11,17,27,29-30,33H,7-8H2,1-4H3,(H2,24,32)/t9-,11-,17-,23-/m0/s1"
SMILES=CN(C)c1ccc(O)c2c1CC1CC3C(N(C)C)C(O)=C(C(=N)O)C(=O)C3(O)C(O)=C1C2=O
SPECTRUMID=CCMSLIB00010125420
58.003929 2184.0 
58.06554 23232.0 
84.080803 12971.0 
98.060013 56797.0 
104.31353 3421.0 
110.720734 2321.0 
126.054573 13612.0 
154.049713 6398.0 
164.07074 3262.0 
165.078476 3304.0 
167.033478 2803.0 
167.22554 2754.0 
184.031387 2913.0 
187.062668 12066.0 
188.069672 5916.0 
189.077942 14993.0 
202.049866 11305.0 
202.085663 4207.0 
215.057281 77247.0 
216.065231 4390.0 
216.10199 3596.0 
217.072983 15112.0 
226.086411 3132.0 
227.093903 8776.0 
229.072128 2704.0 
230.080795 22907.0 
233.067719 12309.0 
238.08699 3345.0 
239.093445 4179.0 
255.089615 4226.0 
257.104004 4513.0 
267.08844 16169.0 
268.060486 5976.0 
269.068848 5572.0 
270.113251 5193.0 
272.127045 12168.0 
279.087891 5922.0 
283.083405 162792.0 
285.101135 4045.0 
288.124542 3804.0 
291.089508 4972.0 
294.110016 2904.0 
297.101318 3070.0 
298.106781 14594.0 
300.122772 5899.0 
307.082886 5384.0 
309.098938 11472.0 
322.069824 4825.0 
324.123444 5847.0 
325.092102 5978.0 
335.078674 5401.0 
337.093903 92565.0 
350.104828 3321.0 
352.116394 31612.0 
353.088013 11421.0 
363.071289 3651.0 
365.089905 11262.0 
367.16629 4483.0 
368.112976 3545.0 
441.164642 562317.0 
458.191071 56145.0 
459.175262 25396.0 
END IONS

BEGIN IONS
NAME=Homocysteine thiolactone CollisionEnergy:102040 M+H-H2O
PRECURSOR_MZ=100.022
INCHI="InChI=1S/C4H7NOS/c5-3-1-2-7-4(3)6/h3H,1-2,5H2/t3-/m0/s1"
SMILES=N[C@H]1CCSC1=O
SPECTRUMID=CCMSLIB00010103205
52.393799 12633.099609 
54.031601 24441.300781 
54.0345 473150.0 
55.055 70951.703125 
56.050201 89135.703125 
57.7812 12914.599609 
59.967201 85944.5 
67.042297 93999.5 
71.990799 2203100.0 
72.044998 17402.800781 
73.011299 108840.0 
79.378799 11242.799805 
82.417 15197.299805 
83.085899 74235.796875 
92.396301 14702.5 
100.022003 4316230.0 
100.075996 150343.0 
100.112 172770.0 
END IONS

BEGIN IONS
NAME=50-22-6 CollisionEnergy:205060 M+Cl
PRECURSOR_MZ=381.184
INCHI="InChI=1S/C21H30O4/c1-20-8-7-13(23)9-12(20)3-4-14-15-5-6-16(18(25)11-22)21(15,2)10-17(24)19(14)20/h9,14-17,19,22,24H,3-8,10-11H2,1-2H3/t14-,15-,16+,17-,19+,20-,21-/m0/s1"
SMILES=CC12CCC(=O)C=C1CCC1C2C(O)CC2(C)C(C(=O)CO)CCC12
SPECTRUMID=CCMSLIB00010118893
63.6171 16933.0 
66.759804 20741.0 
73.970932 29088.0 
92.400757 31358.0 
99.953911 19850.0 
100.881477 16372.0 
136.242493 22811.0 
213.268738 22243.0 
317.473053 19473.0 
381.182587 27299.0 
END IONS

BEGIN IONS
NAME="6-amino-4-(3-hydroxy-4-methoxyphenyl)-3-propyl-4H-pyrano[2,3-c]pyrazole-5-carb onitrile CollisionEnergy:205060" M+Na
PRECURSOR_MZ=349.127
INCHI="InChI=1S/C17H18N4O3/c1-3-4-11-15-14(9-5-6-13(23-2)12(22)7-9)10(8-18)16(19)24-17(15)21-20-11/h5-7,14,22H,3-4,19H2,1-2H3,(H,20,21)"
SMILES=CCCc1[nH]nc2c1C(c1ccc(OC)c(O)c1)C(C#N)=C(N)O2
SPECTRUMID=CCMSLIB00010121491
53.094742 2160.0 
53.427238 1989.0 
64.308983 2067.0 
66.598343 1927.0 
66.746162 2332.0 
92.384087 2923.0 
349.124084 25348.0 
END IONS

BEGIN IONS
NAME=N-(4-ethoxyphenyl)-2-[4-(N-methylcarbamoyl)-2-oxohydroquinolyl]acetamide CollisionEnergy:102040 M+Na
PRECURSOR_MZ=402.142
INCHI="InChI=1S/C21H21N3O4/c1-3-28-15-10-8-14(9-11-15)23-19(25)13-24-18-7-5-4-6-16(18)17(12-20(24)26)21(27)22-2/h4-12H,3,13H2,1-2H3,(H,22,27)(H,23,25)"
SMILES=CCOc1ccc(NC(=O)Cn2c(=O)cc(C(O)=NC)c3ccccc32)cc1
SPECTRUMID=CCMSLIB00010112421
63.665451 3430.0 
73.946518 3272.0 
82.390717 3111.0 
82.926872 2733.0 
114.924263 3259.0 
118.470016 2740.0 
121.340553 2521.0 
215.080444 5117.0 
362.148804 4080.0 
384.130402 33582.0 
400.061646 5437.0 
402.141846 4531886.0 
404.237793 3502.0 
420.15155 3988.0 
424.127899 4524.0 
END IONS

BEGIN IONS
NAME=EGCG CollisionEnergy:205060 M+H
PRECURSOR_MZ=459.092
INCHI="InChI=1S/C22H18O11/c23-10-5-12(24)11-7-18(33-22(31)9-3-15(27)20(30)16(28)4-9)21(32-17(11)6-10)8-1-13(25)19(29)14(26)2-8/h1-6,18,21,23-30H,7H2/t18-,21-/m1/s1"
SMILES=O=C(OC1Cc2c(O)cc(O)cc2OC1c1cc(O)c(O)c(O)c1)c1cc(O)c(O)c(O)c1
SPECTRUMID=CCMSLIB00010124956
53.002651 10831.0 
58.871738 2666.0 
65.039017 15783.0 
67.054787 3582.0 
68.99749 4824.0 
72.181801 2480.0 
78.495697 2737.0 
79.018158 10359.0 
83.049232 3999.0 
93.033798 6038.0 
107.012604 3418.0 
107.049477 3056.0 
111.044167 24204.0 
121.028038 21904.0 
122.034523 3253.0 
123.044151 40076.0 
127.038643 3491.0 
135.04364 6421.0 
139.039062 1258120.0 
143.03392 19875.0 
149.059906 5211.0 
151.039062 100046.0 
151.052811 4213.0 
153.018112 192135.0 
153.029404 13338.0 
159.043808 3555.0 
163.0392 51789.0 
177.054764 3570.0 
180.500931 2795.0 
181.049759 21570.0 
205.049545 17964.0 
205.61615 2961.0 
271.059509 3201.0 
289.069702 60293.0 
307.082214 17744.0 
END IONS

BEGIN IONS
NAME="3-(2-hydroxy-3-methoxyphenyl)-5-(methylethyl)-1-(2-methylthioethyl)-4,6-dioxo- 1,2,3,5,3a,6a-hexahydro-2,5-diazapentalenecarboxylic acid CollisionEnergy:205060" M-H
PRECURSOR_MZ=421.144
INCHI="InChI=1S/C20H26N2O6S/c1-10(2)22-17(24)13-14(18(22)25)20(19(26)27,8-9-29-4)21-15(13)11-6-5-7-12(28-3)16(11)23/h5-7,10,13-15,21,23H,8-9H2,1-4H3,(H,26,27)"
SMILES=COc1cccc(C2NC(CCSC)(C(=O)O)C3C(=O)N(C(C)C)C(=O)C23)c1O
SPECTRUMID=CCMSLIB00010118764
58.28204 2613.0 
60.975079 2913.0 
66.413078 2845.0 
73.96772 3544.0 
80.050232 3665.0 
82.070541 2648.0 
82.414391 4143.0 
86.059464 2868.0 
93.322693 3384.0 
96.081467 2994.0 
98.02462 193626.0 
104.304466 3367.0 
108.02179 23016.0 
108.045387 124474.0 
112.076637 72398.0 
121.029381 6382.0 
122.037201 185642.0 
123.044472 6054.0 
133.016998 17621.0 
134.024582 186209.0 
135.033142 25095.0 
135.043716 4012.0 
136.016617 5740.0 
136.233047 3297.0 
137.061005 23626.0 
139.087906 6582.0 
140.071594 149785.0 
146.027527 92850.0 
148.040359 13103.0 
148.052399 3813.0 
150.055908 30642.0 
152.000748 3162.0 
152.07106 4181.0 
157.05304 5237.0 
160.040268 23834.0 
161.06076 23604.0 
162.055862 66783.0 
174.032166 56157.0 
174.055954 221702.0 
175.063721 632394.0 
189.055664 93600.0 
190.087234 511585.0 
193.098022 446733.0 
201.078918 6471.0 
206.021866 14869.0 
214.052155 2999.0 
216.102783 5556.0 
223.066772 17130.0 
226.09082 42602.0 
229.074142 6059.0 
231.090652 6110.0 
234.076935 251323.0 
238.090576 243464.0 
241.101364 73385.0 
255.053772 3666.0 
259.08493 123475.0 
259.115967 3951.0 
269.105896 5016.0 
274.108521 82873.0 
276.124207 15432.0 
282.080353 574241.0 
312.12384 19459.0 
329.150269 106822.0 
375.018646 4100.0 
377.154205 78982.0 
421.083313 5539.0 
421.143555 103116.0 
END IONS

BEGIN IONS
NAME="(2E)-1-(2H,3H-benzo[e]1,4-dioxan-6-yl)-3-(2,4,5-trimethoxyphenyl)prop-2-en-1-o ne CollisionEnergy:102040" M+Na
PRECURSOR_MZ=379.115
INCHI="InChI=1S/C20H20O6/c1-22-17-12-19(24-3)18(23-2)11-14(17)4-6-15(21)13-5-7-16-20(10-13)26-9-8-25-16/h4-7,10-12H,8-9H2,1-3H3/b6-4+"
SMILES=COc1cc(OC)c(OC)cc1C=CC(=O)c1ccc2c(c1)OCCO2
SPECTRUMID=CCMSLIB00010106434
79.327423 11891.0 
89.03183 15610.0 
102.119881 14649.0 
201.053741 16065.0 
201.395615 19202.0 
215.201355 17212.0 
281.080658 51175.0 
309.075562 77250.0 
310.082825 394719.0 
318.046997 25724.0 
325.106537 11264129.0 
332.065033 252154.0 
333.073853 77900.0 
347.052673 23939.0 
347.088165 1202630.0 
349.104034 2438664.0 
365.098846 1103808.0 
365.151703 34852.0 
377.204132 17600.0 
379.114685 42429852.0 
381.040497 27968.0 
397.126129 90493.0 
END IONS

BEGIN IONS
NAME=5'-Xanthylic acid CollisionEnergy:102040 M+H
PRECURSOR_MZ=365.049
INCHI="InChI=1S/C10H13N4O9P/c15-5-3(1-22-24(19,20)21)23-9(6(5)16)14-2-11-4-7(14)12-10(18)13-8(4)17/h2-3,5-6,9,15-16H,1H2,(H2,19,20,21)(H2,12,13,17,18)/t3-,5-,6-,9-/m1/s1"
SMILES=O=P(O)(O)OC[C@H]1O[C@@H](n2cnc3c(O)nc(O)nc32)[C@H](O)[C@@H]1O
SPECTRUMID=CCMSLIB00010126932
50.179199 2210.409912 
58.3358 2192.590088 
68.0634 2378.73999 
69.034103 3955.949951 
92.384201 2723.73999 
97.028801 398685.0 
97.3172 2437.790039 
104.991997 2535.909912 
105.649002 2765.199951 
118.665001 3385.840088 
153.039993 145888.0 
213.014999 15742.400391 
365.049011 4282.620117 
END IONS

BEGIN IONS
NAME="3-Hydroxy-6,2',3'-trimethoxyflavone CollisionEnergy:205060" M+Na
PRECURSOR_MZ=351.084
INCHI="InChI=1S/C18H16O6/c1-21-10-7-8-13-12(9-10)15(19)16(20)18(24-13)11-5-4-6-14(22-2)17(11)23-3/h4-9,20H,1-3H3"
SMILES=COc1ccc2oc(-c3cccc(OC)c3OC)c(O)c(=O)c2c1
SPECTRUMID=CCMSLIB00010115499
53.48457 2877.0 
57.86068 2396.0 
64.082748 2604.0 
73.945953 2801.0 
74.320091 3128.0 
84.870163 2661.0 
90.976601 3020.0 
92.371803 3047.0 
103.053551 2674.0 
104.276047 3265.0 
105.069504 3087.0 
108.852058 2555.0 
135.080734 6554.0 
228.096329 3094.0 
326.230438 2627.0 
336.059692 17612.0 
351.08371 3908985.0 
369.094177 11227.0 
END IONS

BEGIN IONS
NAME=Bisabolol CollisionEnergy:205060 M+H-H2O
PRECURSOR_MZ=205.195
INCHI="InChI=1S/C15H26O/c1-12(2)6-5-11-15(4,16)14-9-7-13(3)8-10-14/h6-7,14,16H,5,8-11H2,1-4H3"
SMILES=CC(C)=CCCC(C)(O)C1CC=C(C)CC1
SPECTRUMID=CCMSLIB00010122956
53.002739 3293.0 
53.039028 12467.0 
55.051689 6027.0 
55.054668 82385.0 
57.07037 52988.0 
59.020618 3198.0 
65.03891 4058.0 
67.054611 176404.0 
69.070267 368013.0 
71.085953 24240.0 
72.937523 15024.0 
78.048393 2470.0 
79.054497 223827.0 
81.070129 918811.0 
83.085747 93052.0 
84.959953 26850.0 
87.295837 2581.0 
90.947258 4365.0 
91.054283 104178.0 
92.357643 3874.0 
93.069992 971591.0 
94.864563 2926.0 
95.048927 4236.0 
95.085602 539564.0 
97.101143 88314.0 
102.970177 2938.0 
105.069878 82255.0 
105.845253 2781.0 
107.085487 542395.0 
109.101158 434928.0 
111.116623 38187.0 
113.963654 41988.0 
118.628479 3036.0 
119.060516 3402.0 
119.085533 17967.0 
121.101181 1834682.0 
123.079987 5258.0 
123.116783 156199.0 
131.974243 18168.0 
133.076355 2937.0 
135.116745 298405.0 
137.132477 23648.0 
147.11763 3249.0 
149.023865 19679.0 
149.132492 608308.0 
154.990097 6623.0 
163.148117 50042.0 
177.163315 4144.0 
180.982986 3534.0 
181.985535 4778.0 
185.360718 3213.0 
205.194992 601366.0 
END IONS

BEGIN IONS
NAME="(2E)-1-(2H,3H,4H,5H-benzo[b]1,4-dioxocan-8-yl)-3-phenylprop-2-en-1-one CollisionEnergy:102040" M+H
PRECURSOR_MZ=295.133
INCHI="InChI=1S/C19H18O3/c20-17(10-8-15-6-2-1-3-7-15)16-9-11-18-19(14-16)22-13-5-4-12-21-18/h1-3,6-11,14H,4-5,12-13H2/b10-8+"
SMILES=O=C(C=Cc1ccccc1)c1ccc2c(c1)OCCCCO2
SPECTRUMID=CCMSLIB00010104183
56.112339 2187.0 
62.75774 2331.0 
64.996307 2561.0 
66.745918 2591.0 
67.910652 2178.0 
70.699463 2666.0 
88.15789 2207.0 
90.977051 11026.0 
103.054199 76680.0 
105.033989 11015.0 
106.036667 3881.0 
111.924713 2937.0 
117.978928 2406.0 
131.049286 820027.0 
137.022903 2557.0 
158.963837 4054.0 
191.070251 11442.0 
195.081085 2899.0 
223.074432 4713.0 
231.022537 17012.0 
267.133942 2671.0 
295.131287 1112613.0 
END IONS

BEGIN IONS
NAME="2-[(dibenzo[b,d]furan-2-ylsulfonyl)methylamino]acetic acid CollisionEnergy:205060" M+H
PRECURSOR_MZ=320.059
INCHI="InChI=1S/C15H13NO5S/c1-16(9-15(17)18)22(19,20)10-6-7-14-12(8-10)11-4-2-3-5-13(11)21-14/h2-8H,9H2,1H3,(H,17,18)"
SMILES=CN(CC(=O)O)S(=O)(=O)c1ccc2oc3ccccc3c2c1
SPECTRUMID=CCMSLIB00010120013
69.304123 2658.0 
73.26915 2239.0 
79.566109 2254.0 
88.039467 4105.0 
103.054459 2389.0 
115.054153 102285.0 
139.054092 475884.0 
143.049088 57670.0 
148.052429 8964.0 
155.049225 10363.0 
167.048462 23450.0 
169.064316 5756.0 
171.0439 225162.0 
181.085876 44857.0 
183.043747 75895.0 
185.040222 3912.0 
185.059525 173927.0 
195.055099 653842.0 
196.05043 3947.0 
203.717834 2697.0 
206.279266 2417.0 
211.957047 3167.0 
231.010757 241888.0 
234.627182 2962.0 
274.052704 156744.0 
320.059021 12784.0 
END IONS

BEGIN IONS
NAME=Sumaresinolic acid CollisionEnergy:205060 M+H
PRECURSOR_MZ=473.363
INCHI="InChI=1S/C30H48O4/c1-25(2)12-14-30(24(33)34)15-13-28(6)18(19(30)16-25)8-9-21-27(5)11-10-22(32)26(3,4)23(27)20(31)17-29(21,28)7/h8,19-23,31-32H,9-17H2,1-7H3,(H,33,34)/t19?,20-,21?,22+,23?,27-,28-,29-,30+/m1/s1"
SMILES=CC1(C)CCC2(C(=O)O)CCC3(C)C(=CCC4C5(C)CCC(O)C(C)(C)C5C(O)CC43C)C2C1
SPECTRUMID=CCMSLIB00010123632
53.039188 4532.0 
55.054668 21885.0 
57.070179 6880.0 
59.04937 6040.0 
60.224442 3216.0 
66.732857 2808.0 
67.054573 64286.0 
67.166908 2653.0 
67.953812 2981.0 
69.07019 51578.0 
73.941467 3343.0 
74.879066 2764.0 
79.054443 32624.0 
81.070061 121115.0 
83.085648 29340.0 
85.064972 5595.0 
87.13591 2643.0 
91.054039 41366.0 
93.069946 94761.0 
95.085548 292157.0 
97.101151 10800.0 
104.271278 3211.0 
105.069801 100380.0 
107.085457 169664.0 
109.064774 4973.0 
109.101097 195955.0 
111.080269 3932.0 
111.116913 3328.0 
117.06929 4234.0 
119.085457 183596.0 
119.095177 6457.0 
121.101089 134574.0 
123.080109 6308.0 
123.116623 46058.0 
131.085419 28900.0 
133.065201 21774.0 
133.101059 116816.0 
135.080307 56660.0 
135.116608 95659.0 
137.095978 28464.0 
137.132538 5708.0 
138.940186 3230.0 
143.084915 4640.0 
145.100952 69439.0 
147.116623 83761.0 
149.095886 19173.0 
149.132431 60542.0 
151.111481 6786.0 
153.091248 6558.0 
157.101059 15774.0 
159.116516 61203.0 
161.095444 4584.0 
161.132324 55652.0 
163.110901 4824.0 
163.147919 68736.0 
171.116104 14669.0 
173.132553 24873.0 
175.147598 56396.0 
177.126892 19330.0 
177.163513 88101.0 
179.143173 4235.0 
185.131897 17198.0 
187.147797 71397.0 
189.163559 143429.0 
191.179504 51855.0 
199.147629 5143.0 
199.936066 3195.0 
201.163681 31013.0 
203.179276 168582.0 
205.158691 131577.0 
205.192642 32627.0 
207.174164 11880.0 
209.96283 4956.0 
213.163193 16919.0 
215.179596 11528.0 
217.158798 6832.0 
217.194931 4167.0 
219.17424 28448.0 
227.178238 6689.0 
231.174057 18433.0 
236.496094 3452.0 
249.183746 4045.0 
391.335724 29614.0 
409.345703 592930.0 
427.355438 14857.0 
437.341492 89616.0 
455.351471 149479.0 
473.292419 4815.0 
473.360962 26517.0 
END IONS

BEGIN IONS
NAME=2-methoxyethyl 5-hydroxy-2-methyl-1-(3-methylphenyl)benzo[g]indole-3-carboxyla te CollisionEnergy:205060 M-H
PRECURSOR_MZ=388.155
INCHI="InChI=1S/C24H23NO4/c1-15-7-6-8-17(13-15)25-16(2)22(24(27)29-12-11-28-3)20-14-21(26)18-9-4-5-10-19(18)23(20)25/h4-10,13-14,26H,11-12H2,1-3H3"
SMILES=COCCOC(=O)c1c(C)n(-c2cccc(C)c2)c2c1cc(O)c1ccccc12
SPECTRUMID=CCMSLIB00010120875
68.866127 2165.0 
73.974731 2946.0 
74.643837 2071.0 
82.420959 2638.0 
83.961746 2325.0 
89.566147 2161.0 
104.317574 2842.0 
115.055206 19339.0 
118.68692 3132.0 
121.522057 2457.0 
143.793701 2356.0 
144.829697 2313.0 
150.490982 2343.0 
194.061203 29595.0 
195.068909 9046.0 
238.051422 11904.0 
239.059341 3014.0 
242.097321 9645.0 
270.093018 50747.0 
271.100403 16798.0 
284.107452 3944.0 
285.114685 9435.0 
287.678345 2652.0 
297.10141 25638.0 
298.086823 9003.0 
315.089691 2956.0 
373.132599 38146.0 
383.39447 2469.0 
387.977539 2667.0 
388.155609 145884.0 
389.601074 3028.0 
END IONS

BEGIN IONS
NAME=(2S)-7-acetyloxy-8-(3-methylbut-2-enyl)-4-oxo-2-phenylchroman-5-yl acetate CollisionEnergy:102040 M+Na
PRECURSOR_MZ=431.146
INCHI="InChI=1S/C24H24O6/c1-14(2)10-11-18-21(28-15(3)25)13-22(29-16(4)26)23-19(27)12-20(30-24(18)23)17-8-6-5-7-9-17/h5-10,13,20H,11-12H2,1-4H3/t20-/m0/s1"
SMILES=CC(=O)Oc1cc(OC(C)=O)c2c(c1CC=C(C)C)OC(c1ccccc1)CC2=O
SPECTRUMID=CCMSLIB00010113235
73.375923 2538.0 
76.679131 2681.0 
90.977097 8151.0 
136.196686 3207.0 
157.662918 2877.0 
157.955246 2776.0 
158.963226 3808.0 
219.810211 2939.0 
226.950211 20002.0 
268.272003 3381.0 
327.084106 6409.0 
389.135864 51954.0 
431.145538 2517663.0 
END IONS

BEGIN IONS
NAME=Trans-zeatin-riboside CollisionEnergy:205060 M+H
PRECURSOR_MZ=352.162
INCHI="InChI=1S/C15H21N5O5/c1-8(4-21)2-3-16-13-10-14(18-6-17-13)20(7-19-10)15-12(24)11(23)9(5-22)25-15/h2,6-7,9,11-12,15,21-24H,3-5H2,1H3,(H,16,17,18)/b8-2+/t9-,11-,12-,15-/m1/s1"
SMILES=C/C(=C\CNC1=C2C(=NC=N1)N(C=N2)[C@H]3[C@@H]([C@@H]([C@H](O3)CO)O)O)/CO
SPECTRUMID=CCMSLIB00010102088
55.018093 15639.700195 
57.033939 32388.449219 
62.150764 12463.4375 
67.054581 24621.804688 
71.012871 15848.71875 
85.028206 12878.143555 
89.592743 10789.033203 
104.440079 12811.993164 
119.035004 19899.339844 
125.451767 10597.170898 
126.501053 10716.354492 
127.596779 11904.328125 
135.698807 12946.591797 
136.062088 2394103.25 
137.045395 22664.378906 
148.062195 110486.71875 
158.040649 13306.183594 
159.066879 40331.136719 
175.097519 19636.257812 
185.082504 159129.671875 
187.085999 12944.385742 
202.10878 157369.90625 
206.392548 11240.918945 
220.119247 1994764.0 
226.153656 11912.726562 
352.158325 587982.5 
END IONS

BEGIN IONS
NAME=4-aminobutyric acid CollisionEnergy:102040 M+H-H2O
PRECURSOR_MZ=86.06
INCHI="InChI=1S/C4H9NO2/c5-3-1-2-4(6)7/h1-3,5H2,(H,6,7)"
SMILES=NCCCC(=O)O
SPECTRUMID=CCMSLIB00010126961
51.737801 6900.200195 
53.002899 46245.699219 
58.0658 33577.699219 
68.050201 185171.0 
69.034203 3018560.0 
73.875397 7037.140137 
86.0606 1245260.0 
86.096802 11219.700195 
END IONS

BEGIN IONS
NAME="9-methyl-8-({5-methyl-2-[4-(methylethoxy)phenyl](1,3-oxazol-4-yl)}methylthio)h ydropurin-6-one CollisionEnergy:102040" M+Na
PRECURSOR_MZ=434.126
INCHI="InChI=1S/C20H21N5O3S/c1-11(2)27-14-7-5-13(6-8-14)19-23-15(12(3)28-19)9-29-20-24-16-17(25(20)4)21-10-22-18(16)26/h5-8,10-11H,9H2,1-4H3,(H,21,22,26)"
SMILES=Cc1oc(-c2ccc(OC(C)C)cc2)nc1CSc1nc2c(O)ncnc2n1C
SPECTRUMID=CCMSLIB00010107496
51.74062 2518.0 
74.405029 2947.0 
75.445808 3149.0 
92.369713 3165.0 
120.044228 36469.0 
123.834137 3217.0 
156.598404 2942.0 
159.598038 3236.0 
188.070389 527982.0 
204.008072 24696.0 
205.015213 301380.0 
228.111771 3399.0 
230.117203 370183.0 
324.71167 3013.0 
392.079071 5750.0 
392.810577 3641.0 
434.124939 2572199.0 
443.035126 2963.0 
END IONS

BEGIN IONS
NAME=(S)-(+)-Ketoprofen CollisionEnergy:205060 M-H
PRECURSOR_MZ=253.087
INCHI="InChI=1S/C16H14O3/c1-11(16(18)19)13-8-5-9-14(10-13)15(17)12-6-3-2-4-7-12/h2-11H,1H3,(H,18,19)/t11-/m0/s1"
SMILES=CC(C(=O)O)c1cccc(C(=O)c2ccccc2)c1
SPECTRUMID=CCMSLIB00010120324
65.836853 2226.0 
77.445778 1941.0 
81.772057 2642.0 
82.390999 2728.0 
87.483658 1996.0 
92.369553 2241.0 
116.928123 4436.0 
133.029129 10365.0 
135.008759 3923.0 
138.149445 2163.0 
138.386612 2357.0 
169.066025 3230.0 
180.058823 3323.0 
196.052963 3946.0 
197.060516 95837.0 
208.052887 9514.0 
208.72934 6601.0 
209.061188 10707.0 
216.922119 3708.0 
223.039108 2818.0 
224.048233 16600.0 
225.056137 4660.0 
253.050522 256913.0 
259.117981 2589.0 
END IONS

BEGIN IONS
NAME=alprostadil CollisionEnergy:205060 2M-H
PRECURSOR_MZ=707.474
INCHI="InChI=1S/C20H34O5/c1-2-3-6-9-15(21)12-13-17-16(18(22)14-19(17)23)10-7-4-5-8-11-20(24)25/h12-13,15-17,19,21,23H,2-11,14H2,1H3,(H,24,25)/b13-12+/t15-,16+,17+,19+/m0/s1"
SMILES=CCCCCC(O)C=CC1C(O)CC(=O)C1CCCCCCC(=O)O
SPECTRUMID=CCMSLIB00010121316
50.72105 3162.0 
57.034012 21866.0 
59.01342 29313.0 
81.034081 5705.0 
83.049927 4543.0 
95.049988 14670.0 
106.042282 13969.0 
107.050308 3798.0 
109.065697 48071.0 
111.081329 4255.0 
113.097023 53504.0 
121.065681 5497.0 
123.081284 19233.0 
129.539993 3093.0 
137.097183 30187.0 
138.448212 3465.0 
146.374725 3426.0 
161.097015 12238.0 
162.104126 4897.0 
163.097504 2937.0 
163.111542 22660.0 
177.127914 14177.0 
188.120697 4490.0 
189.128067 5476.0 
190.136032 4496.0 
191.143768 66115.0 
209.118927 23505.0 
217.123825 6509.0 
219.174194 25923.0 
221.118835 14834.0 
223.134003 43353.0 
235.133469 179367.0 
273.221924 103642.0 
273.255554 4467.0 
275.201935 6060.0 
299.201111 5322.0 
317.21167 680000.0 
335.222473 230939.0 
342.813324 3226.0 
353.233398 317615.0 
421.98941 2997.0 
591.204346 2985.0 
704.43512 4098.0 
END IONS

BEGIN IONS
NAME="2-amino-3-[4-(3,5-diiodo-4-methoxyphenoxy)-3,5-diiodophenyl]propanoic acid CollisionEnergy:102040" M+H
PRECURSOR_MZ=791.71
INCHI="InChI=1S/C16H13I4NO4/c1-24-14-11(19)5-8(6-12(14)20)25-15-9(17)2-7(3-10(15)18)4-13(21)16(22)23/h2-3,5-6,13H,4,21H2,1H3,(H,22,23)"
SMILES=COc1c(I)cc(Oc2c(I)cc(CC(N)C(=O)O)cc2I)cc1I
SPECTRUMID=CCMSLIB00010114711
58.23333 3293.0 
61.609489 2885.0 
66.750549 4461.0 
73.96386 3543.0 
75.500076 3287.0 
76.812592 3320.0 
88.039413 26538.0 
104.30191 4872.0 
149.758148 4047.0 
158.001907 3008.0 
159.772095 3296.0 
197.060074 3721.0 
220.674454 3334.0 
250.332565 4336.0 
266.996368 4131.0 
273.972351 13014.0 
309.949646 4682.0 
322.954926 3524.0 
323.964264 26978.0 
330.272644 3141.0 
337.944611 5033.0 
363.983307 4771.0 
364.991974 6870.0 
379.951385 4725.0 
617.79071 3549.0 
633.765503 12920.0 
745.550232 4815.0 
745.70343 131890.0 
791.709595 313403.0 
END IONS

BEGIN IONS
NAME="3-ethyl-4-hydroxy-5,7-dimethylhydroquinolin-2-one CollisionEnergy:205060" M+H
PRECURSOR_MZ=218.118
INCHI="InChI=1S/C13H15NO2/c1-4-9-12(15)11-8(3)5-7(2)6-10(11)14-13(9)16/h5-6H,4H2,1-3H3,(H2,14,15,16)"
SMILES=CCc1c(O)nc2cc(C)cc(C)c2c1O
SPECTRUMID=CCMSLIB00010114756
56.965141 3870.0 
61.618999 2618.0 
66.742638 3125.0 
67.433022 2488.0 
69.033897 47163.0 
70.299232 2833.0 
76.439636 3232.0 
79.054283 4528.0 
84.777153 3386.0 
88.637871 3695.0 
91.054398 4597.0 
97.028526 41908.0 
103.054047 3961.0 
105.070061 5300.0 
117.070023 3189.0 
120.080887 35993.0 
121.516708 3034.0 
123.080933 3463.0 
129.069336 15335.0 
132.080673 77325.0 
133.064056 3599.0 
133.075195 3107.0 
142.077698 10740.0 
144.080841 6481.0 
145.100739 3842.0 
147.0681 6018.0 
147.104248 6855.0 
148.0755 301353.0 
153.069504 17019.0 
153.937088 11024.0 
154.077194 6599.0 
154.125412 2666.0 
155.07132 3892.0 
155.085083 69016.0 
156.080887 20435.0 
157.088348 54872.0 
157.101471 6528.0 
158.059708 6029.0 
158.096268 56734.0 
159.081665 3509.0 
160.075119 11608.0 
161.082352 3596.0 
167.072784 216825.0 
170.059143 3845.0 
171.104736 3570.0 
172.075851 10962.0 
172.111755 89730.0 
173.095917 16617.0 
174.091064 36556.0 
181.088303 57924.0 
182.096283 549002.0 
183.092529 6792.0 
184.075378 13851.0 
185.083313 34579.0 
190.085938 46810.0 
198.090973 12255.0 
200.106781 899333.0 
202.085953 148973.0 
203.093719 122725.0 
216.101883 71591.0 
218.117371 3859908.0 
218.541611 3083.0 
END IONS

BEGIN IONS
NAME=INDOLE-3-CARBOXALDEHYDE CollisionEnergy:102040 M-H
PRECURSOR_MZ=144.045
INCHI="InChI=1S/C9H7NO/c11-6-7-5-10-9-4-2-1-3-8(7)9/h1-6,10H"
SMILES=O=Cc1c[nH]c2ccccc12
SPECTRUMID=CCMSLIB00010107476
56.10759 2082.0 
66.737862 2528.0 
69.211113 2130.0 
77.251556 1847.0 
78.084709 1959.0 
86.836342 2385.0 
108.378563 1985.0 
113.008957 1779.0 
132.222809 1967.0 
144.045517 328648.0 
END IONS

BEGIN IONS
NAME=(2E)-3-(1-ethyl-3-methylpyrazol-4-yl)-1-(4-hydroxyphenyl)prop-2-en-1-one CollisionEnergy:205060 M+H
PRECURSOR_MZ=257.128
INCHI="InChI=1S/C15H16N2O2/c1-3-17-10-13(11(2)16-17)6-9-15(19)12-4-7-14(18)8-5-12/h4-10,18H,3H2,1-2H3/b9-6+"
SMILES=CCn1cc(C=CC(=O)c2ccc(O)cc2)c(C)n1
SPECTRUMID=CCMSLIB00010115658
52.930401 2300.0 
53.038891 2639.0 
55.018318 3158.0 
56.05014 3093.0 
65.039001 33451.0 
65.966537 2725.0 
66.034241 2906.0 
67.054588 3297.0 
68.997513 5097.0 
69.444717 2721.0 
71.013161 11864.0 
72.299088 2464.0 
79.017998 2628.0 
79.054764 19866.0 
80.049767 47381.0 
82.065437 3333.0 
83.060661 11538.0 
91.054367 19328.0 
92.04937 10463.0 
94.065193 29984.0 
95.049179 3039.0 
95.060562 5146.0 
95.073143 2749.0 
107.048553 4951.0 
107.051178 4533.0 
107.060333 133637.0 
108.080627 13175.0 
109.028183 4473.0 
109.075943 21400.0 
111.044113 19877.0 
111.054901 3773.0 
111.091492 15364.0 
115.054077 5766.0 
117.068977 3219.0 
118.064934 9967.0 
119.048943 11922.0 
120.067497 4349.0 
121.028397 1055814.0 
121.075699 25633.0 
131.049057 12665.0 
133.065247 4760.0 
133.07576 37988.0 
134.059586 2827.0 
135.055161 384164.0 
135.091492 122613.0 
137.107254 81998.0 
139.086136 4709.0 
145.075974 23960.0 
146.05954 2699.0 
147.044128 31009.0 
160.075729 9304.0 
163.086487 303536.0 
170.060211 6268.0 
171.04361 5696.0 
183.066666 3339.0 
184.075394 19576.0 
187.087967 30704.0 
188.069778 4495.0 
211.085876 13959.0 
224.094086 5621.0 
229.096817 41247.0 
239.117416 15455.0 
257.128082 1487939.0 
258.200317 2888.0 
264.072601 2646.0 
END IONS

BEGIN IONS
NAME=spiramycin CollisionEnergy:102040 M+formate
PRECURSOR_MZ=887.512
INCHI="InChI=1S/C43H74N2O14/c1-24-21-29(19-20-46)39(59-42-37(49)36(45(9)10)38(27(4)56-42)58-35-23-43(6,51)41(50)28(5)55-35)40(52-11)31(47)22-33(48)53-25(2)15-13-12-14-16-32(24)57-34-18-17-30(44(7)8)26(3)54-34/h12-14,16,20,24-32,34-42,47,49-51H,15,17-19,21-23H2,1-11H3/b13-12+,16-14+/t24-,25-,26?,27?,28?,29+,30?,31-,32+,34?,35?,36?,37?,38?,39+,40+,41?,42?,43?/m1/s1"
SMILES=COC1C(O)CC(=O)OC(C)CC=CC=CC(OC2CCC(N(C)C)C(C)O2)C(C)CC(CC=O)C1OC1OC(C)C(OC2CC(C)(O)C(O)C(C)O2)C(N(C)C)C1O
SPECTRUMID=CCMSLIB00010104432
71.013603 128189.0 
71.659248 3493.0 
73.029289 185327.0 
74.208893 3743.0 
82.390251 4040.0 
83.050407 4559.0 
92.370407 4250.0 
111.054802 3781.0 
113.640877 3617.0 
117.055809 196468.0 
127.040367 19111.0 
154.087952 6236.0 
157.952774 4668.0 
158.1194 6755.0 
161.081924 283077.0 
172.097855 35760.0 
208.848862 9515.0 
315.164276 4827.0 
334.186798 35786.0 
474.285431 19262.0 
488.302094 164944.0 
506.313751 34090.0 
522.592896 4447.0 
576.216248 4085.0 
823.496155 59507.0 
841.326477 4424.0 
841.507935 206883.0 
887.513062 882899.0 
END IONS

BEGIN IONS
NAME=2-methoxyethyl 1-{3-[(4-chloro-2-nitrophenyl)amino]propyl}-5-hydroxy-2-methylb enzo[g]indole-3-carboxylate CollisionEnergy:205060 M+H
PRECURSOR_MZ=512.158
INCHI="InChI=1S/C26H26ClN3O6/c1-16-24(26(32)36-13-12-35-2)20-15-23(31)18-6-3-4-7-19(18)25(20)29(16)11-5-10-28-21-9-8-17(27)14-22(21)30(33)34/h3-4,6-9,14-15,28,31H,5,10-13H2,1-2H3"
SMILES=COCCOC(=O)c1c(C)n(CCCNc2ccc(Cl)cc2[N+](=O)[O-])c2c1cc(O)c1ccccc12
SPECTRUMID=CCMSLIB00010124246
59.049419 3039.0 
60.809422 2625.0 
73.445351 2413.0 
78.144417 2778.0 
82.400429 2884.0 
90.176643 2556.0 
92.379868 2692.0 
114.009773 2852.0 
118.666641 3125.0 
127.01825 19917.0 
134.896439 2522.0 
142.005051 22492.0 
144.647507 2788.0 
152.013214 2985.0 
153.020966 39167.0 
155.000488 16718.0 
157.014923 2553.0 
165.069397 6360.0 
166.028397 6415.0 
167.07193 5646.0 
168.008484 10068.0 
179.036102 13460.0 
181.085388 2431.0 
182.095505 12625.0 
185.010864 71971.0 
194.252121 3394.0 
196.074722 11188.0 
209.080963 3500.0 
210.069962 3534.0 
210.090927 72539.0 
220.074829 18817.0 
223.061859 16073.0 
224.069504 38607.0 
238.086029 34962.0 
241.872589 3188.0 
250.084488 3766.0 
254.081024 2939.0 
312.1203 5964.0 
436.104248 256791.0 
454.111511 2775.0 
464.704987 2721.0 
512.145264 3177.0 
END IONS

BEGIN IONS
NAME=(2Z)-3-[4-(methylethoxy)phenyl]-N-[2-(2-methylindol-3-yl)ethyl]-2-(phenylcarbo nylamino)prop-2-enamide CollisionEnergy:205060 M+Na
PRECURSOR_MZ=504.226
INCHI="InChI=1S/C30H31N3O3/c1-20(2)36-24-15-13-22(14-16-24)19-28(33-29(34)23-9-5-4-6-10-23)30(35)31-18-17-25-21(3)32-27-12-8-7-11-26(25)27/h4-16,19-20,32H,17-18H2,1-3H3,(H,31,35)(H,33,34)/b28-19-"
SMILES=Cc1[nH]c2ccccc2c1CCN=C(O)C(=Cc1ccc(OC(C)C)cc1)N=C(O)c1ccccc1
SPECTRUMID=CCMSLIB00010123578
55.630619 2798.0 
58.24852 2556.0 
64.825249 3166.0 
78.089523 2627.0 
79.190353 3291.0 
82.418221 3416.0 
99.653847 2856.0 
104.307373 4365.0 
129.69841 2961.0 
143.07338 3818.0 
158.096695 24772.0 
181.969116 2634.0 
197.105103 7032.0 
383.080322 3074.0 
462.183228 3938.0 
475.991577 3759.0 
504.225983 3062974.0 
END IONS

BEGIN IONS
NAME="(3,5-dimethoxyphenyl)-N-(1-methylbenzimidazol-6-yl)carboxamide CollisionEnergy:102040" M+formate
PRECURSOR_MZ=356.125
INCHI="InChI=1S/C17H17N3O3/c1-20-10-18-15-5-4-12(8-16(15)20)19-17(21)11-6-13(22-2)9-14(7-11)23-3/h4-10H,1-3H3,(H,19,21)"
SMILES=COc1cc(OC)cc(C(O)=Nc2ccc3ncn(C)c3c2)c1
SPECTRUMID=CCMSLIB00010103705
66.750793 2455.0 
73.777344 2257.0 
95.013573 10119.0 
96.914742 2594.0 
104.296379 2962.0 
106.00058 2957.0 
122.089844 2535.0 
124.480591 2228.0 
136.227173 3229.0 
146.07225 16989.0 
157.987457 3014.0 
172.051682 4627.0 
209.414673 2875.0 
281.371277 2373.0 
295.095642 17804.0 
306.57135 2236.0 
310.119598 526771.0 
END IONS

BEGIN IONS
NAME=Dubinidine CollisionEnergy:205060 M+formate
PRECURSOR_MZ=320.114
INCHI="InChI=1S/C15H17NO4/c1-15(18,8-17)12-7-10-13(19-2)9-5-3-4-6-11(9)16-14(10)20-12/h3-6,12,17-18H,7-8H2,1-2H3"
SMILES=COc1c2c(nc3ccccc13)OC(C(C)(O)CO)C2
SPECTRUMID=CCMSLIB00010116274
58.410702 2409.0 
63.77803 2473.0 
66.748558 3141.0 
92.382683 2970.0 
118.665863 2349.0 
130.882339 2058.0 
150.919357 2271.0 
END IONS

BEGIN IONS
NAME="2,2'-Dihydroxychalcone CollisionEnergy:102040" M+H
PRECURSOR_MZ=241.086
INCHI="InChI=1S/C15H12O3/c16-13-7-3-1-5-11(13)9-10-15(18)12-6-2-4-8-14(12)17/h1-10,16-17H/b10-9+"
SMILES=O=C(C=Cc1ccccc1O)c1ccccc1O
SPECTRUMID=CCMSLIB00010105247
53.002769 4215.0 
56.135479 3027.0 
65.038673 32537.0 
65.674423 3374.0 
73.948143 4017.0 
84.959961 54974.0 
93.03315 5859.0 
103.054031 4965.0 
119.049606 5269.0 
121.028374 13061984.0 
131.04924 5563.0 
137.023163 7845.0 
139.039734 4688.0 
147.043457 37769.0 
153.070297 16511.0 
162.973709 87057.0 
162.987686 5279.0 
167.27832 3861.0 
180.984161 144861.0 
181.064896 15686.0 
198.99472 13933.0 
199.075287 453785.0 
204.000015 17303.0 
211.988663 3384.0 
223.07515 1118926.0 
226.062302 15097.0 
241.085678 1101868.0 
255.350662 3939.0 
END IONS

BEGIN IONS
NAME="11-{3-chloro-4-[(4-methylphenyl)methoxy]phenyl}-3,3-dimethyl-2,3,4-trihydro-5H ,10H,11H-benzo[b]benzo[2,1-f]1,4-diazepin-1-one CollisionEnergy:102040" M+Na
PRECURSOR_MZ=495.181
INCHI="InChI=1S/C29H29ClN2O2/c1-18-8-10-19(11-9-18)17-34-26-13-12-20(14-21(26)30)28-27-24(15-29(2,3)16-25(27)33)31-22-6-4-5-7-23(22)32-28/h4-14,28,31-32H,15-17H2,1-3H3"
SMILES=Cc1ccc(COc2ccc(C3Nc4ccccc4NC4=C3C(=O)CC(C)(C)C4)cc2Cl)cc1
SPECTRUMID=CCMSLIB00010105888
51.019279 2516.0 
83.049477 4022.0 
92.375648 3492.0 
96.145477 3042.0 
104.283653 4869.0 
105.069542 5563.0 
125.894989 2841.0 
187.330078 3040.0 
211.656464 2889.0 
239.117371 11940.0 
241.133163 14292.0 
241.844589 3456.0 
263.115112 36969.0 
306.052277 4493.0 
332.153625 4430.0 
333.039307 6739.0 
333.158691 19518.0 
342.132172 11958.0 
358.12854 5029.0 
375.084717 3674.0 
389.102203 218660.0 
390.109711 4422.0 
437.221771 25138.0 
495.180176 2892598.0 
END IONS

BEGIN IONS
NAME=4-({4-[(4-chlorophenyl)methyl]piperazinyl}methyl)-7-methylchromen-2-one CollisionEnergy:205060 M+H
PRECURSOR_MZ=383.152
INCHI="InChI=1S/C22H23ClN2O2/c1-16-2-7-20-18(13-22(26)27-21(20)12-16)15-25-10-8-24(9-11-25)14-17-3-5-19(23)6-4-17/h2-7,12-13H,8-11,14-15H2,1H3"
SMILES=Cc1ccc2c(CN3CCN(Cc4ccc(Cl)cc4)CC3)cc(=O)oc2c1
SPECTRUMID=CCMSLIB00010118982
51.023499 5306.0 
56.04995 85548.0 
57.05788 8405.0 
58.065449 5428.0 
63.023258 44407.0 
65.038986 8711.0 
66.046806 10902.0 
68.049896 10596.0 
70.065369 20194.0 
71.060669 17925.0 
72.98465 20108.0 
83.060623 1560777.0 
84.068443 113960.0 
85.076279 140092.0 
86.084198 5933.0 
87.091751 7237.0 
89.038689 556078.0 
90.046463 72077.0 
91.054337 9282.0 
97.076073 260974.0 
98.999573 230561.0 
99.091797 17196.0 
124.654831 9188.0 
125.015244 23208872.0 
125.377563 6777.0 
128.061523 7206.0 
129.069275 7818.0 
130.06485 20801.0 
131.085892 19460.0 
138.0233 8530.0 
145.064468 89237.0 
147.080521 10853.0 
154.041855 21963.0 
159.080032 57729.0 
161.060104 9251.0 
163.099655 23855.0 
166.041306 10105.0 
168.057236 127205.0 
170.073761 6834.0 
170.09465 7305.0 
173.059555 24546.0 
174.067429 27761.0 
174.09137 19157.0 
175.074997 17709.0 
186.092117 9728.0 
187.076004 7869.0 
188.106308 99275.0 
200.072266 8037.0 
202.085907 19021.0 
203.094177 9344.0 
208.07515 7790.0 
209.084518 20992.0 
210.092026 16610.0 
212.069687 7482.0 
214.085785 37803.0 
215.095627 8252.0 
216.101852 346327.0 
226.08577 10026.0 
228.100998 16554.0 
229.134018 8674.0 
234.104446 7989.0 
255.112366 6739.0 
257.128021 530265.0 
258.136078 249399.0 
281.476715 5125.0 
297.067841 8256.0 
303.212158 6183.0 
310.857819 5517.0 
347.172577 43724.0 
383.151367 7926360.0 
END IONS

BEGIN IONS
NAME=Parthenolide CollisionEnergy:102040 M+Na
PRECURSOR_MZ=271.13
INCHI="InChI=1S/C15H20O3/c1-9-5-4-8-15(3)13(18-15)12-11(7-6-9)10(2)14(16)17-12/h5,11-13H,2,4,6-8H2,1,3H3/b9-5+/t11-,12-,13?,15?/m0/s1"
SMILES=C=C1C(=O)OC2C1CCC(C)=CCCC1(C)OC21
SPECTRUMID=CCMSLIB00010108899
57.515781 2412.0 
79.148819 2431.0 
136.17804 3267.0 
139.880722 2378.0 
180.169785 2626.0 
181.948334 3603.0 
201.491669 2328.0 
215.078186 2968.0 
227.140198 37067.0 
247.896378 3401.0 
248.122147 3102.0 
271.130524 2847669.0 
289.141113 46296.0 
END IONS

BEGIN IONS
NAME="phenylmethyl 4-(6-chloro-4-oxochromen-3-yl)-2-methyl-5-oxo-1,4,6,7,8-pentahydr oquinoline-3-carboxylate CollisionEnergy:205060" M+H
PRECURSOR_MZ=476.126
INCHI="InChI=1S/C27H22ClNO5/c1-15-23(27(32)34-13-16-6-3-2-4-7-16)24(25-20(29-15)8-5-9-21(25)30)19-14-33-22-11-10-17(28)12-18(22)26(19)31/h2-4,6-7,10-12,14,24,29H,5,8-9,13H2,1H3"
SMILES=CC1=C(C(=O)OCc2ccccc2)C(c2coc3ccc(Cl)cc3c2=O)C2=C(CCCC2=O)N1
SPECTRUMID=CCMSLIB00010118202
59.587238 3714.0 
65.03894 49410.0 
66.750053 4358.0 
82.065681 3722.0 
91.054291 1050334.0 
92.386909 4463.0 
98.999908 5115.0 
117.057289 5911.0 
130.06517 22078.0 
131.072845 3279.0 
131.998062 3334.0 
132.080719 30158.0 
133.052292 4059.0 
133.066269 3333.0 
143.073273 4619.0 
144.080902 19970.0 
150.091293 17548.0 
154.989136 341739.0 
156.080551 3987.0 
157.088882 24004.0 
158.060532 4838.0 
158.096069 93431.0 
160.075439 36912.0 
161.083572 8227.0 
168.081009 18290.0 
172.075134 8441.0 
173.083359 3665.0 
175.098984 19834.0 
176.070389 28760.0 
178.085815 16070.0 
178.989044 4336.0 
181.004608 42756.0 
184.075546 24950.0 
185.082947 7771.0 
186.090988 503099.0 
188.070496 76831.0 
193.073471 35419.0 
196.07518 14172.0 
200.070084 15095.0 
201.077621 17921.0 
205.00473 5680.0 
205.072891 37534.0 
206.080627 5274.0 
208.060043 6296.0 
211.015564 5222.0 
212.07016 67352.0 
214.085861 753875.0 
218.080414 5894.0 
221.083588 5569.0 
224.994446 284237.0 
230.081116 18244.0 
231.08757 5393.0 
240.064865 185682.0 
249.078156 6342.0 
250.122543 3967.0 
252.137863 48539.0 
257.061188 4811.0 
258.075439 52675.0 
259.096161 4602.0 
260.105713 4966.0 
268.052704 13567.0 
270.031311 6848.0 
270.065796 4473.0 
276.068604 3775.0 
276.101501 15763.0 
277.073456 12152.0 
277.109314 16963.0 
284.046844 63400.0 
285.055145 82990.0 
294.067535 20842.0 
295.043365 4400.0 
295.079041 4525.0 
296.049408 32679.0 
296.087463 13238.0 
296.127319 272685.0 
298.023529 7673.0 
298.062225 210709.0 
304.095459 33807.0 
305.103455 22721.0 
310.062714 8388.0 
311.071136 5073.0 
312.041138 59539.0 
312.077515 399259.0 
322.062439 61934.0 
322.14389 4507.0 
323.069366 5514.0 
324.077667 51149.0 
326.057373 22809.0 
332.087555 4517.0 
333.098145 24996.0 
338.058624 4277.0 
340.072784 513702.0 
350.055786 44162.0 
351.064056 15493.0 
352.03717 4187.0 
353.046661 5866.0 
366.05191 5892.0 
368.067535 3099074.0 
384.061035 14074.0 
432.132996 6017.0 
458.115051 14305.0 
476.125244 218268.0 
END IONS

BEGIN IONS
NAME=N-(2-methoxy-5-methylphenyl)-2-(9-methyl-6-oxohydropurin-8-ylthio)acetamide CollisionEnergy:102040 M+H
PRECURSOR_MZ=360.113
INCHI="InChI=1S/C16H17N5O3S/c1-9-4-5-11(24-3)10(6-9)19-12(22)7-25-16-20-13-14(21(16)2)17-8-18-15(13)23/h4-6,8H,7H2,1-3H3,(H,19,22)(H,17,18,23)"
SMILES=COc1ccc(C)cc1N=C(O)CSc1nc2c(O)ncnc2n1C
SPECTRUMID=CCMSLIB00010110532
55.673592 2656.0 
79.050163 3064.0 
89.104881 3114.0 
104.272263 4799.0 
135.068085 5005.0 
137.083603 14698.0 
138.092209 3535.0 
146.06012 30561.0 
147.068008 14738.0 
148.076447 3827.0 
150.05394 3987.0 
150.091446 33556.0 
151.061081 17192.0 
161.083313 22663.0 
163.062134 21075.0 
168.022217 3348.0 
178.086487 5572.0 
181.017563 249574.0 
183.033707 3399.0 
195.033295 1215064.0 
208.957352 3811.0 
208.977005 5867.0 
213.043976 12035.0 
223.028091 6499186.0 
236.060013 4503.0 
290.431061 3367.0 
342.102173 25253.0 
360.111572 314441.0 
END IONS

BEGIN IONS
NAME=2-(3-carboxypropanoylamino)hexanoic acid CollisionEnergy:102040 2M-H
PRECURSOR_MZ=461.214
INCHI="InChI=1S/C10H17NO5/c1-2-3-4-7(10(15)16)11-8(12)5-6-9(13)14/h7H,2-6H2,1H3,(H,11,12)(H,13,14)(H,15,16)"
SMILES=CCCCC(N=C(O)CCC(=O)O)C(=O)O
SPECTRUMID=CCMSLIB00010109384
57.554039 2706.0 
59.766689 2850.0 
64.065132 2935.0 
72.653061 3158.0 
74.837318 2760.0 
77.085533 2762.0 
82.029694 6238.0 
92.403267 3675.0 
98.024788 151822.0 
98.08873 3032.0 
99.008629 12425.0 
118.050133 2918.0 
130.087418 963138.0 
136.786072 3511.0 
140.071609 26352.0 
140.108231 3806.0 
142.123642 6627.0 
168.103241 115426.0 
208.434738 16221.0 
212.093231 1084347.0 
227.645248 3060.0 
230.10376 1950112.0 
253.825607 3065.0 
424.701782 3155.0 
END IONS

BEGIN IONS
NAME="2-[(3-nitrophenyl)(phenylsulfonyl)amino]-1-(2-1,2,3,4-tetrahydroisoquinolyl)et han-1-one CollisionEnergy:205060" M+Na
PRECURSOR_MZ=474.109
INCHI="InChI=1S/C23H21N3O5S/c27-23(24-14-13-18-7-4-5-8-19(18)16-24)17-25(20-9-6-10-21(15-20)26(28)29)32(30,31)22-11-2-1-3-12-22/h1-12,15H,13-14,16-17H2"
SMILES=O=C(CN(c1cccc([N+](=O)[O-])c1)S(=O)(=O)c1ccccc1)N1CCc2ccccc2C1
SPECTRUMID=CCMSLIB00010122514
52.05307 2838.0 
57.22554 2325.0 
64.746002 2567.0 
74.793793 2544.0 
82.735657 2627.0 
90.326874 3508.0 
93.403816 2452.0 
94.129997 2477.0 
95.198143 2415.0 
96.831497 2430.0 
131.990738 3083.0 
132.08078 18111.0 
154.062729 21343.0 
159.999893 3005.0 
173.032028 6365.0 
185.032333 4494.0 
239.553329 3183.0 
316.103882 19687.0 
332.101196 4034.0 
333.108429 73683.0 
365.097626 6086.0 
474.109192 1822658.0 
492.122406 5107.0 
END IONS

BEGIN IONS
NAME=ST007035 CollisionEnergy:102040 M-H
PRECURSOR_MZ=350.089
INCHI="InChI=1S/C17H13N5O4/c1-21-13(23)11-14(22(2)16(21)25)26-12(19)9(7-18)17(11)8-5-3-4-6-10(8)20-15(17)24/h3-6H,19H2,1-2H3,(H,20,24)"
SMILES=Cn1c2c(c(=O)n(C)c1=O)C1(C(O)=Nc3ccccc31)C(C#N)=C(N)O2
SPECTRUMID=CCMSLIB00010114709
57.97052 2234.0 
60.541889 2180.0 
65.014183 212532.0 
86.617767 2141.0 
104.288918 3017.0 
108.911751 2601.0 
136.217987 2590.0 
146.989883 2347.0 
157.985306 2527.0 
170.025253 23134.0 
171.05751 2749.0 
199.051544 29626.0 
227.047836 5054.0 
256.072998 64716.0 
284.068085 323909.0 
325.360229 2866.0 
350.021698 13802.0 
350.087524 51917.0 
END IONS

BEGIN IONS
NAME="N-benzothiazol-2-yl-2-(1,3-dimethyl-2,6-dioxo(1,3,7-trihydropurin-7-yl))acetam ide CollisionEnergy:102040" M+H
PRECURSOR_MZ=371.092
INCHI="InChI=1S/C16H14N6O3S/c1-20-13-12(14(24)21(2)16(20)25)22(8-17-13)7-11(23)19-15-18-9-5-3-4-6-10(9)26-15/h3-6,8H,7H2,1-2H3,(H,18,19,23)"
SMILES=Cn1c(=O)c2c(ncn2CC(O)=Nc2nc3ccccc3s2)n(C)c1=O
SPECTRUMID=CCMSLIB00010106729
81.045326 6098.0 
81.051643 2689.0 
82.393463 3164.0 
84.519722 2918.0 
89.066078 2915.0 
91.054443 5079.0 
91.70015 2839.0 
108.055473 6932.0 
109.039673 4409.0 
109.612923 3510.0 
125.078651 3225.0 
136.05069 19678.0 
149.082367 7113.0 
151.032516 571496.0 
163.032303 45520.0 
191.027252 151221.0 
193.072021 935212.0 
211.082565 1524237.0 
221.066925 914775.0 
234.099228 3567.0 
253.128677 5816.0 
258.46402 2813.0 
286.076691 3691.0 
291.6026 3235.0 
371.091858 3373605.0 
END IONS

BEGIN IONS
NAME=CCG-208435 CollisionEnergy:102040 M+Cl
PRECURSOR_MZ=659.138
INCHI="InChI=1S/C28H32O16/c1-9-18(32)21(35)23(37)27(41-9)44-28-24(38)22(36)19(33)16(43-28)8-40-26-20(34)17-13(31)6-11(29)7-15(17)42-25(26)10-3-4-12(30)14(5-10)39-2/h3-7,9,16,18-19,21-24,27-33,35-38H,8H2,1-2H3/t9-,16-,18-,19+,21+,22+,23+,24-,27-,28?/m0/s1"
SMILES=COc1cc(-c2oc3cc(O)cc(O)c3c(=O)c2OCC2OC(OC3OC(C)C(O)C(O)C3O)C(O)C(O)C2O)ccc1O
SPECTRUMID=CCMSLIB00010113678
65.832626 2660.0 
66.751503 2782.0 
80.554192 3332.0 
88.912437 2831.0 
92.39254 3089.0 
104.29953 3182.0 
105.908546 2766.0 
110.693573 3511.0 
118.673653 3046.0 
120.543671 2826.0 
142.257477 2819.0 
299.021027 4224.0 
314.042267 12632.0 
315.050751 23793.0 
545.784302 3264.0 
623.162354 116643.0 
END IONS

BEGIN IONS
NAME="N-{(1E)-2-[3-methoxy-4-(phenylmethoxy)phenyl]-1-azavinyl}-3-[(3,5-dioxo(2H,4H- 1,2,4-triazin-6-yl))amino]propanamide CollisionEnergy:102040" M+H
PRECURSOR_MZ=439.172
INCHI="InChI=1S/C21H22N6O5/c1-31-17-11-15(7-8-16(17)32-13-14-5-3-2-4-6-14)12-23-25-18(28)9-10-22-19-20(29)24-21(30)27-26-19/h2-8,11-12H,9-10,13H2,1H3,(H,22,26)(H,25,28)(H2,24,27,29,30)/b23-12+"
SMILES=COc1cc(C=NN=C(O)CCNc2nnc(O)nc2O)ccc1OCc1ccccc1
SPECTRUMID=CCMSLIB00010111641
55.018318 7131.0 
60.044899 4217.0 
65.32296 2791.0 
72.044693 13198.0 
82.394737 4106.0 
91.054428 956286.0 
104.28373 3050.0 
120.080727 6959.0 
122.059258 3084.0 
129.040726 6138.0 
139.982117 2959.0 
141.040726 415382.0 
149.047104 18114.0 
150.054855 75631.0 
150.091309 3052.0 
153.069656 12291.0 
154.026886 4265.0 
154.936005 3333.0 
159.09198 3921.0 
162.05571 2989.0 
165.066299 11320.0 
166.074005 26787.0 
167.081558 72030.0 
171.028854 2615.0 
176.070038 3090.0 
180.051849 4883.0 
180.081055 12219.0 
181.064621 11614.0 
183.051239 181101.0 
185.096054 2834.0 
197.078064 28844.0 
208.076294 10697.0 
212.106842 4467.0 
212.294113 3582.0 
221.091736 71356.0 
225.1017 15438.0 
227.106689 7052.0 
229.134552 4573.0 
231.088333 30888.0 
240.101471 62352.0 
241.109802 5160.0 
257.128204 928049.0 
273.097321 26269.0 
288.584991 3392.0 
299.138611 4074.0 
311.13855 208748.0 
346.230988 3526.0 
347.111328 4331.0 
439.172028 1105256.0 
450.497955 3913.0 
454.098602 3267.0 
END IONS

BEGIN IONS
NAME=creatine CollisionEnergy:102040 M+H-H2O
PRECURSOR_MZ=114.066
INCHI="InChI=1S/C4H9N3O2/c1-7(4(5)6)2-3(8)9/h2H2,1H3,(H3,5,6)(H,8,9)"
SMILES=CN(CC(=O)O)C(=N)N
SPECTRUMID=CCMSLIB00010103323
56.246101 2232.080078 
56.536598 1751.310059 
63.219898 2005.430054 
66.737503 2420.070068 
69.070702 2059.580078 
72.044899 8896.650391 
72.081596 4846.75 
79.054901 2600.199951 
81.223999 1860.650024 
82.390404 2007.819946 
86.071899 32614.300781 
92.369904 2449.889893 
96.081596 2848.51001 
104.082001 7827.22998 
109.447998 2388.850098 
114.066002 296725.0 
114.092003 39742.699219 
114.127998 3126.919922 
END IONS

BEGIN IONS
NAME=nicotinic acid CollisionEnergy:205060 M-H
PRECURSOR_MZ=122.025
INCHI="InChI=1S/C6H5NO2/c8-6(9)5-2-1-3-7-4-5/h1-4H,(H,8,9)"
SMILES=O=C(O)c1cccnc1
SPECTRUMID=CCMSLIB00010118725
75.026978 4179.0 
78.034737 29975.0 
82.400223 6209.0 
94.029823 41187.0 
108.604797 4813.0 
116.180634 4467.0 
122.024788 113833.0 
END IONS

BEGIN IONS
NAME="4-[(3-(2H-benzo[3,4-d]1,3-dioxolan-5-yl)-3-oxopropyl)amino]benzoic acid CollisionEnergy:102040" M+H
PRECURSOR_MZ=314.102
INCHI="InChI=1S/C17H15NO5/c19-14(12-3-6-15-16(9-12)23-10-22-15)7-8-18-13-4-1-11(2-5-13)17(20)21/h1-6,9,18H,7-8,10H2,(H,20,21)"
SMILES=O=C(O)c1ccc(NCCC(=O)c2ccc3c(c2)OCO3)cc1
SPECTRUMID=CCMSLIB00010105802
60.529419 3413.0 
63.532082 3019.0 
65.039284 7412.0 
66.194557 3255.0 
70.169022 3225.0 
73.941521 4144.0 
74.591057 3384.0 
76.599648 2975.0 
79.054489 17591.0 
82.386963 3490.0 
84.959991 5216.0 
91.311462 3597.0 
104.050308 2989.0 
104.269188 3110.0 
106.065109 12312.0 
126.680107 3850.0 
148.038727 4283.0 
149.580658 7834.0 
150.054947 9261379.0 
150.530594 11550.0 
165.054626 2077133.0 
191.081055 5253.0 
262.8461 3184.0 
267.927765 17879.0 
314.101593 210175.0 
END IONS

BEGIN IONS
NAME=(2Z)-2-benzoxazol-2-yl-1-(4-ethoxyphenyl)-3-(4-fluorophenyl)prop-2-en-1-one CollisionEnergy:102040 M+Na
PRECURSOR_MZ=410.116
INCHI="InChI=1S/C24H18FNO3/c1-2-28-19-13-9-17(10-14-19)23(27)20(15-16-7-11-18(25)12-8-16)24-26-21-5-3-4-6-22(21)29-24/h3-15H,2H2,1H3/b20-15+"
SMILES=CCOc1ccc(C(=O)C(=Cc2ccc(F)cc2)c2nc3ccccc3o2)cc1
SPECTRUMID=CCMSLIB00010103459
73.944778 43563.0 
76.020523 50952.0 
91.231567 48732.0 
92.367889 46648.0 
100.185226 48258.0 
113.434357 47772.0 
136.199493 59456.0 
147.005905 50344.0 
157.961212 48823.0 
179.656219 57638.0 
208.944473 64920.0 
208.961823 81998.0 
381.076477 119563.0 
394.084381 54885.0 
407.985046 59604.0 
409.109802 72264.0 
410.11557 173233696.0 
428.127045 414619.0 
END IONS

BEGIN IONS
NAME="N-(3-methoxyphenyl)-2-(6-methyl-4-oxo(1,2,3-trihydrocyclopenta[2,1-c]chromen-7 -yloxy))acetamide CollisionEnergy:102040" M+H
PRECURSOR_MZ=380.149
INCHI="InChI=1S/C22H21NO5/c1-13-19(27-12-20(24)23-14-5-3-6-15(11-14)26-2)10-9-17-16-7-4-8-18(16)22(25)28-21(13)17/h3,5-6,9-11H,4,7-8,12H2,1-2H3,(H,23,24)"
SMILES=COc1cccc(N=C(O)COc2ccc3c4c(c(=O)oc3c2C)CCC4)c1
SPECTRUMID=CCMSLIB00010108327
52.89032 2747.0 
71.271698 2590.0 
71.444183 2805.0 
72.819366 2475.0 
76.092438 2983.0 
104.049149 3618.0 
104.28392 3656.0 
106.065163 4609.0 
116.640602 2841.0 
121.064301 5413.0 
122.072746 23156.0 
123.067833 123983.0 
124.075699 75938.0 
132.044373 12544.0 
134.059998 6689.0 
136.075668 404500.0 
147.079788 4727.0 
158.073059 3184.0 
162.135284 2861.0 
164.070465 108735.0 
164.085602 5404.0 
165.078369 38936.0 
166.084976 4311.0 
171.079956 11306.0 
173.095871 3228.0 
187.075623 15351.0 
188.083038 7325.0 
189.091064 14242.0 
201.090805 145916.0 
215.069962 16024.0 
216.077774 83279.0 
216.09964 4629.0 
217.085678 1018407.0 
224.3293 3381.0 
229.08551 185615.0 
257.08017 38535.0 
329.622955 2577.0 
362.13855 3732.0 
380.14859 3403693.0 
END IONS

BEGIN IONS
NAME=3-({2-[2-methyl-5-(phenylmethoxy)indol-3-yl]ethyl}amino)-2-pentanoyl-5-phenylc yclohex-2-en-1-one CollisionEnergy:205060 M+H
PRECURSOR_MZ=535.296
INCHI="InChI=1S/C35H38N2O3/c1-3-4-15-33(38)35-32(20-27(21-34(35)39)26-13-9-6-10-14-26)36-19-18-29-24(2)37-31-17-16-28(22-30(29)31)40-23-25-11-7-5-8-12-25/h5-14,16-17,22,27,36-37H,3-4,15,18-21,23H2,1-2H3"
SMILES=CCCCC(=O)C1=C(NCCc2c(C)[nH]c3ccc(OCc4ccccc4)cc23)CC(c2ccccc2)CC1=O
SPECTRUMID=CCMSLIB00010116567
56.049801 8409.0 
57.070099 5940.0 
65.038963 229613.0 
68.049782 71359.0 
71.049469 6363.0 
72.220329 5500.0 
73.006508 4388.0 
78.046593 11135.0 
79.054283 11842.0 
80.049652 25266.0 
81.057617 24782.0 
81.069893 5456.0 
82.065338 7918.0 
91.054298 6330249.0 
94.065063 23229.0 
96.044357 218684.0 
103.054031 168656.0 
104.049522 11549.0 
104.06208 86814.0 
104.303864 9465.0 
105.069611 75276.0 
106.065041 34493.0 
107.048912 4983.0 
107.072701 19151.0 
108.044373 8772.0 
108.080681 7167.0 
110.059837 28483.0 
115.04567 7287.0 
115.0541 124302.0 
117.058052 25709.0 
117.06974 747747.0 
118.064583 19589.0 
120.080627 55008.0 
121.088943 18121.0 
122.059708 42623.0 
122.09655 42723.0 
124.075256 11701.0 
128.062088 12641.0 
129.069824 90808.0 
130.065033 299298.0 
131.04892 241961.0 
131.072647 71701.0 
131.085083 30688.0 
132.056198 7174.0 
132.080536 89826.0 
133.05275 18723.0 
133.064514 40926.0 
134.060059 49965.0 
134.095688 10592.0 
141.069107 37367.0 
143.072998 19380.0 
143.084808 10028.0 
144.056702 34305.0 
144.080582 986228.0 
145.064758 67072.0 
145.088394 2601484.0 
146.05983 121386.0 
146.096039 219445.0 
147.067413 51253.0 
147.079437 11967.0 
148.075775 68094.0 
150.091202 10696.0 
153.069717 23205.0 
154.064346 10489.0 
155.084747 22723.0 
156.080872 60266.0 
157.064423 20672.0 
157.088043 33943.0 
158.060043 96511.0 
158.096558 53422.0 
159.067612 518860.0 
159.080078 27013.0 
160.075455 1558556.0 
161.083313 78157.0 
162.091019 57374.0 
163.09848 43603.0 
165.069733 7233.0 
167.085892 32173.0 
168.079254 8763.0 
169.065002 56714.0 
170.096588 50538.0 
171.066818 37731.0 
172.075485 402896.0 
172.110703 37874.0 
173.083282 10608167.0 
174.091049 3093024.0 
176.106873 10395.0 
182.096588 12694.0 
184.075378 9776.0 
184.11026 6785.0 
186.090942 439809.0 
188.087479 10370.0 
188.106613 309935.0 
194.096069 23150.0 
195.119202 5912.0 
196.074203 10558.0 
197.083649 6098.0 
198.09166 6420.0 
200.106689 402666.0 
201.114365 10117.0 
204.092972 30897.0 
206.096115 22861.0 
207.103851 113030.0 
208.089554 9054.0 
208.111023 74547.0 
210.09082 52952.0 
212.106247 29548.0 
212.142426 50280.0 
214.087921 5038.0 
219.116745 27802.0 
220.07399 51200.0 
220.111877 11158.0 
221.1194 49428.0 
222.128326 7486.0 
224.107407 20464.0 
224.1427 7897.0 
225.114426 9264.0 
226.12178 10394.0 
228.100449 9234.0 
231.103287 25302.0 
232.096313 28620.0 
234.090546 103674.0 
235.099045 33008.0 
236.142838 458370.0 
237.103378 6096.0 
237.127441 58533.0 
238.121475 23714.0 
239.131409 37104.0 
240.101089 31790.0 
242.116745 11016.0 
246.128906 9762.0 
248.105774 80047.0 
249.114151 219040.0 
250.122528 72919.0 
251.117538 9226.0 
252.137344 23598.0 
254.153275 401366.0 
264.137695 4734869.0 
265.133301 12659.0 
266.1539 46648.0 
268.167053 8364.0 
270.147736 9487.0 
272.164032 184324.0 
278.118835 10518.0 
278.153168 271734.0 
284.163788 68568.0 
361.19101 7578.0 
362.209747 22829.0 
369.158844 29285.0 
379.178253 7383.0 
383.175293 12383.0 
411.20932 9066.0 
426.229248 53177.0 
427.239563 58333.0 
443.231445 26700.0 
451.23703 7604000.0 
517.285095 205173.0 
535.294373 2608032.0 
END IONS

BEGIN IONS
NAME=alpha-Mangostin CollisionEnergy:205060 M+H
PRECURSOR_MZ=411.18
INCHI="InChI=1S/C24H26O6/c1-12(2)6-8-14-16(25)10-19-21(22(14)27)23(28)20-15(9-7-13(3)4)24(29-5)17(26)11-18(20)30-19/h6-7,10-11,25-27H,8-9H2,1-5H3"
SMILES=COc1c(O)cc2oc3cc(O)c(CC=C(C)C)c(O)c3c(=O)c2c1CC=C(C)C
SPECTRUMID=CCMSLIB00010116825
56.634949 2767.0 
90.706284 3037.0 
107.476097 3298.0 
165.017517 18317.0 
167.034088 3904.0 
183.026993 4138.0 
185.397324 4088.0 
200.046326 6906.0 
215.069687 18032.0 
217.047913 6378.0 
225.054581 25001.0 
226.062927 12851.0 
227.033081 4764.0 
228.041199 57068.0 
229.048889 16823.0 
239.032837 17159.0 
241.047806 6619.0 
242.057449 5013.0 
243.064682 107833.0 
244.073364 22330.0 
245.044189 14669.0 
248.080673 4165.0 
251.069824 4539.0 
253.048828 19469.0 
254.056732 25841.0 
255.028503 28534.0 
255.063873 18908.0 
256.036102 142193.0 
257.043945 66176.0 
259.059875 14014.0 
265.048157 16349.0 
269.042755 15936.0 
270.051483 6753.0 
271.059662 458882.0 
272.067322 132169.0 
276.077332 5686.0 
277.085205 81183.0 
279.065948 37392.0 
280.072174 4824.0 
281.043488 46689.0 
282.051117 48073.0 
283.022278 18680.0 
283.059204 19258.0 
284.031006 885137.0 
285.038696 170182.0 
286.045319 5240.0 
287.053589 90307.0 
291.102264 11668.0 
293.043945 121869.0 
293.078827 12576.0 
294.087616 32268.0 
295.058746 12643.0 
295.096558 14756.0 
296.066772 14790.0 
297.039001 489734.0 
297.074432 35860.0 
298.045166 16774.0 
299.054413 1008909.0 
304.07251 34578.0 
305.08078 56798.0 
306.090485 4071.0 
307.059387 333632.0 
308.067413 24632.0 
309.076141 10654.0 
309.110992 5315.0 
311.053986 192501.0 
312.06192 12217.0 
313.06958 21968.0 
319.095856 62487.0 
321.072327 27047.0 
322.038971 7346.0 
322.082733 247861.0 
323.091736 32364.0 
325.069977 274402.0 
337.106384 309252.0 
339.085938 18079.0 
340.093597 14639.0 
355.116974 2601492.0 
411.179443 649182.0 
411.232269 16000.0 
END IONS

BEGIN IONS
NAME="4-(4-ethoxyphenyl)-2-oxo-6-(3,4,5-trimethoxyphenyl)hydropyridine-3-carbonitril e CollisionEnergy:102040" M+H
PRECURSOR_MZ=407.16
INCHI="InChI=1S/C23H22N2O5/c1-5-30-16-8-6-14(7-9-16)17-12-19(25-23(26)18(17)13-24)15-10-20(27-2)22(29-4)21(11-15)28-3/h6-12H,5H2,1-4H3,(H,25,26)"
SMILES=CCOc1ccc(-c2cc(-c3cc(OC)c(OC)c(OC)c3)nc(O)c2C#N)cc1
SPECTRUMID=CCMSLIB00010109511
71.880386 2878.0 
86.735428 2972.0 
92.485336 3553.0 
129.117889 3221.0 
141.64505 3460.0 
151.190125 3718.0 
207.189087 3318.0 
213.665054 3376.0 
225.013657 4221.0 
273.104095 5189.0 
276.087158 3304.0 
289.096649 38473.0 
290.105316 23248.0 
301.098297 4520.0 
305.093719 4893.0 
315.113831 5446.0 
316.083282 14553.0 
317.090668 59222.0 
317.128448 75890.0 
318.098541 74019.0 
318.136292 69042.0 
320.11618 7425.0 
321.084839 7072.0 
328.081879 5174.0 
329.090973 4383.0 
330.099365 4647.0 
331.069061 7193.0 
331.107849 15522.0 
332.07843 5140.0 
333.085968 62491.0 
333.12442 22603.0 
335.102142 22181.0 
343.108215 4518.0 
344.114685 41184.0 
345.084686 35276.0 
345.122925 113739.0 
346.092407 45166.0 
346.13092 172862.0 
347.100494 7284.0 
347.140991 6938.0 
348.071167 12721.0 
348.113525 5245.0 
349.080139 103126.0 
349.119446 70402.0 
350.125214 12752.0 
356.113922 37460.0 
358.128326 4953.0 
359.101624 34999.0 
360.107697 7897.0 
361.117462 480877.0 
363.09436 30912.0 
363.137909 89247.0 
364.103912 14291.0 
373.117493 179888.0 
374.125488 177207.0 
375.13736 25583.0 
376.141266 16755.0 
377.112396 576568.0 
378.120148 74035.0 
379.128082 128326.0 
379.179993 6317.0 
391.128082 258135.0 
392.134308 38068.0 
407.159363 7364365.0 
END IONS

BEGIN IONS
NAME="N-(4-(2H,3H-benzo[e]1,4-dioxin-6-yl)(1,3-thiazol-2-yl))(3,4,5-trimethoxyphenyl )carboxamide CollisionEnergy:102040" M+Na
PRECURSOR_MZ=451.093
INCHI="InChI=1S/C21H20N2O6S/c1-25-17-9-13(10-18(26-2)19(17)27-3)20(24)23-21-22-14(11-30-21)12-4-5-15-16(8-12)29-7-6-28-15/h4-5,8-11H,6-7H2,1-3H3,(H,22,23,24)"
SMILES=COc1cc(C(O)=Nc2nc(-c3ccc4c(c3)OCCO4)cs2)cc(OC)c1OC
SPECTRUMID=CCMSLIB00010107416
50.77356 2457.0 
54.971279 2768.0 
56.282089 3162.0 
73.959686 3975.0 
77.089859 3314.0 
82.402206 3355.0 
132.073135 3174.0 
451.092773 3319765.0 
469.105011 5393.0 
END IONS

BEGIN IONS
NAME=Vitamin P CollisionEnergy:205060 2M-H
PRECURSOR_MZ=1219.3
INCHI="InChI=1S/C27H30O16/c1-8-17(32)20(35)22(37)26(40-8)39-7-15-18(33)21(36)23(38)27(42-15)43-25-19(34)16-13(31)5-10(28)6-14(16)41-24(25)9-2-3-11(29)12(30)4-9/h2-6,8,15,17-18,20-23,26-33,35-38H,7H2,1H3"
SMILES=CC1OC(OCC2OC(Oc3c(-c4ccc(O)c(O)c4)oc4cc(O)cc(O)c4c3=O)C(O)C(O)C2O)C(O)C(O)C1O
SPECTRUMID=CCMSLIB00010122421
92.384354 5872.0 
95.689796 5840.0 
107.013779 40249.0 
108.021271 9896.0 
109.029633 16108.0 
121.02951 35514.0 
124.017059 6463.0 
135.00885 7672.0 
150.991058 12753.0 
151.003723 189501.0 
163.003799 46664.0 
169.013962 10748.0 
171.340225 6899.0 
178.999146 85202.0 
187.041199 8072.0 
190.998352 7547.0 
199.040375 14358.0 
211.040909 12630.0 
215.035233 7734.0 
216.04422 7751.0 
226.027695 35244.0 
227.035217 47219.0 
229.050903 11899.0 
239.035248 7267.0 
243.03009 178524.0 
245.045761 13825.0 
254.0224 45157.0 
255.030182 568194.0 
271.025055 1211771.0 
272.033447 36659.0 
273.041626 15563.0 
283.025085 26968.0 
299.019501 16428.0 
300.02771 1007297.0 
301.035614 201489.0 
411.322968 8173.0 
422.81485 8702.0 
450.067657 6246.0 
501.001801 7605.0 
609.146912 2512537.0 
611.901672 6995.0 
645.138916 6500.0 
END IONS

BEGIN IONS
NAME=Etoposide; VP-16-213 CollisionEnergy:205060 M-H
PRECURSOR_MZ=587.177
INCHI="InChI=1S/C29H32O13/c1-11-36-9-20-27(40-11)24(31)25(32)29(41-20)42-26-14-7-17-16(38-10-39-17)6-13(14)21(22-15(26)8-37-28(22)33)12-4-18(34-2)23(30)19(5-12)35-3/h4-7,11,15,20-22,24-27,29-32H,8-10H2,1-3H3/t11?,15?,20?,21-,22+,24?,25?,26?,27?,29?/m1/s1"
SMILES=COc1cc(C2c3cc4c(cc3C(OC3OC5COC(C)OC5C(O)C3O)C3COC(=O)C23)OCO4)cc(OC)c1O
SPECTRUMID=CCMSLIB00010122300
55.018341 40516.0 
57.034111 64120.0 
58.00544 25056.0 
59.013409 37095.0 
65.002861 6780.0 
67.01844 15603.0 
68.997849 19599.0 
69.034302 14772.0 
71.013542 248216.0 
71.554573 3398.0 
72.992844 28356.0 
73.029152 7918.0 
73.949989 3718.0 
81.034317 7464.0 
82.394997 3794.0 
83.013641 128780.0 
84.021629 29408.0 
85.029381 642110.0 
87.008743 8227.0 
89.003403 26977.0 
91.018959 14764.0 
95.013863 250509.0 
97.029449 34911.0 
99.008781 509499.0 
99.045212 3786.0 
101.024513 18614.0 
104.2798 4620.0 
106.006042 22884.0 
109.029587 5706.0 
111.008789 20309.0 
112.01664 8919.0 
113.024544 1234826.0 
115.040123 22735.0 
121.029549 278194.0 
123.008827 96605.0 
124.017014 21394.0 
125.024513 35609.0 
127.040123 484748.0 
131.034988 23370.0 
136.986816 4354.0 
137.025223 4737.0 
138.032257 94225.0 
139.003464 18928.0 
139.040009 17953.0 
141.019821 12614.0 
142.027222 24907.0 
143.034866 46306.0 
145.050613 243446.0 
145.06369 8221.0 
153.055817 173158.0 
155.050125 20533.0 
157.051361 9742.0 
157.065811 147198.0 
157.079681 6889.0 
157.960205 4246.0 
168.057175 4253.0 
171.04512 7194.0 
179.859573 4174.0 
181.066254 6976.0 
185.060837 35256.0 
187.042007 6234.0 
187.061295 142466.0 
189.057907 4050.0 
193.066437 5835.0 
195.045563 6814.0 
195.080673 5465.0 
196.053513 5609.0 
197.061417 16107.0 
199.040527 13691.0 
204.063919 197717.0 
205.070923 14932.0 
207.081726 4403.0 
209.06131 17193.0 
211.041656 6179.0 
211.076935 4040.0 
213.056808 4029.0 
215.147934 3374.0 
221.060349 29243.0 
222.068909 6115.0 
223.076859 37994.0 
225.055832 38791.0 
233.061035 17022.0 
235.038803 6148.0 
235.077133 16934.0 
237.055313 17817.0 
237.090469 8642.0 
239.071686 8067.0 
241.050674 17346.0 
243.066193 32801.0 
247.075043 6603.0 
249.056641 43736.0 
250.064438 22441.0 
251.071228 78936.0 
253.086777 5149.0 
255.030273 26778.0 
255.065628 4269.0 
261.055267 17570.0 
263.040924 6131.0 
263.070587 35083.0 
264.043457 6230.0 
265.051086 34384.0 
265.08728 14829.0 
266.059357 7894.0 
267.065094 14848.0 
269.045624 13605.0 
275.069611 5103.0 
277.050293 54412.0 
278.059265 25555.0 
279.066193 378458.0 
280.073303 48167.0 
281.081787 97387.0 
283.02417 25771.0 
289.051605 4774.0 
290.059021 4005.0 
291.066254 22531.0 
292.074799 5817.0 
293.045746 45489.0 
293.082642 23637.0 
294.053772 18724.0 
294.089722 4131.0 
295.061584 15895.0 
295.097595 37778.0 
296.105469 15555.0 
298.049469 4841.0 
305.082214 7758.0 
306.054718 21169.0 
307.061279 695879.0 
308.068817 27758.0 
309.077118 98782.0 
309.11438 7350.0 
311.054474 4192.0 
313.073608 4820.0 
319.06192 5403.0 
321.043243 32125.0 
321.074219 33978.0 
322.042603 8449.0 
322.084229 169380.0 
323.056824 48237.0 
323.089539 38486.0 
324.102173 16410.0 
325.071045 16650.0 
333.078369 4507.0 
337.108337 809476.0 
339.086792 9505.0 
339.124634 47290.0 
341.101929 5773.0 
343.066864 5003.0 
343.119324 15134.0 
349.069946 5142.0 
351.050873 122667.0 
351.096344 7318.0 
353.104858 31522.0 
355.119507 8535.0 
366.071838 31738.0 
367.076813 35628.0 
367.12738 5791.0 
371.113739 224330.0 
377.1008 6573.0 
379.119171 14860.0 
381.0979 718613.0 
382.105743 6526.0 
383.116882 14533.0 
391.120209 5642.0 
395.111511 29324.0 
397.12912 284514.0 
399.110382 6175.0 
403.117981 7825.0 
407.112488 7204.0 
421.129059 130990.0 
433.129639 32390.0 
435.146881 5494.0 
439.138367 24082.0 
440.140778 4294.0 
441.118744 64381.0 
451.139557 25675.0 
463.139587 19854.0 
465.121552 6703.0 
481.152618 20819.0 
507.164062 24549.0 
525.177673 9104.0 
569.166443 25295.0 
587.17688 247850.0 
END IONS

BEGIN IONS
NAME="(3,5-dimethoxyphenyl)-N-[2-(2-chlorophenyl)benzoxazol-5-yl]carboxamide CollisionEnergy:205060" M+formate
PRECURSOR_MZ=453.086
INCHI="InChI=1S/C22H17ClN2O4/c1-27-15-9-13(10-16(12-15)28-2)21(26)24-14-7-8-20-19(11-14)25-22(29-20)17-5-3-4-6-18(17)23/h3-12H,1-2H3,(H,24,26)"
SMILES=COc1cc(OC)cc(C(O)=Nc2ccc3oc(-c4ccccc4Cl)nc3c2)c1
SPECTRUMID=CCMSLIB00010118814
66.427559 2637.0 
68.9953 5312.0 
77.806763 2624.0 
84.990562 2734.0 
86.986183 3025.0 
95.013687 48602.0 
101.073677 2449.0 
104.662849 2588.0 
112.985657 423914.0 
119.965363 2469.0 
138.03186 9780.0 
157.976028 2934.0 
180.973297 90290.0 
188.292206 2635.0 
248.960449 168817.0 
266.983063 3511.0 
269.014008 2865.0 
302.661713 2497.0 
316.947021 26623.0 
316.983612 4154.0 
358.866882 2812.0 
392.05722 12492.0 
407.080902 144764.0 
452.980835 11807.0 
484.14801 3364.0 
646.937561 2680.0 
END IONS

BEGIN IONS
NAME=D-(-)-Arabinose CollisionEnergy:102040 M-H
PRECURSOR_MZ=149.046
INCHI="InChI=1S/C5H10O5/c6-1-3(8)5(10)4(9)2-7/h1,3-5,7-10H,2H2/t3-,4-,5+/m1/s1"
SMILES=O=C[C@@H](O)[C@H](O)[C@H](O)CO
SPECTRUMID=CCMSLIB00010126238
50.814499 1894.280029 
71.013298 2259.850098 
104.316002 2302.350098 
111.641998 1889.130005 
111.898003 2107.209961 
127.324997 1933.540039 
136.246994 1777.530029 
148.973007 2162.76001 
END IONS

BEGIN IONS
NAME="1-(2H-benzo[3,4-d]1,3-dioxolan-5-yl)-3-[(4-chlorophenyl)amino]-3-(4-ethylpheny l)propan-1-one CollisionEnergy:102040" M+Cl
PRECURSOR_MZ=442.098
INCHI="InChI=1S/C24H22ClNO3/c1-2-16-3-5-17(6-4-16)21(26-20-10-8-19(25)9-11-20)14-22(27)18-7-12-23-24(13-18)29-15-28-23/h3-13,21,26H,2,14-15H2,1H3"
SMILES=CCc1ccc(C(CC(=O)c2ccc3c(c2)OCO3)Nc2ccc(Cl)cc2)cc1
SPECTRUMID=CCMSLIB00010104285
50.162868 2268.0 
53.341419 2622.0 
61.125221 2135.0 
62.664742 2481.0 
66.758881 3918.0 
94.560387 2625.0 
100.052887 2257.0 
104.308167 3518.0 
111.143089 2432.0 
113.482513 2812.0 
118.683006 2658.0 
130.927292 2657.0 
191.434998 2436.0 
219.023834 2771.0 
220.67955 2709.0 
224.861038 2688.0 
266.384369 2438.0 
END IONS

BEGIN IONS
NAME=4-((2E)-3-phenylprop-2-enyl)-5-(2-ethoxyphenyl)-4-azabicyclo[4.4.0]decan-1-ol CollisionEnergy:102040 M+H-H2O
PRECURSOR_MZ=374.248
INCHI="InChI=1S/C26H33NO2/c1-2-29-24-16-7-6-14-22(24)25-23-15-8-9-17-26(23,28)18-20-27(25)19-10-13-21-11-4-3-5-12-21/h3-7,10-14,16,23,25,28H,2,8-9,15,17-20H2,1H3/b13-10+"
SMILES=CCOc1ccccc1C1C2CCCCC2(O)CCN1CC=Cc1ccccc1
SPECTRUMID=CCMSLIB00010104059
60.459789 3535.0 
62.806259 3139.0 
66.472794 2959.0 
67.054588 22397.0 
67.433632 2966.0 
78.15551 4027.0 
81.069748 4118.0 
83.085701 16543.0 
91.054237 73097.0 
95.085472 5403.0 
102.916054 2950.0 
105.069809 6350.0 
107.049187 13350.0 
107.08448 3491.0 
109.101242 26643.0 
115.054207 181520.0 
116.062149 4967.0 
117.069847 5259720.0 
129.069992 15539.0 
133.064575 21475.0 
135.080353 129727.0 
143.085419 14591.0 
145.064743 4950.0 
146.096451 69705.0 
150.091705 16195.0 
161.096863 5039.0 
162.091156 13620.0 
164.106934 21178.0 
195.037964 4374.0 
209.032455 12436.0 
228.136322 4545.0 
229.160141 32810.0 
242.152725 3719.0 
245.373672 3654.0 
251.142929 6463.0 
256.169983 45268.0 
257.177582 22621.0 
258.185547 63174.0 
266.153778 14718.0 
274.499054 3610.0 
288.978699 3517.0 
346.21698 3889.0 
374.247284 7388111.0 
END IONS

BEGIN IONS
NAME="(2E)-1-(2-methoxyphenyl)-3-(2,4,5-trimethoxyphenyl)prop-2-en-1-one CollisionEnergy:205060" M+Na
PRECURSOR_MZ=351.12
INCHI="InChI=1S/C19H20O5/c1-21-16-8-6-5-7-14(16)15(20)10-9-13-11-18(23-3)19(24-4)12-17(13)22-2/h5-12H,1-4H3/b10-9+"
SMILES=COc1cc(OC)c(OC)cc1C=CC(=O)c1ccccc1OC
SPECTRUMID=CCMSLIB00010115605
56.965248 16030.0 
83.640762 2604.0 
84.960007 2384.0 
104.277229 2701.0 
104.477509 2395.0 
104.752724 2389.0 
119.734947 2298.0 
157.952042 2797.0 
165.396072 2441.0 
184.004089 5602.0 
209.01207 9484.0 
210.016083 3530.0 
219.036621 2317.0 
243.989899 4322.0 
252.267838 2642.0 
274.979858 3272.0 
285.04129 3779.0 
296.029144 4342.0 
297.111481 39568.0 
301.668457 2500.0 
308.907379 2717.0 
314.042389 5465.0 
327.05191 3793.0 
328.058289 35111.0 
337.104309 13454.0 
345.061523 4544.0 
346.06665 45747.0 
351.119965 546185.0 
364.078705 9055.0 
END IONS

BEGIN IONS
NAME="methyl 2-{3-[(1,3-dimethyl-2,6-dioxo(1,3-dihydropyrimidin-4-yl))carbonylamino] -4-methoxyphenoxy}acetate CollisionEnergy:205060" M+H
PRECURSOR_MZ=378.13
INCHI="InChI=1S/C17H19N3O7/c1-19-12(8-14(21)20(2)17(19)24)16(23)18-11-7-10(5-6-13(11)25-3)27-9-15(22)26-4/h5-8H,9H2,1-4H3,(H,18,23)"
SMILES=COC(=O)COc1ccc(OC)c(N=C(O)c2cc(=O)n(C)c(=O)n2C)c1
SPECTRUMID=CCMSLIB00010123282
54.11301 2567.0 
55.018391 19634.0 
56.049881 34285.0 
66.556297 3362.0 
66.738167 3753.0 
68.050003 3686.0 
71.049103 3593.0 
73.948532 4383.0 
79.054626 12849.0 
80.04969 3647.0 
82.028931 1301154.0 
84.044579 6219.0 
102.467903 3217.0 
108.044617 13317.0 
109.065063 4165.0 
110.060028 4820.0 
119.036484 78088.0 
120.044128 4396.0 
121.028648 3891.0 
123.068069 7162.0 
130.065231 3455.0 
132.044479 15240.0 
133.051666 3969.0 
134.06012 14661.0 
135.043671 3160.0 
136.039444 38201.0 
138.054871 13273.0 
139.05014 3601.0 
141.06517 29694.0 
144.044052 3300.0 
145.053314 3985.0 
145.076035 18733.0 
146.023727 12143.0 
146.060028 18488.0 
147.055161 4979.0 
148.075546 21408.0 
150.055161 22031.0 
151.062469 30206.0 
152.070389 105995.0 
154.086258 3095.0 
155.060135 3803.0 
158.047028 3902.0 
158.060287 6003.0 
159.055008 6233.0 
160.039276 4818.0 
160.063126 3630.0 
161.047424 6584.0 
162.055145 16940.0 
162.078812 5599.0 
164.033798 26399.0 
164.070999 14203.0 
167.044998 56139.0 
173.046417 5832.0 
173.070816 108821.0 
174.054657 11987.0 
174.078598 25909.0 
175.063583 7334.0 
175.086472 10457.0 
176.034363 7156.0 
176.070251 25308.0 
177.041702 5181.0 
177.065582 3210.0 
178.049454 84752.0 
179.05777 17196.0 
180.06514 4891.0 
185.071533 4704.0 
187.03038 3533.0 
187.050964 18676.0 
187.086319 3209.0 
188.033417 3793.0 
188.071869 6040.0 
189.043625 4547.0 
189.065536 6552.0 
189.101654 11496.0 
190.049591 12753.0 
190.073425 19931.0 
191.057816 4494.0 
191.081223 16687.0 
192.863281 2968.0 
196.060165 559940.0 
201.065475 303889.0 
202.014038 24858.0 
202.049866 26607.0 
202.07341 19169.0 
203.082794 3590.0 
204.065735 15853.0 
205.060669 18263.0 
205.096786 52697.0 
206.044449 17812.0 
207.722916 3355.0 
210.075378 4940.0 
211.083771 78795.0 
212.365265 3704.0 
215.044846 13564.0 
215.080322 4054.0 
217.037125 19255.0 
217.060242 11198.0 
217.097076 81731.0 
218.068878 20214.0 
219.075882 26431.0 
220.023148 21775.0 
229.060104 54479.0 
230.045593 5432.0 
232.061737 4460.0 
233.056015 20214.0 
233.091858 44176.0 
235.046799 4300.0 
246.087128 4996.0 
247.070496 13147.0 
251.079529 3610.0 
258.041016 3873.0 
258.087341 25779.0 
259.096954 3186.0 
260.067413 3613.0 
260.102203 4203.0 
261.086945 87493.0 
261.115417 5201.0 
262.082458 12802.0 
264.085938 69514.0 
272.063843 3234.0 
276.098022 15561.0 
279.097809 17703.0 
284.310272 3288.0 
288.061218 5568.0 
289.08139 29620.0 
290.065369 416937.0 
290.112213 50711.0 
304.092743 17910.0 
318.107849 220403.0 
321.107422 245786.0 
328.091553 4298.0 
346.103363 29541.0 
378.128662 880148.0 
END IONS

BEGIN IONS
NAME=Asiatic acid CollisionEnergy:205060 M+Na
PRECURSOR_MZ=511.339
INCHI="InChI=1S/C30H48O5/c1-17-9-12-30(25(34)35)14-13-28(5)19(23(30)18(17)2)7-8-22-26(3)15-20(32)24(33)27(4,16-31)21(26)10-11-29(22,28)6/h7,17-18,20-24,31-33H,8-16H2,1-6H3,(H,34,35)/t17-,18+,20-,21-,22-,23+,24+,26+,27+,28-,29-,30+/m1/s1"
SMILES=CC1CCC2(C(=O)O)CCC3(C)C(=CCC4C5(C)CC(O)C(O)C(C)(CO)C5CCC43C)C2C1C
SPECTRUMID=CCMSLIB00010125040
54.125061 2625.0 
55.359779 2675.0 
92.379692 3198.0 
118.6576 3685.0 
158.828506 2807.0 
177.142502 2744.0 
183.754105 2398.0 
222.224274 2651.0 
511.338593 560948.0 
529.349609 4368.0 
END IONS

BEGIN IONS
NAME=7-Hydroxyflavanone CollisionEnergy:102040 2M-H
PRECURSOR_MZ=479.15
INCHI="InChI=1S/C15H12O3/c16-11-6-7-12-13(17)9-14(18-15(12)8-11)10-4-2-1-3-5-10/h1-8,14,16H,9H2"
SMILES=O=C1CC(c2ccccc2)Oc2cc(O)ccc21
SPECTRUMID=CCMSLIB00010107492
66.740189 2608.0 
82.393784 2599.0 
83.629517 2408.0 
92.371696 3378.0 
219.145203 2800.0 
239.071289 21549.0 
286.945831 2742.0 
390.4776 2567.0 
END IONS

BEGIN IONS
NAME="N-(3,4-dimethoxyphenyl)-2-(4-hydroxyquinazolin-2-ylthio)acetamide CollisionEnergy:102040" M+H
PRECURSOR_MZ=372.101
INCHI="InChI=1S/C18H17N3O4S/c1-24-14-8-7-11(9-15(14)25-2)19-16(22)10-26-18-20-13-6-4-3-5-12(13)17(23)21-18/h3-9H,10H2,1-2H3,(H,19,22)(H,20,21,23)"
SMILES=COc1ccc(N=C(O)CSc2nc(O)c3ccccc3n2)cc1OC
SPECTRUMID=CCMSLIB00010110784
66.733994 2765.0 
92.368263 5707.0 
98.705276 3648.0 
100.416153 3119.0 
100.694183 2840.0 
121.6782 3321.0 
122.059479 11902.0 
123.06752 18236.0 
132.044388 945434.0 
135.103378 3422.0 
136.075745 4358.0 
136.190796 3788.0 
145.039276 3945.0 
148.039536 14483.0 
150.054871 168209.0 
151.075119 3120.0 
152.071259 3675.0 
153.078278 4603.0 
154.086166 704472.0 
162.001755 5280.0 
162.054901 18639.0 
163.062759 209630.0 
166.085403 25986.0 
176.070389 3311.0 
191.027298 750960.0 
193.042465 5370.0 
194.080902 26503.0 
196.890778 3523.0 
219.022171 7294223.0 
245.241196 3772.0 
264.080017 4532.0 
372.100769 680745.0 
END IONS

BEGIN IONS
NAME=N-(3-bromophenyl)-2-{2-oxo-4-[N-benzylcarbamoyl]hydroquinolyl}acetamide CollisionEnergy:205060 M+formate
PRECURSOR_MZ=534.067
INCHI="InChI=1S/C25H20BrN3O3/c26-18-9-6-10-19(13-18)28-23(30)16-29-22-12-5-4-11-20(22)21(14-24(29)31)25(32)27-15-17-7-2-1-3-8-17/h1-14H,15-16H2,(H,27,32)(H,28,30)"
SMILES=O=c1cc(C(O)=NCc2ccccc2)c2ccccc2n1CC(O)=Nc1cccc(Br)c1
SPECTRUMID=CCMSLIB00010124493
52.817719 2485.0 
78.918556 74999.0 
80.916489 11990.0 
82.402252 3103.0 
115.055618 2921.0 
116.050484 20227.0 
128.050552 39672.0 
130.066116 31817.0 
142.06636 3637.0 
142.312576 2825.0 
144.045364 67812.0 
158.048264 13533.0 
158.061035 48253.0 
167.060501 3199.0 
169.960892 15609.0 
172.040253 5052.0 
176.071198 5512.0 
184.039612 18602.0 
202.050491 4146.0 
215.529617 3571.0 
231.09259 3237.0 
245.107651 3952.0 
247.123749 25657.0 
261.103363 14217.0 
277.098206 14040.0 
317.091766 3591.0 
323.102722 17721.0 
355.010254 25533.0 
488.061737 267069.0 
END IONS

BEGIN IONS
NAME=ouabain CollisionEnergy:102040 M-H
PRECURSOR_MZ=583.276
INCHI="InChI=1S/C29H44O12/c1-13-22(34)23(35)24(36)25(40-13)41-15-8-19(32)28(12-30)21-17(3-5-27(28,37)9-15)29(38)6-4-16(14-7-20(33)39-11-14)26(29,2)10-18(21)31/h7,13,15-19,21-25,30-32,34-38H,3-6,8-12H2,1-2H3/t13-,15-,16+,17+,18+,19+,21+,22-,23+,24+,25-,26+,27-,28+,29-/m0/s1"
SMILES=CC1OC(OC2CC(O)C3(CO)C4C(O)CC5(C)C(C6=CC(=O)OC6)CCC5(O)C4CCC3(O)C2)C(O)C(O)C1O
SPECTRUMID=CCMSLIB00010112695
58.00552 31760.0 
59.013351 267757.0 
69.034241 36228.0 
71.013512 122011.0 
72.992706 38513.0 
73.029167 47633.0 
73.955803 3780.0 
79.760727 3524.0 
81.034233 3427.0 
82.572037 3261.0 
83.013573 28279.0 
83.050072 8423.0 
85.029343 74750.0 
86.671677 3759.0 
89.024269 156574.0 
95.050018 8406.0 
97.029449 20265.0 
101.024406 118006.0 
103.040024 123029.0 
103.047737 4001.0 
109.029099 5297.0 
109.06575 6219.0 
111.044434 3571.0 
118.657883 3926.0 
119.034927 48782.0 
121.065857 6108.0 
123.045158 19889.0 
123.081459 5720.0 
127.039597 26654.0 
133.06575 7668.0 
133.101974 6239.0 
135.08168 36977.0 
145.050201 37118.0 
147.082321 3319.0 
149.060745 14877.0 
153.092209 8910.0 
160.089432 22632.0 
161.097061 31626.0 
163.06134 125210.0 
174.956482 5471.0 
177.055435 32383.0 
177.092621 7071.0 
178.063873 33785.0 
179.071518 191000.0 
185.397751 4995.0 
203.745392 4658.0 
213.129318 3450.0 
221.0811 4443.0 
225.129425 13965.0 
237.129684 3276.0 
247.149277 36085.0 
251.144821 7217.0 
257.155212 16919.0 
265.158539 4729.0 
267.139709 3752.0 
269.154388 27225.0 
273.165161 17650.0 
275.130707 3900.0 
277.160034 4629.0 
283.170135 15948.0 
291.175903 106435.0 
295.170563 16033.0 
309.186249 98717.0 
313.144989 14860.0 
313.181885 8662.0 
319.155182 29663.0 
321.185211 15631.0 
327.158264 5677.0 
327.196442 60246.0 
331.155121 48597.0 
335.165131 73346.0 
339.196838 17166.0 
345.169739 20259.0 
353.175995 370479.0 
357.170288 15318.0 
357.211731 6377.0 
365.176819 7138.0 
371.186523 770063.0 
375.180725 16089.0 
383.187378 56431.0 
389.197144 19271.0 
393.228058 34955.0 
401.19696 150816.0 
419.207764 1050970.0 
437.218323 528627.0 
459.225769 5761.0 
565.264465 15501.0 
583.276917 4601419.0 
584.282532 17093.0 
END IONS

BEGIN IONS
NAME="N-(2,5-dimethylphenyl)-2-[2-oxo-4-(N-propylcarbamoyl)hydroquinolyl]acetamide CollisionEnergy:102040" M+formate
PRECURSOR_MZ=436.188
INCHI="InChI=1S/C23H25N3O3/c1-4-11-24-23(29)18-13-22(28)26(20-8-6-5-7-17(18)20)14-21(27)25-19-12-15(2)9-10-16(19)3/h5-10,12-13H,4,11,14H2,1-3H3,(H,24,29)(H,25,27)"
SMILES=CCCN=C(O)c1cc(=O)n(CC(O)=Nc2cc(C)ccc2C)c2ccccc12
SPECTRUMID=CCMSLIB00010113711
62.373371 2556.0 
64.522957 2403.0 
65.324402 2907.0 
65.536331 2273.0 
69.307991 2365.0 
70.223839 2241.0 
88.148102 2481.0 
128.050308 3180.0 
130.065918 13955.0 
130.849396 2694.0 
132.045853 9381.0 
144.045334 24712.0 
158.048965 8252.0 
158.061035 18999.0 
160.040558 28448.0 
176.071274 11010.0 
184.040543 12701.0 
199.124374 75059.0 
201.103775 16212.0 
213.103256 42339.0 
215.119217 11384.0 
229.098282 24233.0 
243.114807 13363.0 
245.092834 15274.0 
269.093384 5177.0 
269.449646 2883.0 
275.103577 15213.0 
275.341614 2523.0 
305.129456 45010.0 
354.265198 2793.0 
384.024689 2573.0 
390.182404 616848.0 
END IONS

BEGIN IONS
NAME="(3,4,5-trimethoxyphenyl)-N-{2-[(3,4,5-trimethoxyphenyl)carbonylamino]cyclohexy l}carboxamide CollisionEnergy:205060" M+formate
PRECURSOR_MZ=547.23
INCHI="InChI=1S/C26H34N2O8/c1-31-19-11-15(12-20(32-2)23(19)35-5)25(29)27-17-9-7-8-10-18(17)28-26(30)16-13-21(33-3)24(36-6)22(14-16)34-4/h11-14,17-18H,7-10H2,1-6H3,(H,27,29)(H,28,30)"
SMILES=COc1cc(C(O)=NC2CCCCC2N=C(O)c2cc(OC)c(OC)c(OC)c2)cc(OC)c1OC
SPECTRUMID=CCMSLIB00010118432
66.254303 2733.0 
66.729057 2643.0 
82.759422 2904.0 
97.593269 2580.0 
118.678932 2940.0 
136.239792 3168.0 
137.025146 4796.0 
137.995697 3423.0 
149.169678 2895.0 
153.019363 5271.0 
158.416733 3398.0 
164.047592 6111.0 
177.478012 2997.0 
179.071655 31453.0 
181.037903 18528.0 
192.030655 3159.0 
196.062592 5062.0 
206.898468 3711.0 
207.053711 3891.0 
208.842514 5282.0 
208.863983 5039.0 
210.076294 20921.0 
233.071625 3718.0 
281.041016 2684.0 
347.064117 3250.0 
486.202515 3668.0 
497.188721 3312.0 
501.224701 690829.0 
END IONS

BEGIN IONS
NAME=(2-ethoxyphenyl)-N-[2-(2-methylindol-3-yl)ethyl]carboxamide CollisionEnergy:102040 M+formate
PRECURSOR_MZ=367.166
INCHI="InChI=1S/C20H22N2O2/c1-3-24-19-11-7-5-9-17(19)20(23)21-13-12-15-14(2)22-18-10-6-4-8-16(15)18/h4-11,22H,3,12-13H2,1-2H3,(H,21,23)"
SMILES=CCOc1ccccc1C(O)=NCCc1c(C)[nH]c2ccccc12
SPECTRUMID=CCMSLIB00010104663
68.381126 2107.0 
75.306381 2945.0 
81.332291 2171.0 
83.512016 2155.0 
84.87957 2244.0 
92.403084 2328.0 
97.245338 2798.0 
101.921516 2278.0 
117.045677 2366.0 
136.040344 38376.0 
136.252472 2844.0 
138.590271 2364.0 
149.756287 2398.0 
164.071991 5287.0 
191.043304 2135.0 
206.068359 149042.0 
207.549423 2307.0 
215.508957 2322.0 
293.129913 19292.0 
306.980408 4242.0 
321.160706 291085.0 
326.982727 3211.0 
346.990112 3087.0 
366.980652 97618.0 
367.188568 205507.0 
END IONS

BEGIN IONS
NAME="2,3-dimethoxy-1-(1,2,3,4-tetrahydrobeta-carbolinyl)benzene CollisionEnergy:205060" 2M+H
PRECURSOR_MZ=617.312
INCHI="InChI=1S/C19H20N2O2/c1-22-16-9-5-7-14(19(16)23-2)17-18-13(10-11-20-17)12-6-3-4-8-15(12)21-18/h3-9,17,20-21H,10-11H2,1-2H3"
SMILES=COc1cccc(C2NCCc3c2[nH]c2ccccc32)c1OC
SPECTRUMID=CCMSLIB00010115682
51.652451 2614.0 
54.543209 2342.0 
82.400848 3007.0 
116.756912 3103.0 
130.065506 5137.0 
131.002625 2694.0 
144.080963 71054.0 
217.088074 3119.0 
248.106491 11609.0 
249.115952 4669.0 
264.102539 5560.0 
280.132538 43987.0 
309.159607 68257.0 
END IONS

BEGIN IONS
NAME="1,2-dimethyl-4-(2-purin-6-ylthioethoxy)benzene CollisionEnergy:205060" M+H
PRECURSOR_MZ=301.112
INCHI="InChI=1S/C15H16N4OS/c1-10-3-4-12(7-11(10)2)20-5-6-21-15-13-14(17-8-16-13)18-9-19-15/h3-4,7-9H,5-6H2,1-2H3,(H,16,17,18,19)"
SMILES=Cc1ccc(OCCSc2ncnc3[nH]cnc23)cc1C
SPECTRUMID=CCMSLIB00010115695
50.479092 3107.0 
53.039089 4987.0 
61.011051 31837.0 
69.033752 4406.0 
76.173866 2992.0 
79.054443 81558.0 
81.070793 3047.0 
91.054298 73626.0 
92.389252 5003.0 
93.069923 54267.0 
94.040123 11633.0 
103.053879 30523.0 
104.299454 3093.0 
105.069763 296859.0 
106.077667 13429.0 
107.049133 3310.0 
107.085213 5602.0 
109.06456 15441.0 
116.061867 26674.0 
118.039711 6431.0 
119.03508 89833.0 
119.085381 22247.0 
120.05645 7401.0 
121.050758 215180.0 
121.064491 33893.0 
121.101044 314552.0 
122.072327 5760.0 
123.080254 42199.0 
125.004333 19996.0 
125.016724 13153.0 
126.011841 77353.0 
129.069534 7079.0 
131.085373 67386.0 
133.075623 35313.0 
134.058456 12961.0 
134.072525 44600.0 
135.06633 93542.0 
137.045883 27384.0 
138.067825 4068.0 
145.050812 49173.0 
147.06636 29956.0 
147.079193 5355.0 
149.095825 270558.0 
152.014984 287824.0 
152.027756 49658.0 
153.022705 1383512.0 
163.061234 3762.0 
179.0383 3363795.0 
179.660858 4434.0 
185.418137 3045.0 
240.099945 13516.0 
301.110931 2035836.0 
390.25769 2999.0 
510.69101 2898.0 
END IONS

BEGIN IONS
NAME="N-(1,3-dimethyl-2,6-dioxo(1,3-dihydropyrimidin-4-yl))-2-(5-(2-furyl)(1,3,4-oxa diazol-2-ylthio))acetamide CollisionEnergy:102040" M+Na
PRECURSOR_MZ=386.053
INCHI="InChI=1S/C14H13N5O5S/c1-18-9(6-11(21)19(2)14(18)22)15-10(20)7-25-13-17-16-12(24-13)8-4-3-5-23-8/h3-6H,7H2,1-2H3,(H,15,20)"
SMILES=Cn1c(N=C(O)CSc2nnc(-c3ccco3)o2)cc(=O)n(C)c1=O
SPECTRUMID=CCMSLIB00010112912
61.799438 2346.0 
92.386208 2739.0 
112.590469 2582.0 
136.22641 2927.0 
178.058533 122170.0 
185.415833 2976.0 
186.033401 6515.0 
190.988358 16465.0 
196.071457 234019.0 
200.047546 4682.0 
200.066879 3072.0 
217.046051 13905.0 
218.053345 180496.0 
226.749695 2651.0 
228.043762 29705.0 
230.983063 22758.0 
250.02536 309005.0 
313.912109 2660.0 
339.883087 3095.0 
386.052338 1527396.0 
404.062195 11640.0 
END IONS

BEGIN IONS
NAME=methylethyl 2-[3-(4-chlorophenyl)-4-oxochromen-7-yloxy]acetate CollisionEnergy:102040 M+H
PRECURSOR_MZ=373.084
INCHI="InChI=1S/C20H17ClO5/c1-12(2)26-19(22)11-24-15-7-8-16-18(9-15)25-10-17(20(16)23)13-3-5-14(21)6-4-13/h3-10,12H,11H2,1-2H3"
SMILES=CC(C)OC(=O)COc1ccc2c(=O)c(-c3ccc(Cl)cc3)coc2c1
SPECTRUMID=CCMSLIB00010108887
50.99189 2748.0 
66.857079 2780.0 
69.160767 2851.0 
85.41613 3462.0 
95.114471 3179.0 
107.92894 2816.0 
151.303131 3220.0 
244.029007 43486.0 
257.037506 3071.0 
272.022919 125458.0 
272.05368 6286.0 
273.030792 415363.0 
285.029938 38883.0 
286.039917 6810.0 
322.21347 3577.0 
331.036133 3720772.0 
373.083038 5473794.0 
END IONS

BEGIN IONS
NAME=biochanin A CollisionEnergy:205060 M+H
PRECURSOR_MZ=285.076
INCHI="InChI=1S/C16H12O5/c1-20-11-4-2-9(3-5-11)12-8-21-14-7-10(17)6-13(18)15(14)16(12)19/h2-8,17-18H,1H3"
SMILES=COc1ccc(-c2coc3cc(O)cc(O)c3c2=O)cc1
SPECTRUMID=CCMSLIB00010115812
51.918812 2954.0 
53.039219 4323.0 
53.553581 3226.0 
55.9809 2922.0 
57.070549 3066.0 
62.22147 3550.0 
65.039192 7223.0 
66.04702 7628.0 
67.018188 35181.0 
67.05471 4398.0 
68.997414 69474.0 
73.479263 3360.0 
79.05439 32883.0 
90.046448 23861.0 
91.054382 15644.0 
95.012863 18907.0 
95.049393 7033.0 
96.020653 3743.0 
99.588943 3436.0 
103.054199 40366.0 
105.069817 60242.0 
107.049156 59062.0 
111.007683 36347.0 
115.054733 4827.0 
117.032806 4133.0 
118.041252 299653.0 
118.630882 3658.0 
119.04937 33560.0 
121.019386 5056.0 
121.028458 54443.0 
121.064468 24391.0 
123.007477 4495.0 
123.043983 383994.0 
124.015457 265353.0 
126.031502 4838.0 
127.072792 3238.0 
130.041977 3327.0 
131.049423 19569.0 
132.020401 8029.0 
132.057037 21986.0 
133.06485 172586.0 
135.043961 19001.0 
138.089111 7519.0 
139.03891 41370.0 
141.069931 22219.0 
144.057159 14781.0 
145.028214 13194.0 
145.064575 41786.0 
146.072739 12172.0 
147.044479 4141.0 
149.023315 436485.0 
152.010361 491453.0 
153.018188 389550.0 
153.069962 6559.0 
155.049377 4876.0 
158.036179 239484.0 
158.073486 5393.0 
159.044525 5976.0 
159.080688 18553.0 
160.051712 3657.0 
161.059769 16444.0 
161.096146 25566.0 
163.038605 34282.0 
166.67424 3568.0 
167.033554 14216.0 
168.05658 38403.0 
168.099884 8478.0 
169.064941 41213.0 
170.020935 769440.0 
170.837021 3634.0 
171.044662 4724.0 
171.079498 4298.0 
172.051559 15443.0 
173.05983 25961.0 
176.046631 13629.0 
179.033798 124643.0 
179.050476 6182.0 
181.065186 7116.0 
183.043335 26660.0 
183.080353 28560.0 
184.052109 7927.0 
185.059494 34108.0 
186.030533 4091.0 
186.067505 55625.0 
187.075455 27753.0 
192.041794 7827.0 
196.051422 18234.0 
197.059586 185265.0 
198.067566 17033.0 
199.075485 12966.0 
200.046585 25696.0 
201.054184 44860.0 
201.090424 17781.0 
210.896378 3674.0 
211.037933 8150.0 
211.074799 27613.0 
212.046661 14842.0 
213.054504 563000.0 
214.062363 120514.0 
215.070251 14436.0 
216.042862 23950.0 
224.046509 18832.0 
225.054688 68980.0 
226.061752 23391.0 
227.070557 6415.0 
228.041046 5753.0 
229.085785 712193.0 
239.069641 8521.0 
240.232788 14484.0 
241.049347 189920.0 
242.057083 990237.0 
252.041794 114897.0 
253.049332 692143.0 
255.063431 14165.0 
257.081604 29214.0 
267.063934 7416.0 
269.044098 726874.0 
270.052002 1054871.0 
274.046234 15096.0 
283.828827 5291.0 
284.065277 4357.0 
285.07547 7283971.0 
286.327728 7496.0 
END IONS

BEGIN IONS
NAME=N-(4-fluorophenyl)-2-[2-oxo-4-(N-propylcarbamoyl)hydroquinolyl]acetamide CollisionEnergy:205060 M+formate
PRECURSOR_MZ=426.147
INCHI="InChI=1S/C21H20FN3O3/c1-2-11-23-21(28)17-12-20(27)25(18-6-4-3-5-16(17)18)13-19(26)24-15-9-7-14(22)8-10-15/h3-10,12H,2,11,13H2,1H3,(H,23,28)(H,24,26)"
SMILES=CCCN=C(O)c1cc(=O)n(CC(=O)Nc2ccc(F)cc2)c2ccccc12
SPECTRUMID=CCMSLIB00010124773
59.013329 3772.0 
59.499401 2378.0 
62.21069 3060.0 
62.99313 2347.0 
72.223747 3251.0 
92.376572 2526.0 
94.95858 2480.0 
100.076477 3324.0 
110.04097 35044.0 
116.050537 28655.0 
127.157944 3004.0 
128.050461 123883.0 
130.066162 127454.0 
132.045105 5176.0 
142.029816 3696.0 
142.065155 9963.0 
144.045258 105869.0 
144.081299 4393.0 
148.777374 2697.0 
156.045303 5387.0 
156.069046 13842.0 
157.077118 13237.0 
158.048111 64786.0 
158.061127 115107.0 
160.040512 21820.0 
172.04007 26134.0 
174.055847 10277.0 
176.071686 35975.0 
181.177032 2590.0 
183.092499 3684.0 
184.040451 24180.0 
197.107895 20032.0 
199.104431 4779.0 
199.124313 72506.0 
201.103622 6144.0 
202.05069 25790.0 
213.102982 84144.0 
215.118759 12300.0 
227.274887 2534.0 
229.098328 70560.0 
230.329681 2652.0 
234.861359 2535.0 
243.114029 5673.0 
245.093491 6414.0 
251.766159 3406.0 
269.093903 30111.0 
275.103577 5856.0 
295.089111 57552.0 
380.141541 659126.0 
398.215759 2731.0 
END IONS

BEGIN IONS
NAME=3-{3-[(3-chloro-4-fluorophenyl)amino]propanoyl}chromen-2-one CollisionEnergy:205060 M-H
PRECURSOR_MZ=344.049
INCHI="InChI=1S/C18H13ClFNO3/c19-14-10-12(5-6-15(14)20)21-8-7-16(22)13-9-11-3-1-2-4-17(11)24-18(13)23/h1-6,9-10,21H,7-8H2"
SMILES=O=C(CCNc1ccc(F)c(Cl)c1)c1cc2ccccc2oc1=O
SPECTRUMID=CCMSLIB00010119199
55.2285 2350.0 
56.919621 2110.0 
88.184387 2534.0 
90.533524 2208.0 
94.708763 2183.0 
117.034721 67438.0 
119.050217 76153.0 
132.401443 2422.0 
140.416489 2213.0 
144.002319 190177.0 
145.029541 30289.0 
145.065887 9481.0 
173.061111 10707.0 
179.981705 2542.0 
187.039963 72395.0 
198.012512 3465.0 
266.527802 2544.0 
343.984589 12684.0 
344.049561 4610.0 
END IONS

BEGIN IONS
NAME="3-[(1E)-2-(2-hydroxy-2,2-diphenylacetylamino)-2-azavinyl]phenyl 2H-benzo[3,4-d ]1,3-dioxolane-5-carboxylate CollisionEnergy:205060" M+H
PRECURSOR_MZ=495.155
INCHI="InChI=1S/C29H22N2O6/c32-27(21-14-15-25-26(17-21)36-19-35-25)37-24-13-7-8-20(16-24)18-30-31-28(33)29(34,22-9-3-1-4-10-22)23-11-5-2-6-12-23/h1-18,34H,19H2,(H,31,33)/b30-18+"
SMILES=O=C(Oc1cccc(C=NN=C(O)C(O)(c2ccccc2)c2ccccc2)c1)c1ccc2c(c1)OCO2
SPECTRUMID=CCMSLIB00010123997
53.002682 12859.0 
54.610481 2802.0 
55.018299 13740.0 
65.039032 42054.0 
68.997597 37316.0 
71.013298 3744.0 
73.95314 3244.0 
80.716476 2785.0 
90.225456 2721.0 
95.013062 26651.0 
104.04953 193150.0 
125.023552 5604.0 
132.044281 27356.0 
149.023422 1182307.0 
152.062134 40811.0 
153.069824 30040.0 
159.068222 2822.0 
160.063828 2930.0 
165.069946 165992.0 
166.077545 39359.0 
167.069885 6507.0 
167.085526 136844.0 
171.597656 2863.0 
180.080734 201366.0 
181.064728 13525.0 
182.096451 148687.0 
183.080536 3182.0 
190.064468 6181.0 
206.05954 11863.0 
207.067795 6932.0 
208.075638 173380.0 
208.160965 13952.0 
209.083496 78385.0 
210.091202 5442.0 
270.074005 4048.0 
278.526764 3159.0 
449.149414 388572.0 
477.144043 293165.0 
END IONS

BEGIN IONS
NAME="methyl 2-amino-5-oxo-4-[4-(trifluoromethyl)phenyl]-4H-pyrano[3,2-c]chromene-3- carboxylate CollisionEnergy:102040" M-H+2Na
PRECURSOR_MZ=462.053
INCHI="InChI=1S/C21H14F3NO5/c1-28-19(26)16-14(10-6-8-11(9-7-10)21(22,23)24)15-17(30-18(16)25)12-4-2-3-5-13(12)29-20(15)27/h2-9,14H,25H2,1H3"
SMILES=COC(=O)C1=C(N)Oc2c(c(=O)oc3ccccc23)C1c1ccc(C(F)(F)F)cc1
SPECTRUMID=CCMSLIB00010107718
58.53109 2269.0 
62.97871 4685.0 
62.98209 87213.0 
65.037567 2261.0 
65.958023 2478.0 
82.414917 2431.0 
88.218887 2532.0 
92.392616 2759.0 
144.00296 1255857.0 
156.839279 2644.0 
185.029526 14485.0 
201.724686 3188.0 
207.002472 5605.0 
208.644363 15344.0 
421.052094 4843.0 
462.052277 268069.0 
END IONS

BEGIN IONS
NAME=ethyl (2E)-3-[N-(2-{2-[(2E)-3-(ethoxycarbonyl)prop-2-enoylamino]phenyl}phenyl) carbamoyl]prop-2-enoate CollisionEnergy:205060 M+Na
PRECURSOR_MZ=459.153
INCHI="InChI=1S/C24H24N2O6/c1-3-31-23(29)15-13-21(27)25-19-11-7-5-9-17(19)18-10-6-8-12-20(18)26-22(28)14-16-24(30)32-4-2/h5-16H,3-4H2,1-2H3,(H,25,27)(H,26,28)/b15-13+,16-14+"
SMILES=CCOC(=O)C=CC(O)=Nc1ccccc1-c1ccccc1N=C(O)C=CC(=O)OCC
SPECTRUMID=CCMSLIB00010119250
52.818291 3161.0 
55.417519 2795.0 
62.988041 2672.0 
78.349403 2438.0 
78.769447 2521.0 
81.765671 3122.0 
82.39975 3587.0 
86.486198 2481.0 
92.378708 2683.0 
96.861923 2847.0 
100.814392 2739.0 
103.615341 2817.0 
104.286163 3511.0 
118.653259 3803.0 
125.237877 2650.0 
134.064178 2688.0 
161.078522 2477.0 
357.273285 2429.0 
431.121246 20749.0 
432.499146 2722.0 
459.15155 2481514.0 
END IONS

BEGIN IONS
NAME="5-bromo-6-[(3-hydroxypropyl)amino]-1,3-dihydropyrimidine-2,4-dione CollisionEnergy:102040" M-H
PRECURSOR_MZ=261.983
INCHI="InChI=1S/C7H10BrN3O3/c8-4-5(9-2-1-3-12)10-7(14)11-6(4)13/h12H,1-3H2,(H3,9,10,11,13,14)"
SMILES=OCCCNc1nc(O)nc(O)c1Br
SPECTRUMID=CCMSLIB00010114493
57.469959 2073.0 
66.448303 2419.0 
73.964706 3053.0 
78.918678 229643.0 
82.413261 2764.0 
87.264557 2106.0 
87.882103 2228.0 
99.925842 83624.0 
115.920563 4788.0 
116.928284 15970.0 
117.929764 215175.0 
120.46344 2137.0 
154.53299 2191.0 
160.935425 3308.0 
173.871475 4256.0 
187.850479 5604.0 
188.656769 2418.0 
188.858719 13073.0 
194.058151 2599.0 
203.941025 39947.0 
205.840195 4721.0 
205.861023 94384.0 
210.827866 3181.0 
217.862076 2451.0 
218.977249 88763.0 
255.342621 2712.0 
261.983215 1131158.0 
END IONS

BEGIN IONS
NAME="1-[6-(3,3-dimethyl-2-oxobutylthio)purin-9-yl]-3,3-dimethylbutan-2-one CollisionEnergy:205060" M+Na
PRECURSOR_MZ=371.151
INCHI="InChI=1S/C17H24N4O2S/c1-16(2,3)11(22)7-21-10-20-13-14(21)18-9-19-15(13)24-8-12(23)17(4,5)6/h9-10H,7-8H2,1-6H3"
SMILES=CC(C)(C)C(=O)CSc1ncnc2c1ncn2CC(=O)C(C)(C)C
SPECTRUMID=CCMSLIB00010114841
62.60743 2463.0 
66.745956 2951.0 
67.470833 2646.0 
73.94722 2618.0 
81.635223 2910.0 
91.560623 2263.0 
121.494232 2745.0 
127.21769 2769.0 
136.22049 2431.0 
184.796967 2389.0 
185.405533 2742.0 
192.478683 2502.0 
241.105164 20918.0 
286.087006 4692.0 
371.151093 2326475.0 
END IONS

BEGIN IONS
NAME="dimethyl 2-{[((1S,9R)-6-oxo-7,11-diazatricyclo[7.3.1.0<2,7>]trideca-2,4-dien-1 1-yl)thioxomethyl]amino}butane-1,4-dioate CollisionEnergy:102040" M+Cl
PRECURSOR_MZ=428.105
INCHI="InChI=1S/C18H23N3O5S/c1-25-16(23)7-13(17(24)26-2)19-18(27)20-8-11-6-12(10-20)14-4-3-5-15(22)21(14)9-11/h3-5,11-13H,6-10H2,1-2H3,(H,19,27)/t11-,12-,13?/m0/s1"
SMILES=COC(=O)CC(N=C(S)N1CC2CC(C1)c1cccc(=O)n1C2)C(=O)OC
SPECTRUMID=CCMSLIB00010105937
51.074211 2398.0 
52.263432 2305.0 
55.0168 2262.0 
55.375431 2492.0 
57.975281 17653.0 
57.980808 2471.0 
60.550209 2215.0 
69.551109 2113.0 
103.920326 3594.0 
118.68573 2568.0 
124.771858 2303.0 
130.269638 2671.0 
162.553467 2768.0 
165.331146 2591.0 
195.471176 2502.0 
248.08699 11340.0 
268.276825 2709.0 
275.458984 2424.0 
286.813385 2213.0 
291.882996 31753.0 
359.869904 17166.0 
392.128815 102090.0 
END IONS

BEGIN IONS
NAME=phloretin CollisionEnergy:205060 2M-H
PRECURSOR_MZ=547.161
INCHI="InChI=1S/C15H14O5/c16-10-4-1-9(2-5-10)3-6-12(18)15-13(19)7-11(17)8-14(15)20/h1-2,4-5,7-8,16-17,19-20H,3,6H2"
SMILES=O=C(CCc1ccc(O)cc1)c1c(O)cc(O)cc1O
SPECTRUMID=CCMSLIB00010117674
52.741928 2808.0 
57.673229 2632.0 
62.060162 2632.0 
68.826012 2638.0 
81.034416 3285.0 
92.386818 2863.0 
115.34803 2161.0 
119.051102 3643.0 
123.045097 16046.0 
125.024513 3849.0 
127.902542 2423.0 
167.035416 16490.0 
208.735428 8937.0 
258.11322 3002.0 
273.077087 32551.0 
431.894012 3846.0 
546.536072 2735.0 
END IONS

BEGIN IONS
NAME=6-ethoxy-4-{[4-(2-indolinyl-2-oxoethyl)piperazinyl]methyl}chromen-2-one CollisionEnergy:205060 M+Na
PRECURSOR_MZ=470.205
INCHI="InChI=1S/C26H29N3O4/c1-2-32-21-7-8-24-22(16-21)20(15-26(31)33-24)17-27-11-13-28(14-12-27)18-25(30)29-10-9-19-5-3-4-6-23(19)29/h3-8,15-16H,2,9-14,17-18H2,1H3"
SMILES=CCOc1ccc2oc(=O)cc(CN3CCN(CC(=O)N4CCc5ccccc54)CC3)c2c1
SPECTRUMID=CCMSLIB00010118875
56.00222 2769.0 
61.36525 2459.0 
62.126221 2622.0 
62.658691 2660.0 
108.251862 2837.0 
126.10276 2884.0 
183.087738 2561.0 
244.289001 2797.0 
266.126831 12546.0 
470.204834 1557453.0 
END IONS

BEGIN IONS
NAME="6-amino-4-(7-methoxy(2H-benzo[d]1,3-dioxolan-5-yl))-3-propyl-4H-pyrano[2,3-c]p yrazole-5-carbonitrile CollisionEnergy:205060" M+Na
PRECURSOR_MZ=377.122
INCHI="InChI=1S/C18H18N4O4/c1-3-4-11-15-14(10(7-19)17(20)26-18(15)22-21-11)9-5-12(23-2)16-13(6-9)24-8-25-16/h5-6,14H,3-4,8,20H2,1-2H3,(H,21,22)"
SMILES=CCCc1[nH]nc2c1C(c1cc(OC)c3c(c1)OCO3)C(C#N)=C(N)O2
SPECTRUMID=CCMSLIB00010122027
51.299099 2343.0 
93.250839 2193.0 
118.774139 2267.0 
138.235901 2096.0 
196.338348 2301.0 
222.183105 2531.0 
273.286469 2473.0 
377.121002 115314.0 
END IONS

BEGIN IONS
NAME="6-amino-4-(4-hydroxy-3,5-dimethoxyphenyl)-3-methyl-4H-pyrano[3,2-d]pyrazole-5- carbonitrile CollisionEnergy:205060" M-H
PRECURSOR_MZ=327.11
INCHI="InChI=1S/C16H16N4O4/c1-7-12-13(9(6-17)15(18)24-16(12)20-19-7)8-4-10(22-2)14(21)11(5-8)23-3/h4-5,13,21H,18H2,1-3H3,(H,19,20)"
SMILES=COc1cc(C2C(C#N)=C(N)Oc3n[nH]c(C)c32)cc(OC)c1O
SPECTRUMID=CCMSLIB00010124109
65.010437 3763.0 
65.014122 86916.0 
70.530296 2182.0 
72.016891 2586.0 
82.402237 3137.0 
89.014412 22127.0 
102.948822 4751.0 
118.661926 3033.0 
123.009003 9927.0 
132.021027 3622.0 
136.216476 2900.0 
137.67041 2186.0 
139.003555 2542.0 
139.351913 2340.0 
146.024612 3497.0 
146.036118 20411.0 
146.939102 3164.0 
150.01973 12332.0 
173.047165 49098.0 
175.039856 14276.0 
186.057159 2754.0 
199.05188 3868.0 
203.046585 10765.0 
214.061813 13660.0 
215.046295 5134.0 
224.048004 2564.0 
231.040787 28849.0 
232.048508 12751.0 
241.062363 4512.0 
242.058121 17691.0 
243.041443 3816.0 
244.085693 4496.0 
246.064133 5654.0 
247.071106 4974.0 
259.106262 3946.0 
261.088043 5470.0 
270.052521 48766.0 
296.055359 15229.0 
297.06369 46631.0 
311.078094 31180.0 
312.086456 51997.0 
327.110016 364574.0 
347.383636 2496.0 
END IONS

BEGIN IONS
NAME=Alitretinoin CollisionEnergy:205060 M+H
PRECURSOR_MZ=301.216
INCHI="InChI=1S/C20H28O2/c1-15(8-6-9-16(2)14-19(21)22)11-12-18-17(3)10-7-13-20(18,4)5/h6,8-9,11-12,14H,7,10,13H2,1-5H3,(H,21,22)/b9-6+,12-11+,15-8-,16-14+"
SMILES=CC(C=CC1=C(C)CCCC1(C)C)=CC=CC(C)=CC(=O)O
SPECTRUMID=CCMSLIB00010123585
55.054668 162083.0 
57.07037 193622.0 
65.03904 32489.0 
67.054611 681823.0 
69.033867 103479.0 
69.070236 892296.0 
69.277748 7747.0 
71.049522 49277.0 
71.085983 16823.0 
77.039093 10516.0 
79.054466 338276.0 
81.070122 1650296.0 
83.049377 47811.0 
83.085716 216668.0 
85.064888 45915.0 
87.04435 10652.0 
91.054314 507887.0 
93.063187 15553.0 
93.069946 557771.0 
95.049583 58339.0 
95.085579 934821.0 
96.143379 7070.0 
97.028397 11845.0 
97.064972 47355.0 
97.101158 96590.0 
103.054497 17154.0 
104.280182 8825.0 
105.069817 1370902.0 
107.048882 26075.0 
107.085449 693537.0 
108.094093 8155.0 
109.064751 99122.0 
109.101143 902243.0 
111.043877 80645.0 
111.080406 25359.0 
111.116783 83835.0 
113.059677 52554.0 
115.053886 59859.0 
116.062187 38531.0 
117.069763 289397.0 
118.078163 11250.0 
119.049171 12204.0 
119.085426 1108066.0 
120.092987 34236.0 
121.06472 257234.0 
121.101082 460793.0 
123.080704 49904.0 
123.116707 2071264.0 
125.059608 45597.0 
125.096031 10990.0 
125.13131 7724.0 
127.075127 68636.0 
128.062164 76083.0 
129.069794 186405.0 
129.112045 7471.0 
130.077652 97577.0 
131.085434 1128916.0 
132.093338 54147.0 
133.064499 42733.0 
133.101059 934426.0 
134.108353 14820.0 
135.080215 150108.0 
135.11673 132934.0 
137.059494 9479.0 
137.096085 15404.0 
137.132797 27937.0 
139.075027 25923.0 
141.069839 39733.0 
142.077728 150493.0 
142.089249 11071.0 
143.085434 395934.0 
144.057068 10493.0 
144.093384 237266.0 
145.064896 86165.0 
145.101074 1284206.0 
146.072372 105316.0 
146.108917 142344.0 
147.080429 91519.0 
147.116684 379215.0 
147.129562 15263.0 
149.059769 30333.0 
149.095871 94613.0 
149.132156 81620.0 
151.075363 28031.0 
151.111023 10971.0 
153.069992 10889.0 
153.090546 10884.0 
154.077621 11009.0 
155.085571 70777.0 
156.093185 154288.0 
157.065628 12384.0 
157.101028 589728.0 
158.072556 149816.0 
158.109375 82252.0 
159.080505 284884.0 
159.116714 1471801.0 
160.088608 42989.0 
160.124039 41269.0 
161.096008 762788.0 
161.132111 528234.0 
162.136734 7650.0 
163.075439 27959.0 
163.111862 40458.0 
163.14827 66411.0 
165.070557 10909.0 
165.090118 13232.0 
166.079224 10250.0 
167.086075 16036.0 
167.107803 7343.0 
168.093079 10864.0 
169.063629 9475.0 
169.101089 69920.0 
170.072296 30510.0 
170.108734 91350.0 
171.080322 216411.0 
171.116608 420554.0 
172.088074 179818.0 
172.12381 49396.0 
173.096069 241728.0 
173.132294 361209.0 
174.137177 8885.0 
175.075729 8841.0 
175.111816 143261.0 
175.147888 362548.0 
176.155716 40855.0 
177.090881 426668.0 
177.127792 33871.0 
177.163208 87617.0 
179.088196 18468.0 
179.106323 395821.0 
180.093597 16315.0 
181.101715 49668.0 
181.118134 7969.0 
183.080048 26996.0 
183.116516 42412.0 
184.088028 70083.0 
184.123215 15160.0 
185.095901 377197.0 
185.132172 305084.0 
186.104294 36735.0 
186.139191 37106.0 
187.111542 328426.0 
187.147766 505191.0 
189.091721 15370.0 
189.12674 53280.0 
189.164078 29147.0 
191.106415 313862.0 
193.104218 6872.0 
193.121429 58614.0 
195.116974 33339.0 
197.095795 38252.0 
197.132431 47652.0 
198.103668 57170.0 
198.139114 8474.0 
199.11232 184464.0 
199.147614 295700.0 
201.131287 83468.0 
201.163483 829661.0 
202.171326 138120.0 
203.106461 69587.0 
203.142563 14482.0 
203.179886 34772.0 
205.12204 963861.0 
207.138107 30023.0 
208.069061 21992.0 
209.132355 46773.0 
211.148422 12624.0 
212.118546 41913.0 
213.127258 153366.0 
213.163055 156760.0 
215.14209 13032.0 
215.179382 36697.0 
217.122116 155364.0 
219.13765 117630.0 
221.152359 13899.0 
223.148056 29657.0 
225.164001 14159.0 
226.134613 8360.0 
226.170639 7723.0 
227.142502 163254.0 
227.179077 50190.0 
231.137787 117609.0 
239.179504 15442.0 
241.158508 173375.0 
241.194916 118719.0 
245.153244 315519.0 
255.175476 55129.0 
255.210083 550825.0 
256.214508 17420.0 
259.169403 36998.0 
265.194916 72514.0 
273.183685 11667.0 
273.21936 8484.0 
283.205139 733891.0 
286.187408 34354.0 
301.215485 3384368.0 
324.063416 7167.0 
END IONS

BEGIN IONS
NAME="methyl 7-(3,4-dimethoxyphenyl)-2-methyl-5-oxo-4-(3,4,5-trimethoxyphenyl)-1,4,6 ,7,8-pentahydroquinoline-3-carboxylate CollisionEnergy:205060" M+H
PRECURSOR_MZ=524.228
INCHI="InChI=1S/C29H33NO8/c1-15-25(29(32)38-7)26(18-13-23(35-4)28(37-6)24(14-18)36-5)27-19(30-15)10-17(11-20(27)31)16-8-9-21(33-2)22(12-16)34-3/h8-9,12-14,17,26,30H,10-11H2,1-7H3"
SMILES=COC(=O)C1=C(C)NC2=C(C(=O)CC(c3ccc(OC)c(OC)c3)C2)C1c1cc(OC)c(OC)c(OC)c1
SPECTRUMID=CCMSLIB00010119377
53.039028 7100.0 
60.72234 3461.0 
65.112823 3107.0 
66.742348 3907.0 
67.011581 3448.0 
79.05426 3790.0 
81.070129 3496.0 
84.551086 4007.0 
91.053993 3739.0 
92.049591 5434.0 
100.797523 3425.0 
103.05439 6981.0 
104.04982 15854.0 
106.065201 4230.0 
107.04937 3869.0 
108.057167 7356.0 
108.080673 21408.0 
110.861397 3380.0 
122.059761 8059.0 
124.051903 47588.0 
130.065002 102961.0 
131.07283 131514.0 
132.044205 125785.0 
133.05217 4466.0 
134.059738 28613.0 
135.043427 8491.0 
136.039001 19921.0 
136.050873 5395.0 
136.075577 16704.0 
139.075302 70252.0 
140.049622 3408.0 
146.059967 5520.0 
146.096344 47876.0 
148.075592 4901.0 
149.047012 654398.0 
151.039169 4707.0 
151.075195 101230.0 
154.049561 37454.0 
158.059967 370887.0 
159.06778 7675.0 
160.039185 625724.0 
164.070435 1024091.0 
166.086502 5418.0 
170.954376 3926.0 
173.08403 4566.0 
174.090866 80760.0 
176.070221 5731.0 
178.049652 15519.0 
179.093979 52274.0 
180.065643 8700.0 
186.05481 446100.0 
188.069794 5620.0 
190.085922 192141.0 
191.070297 15183.0 
192.065262 1968302.0 
195.064423 4725.0 
197.067383 32661.0 
204.065735 5942.0 
205.073181 18672.0 
206.080521 30539.0 
210.090744 5959.0 
218.080917 631779.0 
220.097595 5282.0 
222.813492 3744.0 
236.091217 22328.0 
238.084961 4526.0 
252.10025 7366.0 
264.099792 4417.0 
280.09668 18080.0 
282.111328 13867.0 
290.671326 3574.0 
294.11087 6391.0 
296.091614 8147.0 
296.126648 7164.0 
297.13031 3558.0 
298.106354 22753.0 
308.091309 150984.0 
312.122223 58343.0 
313.095795 6450.0 
314.137726 4721.0 
322.106598 7408.0 
324.122467 36713.0 
326.101746 230854.0 
340.117188 240098.0 
341.124542 8470.0 
356.14859 3920026.0 
369.562866 4073.0 
404.353668 3743.0 
492.200256 56552.0 
END IONS

BEGIN IONS
NAME=methyl 2-{2-[6-hydroxy-2-(4-hydroxy-3-methoxyphenyl)-3-azabicyclo[4.4.0]dec-3- yl]acetylamino}-3-indol-3-ylpropanoate CollisionEnergy:205060 M+formate
PRECURSOR_MZ=580.266
INCHI="InChI=1S/C30H37N3O6/c1-38-26-16-19(10-11-25(26)34)28-22-8-5-6-12-30(22,37)13-14-33(28)18-27(35)32-24(29(36)39-2)15-20-17-31-23-9-4-3-7-21(20)23/h3-4,7,9-11,16-17,22,24,28,31,34,37H,5-6,8,12-15,18H2,1-2H3,(H,32,35)"
SMILES=COC(=O)C(Cc1c[nH]c2ccccc12)N=C(O)CN1CCC2(O)CCCCC2C1c1ccc(O)c(OC)c1
SPECTRUMID=CCMSLIB00010122899
53.59462 2821.0 
69.045174 2699.0 
74.024353 14185.0 
74.716248 2873.0 
80.438393 2931.0 
82.41568 2761.0 
83.024918 66807.0 
83.73336 2561.0 
85.040283 11893.0 
92.401718 4011.0 
96.008957 11468.0 
97.017418 3753.0 
98.024559 4015.0 
104.311287 2921.0 
108.021812 37816.0 
108.798012 3125.0 
109.02951 3881.0 
113.035698 433593.0 
123.04554 22552.0 
125.035744 10314.0 
127.282852 2967.0 
131.046249 11003.0 
134.097733 5671.0 
145.062119 96139.0 
148.052933 5327.0 
148.11261 3740.0 
161.061066 16397.0 
175.412933 3234.0 
207.987976 16937.0 
219.940598 3013.0 
231.114304 6634.0 
232.110138 12183.0 
244.110672 73489.0 
245.118195 11301.0 
259.134369 43341.0 
261.137207 11958.0 
274.118317 4803.0 
276.160034 5079.0 
315.148926 2670.0 
350.535248 3191.0 
405.204315 23491.0 
534.261536 450581.0 
END IONS

BEGIN IONS
NAME=ectoine CollisionEnergy:102040 M-H+2Na
PRECURSOR_MZ=187.045
INCHI="InChI=1S/C6H10N2O2/c1-4-7-3-2-5(8-4)6(9)10/h5H,2-3H2,1H3,(H,7,8)(H,9,10)/t5-/m0/s1"
SMILES=CC1=NCC[C@@H](C(=O)O)N1
SPECTRUMID=CCMSLIB00010126510
53.813801 3091.110107 
62.982498 32765.800781 
71.486603 3531.449951 
82.4207 3041.73999 
83.086197 17925.900391 
88.022202 96624.601562 
92.401299 3298.620117 
94.297798 3345.310059 
104.992996 520578.0 
119.057999 6743.27002 
121.903 3495.860107 
143.056 47590.101562 
151.843994 3549.639893 
159.014008 83676.601562 
187.046005 11478700.0 
END IONS

BEGIN IONS
NAME="8-[2-(6-methyl(2H,3H-benzo[e]1,4-oxazaperhydroin-4-yl))-2-oxoethylthio]-9-(4-m ethylphenyl)hydropurin-6-one CollisionEnergy:205060" 2M-H
PRECURSOR_MZ=893.266
INCHI="InChI=1S/C23H21N5O3S/c1-14-3-6-16(7-4-14)28-21-20(22(30)25-13-24-21)26-23(28)32-12-19(29)27-9-10-31-18-8-5-15(2)11-17(18)27/h3-8,11,13H,9-10,12H2,1-2H3,(H,24,25,30)"
SMILES=Cc1ccc(-n2c(SCC(=O)N3CCOc4ccc(C)cc43)nc3c(O)ncnc32)cc1
SPECTRUMID=CCMSLIB00010121484
63.905281 3391.0 
65.014267 4833.0 
81.858009 4069.0 
81.973343 3500.0 
87.310883 3317.0 
89.523567 3840.0 
92.386108 5558.0 
97.43174 4040.0 
118.665558 3845.0 
155.049026 3854.0 
155.06163 39312.0 
185.406265 4221.0 
185.424103 4354.0 
197.058838 5271.0 
220.657028 3926.0 
225.078415 17444.0 
236.070343 7194.0 
255.035217 19654.0 
256.042206 41370.0 
268.958374 4499.0 
269.051453 16810.0 
297.045715 64973.0 
446.12793 38982.0 
END IONS

BEGIN IONS
NAME="(3,4-dimethoxyphenyl)-N-(6-methyl(2H-benzo[3,4-d]1,3-dioxolen-5-yl))carboxamid e CollisionEnergy:102040" M+Na
PRECURSOR_MZ=338.1
INCHI="InChI=1S/C17H17NO5/c1-10-6-15-16(23-9-22-15)8-12(10)18-17(19)11-4-5-13(20-2)14(7-11)21-3/h4-8H,9H2,1-3H3,(H,18,19)"
SMILES=COc1ccc(C(O)=Nc2cc3c(cc2C)OCO3)cc1OC
SPECTRUMID=CCMSLIB00010106321
53.314251 2223.0 
58.909969 2994.0 
66.728889 3342.0 
73.715927 3154.0 
97.77684 2709.0 
118.625999 4260.0 
213.881622 3206.0 
229.973389 2660.0 
270.926086 2970.0 
307.68689 3147.0 
323.076019 4160.0 
338.099274 4769920.0 
339.716064 6319.0 
356.10907 47798.0 
END IONS

BEGIN IONS
NAME="10-acetyl-11-(4-methoxyphenyl)-3-methyl-1-oxo-2,3,4-trihydro-5H,11H-benzo[b]be nzo[2,1-f]1,4-diazepine CollisionEnergy:205060" M+H
PRECURSOR_MZ=377.186
INCHI="InChI=1S/C23H24N2O3/c1-14-12-19-22(21(27)13-14)23(16-8-10-17(28-3)11-9-16)25(15(2)26)20-7-5-4-6-18(20)24-19/h4-11,14,23-24H,12-13H2,1-3H3"
SMILES=COc1ccc(C2C3=C(CC(C)CC3=O)Nc3ccccc3N2C(C)=O)cc1
SPECTRUMID=CCMSLIB00010116413
65.039101 31306.0 
67.054459 47929.0 
69.033867 1775969.0 
70.420929 19971.0 
81.395859 23094.0 
84.606331 24458.0 
86.804024 20704.0 
91.054314 194477.0 
92.049492 309275.0 
95.049088 129882.0 
107.04924 50477.0 
107.06044 103592.0 
109.064888 27212.0 
119.049141 93363.0 
119.060272 261445.0 
121.064659 977107.0 
128.061203 30448.0 
130.065323 47248.0 
131.059937 228198.0 
131.084549 22799.0 
132.068207 304260.0 
133.075867 2364618.0 
135.043991 44328.0 
135.054871 23930.0 
136.202576 26411.0 
142.076599 26774.0 
144.057663 26189.0 
145.064743 28779.0 
145.07608 113225.0 
146.072205 105743.0 
153.069473 35627.0 
155.08432 42755.0 
157.075943 1044078.0 
158.08403 425007.0 
159.056854 182165.0 
159.091766 1795836.0 
161.059433 23595.0 
161.09581 1268823.0 
164.041214 28346.0 
167.07283 50364.0 
169.064194 27457.0 
170.072678 110692.0 
173.107269 1410226.0 
175.085846 85359.0 
175.112549 50072.0 
181.07576 39034.0 
182.060547 176240.0 
182.097153 46775.0 
183.091782 309012.0 
184.099533 116612.0 
185.070633 1239920.0 
185.094635 212701.0 
185.108612 208987.0 
188.082855 96020.0 
193.075943 107068.0 
195.091995 124929.0 
196.101944 24034.0 
197.109116 48335.0 
198.054413 35104.0 
199.089401 26948.0 
199.123245 1198688.0 
201.102127 2964790.0 
203.106369 368979.0 
207.092041 256839.0 
208.098862 512799.0 
209.07254 161306.0 
209.106873 1106020.0 
209.129868 33620.0 
210.054993 449395.0 
210.091599 109003.0 
211.086655 118712.0 
212.095016 101140.0 
221.070694 137526.0 
223.122742 347554.0 
225.102448 100649.0 
226.110428 128867.0 
226.233459 22603.0 
227.117584 51911784.0 
235.085724 776499.0 
236.093964 9312251.0 
238.108658 29519.0 
248.106613 34937.0 
250.116348 31213.0 
251.117447 15618352.0 
261.102661 22969.0 
263.118835 92790.0 
265.13324 33406.0 
267.14801 34463.0 
269.12796 24233570.0 
276.128082 25600.0 
277.133148 150246.0 
287.118225 27885.0 
290.153046 31299.0 
291.148315 151370.0 
292.156464 25217.0 
293.132141 51311.0 
293.164734 242596.0 
301.131836 89879.0 
302.140656 128115.0 
317.163757 678553.0 
318.148346 115067.0 
320.151123 40377.0 
331.048126 52973.0 
333.160614 48443.0 
335.174683 3646056.0 
359.172882 158206.0 
377.185211 13398421.0 
END IONS

BEGIN IONS
NAME=3-methyl-5-(phenylmethoxy)indol-2-yl morpholin-4-yl ketone CollisionEnergy:205060 M+Cl
PRECURSOR_MZ=385.132
INCHI="InChI=1S/C21H22N2O3/c1-15-18-13-17(26-14-16-5-3-2-4-6-16)7-8-19(18)22-20(15)21(24)23-9-11-25-12-10-23/h2-8,13,22H,9-12,14H2,1H3"
SMILES=Cc1c(C(=O)N2CCOCC2)[nH]c2ccc(OCc3ccccc3)cc12
SPECTRUMID=CCMSLIB00010118155
68.995483 2124.0 
69.691933 2390.0 
74.003738 2368.0 
79.3843 2105.0 
82.822884 2341.0 
83.973557 2300.0 
92.033569 2320.0 
92.38723 3301.0 
92.995438 3003.0 
112.985687 88568.0 
118.992332 2400.0 
136.909836 2669.0 
141.448822 2889.0 
180.973419 14340.0 
216.99028 2592.0 
248.96138 10865.0 
254.984802 3686.0 
258.101624 10207.0 
266.985596 2787.0 
278.985809 8940.0 
316.984161 2642.0 
343.729889 2555.0 
344.977112 9879.0 
349.156738 3855.0 
364.982208 3422.0 
384.983826 12243.0 
END IONS

BEGIN IONS
NAME=N-[4-(methylethyl)phenyl]-2-(9-methyl-6-oxohydropurin-8-ylthio)butanamide CollisionEnergy:205060 M+Na
PRECURSOR_MZ=408.146
INCHI="InChI=1S/C19H23N5O2S/c1-5-14(17(25)22-13-8-6-12(7-9-13)11(2)3)27-19-23-15-16(24(19)4)20-10-21-18(15)26/h6-11,14H,5H2,1-4H3,(H,22,25)(H,20,21,26)"
SMILES=CCC(Sc1nc2c(O)ncnc2n1C)C(=O)Nc1ccc(C(C)C)cc1
SPECTRUMID=CCMSLIB00010120004
82.386948 3527.0 
96.075829 3063.0 
142.011963 3381.0 
158.9767 2712.0 
162.091507 3467.0 
173.043167 4503.0 
204.007446 284226.0 
205.015244 330167.0 
212.104538 97306.0 
226.12001 20655.0 
258.092285 3622.0 
273.041565 19907.0 
406.015289 4410.0 
408.145844 5332214.0 
410.294739 3751.0 
END IONS

BEGIN IONS
NAME="N-(5,6-dimethoxy-3-oxohydroisobenzofuran-4-yl)(2-methyl(3-furyl))carboxamide CollisionEnergy:102040" M+Na
PRECURSOR_MZ=340.079
INCHI="InChI=1S/C16H15NO6/c1-8-10(4-5-22-8)15(18)17-13-12-9(7-23-16(12)19)6-11(20-2)14(13)21-3/h4-6H,7H2,1-3H3,(H,17,18)"
SMILES=COc1cc2c(c(N=C(O)c3ccoc3C)c1OC)C(=O)OC2
SPECTRUMID=CCMSLIB00010105663
60.536121 3249.0 
62.115219 2542.0 
73.952087 2506.0 
78.047623 2783.0 
92.376907 3895.0 
93.01725 2540.0 
97.203712 3050.0 
125.087753 2441.0 
129.781494 3107.0 
136.8685 2927.0 
278.873993 2664.0 
325.055359 10441.0 
340.07843 3700606.0 
348.527344 2965.0 
358.093262 8599.0 
END IONS

BEGIN IONS
NAME="2,9-dimethyl-8-{[5-methyl-2-(3-methylphenyl)(1,3-oxazol-4-yl)]methylthio}hydro purin-6-one CollisionEnergy:205060" M+Na
PRECURSOR_MZ=404.115
INCHI="InChI=1S/C19H19N5O2S/c1-10-6-5-7-13(8-10)18-22-14(11(2)26-18)9-27-19-23-15-16(24(19)4)20-12(3)21-17(15)25/h5-8H,9H2,1-4H3,(H,20,21,25)"
SMILES=Cc1cccc(-c2nc(CSc3nc4c(O)nc(C)nc4n3C)c(C)o2)c1
SPECTRUMID=CCMSLIB00010116725
56.63142 2724.0 
64.581169 2809.0 
66.73262 3273.0 
69.033897 52161.0 
73.942017 3497.0 
81.033722 24960.0 
82.037163 3852.0 
91.054207 7182.0 
115.862221 2827.0 
117.070023 7315.0 
118.065063 1453030.0 
136.075699 6096.0 
136.188797 3854.0 
159.091232 3842.0 
163.779709 2988.0 
186.091187 942650.0 
213.828186 4099.0 
218.023178 151027.0 
219.030807 331582.0 
322.200745 3308.0 
404.114502 3198624.0 
END IONS

BEGIN IONS
NAME=N-(3-methoxyphenyl)-2-[9-(4-methylphenyl)-6-oxohydropurin-8-ylthio]acetamide CollisionEnergy:205060 M+Na
PRECURSOR_MZ=444.11
INCHI="InChI=1S/C21H19N5O3S/c1-13-6-8-15(9-7-13)26-19-18(20(28)23-12-22-19)25-21(26)30-11-17(27)24-14-4-3-5-16(10-14)29-2/h3-10,12H,11H2,1-2H3,(H,24,27)(H,22,23,28)"
SMILES=COc1cccc(N=C(O)CSc2nc3c(O)ncnc3n2-c2ccc(C)cc2)c1
SPECTRUMID=CCMSLIB00010122598
60.526371 3024.0 
92.393044 3175.0 
128.008621 2866.0 
249.074448 3870.0 
279.030487 155806.0 
280.038788 33970.0 
321.04129 21610.0 
342.737488 2762.0 
418.058838 3032.0 
444.109497 3713129.0 
END IONS

BEGIN IONS
NAME=methyl 2-[3-(4-ethylphenoxy)-4-oxochromen-7-yloxy]acetate CollisionEnergy:205060 M+H
PRECURSOR_MZ=355.118
INCHI="InChI=1S/C20H18O6/c1-3-13-4-6-14(7-5-13)26-18-11-25-17-10-15(24-12-19(21)23-2)8-9-16(17)20(18)22/h4-11H,3,12H2,1-2H3"
SMILES=CCc1ccc(Oc2coc3cc(OCC(=O)OC)ccc3c2=O)cc1
SPECTRUMID=CCMSLIB00010121517
51.023399 7961.0 
53.039101 55222.0 
55.01828 14128.0 
55.156399 3240.0 
57.839809 2923.0 
65.039108 22488.0 
77.038834 12879.0 
78.046471 6386.0 
79.018219 4476.0 
79.054512 489969.0 
81.033363 4697.0 
85.028557 4480.0 
91.054352 141335.0 
92.025917 4220.0 
93.033386 3253.0 
93.069946 21780.0 
94.041779 2975.0 
95.049103 41592.0 
97.064659 4100.0 
103.017982 25816.0 
103.054153 207112.0 
104.500954 2846.0 
105.033432 38359.0 
105.045097 5849.0 
105.06987 187636.0 
106.077461 3915.0 
107.012787 20181.0 
107.049004 174851.0 
108.020714 34907.0 
109.064667 21385.0 
115.054153 7830.0 
117.069878 14855.0 
118.041473 17454.0 
119.012703 6156.0 
119.049103 30974.0 
119.085373 26378.0 
121.028381 23485.0 
121.064613 106996.0 
123.080276 14337.0 
131.048935 60874.0 
132.056717 14215.0 
133.028351 31373.0 
133.064697 41778.0 
133.075348 7430.0 
134.03624 7756.0 
135.043961 79525.0 
135.054703 5561.0 
137.023209 4720.0 
137.059464 12762.0 
141.069641 6699.0 
145.028152 19645.0 
145.064423 13904.0 
146.07251 40537.0 
147.043884 21888.0 
147.080505 21681.0 
148.051682 20922.0 
149.022964 32145.0 
149.059448 6751.0 
150.030884 7256.0 
151.038879 17761.0 
152.061691 4737.0 
153.069672 6606.0 
155.085495 21529.0 
159.080551 6104.0 
160.051285 24792.0 
161.05957 5071.0 
162.031006 13435.0 
163.039032 53431.0 
165.054794 11917.0 
165.069534 22066.0 
166.077026 5470.0 
167.033768 7366.0 
168.055573 4612.0 
169.064987 41870.0 
169.101196 21971.0 
170.109344 12056.0 
173.059509 129062.0 
175.038834 74016.0 
178.025528 17884.0 
178.076477 4444.0 
179.03389 4137.0 
180.041138 3701.0 
180.092957 6541.0 
181.065292 27510.0 
181.101135 6992.0 
182.072235 4417.0 
183.080536 46829.0 
184.088516 14738.0 
188.046783 5898.0 
189.115479 3598.0 
191.033798 18875.0 
193.049316 408150.0 
194.07251 7175.0 
195.080322 5095.0 
196.087845 4546.0 
197.060135 36700.0 
197.09552 46447.0 
198.104889 5510.0 
206.056061 4414.0 
207.079651 4080.0 
208.051926 4521.0 
208.089523 6635.0 
209.043442 163734.0 
209.09462 41719.0 
211.0746 26206.0 
218.867157 13959.0 
221.060715 6481.0 
225.054642 100737.0 
225.091751 28267.0 
226.062653 195523.0 
226.10022 12134.0 
234.05246 4654.0 
235.058899 42488.0 
236.045685 4161.0 
236.082626 27692.0 
237.06012 5227.0 
237.090546 155645.0 
238.062592 5211.0 
239.050995 108184.0 
250.049026 3616.0 
251.054489 172931.0 
253.053101 7896.0 
253.085251 109279.0 
254.057831 128672.0 
254.093399 570445.0 
255.06543 17527.0 
258.053925 3576.0 
261.075714 7657.0 
262.114685 3523.0 
264.080292 5267.0 
265.048187 3880.0 
265.08493 5120.0 
265.581329 3750.0 
266.058533 5764.0 
267.06485 67043.0 
267.101166 17718.0 
269.07959 5905.0 
280.072052 4967.0 
281.082184 4052.0 
282.088135 249254.0 
283.095123 29678.0 
295.096252 81597.0 
298.082184 16716.0 
299.126556 6418.0 
308.900452 4193.0 
309.076202 7314.0 
311.093536 3507.0 
322.083496 5055.0 
327.085541 322897.0 
331.917511 5091.0 
337.10733 12625.0 
340.095734 11594.0 
355.117065 3921248.0 
END IONS

BEGIN IONS
NAME=N-(3-methoxyphenyl)-2-[4-(morpholin-4-ylcarbonyl)-2-oxohydroquinolyl]acetamide CollisionEnergy:102040 M-H
PRECURSOR_MZ=420.156
INCHI="InChI=1S/C23H23N3O5/c1-30-17-6-4-5-16(13-17)24-21(27)15-26-20-8-3-2-7-18(20)19(14-22(26)28)23(29)25-9-11-31-12-10-25/h2-8,13-14H,9-12,15H2,1H3,(H,24,27)"
SMILES=COc1cccc(N=C(O)Cn2c(=O)cc(C(=O)N3CCOCC3)c3ccccc32)c1
SPECTRUMID=CCMSLIB00010113164
59.67664 2793.0 
66.745682 3676.0 
72.164963 3020.0 
82.400726 3292.0 
86.061127 245479.0 
92.381699 3135.0 
107.037537 12616.0 
116.050323 6609.0 
122.061401 78829.0 
128.050766 197043.0 
130.066071 39649.0 
131.037811 3651.0 
139.900223 3508.0 
142.066132 7624.0 
144.045883 31580.0 
146.061584 4387.0 
156.045761 50151.0 
156.08226 15852.0 
157.053406 141434.0 
158.025101 47324.0 
158.061142 122620.0 
172.040573 91813.0 
174.056213 68604.0 
176.035629 28286.0 
184.040527 574844.0 
185.048279 42627.0 
202.051346 83106.0 
208.227982 15164.0 
211.088379 3599.0 
227.117386 3250.0 
228.102631 12910.0 
229.098358 120128.0 
243.113922 73949.0 
245.093384 28600.0 
257.093323 330215.0 
271.109009 616681.0 
273.088379 169468.0 
273.121552 6319.0 
297.088135 336186.0 
305.972809 3282.0 
315.099396 3612.0 
420.157135 2897251.0 
END IONS

BEGIN IONS
NAME="2-[(1,1-dioxobenzo[d]1,2-thiazolin-3-yl)(2-chlorophenyl)amino]ethyl (2E)-3-phe nylprop-2-enoate CollisionEnergy:205060" M+Na
PRECURSOR_MZ=489.065
INCHI="InChI=1S/C24H19ClN2O4S/c25-20-11-5-6-12-21(20)27(24-19-10-4-7-13-22(19)32(29,30)26-24)16-17-31-23(28)15-14-18-8-2-1-3-9-18/h1-15H,16-17H2/b15-14+"
SMILES=O=C(C=Cc1ccccc1)OCCN(C1=NS(=O)(=O)c2ccccc21)c1ccccc1Cl
SPECTRUMID=CCMSLIB00010121334
61.693119 2642.0 
66.743362 2477.0 
66.748154 2812.0 
71.441528 3012.0 
80.58799 3027.0 
80.947594 11203.0 
82.401466 3245.0 
86.999931 3171.0 
90.976387 6610.0 
92.379318 3456.0 
99.061882 2663.0 
103.053886 4272.0 
116.048477 2999.0 
117.057259 35750.0 
118.064781 17649.0 
125.014771 14371.0 
131.048859 24632.0 
137.391754 2858.0 
138.010651 37775.0 
152.025986 12887.0 
153.033585 39142.0 
172.819733 2924.0 
175.076035 19523.0 
178.064041 3189.0 
179.073059 3253.0 
189.909088 2653.0 
196.07486 4634.0 
205.075287 6237.0 
210.05426 4331.0 
216.921539 5454.0 
217.416031 2735.0 
219.091385 236253.0 
224.75351 2812.0 
226.950043 4176.0 
230.036224 11475.0 
235.086411 108109.0 
236.092987 5149.0 
240.043564 3346.0 
253.052475 4731.0 
255.067596 14710.0 
260.694946 2730.0 
269.04361 2751.0 
271.062561 18582.0 
319.029572 732637.0 
405.182983 2840.0 
489.063995 978427.0 
END IONS

BEGIN IONS
NAME=N-(3-chloro-4-fluorophenyl)-2-[2-oxo-4-(N-propylcarbamoyl)hydroquinolyl]acetam ide CollisionEnergy:102040 M+H
PRECURSOR_MZ=416.117
INCHI="InChI=1S/C21H19ClFN3O3/c1-2-9-24-21(29)15-11-20(28)26(18-6-4-3-5-14(15)18)12-19(27)25-13-7-8-17(23)16(22)10-13/h3-8,10-11H,2,9,12H2,1H3,(H,24,29)(H,25,27)"
SMILES=CCCN=C(O)c1cc(=O)n(CC(O)=Nc2ccc(F)c(Cl)c2)c2ccccc12
SPECTRUMID=CCMSLIB00010112384
56.84024 2771.0 
70.065407 3130.0 
84.657387 2737.0 
92.372849 3941.0 
118.430603 3289.0 
122.293411 2850.0 
128.049683 7147.0 
130.065094 108965.0 
136.204544 3855.0 
144.043869 20740.0 
146.060059 88475.0 
156.04306 4154.0 
157.076355 10656.0 
158.059998 169755.0 
173.070938 6997.0 
186.054764 18855.0 
197.990051 2882.0 
201.065125 25172.0 
210.236908 3593.0 
215.117874 23203.0 
231.112442 207384.0 
243.112396 843312.0 
271.107208 2999593.0 
284.139404 38538.0 
416.183777 17899.0 
END IONS

BEGIN IONS
NAME="2-[1-(4-methoxyphenyl)(1,2,3,4-tetrahydrobeta-carbolin-2-yl)]-N-(4-methylpheny l)acetamide CollisionEnergy:205060" M-H
PRECURSOR_MZ=424.203
INCHI="InChI=1S/C27H27N3O2/c1-18-7-11-20(12-8-18)28-25(31)17-30-16-15-23-22-5-3-4-6-24(22)29-26(23)27(30)19-9-13-21(32-2)14-10-19/h3-14,27,29H,15-17H2,1-2H3,(H,28,31)"
SMILES=COc1ccc(C2c3[nH]c4ccccc4c3CCN2CC(=O)Nc2ccc(C)cc2)cc1
SPECTRUMID=CCMSLIB00010116809
73.925087 2720.0 
80.277687 2850.0 
93.034477 4737.0 
104.314438 3335.0 
106.0662 546159.0 
109.72377 2736.0 
115.319794 3146.0 
116.050537 23231.0 
118.029984 15952.0 
142.066071 38078.0 
146.062164 2851.0 
148.076736 54225.0 
148.346375 3220.0 
150.055374 11761.0 
158.013916 3798.0 
163.087601 117981.0 
169.077438 5398.0 
175.088058 14732.0 
178.492447 2986.0 
187.087158 21266.0 
196.065399 2638.0 
209.780563 5042.0 
220.07663 16790.0 
220.697159 3544.0 
221.084961 16708.0 
231.070099 18225.0 
232.07663 612633.0 
233.084351 239003.0 
234.092392 6543.0 
236.107834 56541.0 
246.092529 3102.0 
248.108032 67245.0 
259.087433 278179.0 
260.094604 107420.0 
261.102448 19178.0 
270.648926 2695.0 
275.118896 621182.0 
291.150269 27913.0 
303.136932 3284.0 
317.127991 12507.0 
362.206024 2915.0 
363.152832 3824.0 
424.20282 504525.0 
END IONS

BEGIN IONS
NAME=kaempferol CollisionEnergy:205060 M+H
PRECURSOR_MZ=287.055
INCHI="InChI=1S/C15H10O6/c16-8-3-1-7(2-4-8)15-14(20)13(19)12-10(18)5-9(17)6-11(12)21-15/h1-6,16-18,20H"
SMILES=O=c1c(O)c(-c2ccc(O)cc2)oc2cc(O)cc(O)c12
SPECTRUMID=CCMSLIB00010117369
53.03912 7502.0 
54.79372 2750.0 
55.018299 5697.0 
56.260681 2844.0 
65.039017 15689.0 
67.018211 20591.0 
68.997482 142718.0 
69.033836 13250.0 
69.745529 2686.0 
71.013046 4667.0 
79.054413 38298.0 
81.033661 18804.0 
84.960159 4875.0 
91.054482 6659.0 
95.049271 14067.0 
96.151947 3393.0 
97.028381 5013.0 
99.857483 2659.0 
103.054153 18567.0 
105.033432 65841.0 
107.049049 81943.0 
109.028351 64001.0 
110.999397 6099.0 
111.007637 119577.0 
111.043617 11951.0 
115.054131 5750.0 
117.069458 11814.0 
119.049103 13192.0 
121.028397 506382.0 
127.039139 15715.0 
128.06192 5674.0 
129.070007 21253.0 
133.028259 69603.0 
133.064026 3614.0 
135.044128 32026.0 
137.023254 168803.0 
141.069641 19989.0 
145.02771 5833.0 
145.064743 44552.0 
147.043961 108616.0 
150.251556 3261.0 
151.038406 13353.0 
153.018188 831811.0 
157.064697 104772.0 
157.077026 2987.0 
157.954483 4123.0 
161.024368 5164.0 
161.060349 23946.0 
163.038925 3437.0 
165.018158 304941.0 
166.024811 4432.0 
167.048676 3720.0 
168.924484 3837.0 
169.064514 12655.0 
171.029022 8378.0 
171.043396 53897.0 
173.060074 4551.0 
175.038986 12885.0 
175.074631 11986.0 
183.028748 152657.0 
184.05162 3775.0 
185.059616 101609.0 
186.93634 3913.0 
189.054398 22655.0 
191.032867 5969.0 
194.020889 6797.0 
197.05957 24318.0 
199.038239 7247.0 
201.053558 4729.0 
203.033966 21559.0 
203.070099 23801.0 
212.046768 4037.0 
213.054367 257484.0 
216.041504 5509.0 
217.049194 11712.0 
223.037964 5114.0 
228.842056 3372.0 
229.049271 26349.0 
230.055573 3457.0 
230.905975 3760.0 
231.06488 105457.0 
240.042999 3554.0 
241.048904 113755.0 
242.057693 3929.0 
243.064636 14895.0 
245.044373 5362.0 
257.043243 4437.0 
258.05188 217503.0 
259.059326 68383.0 
263.055817 6677.0 
263.904694 6458.0 
263.939087 10442.0 
269.043945 31118.0 
286.047668 4063.0 
287.054688 5009849.0 
288.317383 6028.0 
END IONS

BEGIN IONS
NAME=N6-isopentyl adenosine CollisionEnergy:102040 M-H
PRECURSOR_MZ=334.152
INCHI="InChI=1S/C15H21N5O4/c1-8(2)3-4-16-13-10-14(18-6-17-13)20(7-19-10)15-12(23)11(22)9(5-21)24-15/h3,6-7,9,11-12,15,21-23H,4-5H2,1-2H3,(H,16,17,18)/t9-,11-,12-,15-/m1/s1"
SMILES=CC(=CCNC1=C2C(=NC=N1)N(C=N2)[C@H]3[C@@H]([C@@H]([C@H](O3)CO)O)O)C
SPECTRUMID=CCMSLIB00010102201
61.988022 7040.73584 
66.329468 3856.743164 
84.536758 4659.814453 
107.036369 6912.162109 
129.975662 15023.202148 
133.039246 126928.570312 
133.050247 7825.896484 
134.04715 1135033.875 
136.293594 5105.939941 
146.047028 5991.730957 
171.843338 4652.562012 
201.405487 3627.790283 
202.109772 2650131.25 
203.112122 9228.611328 
266.089203 503683.96875 
284.278564 4349.067383 
334.151794 717714.4375 
END IONS

BEGIN IONS
NAME="2,2-diphenylcyclopropyl 2-1,2,3,4-tetrahydroisoquinolyl ketone CollisionEnergy:102040" M+Na
PRECURSOR_MZ=376.167
INCHI="InChI=1S/C25H23NO/c27-24(26-16-15-19-9-7-8-10-20(19)18-26)23-17-25(23,21-11-3-1-4-12-21)22-13-5-2-6-14-22/h1-14,23H,15-18H2"
SMILES=O=C(C1CC1(c1ccccc1)c1ccccc1)N1CCc2ccccc2C1
SPECTRUMID=CCMSLIB00010106522
92.373032 2964.0 
113.504791 2834.0 
127.561287 3383.0 
129.976028 3161.0 
141.071899 3038.0 
209.282761 5645.0 
334.033905 5377.0 
352.996765 12926.0 
375.395477 2893.0 
376.16687 4118521.0 
END IONS

BEGIN IONS
NAME="1-acetyl-2-hydroxy-3,4-dimethoxybenzene CollisionEnergy:102040" M+H-H2O
PRECURSOR_MZ=179.07
INCHI="InChI=1S/C10H12O4/c1-6(11)7-4-5-8(13-2)10(14-3)9(7)12/h4-5,12H,1-3H3"
SMILES=COc1ccc(C(C)=O)c(O)c1OC
SPECTRUMID=CCMSLIB00010105686
56.965179 31078.0 
60.28101 3039.0 
60.54903 3407.0 
61.451721 3230.0 
70.980751 4075.0 
73.96917 3307.0 
75.094673 3341.0 
82.412514 5186.0 
88.991188 3628.0 
90.595284 3487.0 
91.054329 18449.0 
102.947952 7189.0 
102.993721 5907.0 
106.017372 29539.0 
107.048889 19454.0 
110.505203 73579.0 
111.009087 12149.0 
111.998917 12984.0 
114.01519 7651.0 
115.013893 4901.0 
115.022636 89817.0 
117.525383 22900.0 
118.016647 28311.0 
118.041077 5789.0 
119.049431 6897.0 
119.510773 309041.0 
120.014709 64105.0 
121.004402 39756.0 
121.021591 3153.0 
123.020187 7047.0 
123.50766 6416.0 
124.028351 4201.0 
126.530724 31125.0 
127.022186 108543.0 
127.032227 5768.0 
128.011871 33025.0 
128.516113 2224792.0 
129.020004 142299.0 
129.517517 5948.0 
130.009659 15098.0 
130.994125 4015.0 
131.018616 186198.0 
131.460297 3181.0 
131.522476 24464.0 
132.512329 5468.0 
133.028488 5345.0 
133.508514 5791.0 
136.027878 913781.0 
136.238632 3827.0 
137.017731 77783.0 
137.029221 7994.0 
137.059418 18007.0 
137.521439 3487907.0 
138.025055 33235.0 
138.037613 6621.0 
138.531448 58688.0 
139.520981 4509.0 
140.024094 1089994.0 
140.527618 59778.0 
140.950882 7592.0 
142.967484 4300.0 
143.029556 4236.0 
145.033112 2690559.0 
146.023178 5323.0 
146.035599 30853.0 
146.526627 188881.0 
147.043472 16158.0 
147.535736 494415.0 
148.051636 13816.0 
148.525436 20193.0 
149.030334 1251879.0 
149.531387 17228.0 
150.030594 4616.0 
151.07515 60505.0 
151.531906 228640.0 
152.035767 14835.0 
154.038391 410866.0 
155.040512 5114.0 
155.97403 40363.0 
156.541107 1053919.0 
157.041931 13956.0 
158.034103 41875.0 
158.54512 16749.0 
159.043747 85375.0 
160.537323 244401.0 
163.039566 4992.0 
164.046432 1649944.0 
165.053482 5896.0 
165.54631 68209.0 
166.056473 18839.0 
168.048859 176509.0 
170.053314 6889.0 
172.04538 14150.0 
177.054642 4208.0 
179.069962 771712.0 
179.55661 20187.0 
199.026688 7618.0 
202.616547 4199.0 
209.974869 7871.0 
210.021133 5888.0 
211.028152 4831.0 
214.014526 16182.0 
215.021774 3552.0 
224.002045 3877.0 
229.038315 18884.0 
235.02742 24565.0 
238.015778 6721.0 
253.037521 172851.0 
256.02417 26398.0 
271.048096 727997.0 
274.036102 4699.0 
276.055176 24269.0 
289.058624 112925.0 
294.063599 82889.0 
END IONS

BEGIN IONS
NAME=sarcosine CollisionEnergy:102040 M-H
PRECURSOR_MZ=88.0404
INCHI="InChI=1S/C3H7NO2/c1-4-2-3(5)6/h4H,2H2,1H3,(H,5,6)"
SMILES=CNCC(=O)O
SPECTRUMID=CCMSLIB00010126411
66.762199 19507.599609 
67.069 19254.0 
88.040199 1867530.0 
END IONS

BEGIN IONS
NAME=4-hydroxy-2-quinolone CollisionEnergy:205060 M+Na
PRECURSOR_MZ=184.037
INCHI="InChI=1S/C9H7NO2/c11-8-5-9(12)10-7-4-2-1-3-6(7)8/h1-5H,(H2,10,11,12)"
SMILES=C1=CC=C2C(=C1)C(=O)C=C(N2)O
SPECTRUMID=CCMSLIB00010102163
67.707245 4354.854004 
70.913589 4553.42627 
79.849655 4593.239746 
84.907463 4836.899414 
101.949966 24173.380859 
112.59269 5218.015137 
118.722984 6668.081055 
119.960716 9855.811523 
131.751663 5715.92041 
136.295517 5559.104492 
137.970505 5480.53418 
141.867294 4839.106445 
154.407867 5161.641602 
158.06424 5790.32666 
184.037888 32200.888672 
201.462845 5018.120605 
END IONS

BEGIN IONS
NAME="2-amino-21-methyl-5,16-dioxospiro[4H-pyrano[3,2-c]chromene-4,3'-indoline]-3-ca rbonitrile CollisionEnergy:102040" M-H
PRECURSOR_MZ=370.083
INCHI="InChI=1S/C21H13N3O4/c1-10-5-4-7-12-16(10)24-20(26)21(12)13(9-22)18(23)28-17-11-6-2-3-8-14(11)27-19(25)15(17)21/h2-8H,23H2,1H3,(H,24,26)"
SMILES=Cc1cccc2c1N=C(O)C21C(C#N)=C(N)Oc2c1c(=O)oc1ccccc21
SPECTRUMID=CCMSLIB00010109520
65.014137 2758779.0 
65.052467 3126.0 
72.888771 3393.0 
118.658699 3083.0 
120.401123 3542.0 
134.780731 3360.0 
136.21608 2850.0 
156.046082 20107.0 
161.02475 18964.0 
184.040253 153797.0 
208.051682 5419.0 
248.071716 20269.0 
260.071228 4955.0 
276.066711 594162.0 
299.083801 3917.0 
302.67688 3198.0 
303.692413 2995.0 
304.061676 2822372.0 
326.08432 11952.0 
343.076019 3786.0 
354.06311 11674.0 
370.08316 839232.0 
END IONS

BEGIN IONS
NAME=2-[6-hydroxy-2-(4-hydroxy-3-methoxyphenyl)-3-azabicyclo[4.4.0]dec-3-yl]-N-(4-m ethylphenyl)acetamide CollisionEnergy:102040 M+Na
PRECURSOR_MZ=447.225
INCHI="InChI=1S/C25H32N2O4/c1-17-6-9-19(10-7-17)26-23(29)16-27-14-13-25(30)12-4-3-5-20(25)24(27)18-8-11-21(28)22(15-18)31-2/h6-11,15,20,24,28,30H,3-5,12-14,16H2,1-2H3,(H,26,29)"
SMILES=COc1cc(C2C3CCCCC3(O)CCN2CC(=O)Nc2ccc(C)cc2)ccc1O
SPECTRUMID=CCMSLIB00010107109
75.588219 2538.0 
82.410469 3098.0 
92.388786 3338.0 
99.550194 3173.0 
304.460236 3230.0 
429.211975 27325.0 
447.224579 2851207.0 
467.932495 3073.0 
END IONS

BEGIN IONS
NAME=Salicylate///Bismuth Subsalicylate///Salicylate-sodium///Q4499058///SALICYLATE///Salicylic acid///salicylate///Sodium salicylate///Trolamine salicylate///salicylic acid///Magnesium salicylate///Trisalicylate-choline CollisionEnergy:102040 M-H
PRECURSOR_MZ=137.024
INCHI="InChI=1S/C7H6O3/c8-6-4-2-1-3-5(6)7(9)10/h1-4,8H,(H,9,10)"
SMILES=O=C(O)c1ccccc1O
SPECTRUMID=CCMSLIB00010109845
72.039787 7189.0 
79.894241 7547.0 
90.966568 7572.0 
93.034431 3885918.0 
104.278183 8424.0 
118.656212 8188.0 
126.600616 8816.0 
127.203537 7388.0 
136.862656 9081.0 
137.024139 1117181.0 
END IONS

BEGIN IONS
NAME=CHLOROGENIC ACID CollisionEnergy:205060 M+H
PRECURSOR_MZ=355.102
INCHI="InChI=1S/C16H18O9/c17-9-3-1-8(5-10(9)18)2-4-13(20)25-12-7-16(24,15(22)23)6-11(19)14(12)21/h1-5,11-12,14,17-19,21,24H,6-7H2,(H,22,23)/b4-2+/t11-,12-,14-,16+/m1/s1"
SMILES=O=C(C=Cc1ccc(O)c(O)c1)OC1CC(O)(C(=O)O)CC(O)C1O
SPECTRUMID=CCMSLIB00010124977
52.451698 2326.0 
53.0392 2444.0 
60.53706 2807.0 
73.742706 2299.0 
79.054451 11681.0 
81.894493 2342.0 
83.049339 5435.0 
89.038727 69676.0 
107.049133 26895.0 
110.449806 2185.0 
111.044357 2852.0 
117.024094 3681.0 
117.033409 99745.0 
129.223343 2475.0 
133.500778 2793.0 
135.043976 254637.0 
145.028351 174331.0 
145.038406 5138.0 
150.99472 2695.0 
155.717346 2452.0 
163.038849 1053111.0 
174.00087 2469.0 
185.385529 2239.0 
END IONS

BEGIN IONS
NAME=2'-deoxyguanosine CollisionEnergy:102040 2M-H
PRECURSOR_MZ=533.186
INCHI="InChI=1S/C10H13N5O4/c11-10-13-8-7(9(18)14-10)12-3-15(8)6-1-4(17)5(2-16)19-6/h3-6,16-17H,1-2H2,(H3,11,13,14,18)/t4-,5+,6+/m0/s1"
SMILES=N=c1nc(O)c2ncn([C@H]3C[C@H](O)[C@@H](CO)O3)c2[nH]1
SPECTRUMID=CCMSLIB00010102495
51.057301 45124.300781 
60.553398 52513.898438 
66.759499 57923.199219 
71.096603 45642.398438 
82.416496 48346.898438 
90.159203 48082.101562 
92.401703 48502.699219 
114.862 47834.699219 
118.681 75905.398438 
150.042007 1223840.0 
162.358994 44889.398438 
174.229996 48046.398438 
176.057999 95822.601562 
213.182007 98236.703125 
214.014008 48621.601562 
259.867004 51440.800781 
266.088989 4640070.0 
389.720001 52939.398438 
END IONS

BEGIN IONS
NAME="6-amino-3-ethyl-4-(4-hydroxy-3-methoxyphenyl)-4H-pyrano[3,2-d]pyrazole-5-carbo nitrile CollisionEnergy:205060" M+Na
PRECURSOR_MZ=335.111
INCHI="InChI=1S/C16H16N4O3/c1-3-10-14-13(8-4-5-11(21)12(6-8)22-2)9(7-17)15(18)23-16(14)20-19-10/h4-6,13,21H,3,18H2,1-2H3,(H,19,20)"
SMILES=CCc1[nH]nc2c1C(c1ccc(O)c(OC)c1)C(C#N)=C(N)O2
SPECTRUMID=CCMSLIB00010119291
51.139339 2248.0 
54.1422 2094.0 
64.1446 2043.0 
82.388496 3065.0 
116.159813 2571.0 
170.799347 2228.0 
189.747086 2277.0 
221.464554 2893.0 
335.110931 76740.0 
END IONS

BEGIN IONS
NAME=6-methyl-2-[4-benzylpiperazinyl]-3-hydropyrimidin-4-one CollisionEnergy:205060 M+H
PRECURSOR_MZ=285.171
INCHI="InChI=1S/C16H20N4O/c1-13-11-15(21)18-16(17-13)20-9-7-19(8-10-20)12-14-5-3-2-4-6-14/h2-6,11H,7-10,12H2,1H3,(H,17,18,21)"
SMILES=Cc1cc(O)nc(N2CCN(Cc3ccccc3)CC2)n1
SPECTRUMID=CCMSLIB00010119285
50.172039 2868.0 
60.743172 3068.0 
61.806252 2664.0 
65.038887 73695.0 
67.018257 4147.0 
68.049721 13713.0 
69.008614 4877.0 
69.033829 6020.0 
69.044952 22222.0 
70.065567 25840.0 
73.955643 3587.0 
82.401901 3577.0 
84.044479 123147.0 
86.071487 26705.0 
86.155533 2842.0 
91.054237 3506932.0 
96.044113 4676.0 
101.027153 2864.0 
105.069366 4443.0 
108.055092 11718.0 
109.031723 5538.0 
109.039436 95640.0 
109.075829 6891.0 
110.059952 54705.0 
110.068832 4608.0 
110.070419 3947.0 
111.055054 30538.0 
112.050552 7314.0 
117.069794 30570.0 
126.065903 130524.0 
134.096085 117039.0 
135.055099 18921.0 
138.066071 20301.0 
145.532318 3360.0 
149.058273 5640.0 
150.065887 167478.0 
152.081573 2909150.0 
160.111938 36414.0 
165.077179 3870.0 
176.081467 39255.0 
178.097107 249769.0 
180.112747 106703.0 
192.099487 3745.0 
193.107971 93247.0 
236.734177 3603.0 
242.128311 43536.0 
285.170197 2095539.0 
END IONS

BEGIN IONS
NAME="4-Hydroxy-2',3,4',6'-tetramethoxychalcone CollisionEnergy:102040" M+Na
PRECURSOR_MZ=367.115
INCHI="InChI=1S/C19H20O6/c1-22-13-10-17(24-3)19(18(11-13)25-4)15(21)8-6-12-5-7-14(20)16(9-12)23-2/h5-11,20H,1-4H3/b8-6+"
SMILES=COc1cc(OC)c(C(=O)C=Cc2ccc(O)c(OC)c2)c(OC)c1
SPECTRUMID=CCMSLIB00010106696
52.01754 2981.0 
56.514511 3084.0 
63.557152 3168.0 
68.653961 3118.0 
73.942261 2741.0 
76.278877 3265.0 
99.429237 3478.0 
101.002007 3286.0 
136.1828 3232.0 
257.671295 3339.0 
352.089355 31653.0 
366.162415 4005.0 
367.114685 10528486.0 
368.933655 13268.0 
385.126129 33884.0 
END IONS

BEGIN IONS
NAME=4alpha-PMA CollisionEnergy:205060 M+Na
PRECURSOR_MZ=639.387
INCHI="InChI=1S/C36H56O8/c1-7-8-9-10-11-12-13-14-15-16-17-18-29(39)43-32-24(3)35(42)27(30-33(5,6)36(30,32)44-25(4)38)20-26(22-37)21-34(41)28(35)19-23(2)31(34)40/h19-20,24,27-28,30,32,37,41-42H,7-18,21-22H2,1-6H3/t24-,27+,28-,30-,32-,34+,35-,36-/m1/s1"
SMILES=CCCCCCCCCCCCCC(=O)OC1C(C)C2(O)C(C=C(CO)CC3(O)C(=O)C(C)=CC32)C2C(C)(C)C12OC(C)=O
SPECTRUMID=CCMSLIB00010124153
53.03896 8020.0 
55.054642 13020.0 
57.070259 5141.0 
57.168449 4219.0 
60.94038 4071.0 
67.054688 13904.0 
69.033768 25606.0 
69.070107 4898.0 
76.192833 3621.0 
79.054497 28415.0 
81.070068 8385.0 
82.404869 3991.0 
83.049301 19576.0 
83.085663 5027.0 
91.054337 33292.0 
92.385139 3325.0 
93.069862 23000.0 
95.04908 6813.0 
95.085487 14609.0 
105.069862 52360.0 
107.048691 7735.0 
107.085457 47957.0 
109.028122 4781.0 
109.064903 6150.0 
115.054428 15766.0 
117.069748 19651.0 
119.085693 16649.0 
121.064636 22719.0 
121.100677 16621.0 
123.08046 3488.0 
127.578667 3510.0 
128.061981 15222.0 
129.069611 18124.0 
131.085648 28033.0 
132.018723 3561.0 
133.064713 7810.0 
133.101578 18048.0 
134.184265 3833.0 
135.080078 27504.0 
141.069901 14597.0 
142.077927 15324.0 
143.085388 28218.0 
143.289795 3808.0 
144.092865 3630.0 
145.065033 33381.0 
145.101135 24300.0 
147.080414 8221.0 
149.095871 6266.0 
153.069489 4651.0 
155.085587 21225.0 
156.09317 7331.0 
157.101212 24176.0 
158.071777 4997.0 
159.080521 30830.0 
159.116516 12937.0 
161.059143 5104.0 
161.095795 6527.0 
163.075256 20428.0 
165.070053 19536.0 
166.077774 7101.0 
167.085388 21621.0 
169.101196 17561.0 
171.080475 21903.0 
171.116928 14630.0 
172.087952 7582.0 
173.096695 6251.0 
175.074661 5377.0 
178.077103 4580.0 
179.085861 21926.0 
180.09343 22638.0 
181.101166 31400.0 
183.080582 5241.0 
183.117035 18298.0 
185.096252 22948.0 
186.104355 4998.0 
187.110886 6194.0 
192.092712 14102.0 
193.101685 25018.0 
194.109711 7746.0 
195.080368 6350.0 
195.116257 49312.0 
197.096222 5985.0 
199.111206 27633.0 
201.127228 5336.0 
205.100952 4926.0 
206.108627 5007.0 
207.116364 28358.0 
208.088821 15062.0 
208.125198 7039.0 
209.0952 14423.0 
209.132629 14674.0 
210.104675 6181.0 
211.111893 6274.0 
213.126266 4405.0 
217.101471 20372.0 
218.1091 3963.0 
219.117203 5519.0 
221.096497 4922.0 
221.132721 3889.0 
222.104279 6825.0 
222.139328 7527.0 
223.111023 22717.0 
223.14798 13046.0 
225.126816 4379.0 
228.905762 4075.0 
231.118698 4299.0 
232.124176 6776.0 
235.111404 22092.0 
236.117935 5838.0 
237.090866 4383.0 
237.164612 6779.0 
241.12085 5758.0 
245.096054 4519.0 
247.148178 6978.0 
249.130096 3811.0 
250.134201 16710.0 
255.174591 8239.0 
265.157898 13039.0 
283.167877 4940.0 
293.153381 7610.0 
311.165375 6496.0 
333.144043 42690.0 
351.156128 366439.0 
369.16568 7398.0 
411.176819 165524.0 
411.238159 7919.0 
512.193481 3846.0 
579.364685 455576.0 
639.385742 3303424.0 
END IONS

BEGIN IONS
NAME="2',4'-Dihydroxyflavone CollisionEnergy:102040" M+Na
PRECURSOR_MZ=277.047
INCHI="InChI=1S/C15H10O4/c16-9-5-6-11(12(17)7-9)15-8-13(18)10-3-1-2-4-14(10)19-15/h1-8,16-17H"
SMILES=O=c1cc(-c2ccc(O)cc2O)oc2ccccc12
SPECTRUMID=CCMSLIB00010103781
57.459209 2235.0 
61.930271 2181.0 
61.93441 2570.0 
66.370934 2323.0 
70.733559 2326.0 
104.278198 2650.0 
118.642563 3159.0 
159.065262 2550.0 
160.823074 2361.0 
188.447784 2797.0 
209.728928 3513.0 
209.748474 3173.0 
220.621933 2437.0 
232.503418 2478.0 
277.046783 1268830.0 
277.140656 33383.0 
295.057312 50930.0 
END IONS

BEGIN IONS
NAME="3,7-Dihydroxy-3',4'-dimethoxyflavone CollisionEnergy:102040" M+H
PRECURSOR_MZ=315.086
INCHI="InChI=1S/C17H14O6/c1-21-12-6-3-9(7-14(12)22-2)17-16(20)15(19)11-5-4-10(18)8-13(11)23-17/h3-8,18,20H,1-2H3"
SMILES=COc1ccc(-c2oc3cc(O)ccc3c(=O)c2O)cc1OC
SPECTRUMID=CCMSLIB00010105203
60.537071 3681.0 
61.942619 3033.0 
69.815086 3323.0 
81.333214 3830.0 
82.395111 5620.0 
92.374657 3632.0 
106.948418 3741.0 
121.028267 31152.0 
123.044022 226227.0 
135.043961 6698.0 
137.023315 175272.0 
137.059723 85557.0 
138.067169 8502.0 
146.035812 18657.0 
146.781769 3424.0 
149.023483 60245.0 
151.074921 16760.0 
162.03067 19103.0 
163.0383 15110.0 
165.018036 16540.0 
165.041138 3393.0 
165.054993 65282.0 
167.034058 4507.0 
178.026413 44977.0 
190.024857 3679.0 
191.070465 3474.0 
193.013275 30641.0 
212.199768 33795.0 
226.062653 8304.0 
227.068527 7786.0 
242.055817 5711.0 
243.062805 6153.0 
253.048843 39527.0 
254.056808 76364.0 
255.06514 99588.0 
256.073395 24139.0 
257.045044 6925.0 
259.098694 31973.0 
265.048004 6398.0 
269.043213 15387.0 
271.059845 256433.0 
272.068665 25903.0 
273.925476 22999.0 
281.04422 71516.0 
282.052063 291738.0 
283.024506 8467.0 
283.059631 185271.0 
284.0672 84554.0 
285.039001 85179.0 
286.046875 58351.0 
286.084229 16805.0 
291.935242 4630.0 
297.039703 8763.0 
299.054749 1362322.0 
300.062592 408999.0 
313.646362 17477.0 
314.080292 6411.0 
315.085999 14327515.0 
316.53418 15220.0 
END IONS

BEGIN IONS
NAME=naringin CollisionEnergy:102040 M+Na
PRECURSOR_MZ=603.168
INCHI="InChI=1S/C27H32O14/c1-10-20(32)22(34)24(36)26(37-10)41-25-23(35)21(33)18(9-28)40-27(25)38-13-6-14(30)19-15(31)8-16(39-17(19)7-13)11-2-4-12(29)5-3-11/h2-7,10,16,18,20-30,32-36H,8-9H2,1H3/t10-,16-,18+,20-,21+,22+,23-,24+,25+,26-,27+/m0/s1"
SMILES=CC1OC(OC2C(Oc3cc(O)c4c(c3)OC(c3ccc(O)cc3)CC4=O)OC(CO)C(O)C2O)C(O)C(O)C1O
SPECTRUMID=CCMSLIB00010111708
65.903961 3459.0 
82.423149 4989.0 
85.02877 4198.0 
89.208687 3539.0 
92.405647 5340.0 
129.141296 3733.0 
130.278244 4254.0 
169.04718 7658.0 
174.999191 4044.0 
185.042297 23100.0 
185.457108 4098.0 
295.05835 37153.0 
331.054626 8270.0 
331.099426 260811.0 
337.053101 22804.0 
439.096069 7111.0 
457.107727 71660.0 
483.115875 5895.0 
599.335571 8096.0 
603.16803 6701494.0 
607.030212 6734.0 
END IONS

BEGIN IONS
NAME=2-(4-hydroxyquinazolin-2-ylthio)-N-phenylacetamide CollisionEnergy:102040 M-H
PRECURSOR_MZ=310.066
INCHI="InChI=1S/C16H13N3O2S/c20-14(17-11-6-2-1-3-7-11)10-22-16-18-13-9-5-4-8-12(13)15(21)19-16/h1-9H,10H2,(H,17,20)(H,18,19,21)"
SMILES=OC(CSc1nc(O)c2ccccc2n1)=Nc1ccccc1
SPECTRUMID=CCMSLIB00010109128
57.975071 24638.0 
73.953239 2898.0 
76.764229 2849.0 
82.401093 4770.0 
94.891258 2881.0 
104.286453 3424.0 
113.167686 3681.0 
114.681107 3483.0 
117.045677 116042.0 
134.753616 3016.0 
145.041031 75945.0 
161.035889 50935.0 
176.00473 14709.0 
177.01297 543704.0 
189.013168 73765.0 
190.038132 10910.0 
191.028656 496580.0 
217.007629 229288.0 
234.071609 3650.0 
235.074844 4073.0 
235.134415 6691.0 
235.831024 6659.0 
236.083115 7012380.0 
236.347748 5639.0 
237.037048 7324.0 
239.358017 3323.0 
242.176819 20696.0 
264.158936 30296.0 
266.075134 4316.0 
276.07959 3985.0 
310.065857 1759608.0 
END IONS

BEGIN IONS
NAME=(R)-3-Hydroxybutyric acid CollisionEnergy:205060 M-H
PRECURSOR_MZ=103.04
INCHI="InChI=1S/C4H8O3/c1-3(5)2-4(6)7/h3,5H,2H2,1H3,(H,6,7)/t3-/m1/s1"
SMILES=CC(O)CC(=O)O
SPECTRUMID=CCMSLIB00010125907
59.013481 666980.0 
64.82093 3488.0 
64.941292 4158.0 
73.946617 4144.0 
82.388779 3347.0 
89.936531 3250.0 
92.369293 4680.0 
103.040161 78276.0 
118.642288 4006.0 
122.949089 3303.0 
136.200653 4325.0 
136.309555 3628.0 
150.559875 3761.0 
209.514618 3265.0 
209.534546 7815.0 
END IONS

BEGIN IONS
NAME=6-fluorochromen-4-one CollisionEnergy:205060 M+H
PRECURSOR_MZ=165.035
INCHI=InChI=1S/C9H5FO2/c10-6-1-2-9-7(5-6)8(11)3-4-12-9/h1-5H
SMILES=O=c1ccoc2ccc(F)cc12
SPECTRUMID=CCMSLIB00010123491
51.02343 15501.0 
53.002621 11593.0 
56.964939 2336.0 
57.094311 2548.0 
68.997902 2097.0 
71.029373 11815.0 
73.968483 2193.0 
77.125603 2183.0 
95.029327 2529.0 
99.023903 3207.0 
104.306084 2541.0 
107.971764 2671.0 
109.044601 182799.0 
113.039703 10076.0 
115.834793 2443.0 
123.034859 10460.0 
123.080818 2522.0 
129.044022 3153.0 
137.039871 4278.0 
165.034332 3254050.0 
183.151291 2583.0 
END IONS

BEGIN IONS
NAME=N-Acetyl-DL-methionine CollisionEnergy:102040 M-H
PRECURSOR_MZ=190.054
INCHI="InChI=1S/C7H13NO3S/c1-5(9)8-6(7(10)11)3-4-12-2/h6H,3-4H2,1-2H3,(H,8,9)(H,10,11)"
SMILES=CSCCC(N=C(C)O)C(=O)O
SPECTRUMID=CCMSLIB00010111359
56.884232 76545.0 
60.975052 80275.0 
66.653557 71320.0 
70.0298 95926.0 
73.948807 81320.0 
82.394997 82961.0 
84.045341 1942633.0 
98.06115 2383126.0 
100.040207 168926.0 
112.04055 1141087.0 
142.050995 11829045.0 
146.064926 105939.0 
148.043915 14670201.0 
180.863968 70065.0 
190.054581 8912087.0 
192.206406 72413.0 
END IONS

BEGIN IONS
NAME=Caffeicacid CollisionEnergy:102040 M+H-H2O
PRECURSOR_MZ=163.039
INCHI="InChI=1S/C9H8O4/c10-7-3-1-6(5-8(7)11)2-4-9(12)13/h1-5,10-11H,(H,12,13)/b4-2-"
SMILES=O=C(O)C=Cc1ccc(O)c(O)c1
SPECTRUMID=CCMSLIB00010110370
53.991409 15454.0 
79.054741 113855.0 
89.039062 553810.0 
89.579964 17293.0 
104.298218 18301.0 
107.049637 383991.0 
117.033783 1378810.0 
135.044159 4099445.0 
145.028442 3016808.0 
145.038055 85892.0 
153.643433 18730.0 
163.039017 8084998.0 
END IONS

BEGIN IONS
NAME="4-[(3-(2H-benzo[3,4-d]1,3-dioxolan-5-yl)-3-oxopropyl)amino]benzoic acid CollisionEnergy:102040" M-H
PRECURSOR_MZ=312.088
INCHI="InChI=1S/C17H15NO5/c19-14(12-3-6-15-16(9-12)23-10-22-15)7-8-18-13-4-1-11(2-5-13)17(20)21/h1-6,9,18H,7-8,10H2,(H,20,21)"
SMILES=O=C(O)c1ccc(NCCC(=O)c2ccc3c(c2)OCO3)cc1
SPECTRUMID=CCMSLIB00010105803
52.35603 2179.0 
59.42905 2020.0 
63.642189 2568.0 
64.156853 2352.0 
73.955803 2763.0 
79.359734 2317.0 
92.050262 14812.0 
93.034309 4350.0 
104.290688 2653.0 
107.667648 2240.0 
119.781982 2599.0 
120.045219 5470.0 
135.045074 53384.0 
136.040344 42657.0 
146.960617 2539.0 
148.04039 143298.0 
157.969406 2662.0 
162.056427 2807.0 
163.040558 16592.0 
167.18895 2314.0 
174.956375 5682.0 
175.959213 9676.0 
203.187271 2365.0 
220.636536 2537.0 
268.098602 3065.0 
282.077118 13090.0 
312.08786 448118.0 
END IONS

BEGIN IONS
NAME="N-(2H,3H-benzo[3,4-e]1,4-dioxin-6-yl)-2-[2-oxo-4-(N-propylcarbamoyl)hydroquino lyl]acetamide CollisionEnergy:102040" M+formate
PRECURSOR_MZ=466.162
INCHI="InChI=1S/C23H23N3O5/c1-2-9-24-23(29)17-13-22(28)26(18-6-4-3-5-16(17)18)14-21(27)25-15-7-8-19-20(12-15)31-11-10-30-19/h3-8,12-13H,2,9-11,14H2,1H3,(H,24,29)(H,25,27)"
SMILES=CCCN=C(O)c1cc(=O)n(CC(O)=Nc2ccc3c(c2)OCCO3)c2ccccc12
SPECTRUMID=CCMSLIB00010112943
68.899071 2462.0 
70.500214 2328.0 
73.956413 2286.0 
104.291061 2585.0 
109.39518 2795.0 
122.024513 3872.0 
128.050323 3997.0 
130.066406 22858.0 
144.045471 35785.0 
147.032578 5539.0 
150.056641 33809.0 
156.069748 3771.0 
158.048355 16470.0 
158.061401 23405.0 
160.041183 12632.0 
176.034973 3140.0 
176.071823 15411.0 
190.051529 14834.0 
191.564636 3908.0 
197.108627 3612.0 
199.124146 89297.0 
201.103683 15571.0 
202.052032 10476.0 
209.889313 6369.0 
213.104065 62375.0 
215.119171 12847.0 
220.654083 2809.0 
229.098282 40953.0 
231.116318 3029.0 
243.114838 21225.0 
245.094086 13424.0 
269.093842 23748.0 
275.104553 21505.0 
309.088989 16433.0 
331.498413 2833.0 
335.104218 120367.0 
372.402252 3008.0 
379.458221 3006.0 
420.157135 1119691.0 
466.165924 23903.0 
END IONS

BEGIN IONS
NAME="N-(2H,3H-benzo[3,4-e]1,4-dioxin-6-yl)-2-{2-oxo-4-[N-benzylcarbamoyl]hydroquino lyl}acetamide CollisionEnergy:205060" M+Na
PRECURSOR_MZ=492.153
INCHI="InChI=1S/C27H23N3O5/c31-25(29-19-10-11-23-24(14-19)35-13-12-34-23)17-30-22-9-5-4-8-20(22)21(15-26(30)32)27(33)28-16-18-6-2-1-3-7-18/h1-11,14-15H,12-13,16-17H2,(H,28,33)(H,29,31)"
SMILES=O=c1cc(C(O)=NCc2ccccc2)c2ccccc2n1CC(O)=Nc1ccc2c(c1)OCCO2
SPECTRUMID=CCMSLIB00010123813
69.35762 2416.0 
91.054413 45883.0 
319.108002 3458.0 
341.086853 3806.0 
474.141693 20598.0 
492.152161 2231352.0 
END IONS

BEGIN IONS
NAME=(2S)indoline-2-carboxylic acid CollisionEnergy:102040 M+H-H2O
PRECURSOR_MZ=146.06
INCHI="InChI=1S/C9H9NO2/c11-9(12)8-5-6-3-1-2-4-7(6)10-8/h1-4,8,10H,5H2,(H,11,12)/t8-/m0/s1"
SMILES=O=C(O)C1Cc2ccccc2N1
SPECTRUMID=CCMSLIB00010114497
52.86964 2069.0 
60.833302 1974.0 
72.560188 2305.0 
83.658119 2420.0 
91.054329 22245.0 
92.395187 2160.0 
99.410217 2322.0 
104.305069 2347.0 
117.057449 5176.0 
118.065071 844779.0 
118.967934 2409.0 
122.019669 11034.0 
123.022362 3323.0 
136.235107 2581.0 
146.059982 360790.0 
223.385086 2028.0 
END IONS

BEGIN IONS
NAME=CHEMBL1603292 CollisionEnergy:102040 M-H
PRECURSOR_MZ=363.181
INCHI="InChI=1S/C20H28O6/c1-9-10-4-5-11-18-8-26-20(25,19(11,14(9)22)15(10)23)16(24)13(18)17(2,3)7-6-12(18)21/h10-13,15-16,21,23-25H,1,4-8H2,2-3H3/t10-,11-,12-,13+,15+,16+,18+,19-,20-/m0/s1"
SMILES=C=C1C(=O)C23C(O)C1CCC2C12COC3(O)C(O)C1C(C)(C)CCC2O
SPECTRUMID=CCMSLIB00010112357
52.282669 2341.0 
72.992821 9702.0 
92.413116 2383.0 
107.049858 10432.0 
111.04493 2834.0 
135.045059 2754.0 
137.095993 2585.0 
138.182312 2085.0 
147.567413 2514.0 
149.060333 10256.0 
163.076904 2413.0 
165.091431 3406.0 
179.107635 5977.0 
191.107452 4746.0 
208.898926 10672.0 
209.118134 3063.0 
211.098099 11232.0 
226.964706 2666.0 
246.090286 4745.0 
253.160324 9254.0 
265.160004 3952.0 
269.152008 3549.0 
271.172882 3748.0 
281.154572 15274.0 
283.17041 9094.0 
291.139191 9967.0 
297.149109 17607.0 
299.165558 10417.0 
301.180786 20583.0 
309.14978 79197.0 
315.160919 32634.0 
317.175537 3902.0 
327.160095 182450.0 
333.169312 13799.0 
345.170441 144111.0 
363.181488 159928.0 
END IONS

BEGIN IONS
NAME=brefeldin A CollisionEnergy:102040 M+H
PRECURSOR_MZ=281.175
INCHI="InChI=1S/C16H24O4/c1-11-5-3-2-4-6-12-9-13(17)10-14(12)15(18)7-8-16(19)20-11/h4,6-8,11-15,17-18H,2-3,5,9-10H2,1H3/b6-4+,8-7+/t11-,12+,13-,14+,15+/m0/s1"
SMILES=CC1CCCC=CC2CC(O)CC2C(O)C=CC(=O)O1
SPECTRUMID=CCMSLIB00010113408
53.002548 5846.0 
53.03899 3142.0 
55.018269 13872.0 
55.054829 22157.0 
57.07029 13458.0 
57.663239 2439.0 
66.744003 3336.0 
67.054626 117966.0 
68.900581 2337.0 
69.070236 45775.0 
71.013 3017.0 
71.049362 10631.0 
71.085747 6007.0 
73.028664 33317.0 
74.975693 3212.0 
79.054482 43884.0 
80.982147 2426.0 
81.033684 17597.0 
81.070129 188261.0 
83.049278 10074.0 
83.085693 41253.0 
85.028069 4365.0 
85.064392 3678.0 
85.101433 31919.0 
91.054337 39140.0 
92.377876 3390.0 
93.033386 6092.0 
93.069946 72849.0 
95.049088 23881.0 
95.085564 128376.0 
97.064888 6180.0 
97.101341 19874.0 
99.007683 117308.0 
99.080437 153162.0 
101.023422 88685.0 
103.054733 3983.0 
105.069771 74032.0 
107.049004 11638.0 
107.085449 46871.0 
109.027924 14544.0 
109.064842 5849.0 
109.101067 40808.0 
111.043968 22437.0 
111.080254 11276.0 
113.059509 18048.0 
113.095932 51477.0 
117.06958 37736.0 
118.655861 3139.0 
119.04879 13467.0 
119.085533 60473.0 
121.028374 4825.0 
121.064651 20125.0 
121.101028 38261.0 
123.043488 10861.0 
123.079819 5929.0 
123.116814 29083.0 
125.05925 4196.0 
125.095818 4062.0 
127.039124 21261.0 
129.069794 33490.0 
131.085281 58381.0 
131.195419 3064.0 
133.064743 75633.0 
133.101074 37773.0 
135.044022 3479.0 
135.0802 30524.0 
135.116669 19329.0 
137.059219 17763.0 
137.131973 16471.0 
139.03891 78941.0 
139.075226 10946.0 
141.054672 19705.0 
143.085617 26547.0 
145.064178 4787.0 
145.101105 28567.0 
147.044357 6095.0 
147.080246 30558.0 
147.11676 31507.0 
149.059647 51961.0 
149.095688 10857.0 
149.132294 25652.0 
151.07547 43434.0 
151.11232 2570.0 
153.090851 3291.0 
157.049286 19194.0 
157.064102 10484.0 
157.101303 44213.0 
159.079773 9452.0 
159.116486 33040.0 
161.05954 25961.0 
161.095551 28414.0 
161.132248 25245.0 
163.075348 21929.0 
163.14801 89785.0 
165.05452 21953.0 
165.090912 12842.0 
165.163376 9937.0 
167.070374 42267.0 
167.08493 5730.0 
171.079651 11872.0 
171.116638 17882.0 
173.095657 5723.0 
173.13205 20340.0 
175.075241 30398.0 
175.111191 13532.0 
175.147659 15454.0 
177.090637 16111.0 
177.126205 4375.0 
179.070358 20580.0 
179.106766 3841.0 
181.0858 5309.0 
183.115967 13493.0 
185.080093 11639.0 
185.096832 5637.0 
185.132324 96329.0 
187.110428 3964.0 
189.090622 17100.0 
189.126373 4200.0 
189.163651 43486.0 
193.085648 14255.0 
195.101303 10344.0 
197.646469 2769.0 
199.114761 4725.0 
199.147858 151782.0 
201.127029 3734.0 
201.162903 4084.0 
203.106186 12484.0 
203.14241 15697.0 
205.121719 3298.0 
209.132019 16959.0 
217.122177 3733.0 
217.158417 135499.0 
219.136993 10468.0 
221.153625 4134.0 
224.981003 2638.0 
227.142441 71876.0 
234.95137 25065.0 
235.169159 30323.0 
245.153183 328545.0 
257.967163 34592.0 
263.163788 225385.0 
263.196136 5708.0 
275.220459 3135.0 
281.137604 10407.0 
281.173859 242298.0 
END IONS

BEGIN IONS
NAME=[2-(5-methoxyindol-3-yl)ethyl][benzylsulfonyl]amine CollisionEnergy:102040 M+H
PRECURSOR_MZ=345.127
INCHI="InChI=1S/C18H20N2O3S/c1-23-16-7-8-18-17(11-16)15(12-19-18)9-10-20-24(21,22)13-14-5-3-2-4-6-14/h2-8,11-12,19-20H,9-10,13H2,1H3"
SMILES=COc1ccc2[nH]cc(CCNS(=O)(=O)Cc3ccccc3)c2c1
SPECTRUMID=CCMSLIB00010109224
65.03894 41027.0 
87.527153 3448.0 
91.054321 4670317.0 
103.053886 6701.0 
104.304718 4194.0 
115.054176 6076.0 
117.060493 7320.0 
117.069801 219245.0 
119.085136 8239.0 
120.080597 207660.0 
129.070328 3856.0 
130.065643 4826.0 
131.072861 8489.0 
132.080368 4618.0 
136.075546 26900.0 
142.065643 7046.0 
143.07283 36124.0 
144.080627 19336.0 
145.088257 14113.0 
147.067551 5676.0 
147.080215 5686.0 
148.075272 32278.0 
155.072495 25473.0 
158.059265 5159.0 
158.082794 4001.0 
159.067612 162270.0 
160.075485 250077.0 
161.081787 135852.0 
162.055634 8274.0 
162.091095 333153.0 
172.075241 12774.0 
173.066956 8226.0 
173.083435 197490.0 
174.091156 6148811.0 
176.071426 4713.0 
186.091019 181297.0 
189.102081 90378.0 
190.1091 31636.0 
200.838684 3806.0 
207.102814 6567.0 
217.088287 15436.0 
218.095993 15955.0 
221.119354 5210.0 
232.112259 27313.0 
233.119797 39694.0 
234.091064 30074.0 
235.097916 58494.0 
236.112717 4682.0 
236.142944 75273.0 
238.122009 17850.0 
248.106949 32985.0 
249.114105 121076.0 
249.141983 5737.0 
252.137665 118457.0 
262.120728 4841.0 
264.137787 5110546.0 
281.164276 268251.0 
345.125702 581523.0 
END IONS

BEGIN IONS
NAME=acridone CollisionEnergy:205060 M+H
PRECURSOR_MZ=196.076
INCHI="InChI=1S/C13H9NO/c15-13-9-5-1-3-7-11(9)14-12-8-4-2-6-10(12)13/h1-8H,(H,14,15)"
SMILES=O=c1c2ccccc2[nH]c2ccccc12
SPECTRUMID=CCMSLIB00010115485
55.934738 28819.0 
61.011139 73386.0 
62.018768 7725.0 
65.075417 4409.0 
65.807732 4689.0 
71.92971 9187.0 
72.937263 54782.0 
77.039207 6337.0 
79.021477 12839.0 
83.929962 8681.0 
90.947884 69049.0 
108.957893 9696.0 
113.963799 8496.0 
118.924507 31457.0 
124.935547 10317.0 
131.975098 5864.0 
136.934982 21506.0 
141.070953 7767.0 
166.066528 20586.0 
167.072784 724127.0 
168.080658 243734.0 
169.066986 8459.0 
178.063889 46428.0 
195.067581 441518.0 
195.362381 87565.0 
196.075485 53862056.0 
196.792709 87830.0 
END IONS

BEGIN IONS
NAME=methyl 2-[(2-chloro-4-nitrophenyl)carbonylamino]acetate CollisionEnergy:205060 M-H
PRECURSOR_MZ=271.013
INCHI="InChI=1S/C10H9ClN2O5/c1-18-9(14)5-12-10(15)7-3-2-6(13(16)17)4-8(7)11/h2-4H,5H2,1H3,(H,12,15)"
SMILES=COC(=O)CN=C(O)c1ccc([N+](=O)[O-])cc1Cl
SPECTRUMID=CCMSLIB00010125493
74.870911 2310.0 
77.077263 2438.0 
81.993118 2668.0 
82.404793 2736.0 
83.113983 2086.0 
91.472198 2064.0 
92.386269 2069.0 
98.996109 4871.0 
104.732552 2138.0 
114.019493 119350.0 
124.080528 1952.0 
147.019501 18662.0 
155.98555 99264.0 
155.999466 4190.0 
157.910004 1986.0 
173.995758 2655.0 
194.996124 16258.0 
199.975143 21383.0 
203.009766 16934.0 
235.035583 3030.0 
238.986221 27281.0 
270.978485 2820.0 
271.011658 14706.0 
271.119507 2538.0 
END IONS

BEGIN IONS
NAME=4-({4-[(2-fluorophenyl)methyl]piperazinyl}methyl)-6-methoxychromen-2-one CollisionEnergy:102040 M+Na
PRECURSOR_MZ=405.158
INCHI="InChI=1S/C22H23FN2O3/c1-27-18-6-7-21-19(13-18)17(12-22(26)28-21)15-25-10-8-24(9-11-25)14-16-4-2-3-5-20(16)23/h2-7,12-13H,8-11,14-15H2,1H3"
SMILES=COc1ccc2oc(=O)cc(CN3CCN(Cc4ccccc4F)CC3)c2c1
SPECTRUMID=CCMSLIB00010105986
92.387749 3307.0 
95.570381 2865.0 
104.299347 2661.0 
118.672318 2209.0 
370.185669 2432.0 
405.157959 750294.0 
423.171722 4550.0 
END IONS

BEGIN IONS
NAME=3-(3-chlorophenyl)-6-hydroxy-4-methylchromen-2-one CollisionEnergy:102040 M+H
PRECURSOR_MZ=287.047
INCHI="InChI=1S/C16H11ClO3/c1-9-13-8-12(18)5-6-14(13)20-16(19)15(9)10-3-2-4-11(17)7-10/h2-8,18H,1H3"
SMILES=Cc1c(-c2cccc(Cl)c2)c(=O)oc2ccc(O)cc12
SPECTRUMID=CCMSLIB00010107470
55.243431 2458.0 
63.467312 2457.0 
64.022659 2352.0 
67.620781 2578.0 
75.840347 2254.0 
82.522331 2366.0 
93.062233 2913.0 
119.048569 12473.0 
131.048462 4814.0 
137.014709 20185.0 
147.043625 5715.0 
161.671631 2774.0 
165.009918 4765.0 
167.085159 17580.0 
195.079971 39329.0 
196.087799 35522.0 
207.080246 4156.0 
208.087128 24130.0 
222.897919 4873.0 
223.074982 6449.0 
224.082718 154414.0 
231.056503 64808.0 
240.909424 5817.0 
241.039963 3669.0 
251.070068 10592.0 
259.049683 20078.0 
283.530029 3145.0 
285.790039 3914.0 
286.037018 4884.0 
287.046173 4429989.0 
288.309418 6087.0 
295.935577 2837.0 
489.085205 2778.0 
END IONS

BEGIN IONS
NAME="2,4,5-TRIMETHOXYBENZALDEHYDE CollisionEnergy:102040" M-e
PRECURSOR_MZ=196.073
INCHI="InChI=1S/C10H12O4/c1-12-8-5-10(14-3)9(13-2)4-7(8)6-11/h4-6H,1-3H3"
SMILES=COc1cc(OC)c(OC)cc1C=O
SPECTRUMID=CCMSLIB00010103967
53.002708 3452.0 
53.039268 2492.0 
55.01844 4287.0 
57.069099 2220.0 
68.99736 25302.0 
69.033913 2952.0 
72.937424 4412.0 
79.054367 12536.0 
79.100372 3504.0 
81.033829 12953.0 
83.049187 4116.0 
83.930099 18964.0 
84.937691 4275.0 
89.36644 2322.0 
90.917641 2433.0 
91.054626 4854.0 
93.033546 6176.0 
95.012962 5099.0 
95.049461 3231.0 
101.940277 3872.0 
102.947929 6345.0 
106.755943 2530.0 
107.049248 38509.0 
109.028419 300565.0 
110.036148 12478.0 
111.044083 51556.0 
113.963501 49461.0 
117.935677 3599.0 
118.943176 19563.0 
119.950523 11819.0 
121.028503 11089.0 
121.06517 5582.0 
123.043678 5214.0 
124.051727 10099.0 
125.023148 25777.0 
125.059647 35055.0 
125.964378 34419.0 
127.03875 67270.0 
131.950989 18036.0 
131.974106 17305.0 
135.044006 56709.0 
136.051804 4075.0 
137.022415 4275.0 
137.060059 3258.0 
138.067551 17948.0 
139.039017 79736.0 
139.075272 225225.0 
140.046875 12170.0 
140.951324 5954.0 
142.967468 5465.0 
143.974915 12678.0 
149.060211 3209.0 
149.961731 18578.0 
150.06749 564429.0 
151.039001 11552.0 
151.075546 31096.0 
153.054489 52685.0 
154.062943 19393.0 
154.966202 10974.0 
154.990097 3019.0 
165.05455 110226.0 
165.069458 4918.0 
166.062057 2720.0 
167.034149 134999.0 
167.070084 296159.0 
167.972198 4070.0 
169.085709 39502.0 
172.977386 55388.0 
178.062317 221934.0 
179.070114 313522.0 
181.049377 703747.0 
190.987396 9029.0 
193.402847 2804.0 
195.06517 63114.0 
196.072891 823028.0 
197.080795 46253.0 
198.052261 9950.0 
210.050858 5005.0 
END IONS

BEGIN IONS
NAME=ethyl 2-{[5-bromo-2-(2-methylpropoxy)phenyl]carbonylamino}acetate CollisionEnergy:205060 M+H
PRECURSOR_MZ=358.065
INCHI="InChI=1S/C15H20BrNO4/c1-4-20-14(18)8-17-15(19)12-7-11(16)5-6-13(12)21-9-10(2)3/h5-7,10H,4,8-9H2,1-3H3,(H,17,19)"
SMILES=CCOC(=O)CN=C(O)c1cc(Br)ccc1OCC(C)C
SPECTRUMID=CCMSLIB00010116892
50.922691 3005.0 
53.002762 16323.0 
53.03904 14072.0 
55.01849 13660.0 
55.054741 231449.0 
55.057781 7878.0 
56.60944 3514.0 
57.070381 312896.0 
59.049641 3745286.0 
63.02343 5393.0 
66.734581 3905.0 
78.046562 29013.0 
79.018143 18202.0 
92.371368 3885.0 
93.616692 3941.0 
94.041321 5001.0 
97.028374 7806.0 
104.070587 405948.0 
104.276413 6217.0 
105.06987 3848.0 
105.941383 16813.0 
106.041206 8574.0 
107.195679 3194.0 
110.036133 99875.0 
115.054237 5782.0 
116.933777 7096.0 
118.04129 108914.0 
118.640419 4107.0 
118.949089 5052.0 
120.057152 16755.0 
129.069519 8455.0 
130.077667 63172.0 
131.049011 7926.0 
132.056931 116660.0 
132.928497 14432.0 
133.028107 8565.0 
133.064743 120303.0 
134.036209 801001.0 
139.940964 4432.0 
142.949051 414141.0 
143.049698 5351.0 
146.072739 5990.0 
147.080643 4129.0 
148.088196 287690.0 
156.964767 7798.0 
157.064926 8298.0 
157.936203 67586.0 
158.072617 564358.0 
161.059616 133418.0 
168.965912 6671.0 
170.944031 53900.0 
175.946732 56031.0 
176.083038 147374.0 
184.959564 365826.0 
188.954208 80451.0 
196.959381 97112.0 
197.931 5424.0 
198.938736 4373955.0 
208.95932 14685.0 
208.996201 16435.0 
210.975342 48572.0 
211.968811 7594.0 
212.954437 315530.0 
216.949738 5358.0 
227.00647 136617.0 
227.96524 98719.0 
230.965103 7321.0 
235.716843 4224.0 
236.990738 173406.0 
253.98201 8569.0 
255.001297 3210160.0 
255.960052 439983.0 
256.005249 5447.0 
266.947021 4441.0 
283.991333 16152.0 
284.027863 37971.0 
302.00174 468312.0 
311.980835 7152.0 
312.022186 214044.0 
340.054138 22673.0 
358.064301 349271.0 
END IONS

BEGIN IONS
NAME="N-((1E)-2-indol-3-yl-1-azaprop-1-enyl)(4-amino(1,2,5-oxadiazol-3-yl))carboxami de CollisionEnergy:205060" M-H
PRECURSOR_MZ=283.095
INCHI="InChI=1S/C13H12N6O2/c1-7(9-6-15-10-5-3-2-4-8(9)10)16-17-13(20)11-12(14)19-21-18-11/h2-6,15H,1H3,(H2,14,19)(H,17,20)/b16-7+"
SMILES=CC(=NN=C(O)c1nonc1N)c1c[nH]c2ccccc12
SPECTRUMID=CCMSLIB00010118165
57.008991 2436.0 
59.343552 2098.0 
82.407944 2535.0 
84.020119 15508.0 
86.988968 2755.0 
92.387482 2495.0 
96.90461 2144.0 
116.050461 3101.0 
127.026161 4602.0 
142.066254 4319.0 
152.977417 2767.0 
154.99292 5090.0 
155.061935 2427.0 
198.067245 11295.0 
222.110825 2252.0 
222.982162 2439.0 
225.078476 9214.0 
241.073853 9858.0 
268.980133 2445.0 
283.004761 19451.0 
283.061707 3257.0 
283.094788 71438.0 
END IONS

BEGIN IONS
NAME=(4-methyl-3-nitrophenyl)-N-[3-methyl-4-(2-oxochromen-3-yl)phenyl]carboxamide CollisionEnergy:102040 M+H
PRECURSOR_MZ=415.129
INCHI="InChI=1S/C24H18N2O5/c1-14-7-8-17(13-21(14)26(29)30)23(27)25-18-9-10-19(15(2)11-18)20-12-16-5-3-4-6-22(16)31-24(20)28/h3-13H,1-2H3,(H,25,27)"
SMILES=Cc1cc(NC(=O)c2ccc(C)c([N+](=O)[O-])c2)ccc1-c1cc2ccccc2oc1=O
SPECTRUMID=CCMSLIB00010108908
50.95673 2944.0 
65.039009 7734.0 
78.160172 3304.0 
80.049751 7240.0 
80.521927 3127.0 
81.033287 3321.0 
83.305344 3366.0 
91.054466 4555.0 
92.049782 6091.0 
93.741837 2979.0 
104.284882 5072.0 
105.033813 3718.0 
107.012733 12790.0 
108.045097 4936.0 
118.041931 3902.0 
119.049156 360317.0 
119.08564 46452.0 
120.044067 4867.0 
131.049301 4596.0 
133.028503 58194.0 
135.043869 51674.0 
138.030655 5215.0 
138.05481 4698.0 
146.023911 15127.0 
147.031448 194304.0 
148.039368 77018.0 
150.054871 3583.0 
151.025864 5694.0 
156.043884 5071.0 
163.050262 6807.0 
164.034134 1028741.0 
179.085052 31155.0 
191.085007 6660.0 
197.095963 54223.0 
198.884277 3286.0 
205.449585 3498.0 
207.080383 12837.0 
222.091263 12212.0 
223.074722 7519.0 
223.097885 4582.0 
224.106232 3521.0 
225.09108 15567.0 
234.091034 66132.0 
235.075073 112530.0 
250.086029 50972.0 
251.096756 3940.0 
253.086761 43570.0 
278.080627 36445.0 
288.923065 3280.0 
300.10025 3407.0 
307.134674 5037.0 
323.116089 5340.0 
326.105286 13731.0 
328.098145 4001.0 
331.117584 3800.0 
338.117493 4665.0 
339.123413 5197.0 
340.132233 18689.0 
341.129578 5775.0 
350.114838 22250.0 
351.118652 33868.0 
352.12204 5323.0 
354.098877 5615.0 
359.138153 17273.0 
366.114624 11738.0 
367.119354 4830.0 
369.125702 15907.0 
370.131531 28974.0 
379.108063 17962.0 
380.114807 49438.0 
383.114532 84576.0 
387.132324 56233.0 
397.118103 295903.0 
415.128418 5323696.0 
433.138855 152008.0 
END IONS

BEGIN IONS
NAME=Andrographolide CollisionEnergy:205060 M+Na
PRECURSOR_MZ=373.199
INCHI="InChI=1S/C20H30O5/c1-12-4-7-16-19(2,9-8-17(23)20(16,3)11-21)14(12)6-5-13-15(22)10-25-18(13)24/h5,14-17,21-23H,1,4,6-11H2,2-3H3/b13-5+/t14-,15-,16+,17-,19+,20+/m1/s1"
SMILES=C=C1CCC2C(C)(CO)C(O)CCC2(C)C1CC=C1C(=O)OCC1O
SPECTRUMID=CCMSLIB00010122082
92.380569 2734.0 
104.289352 3529.0 
118.658447 2633.0 
133.025696 4092.0 
210.882675 2516.0 
284.485382 2357.0 
343.167419 2676.0 
348.014313 2392.0 
373.197906 503915.0 
391.209839 17520.0 
END IONS

BEGIN IONS
NAME="methyl 3-[(6-ethoxy-2-oxochromen-4-yl)methyl]-1,7-dimethyl-2,4-dioxo-1,3-dihyd ropyridino[2,3-d]pyrimidine-5-carboxylate CollisionEnergy:205060" M+H
PRECURSOR_MZ=452.145
INCHI="InChI=1S/C23H21N3O7/c1-5-32-14-6-7-17-15(10-14)13(9-18(27)33-17)11-26-21(28)19-16(22(29)31-4)8-12(2)24-20(19)25(3)23(26)30/h6-10H,5,11H2,1-4H3"
SMILES=CCOc1ccc2oc(=O)cc(Cn3c(=O)c4c(C(=O)OC)cc(C)nc4n(C)c3=O)c2c1
SPECTRUMID=CCMSLIB00010124044
65.03904 5563.0 
71.189407 3518.0 
76.257927 3886.0 
91.054337 213555.0 
92.18074 3193.0 
103.054161 55402.0 
104.268478 4539.0 
114.007469 3226.0 
115.054131 18418.0 
117.069809 38599.0 
119.049088 566098.0 
119.085327 17827.0 
121.028679 5834.0 
128.050369 4146.0 
128.061401 4776.0 
131.048935 22657.0 
133.028656 4198.0 
133.039322 4515.0 
135.144516 3566.0 
136.182053 4178.0 
145.06459 86325.0 
147.043945 2910950.0 
147.0793 74560.0 
157.064423 8659.0 
158.036652 7028.0 
159.067795 24611.0 
160.075455 5836.0 
165.069901 8507.0 
173.059586 1335334.0 
174.065933 15658.0 
174.091217 152006.0 
175.038696 226110.0 
175.07518 631612.0 
177.065887 33314.0 
178.07695 13941.0 
179.085495 22022.0 
183.04425 6226.0 
185.734741 4799.0 
186.078079 7101.0 
189.101898 4016.0 
191.073029 15932.0 
193.062622 4307.0 
193.089035 7933.0 
201.05365 56664.0 
202.060867 6473.0 
203.070084 359306.0 
204.080276 21316.0 
205.089508 34972.0 
206.095932 56463.0 
208.111938 57196.0 
217.096985 27353.0 
218.05571 46872.0 
219.067871 49873.0 
220.071594 78709.0 
232.071594 7590.0 
233.084396 4771.0 
234.091064 4849970.0 
299.059601 5559.0 
318.085876 8194.0 
318.575256 5831.0 
318.61026 5666.0 
320.103333 4866.0 
327.586945 4506.0 
331.104614 4023.0 
335.087769 5002.0 
343.544495 4511.0 
346.080719 30822.0 
348.09491 5250.0 
351.082672 6137.0 
374.07016 31874.0 
374.120453 7787.0 
376.12912 14735.0 
385.641632 4517.0 
402.107483 89835.0 
420.118195 2648728.0 
424.199341 22896.0 
434.185608 45605.0 
438.128632 203806.0 
452.1427 685458.0 
480.170349 5896.0 
564.967407 4534.0 
END IONS

BEGIN IONS
NAME=3-Hydroxy-5-methoxyflavone CollisionEnergy:205060 M+Na
PRECURSOR_MZ=291.063
INCHI="InChI=1S/C16H12O4/c1-19-11-8-5-9-12-13(11)14(17)15(18)16(20-12)10-6-3-2-4-7-10/h2-9,18H,1H3"
SMILES=COc1cccc2oc(-c3ccccc3)c(O)c(=O)c12
SPECTRUMID=CCMSLIB00010119187
54.3144 2827.0 
61.6973 2254.0 
81.634583 2418.0 
104.276329 2365.0 
116.71685 2645.0 
125.015038 16696.0 
173.471161 2324.0 
208.621735 2115.0 
291.062317 361079.0 
291.192383 3998.0 
295.900299 2302.0 
296.564026 2015.0 
END IONS

BEGIN IONS
NAME="cyclohexyl 4-(3-bromo-4-hydroxy-5-methoxyphenyl)-2-methyl-5-oxo-7-phenyl-1,4,6 ,7,8-pentahydroquinoline-3-carboxylate CollisionEnergy:102040" M+H
PRECURSOR_MZ=566.154
INCHI="InChI=1S/C30H32BrNO5/c1-17-26(30(35)37-21-11-7-4-8-12-21)27(20-13-22(31)29(34)25(16-20)36-2)28-23(32-17)14-19(15-24(28)33)18-9-5-3-6-10-18/h3,5-6,9-10,13,16,19,21,27,32,34H,4,7-8,11-12,14-15H2,1-2H3"
SMILES=COc1cc(C2C(C(=O)OC3CCCCC3)=C(C)NC3=C2C(=O)CC(c2ccccc2)C3)cc(Br)c1O
SPECTRUMID=CCMSLIB00010111855
79.805206 12424.0 
79.809303 14401.0 
83.085449 14143.0 
87.305092 11058.0 
89.77578 10363.0 
92.392029 10066.0 
120.331757 10180.0 
136.233749 12636.0 
150.054779 51511.0 
158.001678 14731.0 
176.070633 83883.0 
178.049713 747435.0 
191.057983 21666.0 
204.065643 434618.0 
222.075516 57774.0 
237.114334 26499.0 
238.121857 19263.0 
246.434143 11055.0 
264.101959 59532.0 
282.112213 40323884.0 
314.202667 11745.0 
323.139587 12809.0 
364.190338 35743588.0 
370.14212 21065.0 
372.12204 15741.0 
386.13858 73084.0 
434.036865 16755.0 
451.040741 67994.0 
466.064484 1733284.0 
484.073151 422914.0 
566.153259 7306899.0 
END IONS

BEGIN IONS
NAME=2-{4-[(7-methyl-2-oxochromen-4-yl)methyl]piperazinyl}ethanenitrile CollisionEnergy:102040 M+Na
PRECURSOR_MZ=320.137
INCHI="InChI=1S/C17H19N3O2/c1-13-2-3-15-14(11-17(21)22-16(15)10-13)12-20-8-6-19(5-4-18)7-9-20/h2-3,10-11H,5-9,12H2,1H3"
SMILES=Cc1ccc2c(CN3CCN(CC#N)CC3)cc(=O)oc2c1
SPECTRUMID=CCMSLIB00010106925
55.084068 2841.0 
62.444 2561.0 
70.065308 16522.0 
73.611847 2551.0 
77.104553 2826.0 
97.076042 153657.0 
98.067627 2652.0 
104.29937 2942.0 
120.065826 28538.0 
136.218262 2737.0 
159.066177 3788.0 
196.049744 28457.0 
197.057419 5353.0 
209.228027 2776.0 
271.143799 168557.0 
293.125488 312274.0 
303.830963 3431.0 
311.136108 63520.0 
320.136444 4524065.0 
334.15152 11639.0 
END IONS

BEGIN IONS
NAME=gossypol CollisionEnergy:205060 M+H-H2O
PRECURSOR_MZ=501.191
INCHI="InChI=1S/C30H30O8/c1-11(2)19-15-7-13(5)21(27(35)23(15)17(9-31)25(33)29(19)37)22-14(6)8-16-20(12(3)4)30(38)26(34)18(10-32)24(16)28(22)36/h7-12,33-38H,1-6H3"
SMILES=Cc1cc2c(C(C)C)c(O)c(O)c(C=O)c2c(O)c1-c1c(C)cc2c(C(C)C)c(O)c(O)c(C=O)c2c1O
SPECTRUMID=CCMSLIB00010122477
70.896721 2769.0 
75.918907 2737.0 
92.373421 3250.0 
98.67926 3133.0 
108.005653 2834.0 
118.646202 3331.0 
143.048111 3026.0 
150.025574 3498.0 
159.080093 4228.0 
161.059525 4632.0 
169.064346 5777.0 
187.07579 12512.0 
189.054367 4180.0 
197.059875 11213.0 
199.07518 21006.0 
200.083023 4921.0 
213.054749 5355.0 
213.09198 3452.0 
215.07019 52418.0 
215.161499 2922.0 
227.070007 29406.0 
228.077469 33290.0 
229.085922 29510.0 
241.085709 4029.0 
243.065552 5744.0 
243.100632 4633.0 
314.094177 3846.0 
315.102203 4628.0 
326.129852 3573.0 
327.101349 5949.0 
336.114563 5531.0 
337.122314 4128.0 
341.115906 6197.0 
341.157318 4034.0 
342.125397 4681.0 
343.096649 5027.0 
344.105042 3128.0 
346.082062 5441.0 
351.137146 19942.0 
354.081879 3628.0 
354.124847 5906.0 
355.095062 13008.0 
355.137329 3385.0 
359.126801 4311.0 
360.098694 12786.0 
364.108856 4353.0 
369.105652 8414.0 
369.15097 11911.0 
370.118225 5384.0 
372.097626 6336.0 
373.107056 7302.0 
379.132263 18836.0 
381.107849 3483.0 
382.120361 11844.0 
383.129822 4868.0 
384.134155 3995.0 
387.122498 14202.0 
389.109619 3858.0 
394.154816 13000.0 
395.129669 4577.0 
397.094727 7115.0 
397.150146 28793.0 
398.122223 3645.0 
400.093231 14364.0 
401.100403 12720.0 
407.12912 40174.0 
410.115448 16698.0 
411.119995 22094.0 
412.167236 13280.0 
415.110535 6371.0 
415.163696 3750.0 
421.147705 3579.0 
422.151154 12637.0 
423.162445 3375.0 
425.140381 99151.0 
426.146759 12565.0 
427.117432 16961.0 
428.126007 4823.0 
430.138702 4503.0 
435.121887 25685.0 
437.174652 24108.0 
438.107971 6046.0 
439.153229 17161.0 
440.120911 14588.0 
440.170959 8812.0 
441.174652 6431.0 
442.14151 5801.0 
443.14978 46146.0 
450.146515 7153.0 
453.131927 199868.0 
455.181488 13724.0 
456.124847 3777.0 
457.164825 15777.0 
458.173706 27237.0 
465.171387 27990.0 
467.150116 13093.0 
468.156219 184075.0 
471.142548 18893.0 
473.199554 22558.0 
483.179901 130834.0 
486.163818 28360.0 
499.170898 4150.0 
501.190186 1438865.0 
END IONS

BEGIN IONS
NAME="2-(2,2-diphenylacetylamino)-3-indol-3-yl-N-(4-iodophenyl)propanamide CollisionEnergy:102040" M-H
PRECURSOR_MZ=598.1
INCHI="InChI=1S/C31H26IN3O2/c32-24-15-17-25(18-16-24)34-30(36)28(19-23-20-33-27-14-8-7-13-26(23)27)35-31(37)29(21-9-3-1-4-10-21)22-11-5-2-6-12-22/h1-18,20,28-29,33H,19H2,(H,34,36)(H,35,37)"
SMILES=O=C(Nc1ccc(I)cc1)C(Cc1c[nH]c2ccccc12)N=C(O)C(c1ccccc1)c1ccccc1
SPECTRUMID=CCMSLIB00010113134
72.008293 6418.0 
81.993179 7462.0 
82.40451 3673.0 
90.016434 3979.0 
95.928833 3852.0 
116.05056 51950.0 
126.904953 1809257.0 
142.065994 58003.0 
144.273895 3426.0 
148.466446 3726.0 
157.076889 4463.0 
165.070312 25737.0 
167.086624 951813.0 
168.045578 91810.0 
183.622894 3836.0 
185.071609 6133.0 
191.587112 3780.0 
207.082352 5499.0 
211.051163 5926.0 
217.94722 641499.0 
243.927292 5312.0 
250.087112 153045.0 
267.681671 3849.0 
272.952789 161084.0 
274.968689 419870.0 
299.940186 103225.0 
300.947815 1630603.0 
312.623505 3635.0 
359.001831 4615.0 
379.145691 40511.0 
379.194946 4529.0 
387.0 108146.0 
404.02652 1699402.0 
430.005524 772420.0 
469.041748 309899.0 
469.103271 4708.0 
598.100098 2713421.0 
601.94397 4664.0 
END IONS

BEGIN IONS
NAME="(11S)-14-ethyl-12-ethylidene-8,14-diazapentacyclo[9.5.2.0<1,9>.0<2,7>.0<14,17> ]octadeca-2,4,6,9-tetraene-10-carbaldehyde, iodide CollisionEnergy:102040" M-H+Cl
PRECURSOR_MZ=355.158
INCHI="InChI=1S/C21H24N2O/c1-3-14-12-23(4-2)10-9-21-17-7-5-6-8-18(17)22-20(21)16(13-24)15(14)11-19(21)23/h3,5-8,13,15,19H,4,9-12H2,1-2H3/p+1/b14-3+/t15-,19?,21?,23?/m0/s1"
SMILES=CC=C1C[N+]2(CC)CCC34C(=Nc5ccccc53)C(=CO)C1CC42
SPECTRUMID=CCMSLIB00010104283
60.301079 2284.0 
82.404022 2173.0 
92.383133 2740.0 
96.694077 2114.0 
104.289513 2451.0 
126.409019 2397.0 
151.858337 2281.0 
181.145874 2120.0 
291.150024 179970.0 
355.157745 54499.0 
371.391266 2346.0 
END IONS

BEGIN IONS
NAME=NSC700145 CollisionEnergy:205060 M+H
PRECURSOR_MZ=449.108
INCHI="InChI=1S/C21H20O11/c22-7-16-18(27)19(28)20(29)21(32-16)30-9-4-12(25)17-13(26)6-14(31-15(17)5-9)8-1-2-10(23)11(24)3-8/h1-6,16,18-25,27-29H,7H2"
SMILES=O=c1cc(-c2ccc(O)c(O)c2)oc2cc(OC3OC(CO)C(O)C(O)C3O)cc(O)c12
SPECTRUMID=CCMSLIB00010121592
53.964218 3374.0 
67.018227 49959.0 
68.997543 34128.0 
85.028732 5865.0 
86.329033 3560.0 
89.038658 7512.0 
92.360321 3288.0 
101.032097 4240.0 
104.272667 3556.0 
107.048843 4574.0 
109.028412 5164.0 
111.043007 3751.0 
117.033813 13937.0 
129.018066 18412.0 
135.044052 175267.0 
137.02298 51420.0 
153.018143 539934.0 
161.023499 46893.0 
171.028854 63544.0 
179.034149 35627.0 
199.037735 3687.0 
199.855743 4070.0 
203.034149 17180.0 
213.054062 15263.0 
218.057343 3606.0 
219.065979 6172.0 
231.063217 5643.0 
241.048874 59321.0 
245.044159 5316.0 
256.12204 4077.0 
259.058899 16326.0 
263.055176 7488.0 
269.043396 52599.0 
286.045441 5229.0 
287.054626 9755231.0 
300.92804 3987.0 
350.873047 5789.0 
368.885742 5567.0 
370.882629 18463.0 
449.107178 93798.0 
END IONS

BEGIN IONS
NAME="5,6-Dimethylbenzimidazole CollisionEnergy:205060" M+H
PRECURSOR_MZ=147.092
INCHI="InChI=1S/C9H10N2/c1-6-3-8-9(4-7(6)2)11-5-10-8/h3-5H,1-2H3,(H,10,11)"
SMILES=Cc1cc2nc[nH]c2cc1C
SPECTRUMID=CCMSLIB00010114810
56.78046 664315.0 
66.75499 588196.0 
72.154877 602556.0 
79.054977 632987.0 
91.055 892177.0 
93.07019 2636106.0 
101.475677 694362.0 
103.054367 1058285.0 
104.304977 657277.0 
106.065536 3301955.0 
116.917793 855271.0 
120.080872 12099864.0 
131.060287 7888919.0 
132.068207 40676248.0 
145.075623 8584984.0 
146.084824 1991968.0 
147.091629 507485408.0 
END IONS

BEGIN IONS
NAME=N-(3-chloro-2-methylphenyl)-2-[9-(4-methylphenyl)-6-oxohydropurin-8-ylthio]ace tamide CollisionEnergy:205060 M+Na
PRECURSOR_MZ=462.076
INCHI="InChI=1S/C21H18ClN5O2S/c1-12-6-8-14(9-7-12)27-19-18(20(29)24-11-23-19)26-21(27)30-10-17(28)25-16-5-3-4-15(22)13(16)2/h3-9,11H,10H2,1-2H3,(H,25,28)(H,23,24,29)"
SMILES=Cc1ccc(-n2c(SCC(O)=Nc3cccc(Cl)c3C)nc3c(O)ncnc32)cc1
SPECTRUMID=CCMSLIB00010124065
66.007812 2815.0 
73.026016 3016.0 
92.368446 3778.0 
104.273178 4188.0 
116.240707 2776.0 
120.261009 2762.0 
173.588684 2645.0 
217.475037 3067.0 
244.052078 11909.0 
249.073715 5495.0 
252.067017 3413.0 
257.763794 3275.0 
271.065247 3367.0 
279.030548 106987.0 
280.039276 20908.0 
307.844666 3068.0 
307.984436 3475.0 
321.041779 5287.0 
333.031616 3672.0 
350.624603 3322.0 
393.53244 3292.0 
461.56662 49169.0 
462.075134 3762542.0 
END IONS

BEGIN IONS
NAME=xanthurenic acid CollisionEnergy:102040 M+H
PRECURSOR_MZ=206.045
INCHI="InChI=1S/C10H7NO4/c12-7-3-1-2-5-8(13)4-6(10(14)15)11-9(5)7/h1-4,12H,(H,11,13)(H,14,15)"
SMILES=O=C(O)c1cc(O)c2cccc(O)c2n1
SPECTRUMID=CCMSLIB00010106848
52.089481 210344.0 
59.974548 225970.0 
61.4692 232381.0 
82.397629 252016.0 
104.284393 266316.0 
111.377037 259841.0 
132.044296 1534347.0 
160.039413 1010733.0 
163.442261 248506.0 
178.049774 119340608.0 
188.034332 370189.0 
206.044724 224424864.0 
END IONS

BEGIN IONS
NAME=2-Hydroxycinnamic acid CollisionEnergy:102040 M-H
PRECURSOR_MZ=163.04
INCHI="InChI=1S/C9H8O3/c10-8-4-2-1-3-7(8)5-6-9(11)12/h1-6,10H,(H,11,12)/b6-5+"
SMILES=O=C(O)C=Cc1ccccc1O
SPECTRUMID=CCMSLIB00010108019
58.004471 193714.0 
58.760151 176290.0 
59.747478 184829.0 
62.880951 169284.0 
66.733147 197848.0 
72.164978 179481.0 
85.926323 216992.0 
91.055412 216810.0 
92.364563 260244.0 
116.134377 168535.0 
117.034576 885300.0 
119.050377 187525680.0 
163.040298 8425700.0 
165.755814 216899.0 
END IONS

BEGIN IONS
NAME="5-{5-[(5-(2-furyl)-4-phenyl(1,2,4-triazol-3-ylthio))methyl](1,3,4-oxadiazol-2- yl)}-1,2,3-trimethoxybenzene CollisionEnergy:102040" M+H
PRECURSOR_MZ=492.134
INCHI="InChI=1S/C24H21N5O5S/c1-30-18-12-15(13-19(31-2)21(18)32-3)23-27-25-20(34-23)14-35-24-28-26-22(17-10-7-11-33-17)29(24)16-8-5-4-6-9-16/h4-13H,14H2,1-3H3"
SMILES=COc1cc(-c2nnc(CSc3nnc(-c4ccco4)n3-c3ccccc3)o2)cc(OC)c1OC
SPECTRUMID=CCMSLIB00010105462
92.095978 3778.0 
94.028687 8272.0 
104.329453 4000.0 
105.069771 14357.0 
109.064278 5427.0 
118.028519 6411.0 
118.041397 4117.0 
118.702583 3955.0 
121.040237 11872.0 
128.046402 4966.0 
133.064896 40832.0 
135.04425 5098.0 
136.262451 3605.0 
139.075623 16199.0 
147.043518 4571.0 
149.059647 7730.0 
150.067245 21269.0 
151.04007 4702.0 
152.04631 18361.0 
156.04216 4763.0 
160.050995 3986.0 
162.067505 64369.0 
163.038971 41789.0 
163.074615 7705.0 
165.090485 20395.0 
178.062378 40218.0 
183.716507 4079.0 
189.036026 8321.0 
193.085999 396271.0 
195.06517 5262533.0 
199.24939 3505.0 
212.081604 112673.0 
224.081741 17052.0 
235.070679 3769.0 
242.039154 29669.0 
243.045685 22117.0 
244.054291 8569.0 
249.086761 3299503.0 
256.053436 8823.0 
281.058655 30986.0 
295.114838 4144.0 
350.865326 4368.0 
459.146576 5158.0 
477.107697 7205.0 
492.133301 5202442.0 
END IONS

BEGIN IONS
NAME=4-hydroxy-2-quinolone CollisionEnergy:102040 M+Na
PRECURSOR_MZ=184.037
INCHI="InChI=1S/C9H7NO2/c11-8-5-9(12)10-7-4-2-1-3-6(7)8/h1-5H,(H2,10,11,12)"
SMILES=C1=CC=C2C(=C1)C(=O)C=C(N2)O
SPECTRUMID=CCMSLIB00010102162
60.312366 2723.75 
101.950127 16624.111328 
119.960686 6204.047363 
137.9711 3894.048828 
154.63089 3083.219482 
156.976486 4844.774902 
161.441422 3652.036377 
184.037064 61398.234375 
192.924835 3310.137207 
196.569565 3191.674072 
END IONS

BEGIN IONS
NAME="5-[(4-hydroxy-3-methoxyphenyl)methylene]-2-(phenylamino)-1,3-thiazolin-4-one CollisionEnergy:205060" M+Na
PRECURSOR_MZ=349.062
INCHI="InChI=1S/C17H14N2O3S/c1-22-14-9-11(7-8-13(14)20)10-15-16(21)19-17(23-15)18-12-5-3-2-4-6-12/h2-10,20H,1H3,(H,18,19,21)/b15-10-"
SMILES=COc1cc(C=C2SC(=Nc3ccccc3)N=C2O)ccc1O
SPECTRUMID=CCMSLIB00010116310
59.759369 2470.0 
64.187286 2188.0 
69.965553 2102.0 
70.878052 1981.0 
82.396156 2539.0 
104.280243 3554.0 
349.060913 792553.0 
367.070892 2655.0 
END IONS

BEGIN IONS
NAME=3-acetyl-4-hydroxy-1-[2-(2-methylindol-3-yl)ethyl]-2-(3-nitrophenyl)-5-oxo-3-p yrroline CollisionEnergy:205060 M-H
PRECURSOR_MZ=418.141
INCHI="InChI=1S/C23H21N3O5/c1-13-17(18-8-3-4-9-19(18)24-13)10-11-25-21(20(14(2)27)22(28)23(25)29)15-6-5-7-16(12-15)26(30)31/h3-9,12,21,24,28H,10-11H2,1-2H3"
SMILES=CC(=O)C1=C(O)C(=O)N(CCc2c(C)[nH]c3ccccc23)C1c1cccc([N+](=O)[O-])c1
SPECTRUMID=CCMSLIB00010123591
50.477558 2346.0 
57.975052 9783.0 
65.014137 13727.0 
65.997841 3132.0 
67.425499 2507.0 
68.017616 3166.0 
72.645958 2633.0 
78.034363 11242.0 
80.851677 2672.0 
83.236656 2501.0 
86.024429 5024.0 
86.990646 2580.0 
87.470749 2427.0 
91.018951 4252.0 
92.013931 16346.0 
104.038101 28920.0 
104.308502 2846.0 
106.029694 10454.0 
117.034538 95915.0 
118.030144 5511.0 
121.029297 4687.0 
131.050552 3310.0 
132.032837 34523.0 
133.040634 214080.0 
138.019302 5346.0 
144.045715 5949.0 
145.029434 91208.0 
146.036591 26181.0 
146.961685 3009.0 
148.039703 5365.0 
150.001663 33441.0 
150.801559 3029.0 
159.032272 13411.0 
159.045273 20624.0 
160.053421 3106.0 
161.047043 4346.0 
164.004105 5867.0 
172.040573 4981.0 
173.023621 4464.0 
174.019516 3471.0 
175.027466 165985.0 
175.044708 6144.0 
176.035156 40285.0 
187.039642 4257.0 
188.048721 47074.0 
190.050461 25787.0 
192.030304 14526.0 
202.01474 4313.0 
203.023468 3591.0 
218.046783 19063.0 
220.025467 4746.0 
245.020752 14855.0 
259.037964 3560.0 
261.051971 15343.0 
403.115845 11004.0 
418.140564 945546.0 
END IONS

BEGIN IONS
NAME=3-hydroxy-anthranilic acid CollisionEnergy:205060 2M-2H+Na
PRECURSOR_MZ=327.06
INCHI="InChI=1S/C7H7NO3/c8-6-4(7(10)11)2-1-3-5(6)9/h1-3,9H,8H2,(H,10,11)"
SMILES=C1=CC(=C(C(=C1)O)N)C(=O)O
SPECTRUMID=CCMSLIB00010102025
58.200985 3269.37207 
64.75946 3090.608887 
91.0186 13450.003906 
104.362442 3962.817139 
107.037712 27145.048828 
108.045448 436970.34375 
118.743591 4871.085449 
152.035034 324850.5625 
210.748871 3908.923096 
281.23764 3590.129395 
327.059113 38086.425781 
END IONS

BEGIN IONS
NAME="11-{3-chloro-4-[(2-fluorophenyl)methoxy]phenyl}-3,3-dimethyl-2,3,4-trihydro-5H ,10H,11H-benzo[b]benzo[2,1-f]1,4-diazepin-1-one CollisionEnergy:205060" M+Cl
PRECURSOR_MZ=511.136
INCHI="InChI=1S/C28H26ClFN2O2/c1-28(2)14-23-26(24(33)15-28)27(32-22-10-6-5-9-21(22)31-23)17-11-12-25(19(29)13-17)34-16-18-7-3-4-8-20(18)30/h3-13,27,31-32H,14-16H2,1-2H3"
SMILES=CC1(C)CC(=O)C2=C(C1)Nc1ccccc1NC2c1ccc(OCc2ccccc2F)c(Cl)c1
SPECTRUMID=CCMSLIB00010115939
51.1637 2862.0 
81.12278 2807.0 
102.956718 18453.0 
112.985802 3972.0 
126.995377 45802.0 
128.259384 2694.0 
144.541992 2857.0 
154.989746 3546.0 
197.108398 10353.0 
211.087646 10260.0 
221.186203 2841.0 
223.087402 4708.0 
226.112503 3677.0 
238.932846 4922.0 
239.118988 50823.0 
240.154953 2750.0 
262.851074 2651.0 
281.04892 3611.0 
283.768494 2764.0 
306.918701 3262.0 
309.046173 5201.0 
329.132568 3801.0 
333.080109 39061.0 
366.114288 3813.0 
421.850311 3196.0 
475.15921 110134.0 
END IONS

BEGIN IONS
NAME="8-iodo-1,3-dimethyl-1,3-dihydropurine-2,6-dione CollisionEnergy:102040" M+Na
PRECURSOR_MZ=328.951
INCHI="InChI=1S/C7H7IN4O2/c1-11-4-3(9-6(8)10-4)5(13)12(2)7(11)14/h1-2H3,(H,9,10)"
SMILES=Cn1c(=O)c2nc(I)[nH]c2n(C)c1=O
SPECTRUMID=CCMSLIB00010109726
50.171329 2329.0 
60.53772 2657.0 
69.628311 2322.0 
69.643791 2354.0 
72.536667 2573.0 
72.714043 2347.0 
83.017151 2638.0 
85.239922 2362.0 
90.719772 2507.0 
98.984016 38730.0 
106.025002 2868.0 
170.884064 2860.0 
174.991776 12947.0 
176.989258 4874.0 
196.038605 2596.0 
222.983749 2719.0 
258.535156 2571.0 
264.870361 18989.0 
282.882935 5036.0 
311.670227 2686.0 
328.950012 1890378.0 
346.95929 13874.0 
348.895355 2596.0 
END IONS

BEGIN IONS
NAME=N-Acetyl-D-Mannosamine CollisionEnergy:102040 M-H
PRECURSOR_MZ=220.083
INCHI="InChI=1S/C8H15NO6/c1-3(11)9-5-7(13)6(12)4(2-10)15-8(5)14/h4-8,10,12-14H,2H2,1H3,(H,9,11)/t4-,5+,6-,7-,8?/m1/s1"
SMILES=CC(O)=N[C@@H]1C(O)O[C@H](CO)[C@@H](O)[C@@H]1O
SPECTRUMID=CCMSLIB00010102641
58.005501 4993.509766 
59.013401 54862.601562 
61.566799 2699.48999 
65.536598 3117.449951 
71.013496 7224.549805 
72.992996 7216.939941 
75.702301 3904.350098 
89.024399 36738.300781 
100.040001 75169.703125 
100.964996 3211.5 
101.025002 44586.800781 
104.331001 3244.72998 
117.172997 3220.949951 
119.035004 34726.199219 
135.203003 3277.419922 
136.255005 2723.840088 
210.147003 10371.200195 
220.147003 13330.299805 
END IONS

BEGIN IONS
NAME="(3,4-diethoxyphenyl)-N-[2-(4-chloropyrazolyl)ethyl]carboxamide CollisionEnergy:102040" M+Cl
PRECURSOR_MZ=372.089
INCHI="InChI=1S/C16H20ClN3O3/c1-3-22-14-6-5-12(9-15(14)23-4-2)16(21)18-7-8-20-11-13(17)10-19-20/h5-6,9-11H,3-4,7-8H2,1-2H3,(H,18,21)"
SMILES=CCOc1ccc(C(O)=NCCn2cc(Cl)cn2)cc1OCC
SPECTRUMID=CCMSLIB00010108807
55.214119 1980.0 
55.626579 2316.0 
85.092583 2122.0 
92.427147 2593.0 
104.346321 2692.0 
118.718384 2498.0 
123.027496 2873.0 
136.288864 2767.0 
139.061432 2364.0 
178.125793 2304.0 
188.492096 2320.0 
235.925919 20380.0 
351.197052 2281.0 
372.091064 5613.0 
372.161194 2301.0 
392.816071 2483.0 
END IONS

BEGIN IONS
NAME="4,2'-Dihydroxy-3-methoxy-5'-methylchalcone CollisionEnergy:205060" M-H
PRECURSOR_MZ=283.098
INCHI="InChI=1S/C17H16O4/c1-11-3-6-14(18)13(9-11)15(19)7-4-12-5-8-16(20)17(10-12)21-2/h3-10,18,20H,1-2H3/b7-4+"
SMILES=COc1cc(C=CC(=O)c2cc(C)ccc2O)ccc1O
SPECTRUMID=CCMSLIB00010117028
56.81488 2281.0 
59.723061 2181.0 
66.745613 2388.0 
73.234123 1981.0 
73.338692 2010.0 
73.956749 2122.0 
91.732567 2552.0 
104.289932 2729.0 
108.988647 2647.0 
121.029518 4999.0 
134.037277 539068.0 
149.060669 178199.0 
170.5448 2367.0 
173.093643 2411.0 
183.012192 3460.0 
190.119888 2453.0 
211.039536 3233.0 
211.274445 2378.0 
215.164505 3459.0 
218.919724 4212.0 
236.930054 2842.0 
239.071655 11378.0 
251.070526 3548.0 
253.050766 9252.0 
267.066284 23933.0 
268.039124 3463.0 
268.0737 46693.0 
283.064423 12138.0 
283.097534 243104.0 
283.134491 14306.0 
283.191284 4101.0 
END IONS

BEGIN IONS
NAME=N-Formylcytisine CollisionEnergy:102040 M+Na
PRECURSOR_MZ=241.095
INCHI="InChI=1S/C12H14N2O2/c15-8-13-5-9-4-10(7-13)11-2-1-3-12(16)14(11)6-9/h1-3,8-10H,4-7H2/t9-,10+/m0/s1"
SMILES=O=CN1CC2CC(C1)c1cccc(=O)n1C2
SPECTRUMID=CCMSLIB00010109665
70.873306 3293.0 
82.381844 5074.0 
82.683357 3182.0 
83.677002 3273.0 
84.959808 1534951.0 
102.970047 141080.0 
104.264397 4749.0 
120.980568 19247.0 
125.986366 4905.0 
134.978256 31803.0 
147.950424 21631.0 
149.439987 3788.0 
149.965149 3979.0 
152.988953 14521.0 
157.934311 4033.0 
159.064743 5504.0 
162.973434 2592931.0 
180.350861 4019.0 
180.983963 4134913.0 
181.0439 47773.0 
182.987991 15563.0 
198.994461 367210.0 
203.999802 154044.0 
209.013565 4844.0 
222.010422 5136.0 
223.030807 21132.0 
240.122787 16916.0 
241.094284 10967191.0 
242.071625 14387.0 
259.10553 4189.0 
373.497192 3468.0 
384.421326 3870.0 
END IONS

BEGIN IONS
NAME=L-lysine CollisionEnergy:102040 M-H
PRECURSOR_MZ=145.098
INCHI="InChI=1S/C6H14N2O2/c7-4-2-1-3-5(8)6(9)10/h5H,1-4,7-8H2,(H,9,10)/t5-/m0/s1"
SMILES=NCCCC[C@H](N)C(=O)O
SPECTRUMID=CCMSLIB00010102716
55.1889 2705.310059 
67.592903 3199.139893 
74.004097 3174.060059 
79.035797 2544.580078 
82.910202 3091.52002 
92.441704 4588.339844 
97.077103 6358.149902 
99.092796 6597.850098 
104.358002 3966.080078 
128.072006 5424.819824 
132.434006 2622.139893 
136.304993 3576.790039 
145.098999 1460770.0 
END IONS

BEGIN IONS
NAME={3-methoxy-4-[3-nitro-5-(trifluoromethyl)phenoxy]phenyl}-N-[2-piperidyl-5-(tri fluoromethyl)phenyl]carboxamide CollisionEnergy:205060 M-H
PRECURSOR_MZ=582.147
INCHI="InChI=1S/C27H23F6N3O5/c1-40-24-11-16(5-8-23(24)41-20-13-18(27(31,32)33)12-19(15-20)36(38)39)25(37)34-21-14-17(26(28,29)30)6-7-22(21)35-9-3-2-4-10-35/h5-8,11-15H,2-4,9-10H2,1H3,(H,34,37)"
SMILES=COc1cc(C(O)=Nc2cc(C(F)(F)F)ccc2N2CCCCC2)ccc1Oc1cc([N+](=O)[O-])cc(C(F)(F)F)c1
SPECTRUMID=CCMSLIB00010115032
65.440941 3039.0 
69.034103 3063.0 
72.786789 3114.0 
78.889397 3184.0 
94.189117 3142.0 
97.028961 3349.0 
102.283447 3086.0 
104.31369 3272.0 
105.021584 13336.0 
109.029129 12673.0 
123.008636 7516.0 
123.996323 5773.0 
148.013931 33241.0 
158.022705 3304.0 
160.716507 3392.0 
161.022171 27512.0 
175.024292 4536.0 
176.008926 127593.0 
177.016312 15641.0 
181.021729 7528.0 
185.0336 73473.0 
186.000549 86095.0 
186.017822 4986.0 
190.011917 145468.0 
190.031448 6309.0 
194.940002 3078.0 
195.995789 3558.0 
199.048859 5307.0 
200.019348 16157.0 
201.028 56007.0 
206.006866 1628535.0 
210.05249 3777.0 
211.047821 14068.0 
213.208527 5128.0 
230.030258 16095.0 
235.036453 4446.0 
239.033493 4214.0 
241.096619 6331.0 
251.032486 22601.0 
251.080811 3461.0 
264.028229 12114.0 
266.017487 6599.0 
266.045593 6570.0 
267.07489 4806.0 
269.089752 25633.0 
292.022644 13059.0 
293.030731 18984.0 
435.057312 13172.0 
436.041107 17255.0 
535.148376 4685.0 
582.147095 1730356.0 
588.177979 3706.0 
END IONS

BEGIN IONS
NAME=2-Hydroxyhippuric acid CollisionEnergy:102040 2M-H
PRECURSOR_MZ=389.099
INCHI="InChI=1S/C9H9NO4/c11-7-4-2-1-3-6(7)9(14)10-5-8(12)13/h1-4,11H,5H2,(H,10,14)(H,12,13)"
SMILES=O=C(O)CN=C(O)c1ccccc1O
SPECTRUMID=CCMSLIB00010110902
50.090229 2051.0 
73.965027 2336.0 
93.034477 17532.0 
96.943169 2610.0 
101.223351 2434.0 
118.666992 2529.0 
150.056152 91675.0 
174.957779 3111.0 
194.045837 323401.0 
229.732376 2286.0 
270.228241 2431.0 
380.053955 2833.0 
END IONS

BEGIN IONS
NAME="(3,4-diethoxyphenyl)-N-(4-bromophenyl)carboxamide CollisionEnergy:102040" M+H
PRECURSOR_MZ=364.054
INCHI="InChI=1S/C17H18BrNO3/c1-3-21-15-10-5-12(11-16(15)22-4-2)17(20)19-14-8-6-13(18)7-9-14/h5-11H,3-4H2,1-2H3,(H,19,20)"
SMILES=CCOc1ccc(C(=O)Nc2ccc(Br)cc2)cc1OCC
SPECTRUMID=CCMSLIB00010109166
57.95953 3048.0 
65.038933 18232.0 
91.054314 6479.0 
93.033653 55554.0 
93.070023 55160.0 
111.044037 742265.0 
121.064743 176748.0 
121.074631 3751.0 
125.32872 3042.0 
134.060089 4346.0 
137.023239 59927.0 
138.067398 4081.0 
139.075302 851086.0 
165.05455 380423.0 
165.6521 3186.0 
167.106537 279620.0 
169.959915 102427.0 
169.97641 3809.0 
185.383179 2828.0 
193.085815 1151684.0 
197.954758 98053.0 
209.208435 9252.0 
364.053619 3617547.0 
506.823303 2887.0 
END IONS

BEGIN IONS
NAME="(2E)-3-(3,4-dimethoxyphenyl)-N-naphthylprop-2-enamide CollisionEnergy:205060" M-H
PRECURSOR_MZ=332.129
INCHI="InChI=1S/C21H19NO3/c1-24-19-12-10-15(14-20(19)25-2)11-13-21(23)22-18-9-5-7-16-6-3-4-8-17(16)18/h3-14H,1-2H3,(H,22,23)/b13-11+"
SMILES=COc1ccc(C=CC(O)=Nc2cccc3ccccc23)cc1OC
SPECTRUMID=CCMSLIB00010117530
63.03656 2652.0 
64.917473 2481.0 
83.601883 2454.0 
89.659393 2749.0 
91.053253 2692.0 
92.396873 3841.0 
93.03447 18356.0 
104.31057 3997.0 
105.034363 36331.0 
119.050056 43898.0 
121.029243 193851.0 
121.056923 2868.0 
121.78331 2799.0 
123.045387 4682.0 
130.992798 3503.0 
131.037125 4780.0 
132.021896 13623.0 
133.029205 76756.0 
142.065842 162823.0 
145.029388 15577.0 
146.025192 3335.0 
147.044495 30298.0 
159.032379 14253.0 
160.016739 5419.0 
168.045944 4759.0 
181.052734 45255.0 
182.061768 3266.0 
185.097061 21068.0 
186.092041 73721.0 
194.060913 16810.0 
201.092056 3707.0 
212.210739 3802.0 
213.091782 158443.0 
215.086853 10523.0 
218.060547 5685.0 
229.088455 3144.0 
230.073944 6624.0 
230.096649 3786.0 
231.081467 34847.0 
239.899323 2780.0 
243.080856 4578.0 
244.076691 3542.0 
246.091949 43187.0 
256.076294 3731.0 
258.067749 16080.0 
258.093536 39749.0 
259.076813 45056.0 
261.082275 3350.0 
270.092224 3021.0 
272.071381 21906.0 
272.968262 2979.0 
273.078796 58519.0 
274.087677 76661.0 
275.079803 135953.0 
284.07309 15748.0 
285.079041 3820.0 
286.088135 43692.0 
288.103027 22343.0 
298.087189 5895.0 
300.06723 14290.0 
301.074219 793374.0 
302.082214 162847.0 
303.07431 76092.0 
304.08371 11199.0 
314.082428 33817.0 
316.097626 287040.0 
317.10614 32920.0 
317.144104 3407.0 
332.129303 1433801.0 
END IONS

BEGIN IONS
NAME="6-amino-3-(tert-butyl)-4-(4-hydroxy-3-methoxyphenyl)-4H-pyrano[3,2-d]pyrazole- 5-carbonitrile CollisionEnergy:102040" M-H
PRECURSOR_MZ=339.146
INCHI="InChI=1S/C18H20N4O3/c1-18(2,3)15-14-13(9-5-6-11(23)12(7-9)24-4)10(8-19)16(20)25-17(14)22-21-15/h5-7,13,23H,20H2,1-4H3,(H,21,22)"
SMILES=COc1cc(C2C(C#N)=C(N)Oc3n[nH]c(C(C)(C)C)c32)ccc1O
SPECTRUMID=CCMSLIB00010110674
54.256531 2298.0 
59.472099 2154.0 
60.164902 2356.0 
61.58252 2350.0 
65.014122 45412.0 
86.343239 3133.0 
92.378967 3332.0 
164.416199 2596.0 
170.939758 2497.0 
185.035767 14378.0 
187.962555 2509.0 
198.042755 3385.0 
199.063431 4813.0 
210.247009 2437.0 
213.078018 3637.0 
215.094284 69472.0 
224.046494 3619.0 
258.100494 19704.0 
259.108887 30873.0 
267.051331 3039.0 
273.126038 20059.0 
280.109955 3682.0 
281.11853 2907.0 
296.140381 11653.0 
297.112335 11732.0 
323.115753 9524.0 
324.122986 314313.0 
339.146423 1517960.0 
END IONS

BEGIN IONS
NAME=L-homoserine CollisionEnergy:102040 M+H
PRECURSOR_MZ=120.066
INCHI="InChI=1S/C4H9NO3/c5-3(1-2-6)4(7)8/h3,6H,1-2,5H2,(H,7,8)/t3-/m0/s1"
SMILES=N[C@@H](CCO)C(=O)O
SPECTRUMID=CCMSLIB00010126639
50.5741 17547.599609 
51.606499 16515.099609 
52.898701 16519.300781 
56.050098 1369110.0 
57.8074 16679.699219 
59.833801 16435.199219 
69.789299 16088.5 
71.997704 15751.200195 
73.975304 17210.599609 
74.0243 179449.0 
74.0606 4647860.0 
77.263496 16940.5 
82.422699 17558.0 
84.044701 87198.796875 
92.404999 29093.599609 
96.9953 155864.0 
102.055 183170.0 
104.317001 25081.699219 
106.495003 17180.400391 
118.139 16212.700195 
118.689003 18794.300781 
120.066002 324504.0 
END IONS

BEGIN IONS
NAME="4-methyl-2-{3-methyl-2-[(4,4,11,11-tetramethyl-3,5,8,10,12-pentaoxatricyclo[7. 3.0.0<2,6>]dodec-7-yl)carbonylamino]butanoylamino}pentanoic acid CollisionEnergy:205060" 2M-H
PRECURSOR_MZ=971.508
INCHI="InChI=1S/C23H38N2O9/c1-10(2)9-12(20(28)29)24-18(26)13(11(3)4)25-19(27)16-14-15(32-22(5,6)31-14)17-21(30-16)34-23(7,8)33-17/h10-17,21H,9H2,1-8H3,(H,24,26)(H,25,27)(H,28,29)"
SMILES=CC(C)CC(N=C(O)C(N=C(O)C1OC2OC(C)(C)OC2C2OC(C)(C)OC12)C(C)C)C(=O)O
SPECTRUMID=CCMSLIB00010121084
68.997879 6817.0 
71.013474 24357.0 
83.013397 9737.0 
83.049927 10345.0 
85.029488 45877.0 
86.024727 46702.0 
95.013649 28723.0 
98.024719 41699.0 
107.014008 5273.0 
107.194359 5300.0 
109.016632 7213.0 
113.024277 25290.0 
114.019508 8757.0 
114.092148 8201.0 
124.076927 48148.0 
125.071564 4640.0 
126.056023 52064.0 
130.087387 793413.0 
133.017029 10988.0 
138.092361 4552.0 
140.071503 6481.0 
141.06662 32259.0 
142.086761 7133.0 
150.056 5326.0 
152.071899 7482.0 
156.102875 18906.0 
166.087952 6292.0 
168.06691 71220.0 
168.090439 311930.0 
176.071762 87060.0 
177.006439 5234.0 
181.612045 5438.0 
183.150299 19873.0 
185.165817 43575.0 
192.066666 6896.0 
195.150192 25151.0 
211.145309 283786.0 
211.18045 85391.0 
220.062195 47136.0 
227.176697 7344.0 
229.155579 20999.0 
234.147903 4452.0 
237.162476 9727.0 
239.141296 5452.0 
255.140778 8203.0 
255.171997 54634.0 
265.155609 25819.0 
299.161682 50768.0 
303.217255 7902.0 
427.209015 524731.0 
485.251068 2130758.0 
END IONS

BEGIN IONS
NAME="6,7-dimethoxy-1-benzyl-1,2,3,4-tetrahydroisoquinoline CollisionEnergy:205060" M+H
PRECURSOR_MZ=284.165
INCHI="InChI=1S/C18H21NO2/c1-20-17-11-14-8-9-19-16(15(14)12-18(17)21-2)10-13-6-4-3-5-7-13/h3-7,11-12,16,19H,8-10H2,1-2H3"
SMILES=COc1cc2c(cc1OC)C(Cc1ccccc1)NCC2
SPECTRUMID=CCMSLIB00010115471
51.02359 8575.0 
55.018372 5079.0 
59.04977 6240.0 
65.03508 8732.0 
65.03894 197660.0 
73.948387 6216.0 
75.044128 6246.0 
79.054443 88942.0 
89.038803 8592.0 
90.046799 8992.0 
90.829247 8216.0 
91.054314 10616547.0 
91.280113 8124.0 
102.046051 6188.0 
103.054008 121255.0 
104.061768 5233.0 
105.033363 10274.0 
105.069763 751998.0 
107.048889 59519.0 
108.05687 24712.0 
109.06472 7967.0 
115.053978 141883.0 
116.061737 25156.0 
117.069717 67164.0 
118.041183 18385.0 
119.049103 10490.0 
119.085709 20028.0 
120.057198 7008.0 
121.064789 97941.0 
123.080643 7093.0 
124.051773 85534.0 
125.059677 5751.0 
127.054649 7425.0 
128.051193 10368.0 
128.061935 340303.0 
129.069717 2399728.0 
130.040665 9237.0 
130.065826 10689.0 
130.077011 8185.0 
131.048996 100213.0 
131.085312 44707.0 
132.056976 30690.0 
132.080231 9285.0 
133.064606 610574.0 
134.07135 31751.0 
135.043716 46624.0 
135.079926 26477.0 
136.051865 287894.0 
137.059616 46668.0 
139.064453 7161.0 
139.075058 59516.0 
141.069717 20393.0 
143.048752 48949.0 
143.060623 19772.0 
143.085388 17776.0 
144.057083 82512.0 
145.064621 658164.0 
146.059723 20115.0 
146.072449 47585.0 
147.068207 6439.0 
147.080719 22620.0 
148.075516 9112.0 
149.05957 9396.0 
150.067368 186400.0 
151.07518 1605235.0 
155.060257 39375.0 
156.05719 6706.0 
158.072433 556198.0 
159.043884 133594.0 
159.066147 6199.0 
159.080322 131737.0 
160.051941 105192.0 
160.074966 74956.0 
161.059509 2186221.0 
162.091476 34372.0 
163.075775 33703.0 
164.069794 22536.0 
164.08403 5348.0 
165.070404 34528.0 
165.090866 434948.0 
166.077164 23872.0 
167.085632 35873.0 
174.067352 882862.0 
175.075119 154231.0 
176.082962 3891365.0 
177.077896 20307.0 
178.085403 47155.0 
179.083847 55601.0 
180.092926 7865.0 
181.064865 19155.0 
181.101074 63916.0 
189.090668 1134299.0 
190.078674 5547.0 
191.084793 99714.0 
192.10231 290396.0 
193.064026 23634.0 
193.100586 121001.0 
194.072571 46089.0 
195.080536 61358.0 
195.116333 10906.0 
202.077438 23681.0 
203.085068 60051.0 
204.093048 46622.0 
205.065933 14436.0 
205.100784 163295.0 
206.1082 7208.0 
207.080917 36746.0 
208.087296 59674.0 
209.095749 174343.0 
210.105118 4819.0 
219.079605 76233.0 
220.08786 101290.0 
221.095673 828561.0 
222.103455 17538.0 
223.074203 43796.0 
223.11113 33148.0 
224.082489 22215.0 
224.119461 32145.0 
225.09053 8329.0 
233.095764 5620.0 
234.103226 10778.0 
235.111191 208680.0 
236.119049 1498160.0 
237.090347 370914.0 
238.098404 123533.0 
239.106262 22681.0 
240.11261 20409.0 
250.097916 11278.0 
251.10582 34426.0 
252.113907 2081788.0 
255.13678 9597.0 
265.12146 19659.0 
267.13736 5049759.0 
282.922791 6224.0 
284.163849 7157735.0 
285.410645 5878.0 
END IONS

BEGIN IONS
NAME=Umbelliprenin CollisionEnergy:102040 M+Na
PRECURSOR_MZ=389.209
INCHI="InChI=1S/C24H30O3/c1-18(2)7-5-8-19(3)9-6-10-20(4)15-16-26-22-13-11-21-12-14-24(25)27-23(21)17-22/h7,9,11-15,17H,5-6,8,10,16H2,1-4H3/b19-9+,20-15+"
SMILES=CC(C)=CCCC(C)=CCCC(C)=CCOc1ccc2ccc(=O)oc2c1
SPECTRUMID=CCMSLIB00010112320
104.191818 2930.0 
157.936478 3630.0 
184.888672 21648.0 
185.020844 175741.0 
187.221924 2846.0 
252.875275 16865.0 
320.861481 6401.0 
329.51004 3079.0 
387.231171 4032.0 
389.208405 4517059.0 
END IONS

BEGIN IONS
NAME="N-(2,6-dimethylphenyl)-2-{2-oxo-4-[N-benzylcarbamoyl]hydroquinolyl}acetamide CollisionEnergy:102040" M+formate
PRECURSOR_MZ=484.188
INCHI="InChI=1S/C27H25N3O3/c1-18-9-8-10-19(2)26(18)29-24(31)17-30-23-14-7-6-13-21(23)22(15-25(30)32)27(33)28-16-20-11-4-3-5-12-20/h3-15H,16-17H2,1-2H3,(H,28,33)(H,29,31)"
SMILES=Cc1cccc(C)c1N=C(O)Cn1c(=O)cc(C(O)=NCc2ccccc2)c2ccccc21
SPECTRUMID=CCMSLIB00010110145
53.053471 2487.0 
60.544029 2954.0 
65.854851 2414.0 
66.747002 2924.0 
73.958618 2954.0 
90.570213 2721.0 
91.195992 3063.0 
108.44796 2403.0 
116.050789 4848.0 
127.670769 2492.0 
128.050858 10347.0 
130.066849 5665.0 
132.045288 13125.0 
144.045837 47501.0 
156.070023 3492.0 
158.04808 13799.0 
158.061218 34827.0 
160.040085 22248.0 
176.071442 3753.0 
184.040833 10757.0 
206.718536 2737.0 
209.09285 4621.0 
247.123962 87131.0 
247.831909 3195.0 
261.102631 18039.0 
263.119171 6075.0 
277.098511 14427.0 
291.113586 19420.0 
301.154327 2959.0 
305.129639 71507.0 
323.103302 43151.0 
438.182251 804427.0 
483.967987 3686.0 
484.185303 5114.0 
END IONS

BEGIN IONS
NAME=BRUCINE CollisionEnergy:205060 M-e
PRECURSOR_MZ=394.189
INCHI="InChI=1S/C23H26N2O4/c1-27-16-8-14-15(9-17(16)28-2)25-20(26)10-18-21-13-7-19-23(14,22(21)25)4-5-24(19)11-12(13)3-6-29-18/h3,8-9,13,18-19,21-22H,4-7,10-11H2,1-2H3/t13-,18-,19-,21-,22-,23+/m0/s1"
SMILES=COc1cc2c(cc1OC)C13CCN4CC5=CCOC6CC(=O)N2C1C6C5CC43
SPECTRUMID=CCMSLIB00010125660
56.049728 4375.0 
58.06551 4011.0 
59.905022 3611.0 
67.038193 2858.0 
67.054489 3220.0 
68.049629 6247.0 
69.891533 3042.0 
70.065308 6610.0 
79.054153 6889.0 
80.049469 13718.0 
81.069939 4245.0 
82.065483 41119.0 
84.080322 3344.0 
91.054077 4528.0 
92.049301 4911.0 
93.056877 12126.0 
93.069702 6595.0 
94.065132 34086.0 
95.07238 4265.0 
96.08075 5469.0 
97.088226 5408.0 
98.059593 3007.0 
104.314598 4664.0 
105.056999 3990.0 
105.069809 4499.0 
106.065147 30140.0 
107.049049 4963.0 
107.072922 224219.0 
108.080688 70991.0 
109.088158 13238.0 
110.05986 12607.0 
110.096352 5596.0 
112.074966 4754.0 
119.072746 18155.0 
120.08075 244238.0 
121.063957 3137.0 
121.088417 41905.0 
122.05941 19569.0 
122.088669 3295.0 
122.096573 50296.0 
124.075394 4020.0 
125.047241 5081.0 
127.505653 2980.0 
132.080627 19807.0 
132.677902 3311.0 
133.064133 6602.0 
133.087967 6678.0 
134.060272 4760.0 
134.087616 2940.0 
134.096466 47529.0 
135.103699 4767.0 
136.075668 83825.0 
136.248276 3871.0 
138.080765 4594.0 
138.0914 79568.0 
144.080246 4262.0 
146.060287 6541.0 
146.096054 3978.0 
147.067596 4027.0 
148.075409 5792.0 
153.077652 4317.0 
158.096054 3773.0 
160.075516 28093.0 
161.08345 31565.0 
162.091202 60472.0 
163.098419 4906.0 
172.074814 5490.0 
174.090881 6378.0 
176.070877 5620.0 
177.078171 3065.0 
186.089935 7245.0 
188.070694 30503.0 
189.077454 15792.0 
190.085968 47995.0 
191.093353 13930.0 
196.074554 6148.0 
197.083374 6585.0 
198.091278 6605.0 
202.086166 55957.0 
203.09407 90094.0 
204.101837 41017.0 
205.107681 5230.0 
212.06987 7306.0 
213.078842 3757.0 
214.085922 13588.0 
215.092255 4076.0 
216.102097 5909.0 
222.088181 4176.0 
226.085281 14200.0 
227.092865 13396.0 
228.064682 16650.0 
228.101761 24869.0 
230.077881 4417.0 
230.116379 13950.0 
232.094727 11696.0 
235.083344 14396.0 
236.106094 5060.0 
238.086197 7447.0 
240.101501 19517.0 
241.111694 6185.0 
242.080658 46354.0 
242.110992 4201.0 
243.088821 23471.0 
244.097 22835.0 
250.086334 5590.0 
251.091797 4672.0 
252.100937 5887.0 
253.107605 4753.0 
254.079803 5663.0 
254.116547 6596.0 
255.087601 14459.0 
256.095886 62010.0 
257.103882 53718.0 
258.112549 56033.0 
264.10083 18113.0 
265.108612 4168.0 
266.082245 5393.0 
266.116669 11918.0 
267.088928 4189.0 
268.09668 4632.0 
269.104065 15101.0 
270.11203 6000.0 
272.126923 3750.0 
276.101807 5546.0 
278.082916 5643.0 
278.115845 12129.0 
280.096588 48102.0 
280.128418 8095.0 
281.10257 16606.0 
281.13446 4608.0 
282.111755 20950.0 
290.117249 5788.0 
292.096375 25032.0 
292.131958 13595.0 
293.100006 23302.0 
294.111267 28150.0 
294.147125 11938.0 
295.083038 4291.0 
295.116241 5278.0 
296.126953 5292.0 
304.12854 4491.0 
306.111023 23672.0 
308.091339 6545.0 
308.128265 18809.0 
309.159973 19827.0 
310.106293 4138.0 
318.110321 6820.0 
320.127686 13959.0 
321.125397 18451.0 
322.143616 12604.0 
324.121704 5968.0 
325.131805 14456.0 
332.126312 5696.0 
333.161682 4732.0 
334.104492 5306.0 
334.14386 6989.0 
335.136658 5080.0 
335.175385 15112.0 
336.118866 24828.0 
337.156189 30366.0 
339.146423 15746.0 
346.145996 4126.0 
347.140167 3670.0 
348.121521 5016.0 
349.15509 17752.0 
351.174866 59450.0 
352.149902 5469.0 
361.151123 14368.0 
363.169983 6716.0 
365.149506 19742.0 
366.156311 20183.0 
379.164642 972335.0 
393.180084 52456.0 
394.18811 2843859.0 
539.177917 3329.0 
END IONS

BEGIN IONS
NAME="5,3'-Dihydroxyflavone CollisionEnergy:205060" M+H
PRECURSOR_MZ=255.065
INCHI="InChI=1S/C15H10O4/c16-10-4-1-3-9(7-10)14-8-12(18)15-11(17)5-2-6-13(15)19-14/h1-8,16-17H"
SMILES=O=c1cc(-c2cccc(O)c2)oc2cccc(O)c12
SPECTRUMID=CCMSLIB00010117437
57.07024 3970.0 
57.216068 3102.0 
59.353519 3125.0 
65.039001 6067.0 
66.747398 4103.0 
68.997543 33692.0 
73.544807 2960.0 
81.03376 7820.0 
91.054443 64365.0 
92.381989 3945.0 
95.012993 4808.0 
99.18045 3348.0 
99.305687 3558.0 
101.203911 3241.0 
109.028313 8069.0 
111.044029 6976.0 
119.039963 7107.0 
119.049294 171456.0 
121.028587 13015.0 
137.023499 633034.0 
138.089035 118325.0 
145.028687 86771.0 
153.069916 18971.0 
155.034317 105192.0 
155.048294 8142.0 
165.069656 5737.0 
169.066055 9621.0 
181.064728 92294.0 
187.651062 3706.0 
189.06636 3153.0 
195.137161 5728.0 
199.075867 6901.0 
209.059723 20050.0 
227.070145 136838.0 
237.054657 41214.0 
254.012772 14539.0 
254.056396 7519.0 
255.065216 12213850.0 
255.167145 853859.0 
256.12674 10375.0 
END IONS

BEGIN IONS
NAME=3-formyl-6-methoxyphenyl morpholine-4-carboxylate CollisionEnergy:102040 M+Na
PRECURSOR_MZ=288.084
INCHI="InChI=1S/C13H15NO5/c1-17-11-3-2-10(9-15)8-12(11)19-13(16)14-4-6-18-7-5-14/h2-3,8-9H,4-7H2,1H3"
SMILES=COc1ccc(C=O)cc1OC(=O)N1CCOCC1
SPECTRUMID=CCMSLIB00010109137
91.033783 2466.0 
102.315231 2024.0 
104.233269 2139.0 
104.278473 2825.0 
110.190147 2194.0 
114.055229 4832.0 
142.070129 2315.0 
189.576904 2418.0 
203.380447 2612.0 
204.391434 2156.0 
226.973679 2696.0 
231.980133 2722.0 
247.003784 3075.0 
249.991394 4613.0 
265.014099 3124.0 
288.083984 605691.0 
END IONS

BEGIN IONS
NAME="{3,4,5-triacetyloxy-6-[5-acetyloxy-3-(4-methoxyphenyl)-4-oxochromen-6-yloxy]-2 H-3,4,5,6-tetrahydropyran-2-yl}methyl acetate CollisionEnergy:102040" M+formate
PRECURSOR_MZ=701.172
INCHI="InChI=1S/C32H32O15/c1-15(33)40-14-25-29(43-17(3)35)30(44-18(4)36)31(45-19(5)37)32(47-25)46-24-12-11-23-26(28(24)42-16(2)34)27(38)22(13-41-23)20-7-9-21(39-6)10-8-20/h7-13,25,29-32H,14H2,1-6H3"
SMILES=COc1ccc(-c2coc3ccc(OC4OC(COC(C)=O)C(OC(C)=O)C(OC(C)=O)C4OC(C)=O)c(OC(C)=O)c3c2=O)cc1
SPECTRUMID=CCMSLIB00010108170
51.868462 2757.0 
55.321491 2727.0 
57.728809 2767.0 
69.014221 3031.0 
92.385811 3784.0 
92.392403 2887.0 
104.298103 3633.0 
112.985687 4471.0 
122.077812 3858.0 
136.224167 2881.0 
182.264145 3584.0 
195.816162 3513.0 
283.061981 17852.0 
321.422607 3233.0 
355.928284 2976.0 
508.34433 3103.0 
613.153809 17213.0 
701.151001 5839.0 
END IONS

BEGIN IONS
NAME="(2E)-3-{3-[(4-bromo-3,5-dimethylpyrazolyl)methyl]-4-methoxyphenyl}-1-(4-methox yphenyl)prop-2-en-1-one CollisionEnergy:205060" M+H
PRECURSOR_MZ=455.096
INCHI="InChI=1S/C23H23BrN2O3/c1-15-23(24)16(2)26(25-15)14-19-13-17(6-12-22(19)29-4)5-11-21(27)18-7-9-20(28-3)10-8-18/h5-13H,14H2,1-4H3/b11-5+"
SMILES=COc1ccc(C(=O)C=Cc2ccc(OC)c(Cn3nc(C)c(Br)c3C)c2)cc1
SPECTRUMID=CCMSLIB00010116299
53.03912 15985.0 
53.49987 3217.0 
55.018341 92311.0 
59.444698 3347.0 
69.034019 5850.0 
71.049538 23866.0 
77.312042 3249.0 
79.054573 17894.0 
85.028687 6177.0 
91.054291 72019.0 
91.351273 3438.0 
92.025589 5490.0 
93.070129 6238.0 
95.049316 18409.0 
103.054199 8536.0 
105.033974 3351.0 
105.069649 13785.0 
107.049217 5797.0 
107.085991 3810.0 
108.056702 4860.0 
115.054222 112476.0 
115.062828 5752.0 
117.070007 59787.0 
119.048828 4123.0 
119.466309 3628.0 
121.064751 267635.0 
125.059998 17008.0 
129.068756 4701.0 
131.049011 8269.0 
133.064438 18410.0 
135.044006 963919.0 
138.286423 4049.0 
143.049622 15582.0 
145.064728 191063.0 
146.073059 5204.0 
149.059402 13568.0 
152.062302 8377.0 
153.069489 7222.0 
156.544647 3709.0 
158.07251 23739.0 
159.080429 3626.0 
161.05986 15849.0 
165.069794 253809.0 
166.077744 45609.0 
167.085144 25844.0 
167.496048 3604.0 
171.081039 17351.0 
173.059601 44357.0 
174.066757 5092.0 
176.062546 14937.0 
177.07019 8489.0 
178.077652 125921.0 
179.085312 157788.0 
180.056625 14721.0 
180.093201 149611.0 
181.065201 27749.0 
182.073364 14212.0 
183.080475 17126.0 
189.070053 64936.0 
190.077454 170084.0 
190.666748 3895.0 
191.085358 217537.0 
192.093414 110739.0 
193.064789 151686.0 
193.099503 42854.0 
194.072632 84134.0 
195.080338 167580.0 
196.088882 23853.0 
197.095917 26222.0 
202.077332 16821.0 
203.085358 14518.0 
205.064713 65359.0 
205.100418 8106.0 
206.072601 82549.0 
207.080032 120567.0 
208.088074 654588.0 
209.095932 252674.0 
210.067993 13779.0 
210.104065 64012.0 
211.075592 29828.0 
212.083466 5175.0 
217.064011 6415.0 
218.072693 98290.0 
219.080215 99289.0 
220.088257 77070.0 
221.059967 48762.0 
221.09584 193470.0 
222.10347 56222.0 
223.075241 71885.0 
223.111465 204422.0 
224.083023 18134.0 
225.090302 54996.0 
225.12793 15313.0 
226.098785 7883.0 
227.10672 29919.0 
232.088257 6165.0 
233.059311 5428.0 
233.066055 5901.0 
233.095779 137180.0 
233.120041 6582.0 
234.067627 39183.0 
235.07518 69242.0 
235.111618 8430.0 
236.082794 140106.0 
237.08992 40227.0 
238.098465 153226.0 
239.106934 21426.0 
248.082901 115550.0 
249.090637 64516.0 
250.099167 56287.0 
251.072327 38162.0 
251.106277 619855.0 
252.113251 7208.0 
253.121719 105536.0 
263.106232 210735.0 
265.085144 7387.0 
266.09317 105823.0 
279.103455 3684.0 
281.116882 3930968.0 
455.095123 231874.0 
455.160217 85013.0 
END IONS

BEGIN IONS
NAME=Ethyl vanillate CollisionEnergy:205060 M+H
PRECURSOR_MZ=197.081
INCHI="InChI=1S/C10H12O4/c1-3-14-10(12)7-4-5-8(11)9(6-7)13-2/h4-6,11H,3H2,1-2H3"
SMILES=CCOC(=O)c1ccc(O)c(OC)c1
SPECTRUMID=CCMSLIB00010117708
53.0392 10468.0 
55.018421 3433.0 
56.965439 13246.0 
65.039017 838483.0 
67.054764 16649.0 
73.565018 2787.0 
79.05455 11496.0 
81.033752 11117.0 
81.070038 2881.0 
88.721573 2483.0 
90.167587 2706.0 
90.948273 3900.0 
91.054413 20943.0 
91.672493 2696.0 
93.033623 717045.0 
93.070023 36088.0 
95.043114 3614.0 
95.049088 18873.0 
97.064903 13374.0 
103.054413 5227.0 
104.407944 2848.0 
107.049248 17218.0 
108.02095 5434.0 
109.028633 11484.0 
110.023483 4892.0 
110.036217 292968.0 
111.044067 1341427.0 
116.167099 2465.0 
118.625603 2676.0 
121.064842 59151.0 
123.044128 17823.0 
124.05204 5182.0 
124.119911 2476.0 
125.059723 837729.0 
134.060211 37744.0 
136.015961 5392.0 
137.023132 3735.0 
137.095032 2913.0 
151.038925 399463.0 
153.281082 2895.0 
153.444611 3087.0 
154.025894 12246.0 
169.049515 719579.0 
197.080887 118416.0 
END IONS

BEGIN IONS
NAME=D-pantothenic acid CollisionEnergy:205060 M+Na
PRECURSOR_MZ=242.1
INCHI="InChI=1S/C9H17NO5/c1-9(2,5-11)7(14)8(15)10-4-3-6(12)13/h7,11,14H,3-5H2,1-2H3,(H,10,15)(H,12,13)"
SMILES=CC(C)(CO)C(O)C(O)=NCCC(=O)O
SPECTRUMID=CCMSLIB00010118243
61.024319 47739.0 
66.743858 46485.0 
112.037079 620790.0 
153.051956 608924.0 
165.93399 51617.0 
171.062119 80106.0 
224.089432 602726.0 
242.100098 14484785.0 
END IONS

BEGIN IONS
NAME="N-{(1E)-2-[2-hydroxy-5-(naphthyldiazenyl)phenyl]-1-azavinyl}-2H-benzo[3,4-d]1, 3-dioxolan-5-ylcarboxamide CollisionEnergy:102040" M-H
PRECURSOR_MZ=437.126
INCHI="InChI=1S/C25H18N4O4/c30-22-10-9-19(27-28-21-7-3-5-16-4-1-2-6-20(16)21)12-18(22)14-26-29-25(31)17-8-11-23-24(13-17)33-15-32-23/h1-14,30H,15H2,(H,29,31)/b26-14+,28-27+"
SMILES=OC(=NN=Cc1cc(N=Nc2cccc3ccccc23)ccc1O)c1ccc2c(c1)OCO2
SPECTRUMID=CCMSLIB00010113932
54.473751 2218.0 
71.655083 2529.0 
92.441269 2841.0 
93.436096 2366.0 
93.469711 2727.0 
93.518623 2212.0 
122.632874 2495.0 
164.035583 47762.0 
164.81897 3028.0 
164.927444 5897.0 
260.0961 16005.0 
271.09848 31089.0 
272.083282 42709.0 
274.099182 12286.0 
292.085602 17794.0 
300.904968 3218.0 
416.973969 3744.0 
436.971252 67085.0 
437.125916 520150.0 
END IONS

BEGIN IONS
NAME="8-{[2-(4-ethoxy-3-methoxyphenyl)-5-methyl(1,3-oxazol-4-yl)]methylthio}-9-methy lhydropurin-6-one CollisionEnergy:205060" M+Na
PRECURSOR_MZ=450.121
INCHI="InChI=1S/C20H21N5O4S/c1-5-28-14-7-6-12(8-15(14)27-4)19-23-13(11(2)29-19)9-30-20-24-16-17(25(20)3)21-10-22-18(16)26/h6-8,10H,5,9H2,1-4H3,(H,21,22,26)"
SMILES=CCOc1ccc(-c2nc(CSc3nc4c(O)ncnc4n3C)c(C)o2)cc1OC
SPECTRUMID=CCMSLIB00010119658
65.002907 2805.0 
69.033791 22087.0 
69.042938 3098.0 
70.019127 3313.0 
72.353973 3095.0 
84.990303 3103.0 
92.372093 3049.0 
92.378342 4394.0 
102.126167 3580.0 
122.036819 8145.0 
135.031494 77688.0 
148.038635 4324.0 
149.047394 7153.0 
149.059784 31134.0 
150.054825 1958050.0 
168.065445 3969.0 
175.061844 4068.0 
177.090561 5149.0 
178.086029 734558.0 
190.002197 3377.0 
191.081558 4241.0 
203.057739 21349.0 
204.007675 21319.0 
205.015137 330968.0 
211.431519 3543.0 
216.065735 7270.0 
217.073166 3336.0 
218.080872 1024689.0 
246.112015 1167800.0 
289.224304 4041.0 
450.119812 2939378.0 
END IONS

BEGIN IONS
NAME=2-(9-methyl-6-oxohydropurin-8-ylthio)-N-[3-(trifluoromethyl)phenyl]acetamide CollisionEnergy:102040 M+H
PRECURSOR_MZ=384.074
INCHI="InChI=1S/C15H12F3N5O2S/c1-23-12-11(13(25)20-7-19-12)22-14(23)26-6-10(24)21-9-4-2-3-8(5-9)15(16,17)18/h2-5,7H,6H2,1H3,(H,21,24)(H,19,20,25)"
SMILES=Cn1c(SCC(O)=Nc2cccc(C(F)(F)F)c2)nc2c(O)ncnc21
SPECTRUMID=CCMSLIB00010109499
50.568668 3185.0 
68.852821 3195.0 
78.018387 3016.0 
84.985878 3370.0 
92.390549 4175.0 
95.392799 3223.0 
104.299637 4381.0 
137.045654 5049.0 
149.044739 4203.0 
150.053146 6149.0 
151.049454 3678.0 
151.060776 24887.0 
162.054138 4458.0 
163.061417 6014.0 
168.021881 6351.0 
174.052414 38726.0 
181.017624 369480.0 
182.024384 5151.0 
183.032257 5451.0 
185.848083 3733.0 
195.033401 1850983.0 
202.086777 15209.0 
208.474533 18087.0 
213.043915 13715.0 
220.667587 3360.0 
222.170837 6044.0 
223.028198 7198497.0 
223.890686 5198.0 
236.060181 13958.0 
249.210342 3709.0 
344.060913 4448.0 
364.066681 13248.0 
366.063629 36117.0 
384.072998 1414459.0 
END IONS

BEGIN IONS
NAME=3-formyl Rifamycin SV CollisionEnergy:102040 M-H+2Na
PRECURSOR_MZ=770.276
INCHI="InChI=1S/C38H47NO13/c1-16-11-10-12-17(2)37(48)39-28-23(15-40)32(45)25-26(33(28)46)31(44)21(6)35-27(25)36(47)38(8,52-35)50-14-13-24(49-9)18(3)34(51-22(7)41)20(5)30(43)19(4)29(16)42/h10-16,18-20,24,29-30,34,42-46H,1-9H3,(H,39,48)/b11-10+,14-13+,17-12-/t16-,18+,19+,20+,24-,29-,30+,34+,38-/m0/s1"
SMILES=COC1C=COC2(C)Oc3c(C)c(O)c4c(O)c(c(C=O)c(O)c4c3C2=O)N=C(O)C(C)=CC=CC(C)C(O)C(C)C(O)C(C)C(OC(C)=O)C1C
SPECTRUMID=CCMSLIB00010110460
59.975941 3418.0 
69.21637 3256.0 
90.97718 3951.0 
92.362343 3899.0 
95.085609 5554.0 
100.637573 3598.0 
103.012917 13995.0 
104.272423 4492.0 
104.9925 4154.0 
137.30304 4029.0 
207.098755 4487.0 
246.828079 4500.0 
267.119385 23986.0 
293.135376 15231.0 
312.118256 4876.0 
317.026886 20213.0 
325.163147 47226.0 
330.009369 24431.0 
331.018951 16303.0 
345.022156 44287.0 
346.029114 193851.0 
383.046692 4886.0 
410.058105 13875.0 
415.209503 20358.0 
447.234344 31275.0 
450.090149 34350.0 
467.093506 17739.0 
468.101379 67876.0 
468.166351 5531.0 
478.093292 4485.0 
496.098206 23404.0 
536.13092 7941.0 
596.146423 36635.0 
624.224609 7516.0 
636.185791 6334.0 
654.184937 7100.0 
656.24054 5885.0 
660.216309 4277.0 
678.229553 64269.0 
692.240234 4377.0 
709.249817 6485.0 
710.254883 59409.0 
720.244995 7231.0 
737.725769 3977.0 
738.248535 339067.0 
741.263489 7431.0 
770.27478 1528236.0 
803.546936 3811.0 
END IONS

BEGIN IONS
NAME=2-(2-chloroacetylamino)-3-[6-(phenylmethoxy)indol-3-yl]propanoic acid CollisionEnergy:102040 2M-H
PRECURSOR_MZ=771.199
INCHI="InChI=1S/C20H19ClN2O4/c21-10-19(24)23-18(20(25)26)8-14-11-22-17-9-15(6-7-16(14)17)27-12-13-4-2-1-3-5-13/h1-7,9,11,18,22H,8,10,12H2,(H,23,24)(H,25,26)"
SMILES=O=C(O)C(Cc1c[nH]c2cc(OCc3ccccc3)ccc12)N=C(O)CCl
SPECTRUMID=CCMSLIB00010112768
57.505562 3014.0 
60.138741 2731.0 
69.340233 3821.0 
79.152489 3148.0 
92.381844 4190.0 
113.012001 19425.0 
113.380943 3470.0 
114.019623 29086.0 
120.014412 3458.0 
136.211487 4331.0 
163.232956 3414.0 
226.971298 3767.0 
258.065643 26320.0 
293.159546 3739.0 
349.119659 99070.0 
385.096558 527351.0 
536.483948 4720.0 
739.656921 3440.0 
END IONS

BEGIN IONS
NAME=2-Methoxy-4-{(4E)-4-[(tetrahydro-2-furanylmethyl)imino]-4H-chromen-2-yl}phenol CollisionEnergy:102040 M-e
PRECURSOR_MZ=351.147
INCHI="InChI=1S/C21H21NO4/c1-24-21-11-14(8-9-18(21)23)20-12-17(22-13-15-5-4-10-25-15)16-6-2-3-7-19(16)26-20/h2-3,6-9,11-12,15,23H,4-5,10,13H2,1H3/b22-17+"
SMILES=COc1cc(-c2cc(=NCC3CCCO3)c3ccccc3o2)ccc1O
SPECTRUMID=CCMSLIB00010103908
62.447369 2332.0 
71.899399 2282.0 
74.382378 2562.0 
81.085381 2423.0 
82.39386 2864.0 
85.829491 2514.0 
87.380363 2356.0 
92.372383 2920.0 
94.00106 2582.0 
104.280792 2442.0 
186.633148 2747.0 
266.081238 3373.0 
289.044525 2577.0 
322.143433 21118.0 
336.120483 3723.0 
337.131378 17817.0 
350.138 636879.0 
351.096191 3027.0 
351.1427 80497.0 
351.187836 4342.0 
352.153687 150294.0 
510.992157 2505.0 
END IONS

BEGIN IONS
NAME=Lobeline hydrochloride CollisionEnergy:102040 M+Na
PRECURSOR_MZ=360.193
INCHI="InChI=1S/C22H27NO2/c1-23-19(15-21(24)17-9-4-2-5-10-17)13-8-14-20(23)16-22(25)18-11-6-3-7-12-18/h2-7,9-12,19-21,24H,8,13-16H2,1H3/t19-,20?,21?/m0/s1"
SMILES=CN1C(CC(=O)c2ccccc2)CCCC1CC(O)c1ccccc1
SPECTRUMID=CCMSLIB00010104009
64.016273 3213.0 
65.379982 2608.0 
73.831367 2616.0 
84.060661 2274.0 
92.371613 3263.0 
92.879356 2549.0 
96.080673 42839.0 
98.096367 166162.0 
114.091217 9667.0 
118.644958 3008.0 
120.078308 13482.0 
143.046661 124638.0 
153.113785 2598.0 
215.182388 2282.0 
218.15358 305775.0 
228.021713 3130.0 
230.007629 2725.0 
240.135452 946479.0 
258.1474 4222.0 
281.162628 5408.0 
360.192688 999802.0 
END IONS

BEGIN IONS
NAME="8-{[(1Z)-2-(4-bromo-3-nitrophenyl)-1-azavinyl]amino}-2-amino-9-[3,4-dihydroxy- 5-(hydroxymethyl)oxolan-2-yl]hydropurin-6-one CollisionEnergy:102040" M-H
PRECURSOR_MZ=523.033
INCHI="InChI=1S/C17H17BrN8O7/c18-7-2-1-6(3-8(7)26(31)32)4-20-24-17-21-10-13(22-16(19)23-14(10)30)25(17)15-12(29)11(28)9(5-27)33-15/h1-4,9,11-12,15,27-29H,5H2,(H,21,24)(H3,19,22,23,30)/b20-4-"
SMILES=N=c1nc(O)c2nc(NN=Cc3ccc(Br)c([N+](=O)[O-])c3)n(C3OC(CO)C(O)C3O)c2[nH]1
SPECTRUMID=CCMSLIB00010113559
60.410511 3080.0 
61.514351 2795.0 
62.800739 2658.0 
64.327858 3061.0 
66.009277 32073.0 
78.918663 6879.0 
80.025146 3254.0 
82.040756 3513.0 
83.03643 5313.0 
93.020737 4120.0 
96.020264 13738.0 
104.304314 4315.0 
106.028572 5105.0 
120.031593 15624.0 
121.015617 7805.0 
121.040154 3404.0 
122.023613 21382.0 
122.047203 32129.0 
123.031357 25060.0 
133.015671 37205.0 
134.047836 3453.0 
135.804092 3116.0 
136.026657 3978.0 
138.030792 4052.0 
138.042252 93043.0 
141.041534 6372.0 
148.026672 153678.0 
149.034119 25379.0 
150.04216 135113.0 
152.057724 32013.0 
163.037354 42633.0 
164.022629 5170.0 
164.045288 378109.0 
165.053085 1331888.0 
175.037384 26005.0 
177.053497 21681.0 
178.037323 5669.0 
178.061127 13934.0 
179.068893 59771.0 
180.053009 12639.0 
189.053452 22546.0 
190.03688 4230.0 
192.053314 18900.0 
193.048065 18761.0 
206.056183 21557.0 
207.063705 149736.0 
219.063828 4297.0 
274.603271 3359.0 
296.087585 107703.0 
297.095062 146366.0 
297.132874 4700.0 
345.95816 15716.0 
348.96933 4794.0 
390.991058 487136.0 
523.033325 2790041.0 
END IONS

BEGIN IONS
NAME="methyl 4-(3-bromophenyl)-2,7,7-trimethyl-5-oxo-1,4,6,7,8-pentahydroquinoline-3 -carboxylate CollisionEnergy:102040" M-H
PRECURSOR_MZ=402.071
INCHI="InChI=1S/C20H22BrNO3/c1-11-16(19(24)25-4)17(12-6-5-7-13(21)8-12)18-14(22-11)9-20(2,3)10-15(18)23/h5-8,17,22H,9-10H2,1-4H3"
SMILES=COC(=O)C1=C(C)NC2=C(C(=O)CC(C)(C)C2)C1c1cccc(Br)c1
SPECTRUMID=CCMSLIB00010105625
61.311298 2795.0 
61.987961 17532.0 
66.741653 2804.0 
78.918663 1154647.0 
92.37381 3465.0 
96.929321 3423.0 
129.97583 30293.0 
152.071808 13702.0 
157.968277 2926.0 
164.071365 3469.0 
170.097687 5963.0 
177.078979 3124.0 
188.108643 16157.0 
192.274796 3195.0 
197.964111 4986.0 
200.108612 4177.0 
202.124802 4792.0 
203.015152 3235.0 
204.104019 6657.0 
208.324005 14171.0 
213.080246 3499.0 
214.086899 3340.0 
216.066788 4308.0 
218.119934 5897.0 
228.103897 33281.0 
230.082138 11706.0 
231.09079 11091.0 
246.113754 615238.0 
355.021851 5679.0 
364.838562 3602.0 
370.046265 38538.0 
402.071381 3236449.0 
END IONS

BEGIN IONS
NAME="14-(hydroxyethyl)-2,15-dimethyltetracyclo[8.7.0.0<2,7>.0<11,15>]heptadec-7-en- 5-yl acetate CollisionEnergy:205060" M-H+2Na
PRECURSOR_MZ=405.238
INCHI="InChI=1S/C23H36O3/c1-14(24)19-7-8-20-18-6-5-16-13-17(26-15(2)25)9-11-22(16,3)21(18)10-12-23(19,20)4/h5,14,17-21,24H,6-13H2,1-4H3"
SMILES=CC(=O)OC1CCC2(C)C(=CCC3C2CCC2(C)C(C(C)O)CCC32)C1
SPECTRUMID=CCMSLIB00010126038
55.156681 2447.0 
64.97776 18777.0 
80.070778 2237.0 
82.394234 2782.0 
90.777527 2550.0 
106.089844 2935.0 
109.076042 2689.0 
118.647659 2263.0 
127.578537 2591.0 
130.067734 3044.0 
146.05603 2504.0 
187.07312 64360.0 
200.952179 5479.0 
220.070419 11050.0 
228.099014 4506.0 
237.054901 5533.0 
247.805237 2884.0 
301.853729 2582.0 
405.114166 32524.0 
405.176544 20177.0 
405.242676 298636.0 
END IONS

BEGIN IONS
NAME=Indole-3-butyric acid CollisionEnergy:205060 M-H
PRECURSOR_MZ=202.087
INCHI="InChI=1S/C12H13NO2/c14-12(15)7-3-4-9-8-13-11-6-2-1-5-10(9)11/h1-2,5-6,8,13H,3-4,7H2,(H,14,15)"
SMILES=O=C(O)CCCc1c[nH]c2ccccc12
SPECTRUMID=CCMSLIB00010122201
72.793457 2445.0 
73.029327 4125.0 
73.967148 2946.0 
82.412498 2483.0 
113.310951 2321.0 
116.050423 148355.0 
120.012291 2158.0 
130.066147 3941.0 
142.068237 3780.0 
156.081573 8001.0 
158.097275 97624.0 
161.048355 4481.0 
184.076416 10917.0 
185.42572 2397.0 
202.087173 337010.0 
205.480545 1974.0 
209.816101 4525.0 
END IONS

BEGIN IONS
NAME="N-{[N-(2,6-dimethylphenyl)carbamoyl]cyclohexyl}(2-chlorophenyl)-N-(2-indol-3-y lethyl)carboxamide CollisionEnergy:205060" M-H
PRECURSOR_MZ=526.227
INCHI="InChI=1S/C32H34ClN3O2/c1-22-11-10-12-23(2)29(22)35-31(38)32(18-8-3-9-19-32)36(30(37)26-14-4-6-15-27(26)33)20-17-24-21-34-28-16-7-5-13-25(24)28/h4-7,10-16,21,34H,3,8-9,17-20H2,1-2H3,(H,35,38)"
SMILES=Cc1cccc(C)c1N=C(O)C1(N(CCc2c[nH]c3ccccc23)C(=O)c2ccccc2Cl)CCCCC1
SPECTRUMID=CCMSLIB00010123352
84.775833 3461.0 
96.033974 2863.0 
100.880127 3281.0 
104.297836 3724.0 
111.000633 4076.0 
120.081787 788329.0 
124.07637 5106.0 
146.061508 6809.0 
154.006561 7105.0 
182.097885 3860.0 
186.93013 2955.0 
210.128662 93971.0 
213.607635 3322.0 
228.13942 360374.0 
253.137573 2922.0 
271.145233 594238.0 
297.080292 5525.0 
383.15329 1561701.0 
414.218536 253968.0 
414.270477 3604.0 
525.984009 6206.0 
526.226379 345361.0 
728.581177 3289.0 
END IONS

BEGIN IONS
NAME=CCG-208458 CollisionEnergy:102040 M+H-H2O
PRECURSOR_MZ=337.107
INCHI="InChI=1S/C20H18O6/c1-3-15-17(25-9-23-15)5-11(1)19-13-7-22-20(14(13)8-21-19)12-2-4-16-18(6-12)26-10-24-16/h1-6,13-14,19-20H,7-10H2/t13-,14-,19?,20?/m0/s1"
SMILES=c1cc2c(cc1C1OCC3C(c4ccc5c(c4)OCO5)OCC13)OCO2
SPECTRUMID=CCMSLIB00010112858
52.134399 2858.0 
58.676102 2741.0 
71.049477 75920.0 
73.958008 4349.0 
79.054466 3736.0 
86.515198 2602.0 
91.053947 3283.0 
93.03167 3391.0 
107.048683 4020.0 
115.05423 4164.0 
119.049957 3334.0 
123.043556 7049.0 
129.06955 45384.0 
131.049164 12707.0 
133.028442 18357.0 
135.043961 1149673.0 
141.603592 3542.0 
143.049057 12340.0 
147.043976 26194.0 
149.023193 28391.0 
149.059601 80517.0 
151.038544 33354.0 
157.06459 74684.0 
159.044769 15508.0 
161.05983 39866.0 
163.038712 55387.0 
165.054626 14548.0 
173.042496 6304.0 
173.059586 192972.0 
174.067856 19572.0 
175.038971 42896.0 
175.074936 36204.0 
177.054321 57331.0 
185.059509 446250.0 
187.075272 189490.0 
189.05423 20195.0 
197.059418 61231.0 
202.079041 4375.0 
203.085205 93166.0 
205.100754 6483.0 
209.059677 85811.0 
211.074417 4227.0 
215.069916 301724.0 
216.885941 3000.0 
219.079819 48276.0 
221.09549 6315.0 
225.054321 4404.0 
231.080154 188911.0 
231.10672 6631.0 
233.095734 7127.0 
235.074936 16351.0 
237.054199 151703.0 
239.070633 13357.0 
246.067459 19277.0 
247.074738 43218.0 
249.090683 82896.0 
251.070007 6374.0 
253.048828 16795.0 
259.074768 80544.0 
261.090546 358545.0 
262.061676 23841.0 
263.069702 19496.0 
263.10379 3098.0 
266.056885 225459.0 
267.064728 748240.0 
271.074677 3800.0 
274.06189 43237.0 
276.076965 5811.0 
277.085358 171761.0 
279.065125 154184.0 
279.100922 23122.0 
280.073669 5295.0 
281.080505 24930.0 
289.085388 877140.0 
290.056366 4849.0 
291.064728 15969.0 
292.072662 12180.0 
293.0802 64636.0 
303.065186 7580.0 
304.07254 84793.0 
306.088562 5499.0 
307.095795 243397.0 
309.111908 63906.0 
319.095856 921275.0 
337.106384 1309816.0 
337.232849 93311.0 
END IONS

BEGIN IONS
NAME="(2E)-3-(3,4-dichlorophenyl)-1-(1-hydroxy(2-naphthyl))prop-2-en-1-one CollisionEnergy:205060" M+H
PRECURSOR_MZ=343.029
INCHI="InChI=1S/C19H12Cl2O2/c20-16-9-5-12(11-17(16)21)6-10-18(22)15-8-7-13-3-1-2-4-14(13)19(15)23/h1-11,23H/b10-6+"
SMILES=O=C(C=Cc1ccc(Cl)c(Cl)c1)c1ccc2ccccc2c1O
SPECTRUMID=CCMSLIB00010125621
53.440701 2401.0 
66.743813 2394.0 
66.934151 2376.0 
68.113701 2336.0 
80.916786 2382.0 
80.948036 5427.0 
92.377228 3307.0 
103.92852 2169.0 
115.054283 131806.0 
115.781082 2372.0 
130.041153 10880.0 
136.007355 95336.0 
136.01857 4407.0 
140.32016 2316.0 
141.070297 3741.0 
143.049072 127161.0 
158.976395 26204.0 
163.005783 3164.0 
164.381577 2915.0 
169.065369 2594.0 
170.976257 202571.0 
171.044006 218856.0 
189.054352 41763.0 
197.060196 4333.0 
198.9711 161896.0 
212.001907 3296.0 
226.076828 11531.0 
227.085861 12673.0 
255.080139 26411.0 
262.054169 133519.0 
289.040863 76239.0 
290.048981 101210.0 
297.023895 3650.0 
303.205322 8939.0 
325.0177 176504.0 
343.028442 393425.0 
END IONS

BEGIN IONS
NAME="6,8-dibromo-2-(4-chlorophenyl)chromen-4-one CollisionEnergy:102040" M+H
PRECURSOR_MZ=412.857
INCHI=InChI=1S/C15H7Br2ClO2/c16-9-5-11-13(19)7-14(20-15(11)12(17)6-9)8-1-3-10(18)4-2-8/h1-7H
SMILES=O=c1cc(-c2ccc(Cl)cc2)oc2c(Br)cc(Br)cc12
SPECTRUMID=CCMSLIB00010114044
58.270569 2540.0 
59.974361 2569.0 
62.358379 2987.0 
71.042976 2514.0 
78.269341 2888.0 
82.407967 2615.0 
88.566353 2781.0 
104.296227 3610.0 
121.751732 2989.0 
136.222153 3888.0 
137.015167 6157.0 
168.923431 2934.0 
197.931976 5631.0 
215.941635 28505.0 
276.069916 3059.0 
276.848724 10636.0 
298.969788 48697.0 
305.94339 82365.0 
332.930511 43163.0 
333.938599 135652.0 
366.834808 3959.0 
367.186096 3745.0 
412.856934 3696336.0 
413.265564 13051.0 
453.884644 3315.0 
478.058228 3900.0 
737.109436 3239.0 
END IONS

BEGIN IONS
NAME=Monoolein CollisionEnergy:205060 M+H-H2O
PRECURSOR_MZ=339.289
INCHI="InChI=1S/C21H40O4/c1-2-3-4-5-6-7-8-9-10-11-12-13-14-15-16-17-21(24)25-19-20(23)18-22/h9-10,20,22-23H,2-8,11-19H2,1H3/b10-9-"
SMILES=CCCCCCCCC=CCCCCCCCC(=O)OCC(O)CO
SPECTRUMID=CCMSLIB00010124858
51.059269 8655.0 
53.002991 19815.0 
53.039261 19363.0 
55.018539 11034.0 
55.054939 803770.0 
57.034199 422096.0 
57.067379 13312.0 
57.07058 340061.0 
59.049789 10462.0 
63.671909 7653.0 
66.050339 9292.0 
67.054893 553364.0 
67.82962 7772.0 
69.070534 1129607.0 
70.474792 7998.0 
71.049744 34993.0 
71.086159 143161.0 
79.054764 235536.0 
81.07048 556964.0 
83.049797 11094.0 
83.086128 606749.0 
85.065079 31371.0 
85.101631 67834.0 
91.05471 54071.0 
93.070328 277819.0 
95.085991 555079.0 
97.065224 119309.0 
97.10157 301085.0 
99.080673 16809.0 
107.085823 165767.0 
109.101471 212149.0 
111.080971 62068.0 
111.117233 74182.0 
117.215248 8562.0 
121.101257 230754.0 
123.117287 75057.0 
125.096458 36466.0 
135.116776 190363.0 
137.132736 33170.0 
139.111786 35865.0 
149.132614 76337.0 
151.14772 34753.0 
153.126663 11642.0 
157.992523 8827.0 
163.147995 40963.0 
165.164154 13449.0 
167.142914 11125.0 
177.164047 14429.0 
191.179596 11540.0 
220.098129 8609.0 
247.241806 126993.0 
265.252075 316387.0 
266.961853 8863.0 
339.289001 2454015.0 
END IONS

BEGIN IONS
NAME=3-Hydroxy-7-methoxyflavone CollisionEnergy:102040 M+H
PRECURSOR_MZ=269.081
INCHI="InChI=1S/C16H12O4/c1-19-11-7-8-12-13(9-11)20-16(15(18)14(12)17)10-5-3-2-4-6-10/h2-9,18H,1H3"
SMILES=COc1ccc2c(=O)c(O)c(-c3ccccc3)oc2c1
SPECTRUMID=CCMSLIB00010105974
79.017998 5506.0 
79.588966 2299.0 
84.96035 3090.0 
107.012863 37962.0 
133.063782 2833.0 
134.072754 47713.0 
135.007812 20733.0 
135.043823 11793.0 
137.023026 8291.0 
137.2612 2298.0 
153.018402 142432.0 
153.799713 2414.0 
161.023651 9240.0 
161.061356 2349.0 
171.080612 2952.0 
173.059647 3288.0 
181.064926 2902.0 
195.080551 5390.0 
199.075409 8811.0 
210.065643 2747.0 
213.09169 22484.0 
223.075653 26691.0 
225.090057 3714.0 
227.069763 39603.0 
230.910812 2461.0 
236.046524 9319.0 
241.085861 178934.0 
251.070023 86048.0 
254.055283 3538.0 
269.080688 363192.0 
269.208313 4590.0 
292.745056 2215.0 
352.462738 2523.0 
END IONS

BEGIN IONS
NAME="(2E)-3-(4,7-dimethoxy(2H-benzo[d]1,3-dioxolen-5-yl))-1-(4-fluorophenyl)prop-2- en-1-one CollisionEnergy:205060" M-e
PRECURSOR_MZ=330.09
INCHI="InChI=1S/C18H15FO5/c1-21-15-9-12(16(22-2)18-17(15)23-10-24-18)5-8-14(20)11-3-6-13(19)7-4-11/h3-9H,10H2,1-2H3/b8-5+"
SMILES=COc1cc(C=CC(=O)c2ccc(F)cc2)c(OC)c2c1OCO2
SPECTRUMID=CCMSLIB00010125962
65.039101 4098.0 
84.959793 2627.0 
89.038567 3932.0 
89.281708 2673.0 
92.049629 10227.0 
93.008247 2583.0 
98.984207 5687.0 
101.552963 2881.0 
103.054283 19578.0 
108.056976 2980.0 
110.059624 2385.0 
110.713638 2717.0 
115.201263 2416.0 
118.06514 12169.0 
120.044434 247707.0 
121.028343 37172.0 
131.048798 4666.0 
132.056854 73125.0 
143.025635 5094.0 
146.060043 149415.0 
147.043716 11914.0 
152.002823 22339.0 
160.051865 65554.0 
162.054489 27591.0 
167.025894 303957.0 
171.019653 3866.0 
188.070618 127966.0 
195.020737 349772.0 
254.281326 2407.0 
255.044174 20665.0 
270.067596 24824.0 
271.052948 3011.0 
273.055542 3140.0 
280.368469 2626.0 
288.079163 31257.0 
289.060577 3942.0 
312.077545 4088.0 
330.088562 467312.0 
END IONS

BEGIN IONS
NAME=N-[(4-bromophenyl)phenylmethyl]-2-{1-[(4-chlorophenyl)carbonyl]-5-methoxy-2-me thylindol-3-yl}acetamide CollisionEnergy:102040 M+H
PRECURSOR_MZ=601.089
INCHI="InChI=1S/C32H26BrClN2O3/c1-20-27(19-30(37)35-31(21-6-4-3-5-7-21)22-8-12-24(33)13-9-22)28-18-26(39-2)16-17-29(28)36(20)32(38)23-10-14-25(34)15-11-23/h3-18,31H,19H2,1-2H3,(H,35,37)"
SMILES=COc1ccc2c(c1)c(CC(O)=NC(c1ccccc1)c1ccc(Br)cc1)c(C)n2C(=O)c1ccc(Cl)cc1
SPECTRUMID=CCMSLIB00010113671
117.399628 3976.0 
118.602303 4595.0 
119.745483 3904.0 
136.232803 4614.0 
138.994461 111416.0 
139.006485 8317.0 
139.997559 4601.0 
165.069321 221803.0 
166.077515 1862537.0 
231.735809 4690.0 
244.005203 8139.0 
244.995636 12479746.0 
245.994095 8999.0 
246.994003 10049.0 
312.078827 6901.0 
313.082306 9140.0 
531.536926 5233.0 
601.087891 2665021.0 
END IONS

BEGIN IONS
NAME=N-(3-chloro-4-fluorophenyl)-2-[2-oxo-4-(piperidylcarbonyl)hydroquinolyl]acetam ide CollisionEnergy:205060 M-H
PRECURSOR_MZ=440.118
INCHI="InChI=1S/C23H21ClFN3O3/c24-18-12-15(8-9-19(18)25)26-21(29)14-28-20-7-3-2-6-16(20)17(13-22(28)30)23(31)27-10-4-1-5-11-27/h2-3,6-9,12-13H,1,4-5,10-11,14H2,(H,26,29)"
SMILES=O=C(c1cc(=O)n(CC(O)=Nc2ccc(F)c(Cl)c2)c2ccccc12)N1CCCCC1
SPECTRUMID=CCMSLIB00010124273
65.175072 2795.0 
88.945107 2910.0 
116.050377 5452.0 
128.050674 891286.0 
130.066391 7864.0 
131.037582 15803.0 
136.262772 3086.0 
142.066544 31290.0 
144.002243 189813.0 
144.045517 134939.0 
146.061356 82996.0 
156.045654 145521.0 
157.05336 298028.0 
158.02533 12599.0 
158.061813 6890.0 
160.210388 2918.0 
167.062241 4548.0 
169.981613 5682.0 
172.040527 222378.0 
174.055862 49504.0 
176.035797 15121.0 
183.032639 7126.0 
184.04039 733292.0 
185.047867 37773.0 
200.032028 3024.0 
202.05072 14512.0 
209.108749 5014.0 
212.035599 5304.0 
225.14032 19608.0 
226.124115 20123.0 
227.118866 96412.0 
235.926224 4416.0 
237.103546 57270.0 
239.119247 6672.0 
240.105118 4238.0 
241.134567 101833.0 
243.111221 3931.0 
255.113983 865175.0 
269.129303 171582.0 
271.108704 78192.0 
295.108673 252954.0 
295.147003 6502.0 
320.668365 3404.0 
412.125336 3218.0 
440.118286 2183038.0 
END IONS

BEGIN IONS
NAME=N-(3-chloro-4-fluorophenyl)-2-(9-ethyl-6-oxohydropurin-8-ylthio)acetamide CollisionEnergy:205060 M-H
PRECURSOR_MZ=380.039
INCHI="InChI=1S/C15H13ClFN5O2S/c1-2-22-13-12(14(24)19-7-18-13)21-15(22)25-6-11(23)20-8-3-4-10(17)9(16)5-8/h3-5,7H,2,6H2,1H3,(H,20,23)(H,18,19,24)"
SMILES=CCn1c(SCC(O)=Nc2ccc(F)c(Cl)c2)nc2c(O)ncnc21
SPECTRUMID=CCMSLIB00010121147
55.1548 3164.0 
57.885132 2635.0 
57.975109 30376.0 
65.014191 11397.0 
86.647476 2574.0 
92.025322 11745.0 
92.369682 3585.0 
93.045891 37704.0 
118.097603 2790.0 
118.645126 3599.0 
123.997513 11066.0 
133.889664 2824.0 
134.023376 4673.0 
135.031219 194751.0 
136.194305 2666.0 
137.005249 5803.0 
138.012955 5794.0 
139.033096 4778.0 
144.002487 3527.0 
146.961517 4276.0 
149.046173 3237.0 
152.028778 45854.0 
161.046646 14325.0 
163.062531 149436.0 
165.995575 25058.0 
166.044312 25941.0 
167.00325 115485.0 
168.997818 14919.0 
173.047104 5373.0 
179.003281 329472.0 
179.057434 16148.0 
179.99263 53489.0 
180.009689 4365.0 
180.124054 3226.0 
181.018295 4048.0 
182.989166 118179.0 
187.974075 24497.0 
193.018448 4632.0 
194.026733 425166.0 
195.034561 604292.0 
196.012482 2708.0 
207.034851 27828.0 
208.619278 12780.0 
209.050171 112718.0 
215.969284 135387.0 
235.030228 67673.0 
237.303665 2667.0 
278.024872 90547.0 
306.056396 108151.0 
322.031555 4674.0 
336.51767 2697.0 
337.032959 6612.0 
380.038818 411865.0 
END IONS

BEGIN IONS
NAME=Eriocitrin CollisionEnergy:102040 M+Na
PRECURSOR_MZ=619.163
INCHI="InChI=1S/C27H32O15/c1-9-20(32)22(34)24(36)26(39-9)38-8-18-21(33)23(35)25(37)27(42-18)40-11-5-14(30)19-15(31)7-16(41-17(19)6-11)10-2-3-12(28)13(29)4-10/h2-6,9,16,18,20-30,32-37H,7-8H2,1H3/t9-,16-,18+,20-,21+,22+,23-,24+,25+,26+,27+/m0/s1"
SMILES=CC1OC(OCC2OC(Oc3cc(O)c4c(c3)OC(c3ccc(O)c(O)c3)CC4=O)C(O)C(O)C2O)C(O)C(O)C1O
SPECTRUMID=CCMSLIB00010113003
50.428638 2964.0 
53.42189 3749.0 
59.132389 2819.0 
66.745163 3702.0 
82.399963 3538.0 
92.5467 3280.0 
118.657257 3801.0 
175.000275 7941.0 
198.563232 4217.0 
253.763504 3128.0 
286.465668 3354.0 
311.053619 29082.0 
331.099548 91357.0 
337.053253 21211.0 
431.09433 3148.0 
473.102142 6764.0 
474.727051 3250.0 
483.110992 21701.0 
619.163086 4309611.0 
END IONS

BEGIN IONS
NAME="2-{5-[(6-chloro(2H-benzo[d]1,3-dioxolen-5-yl))methylene]-2,4-dioxo(1,3-thiazol idin-3-yl)}-N-(4-methylphenyl)acetamide CollisionEnergy:102040" M+Cl
PRECURSOR_MZ=465.008
INCHI="InChI=1S/C20H15ClN2O5S/c1-11-2-4-13(5-3-11)22-18(24)9-23-19(25)17(29-20(23)26)7-12-6-15-16(8-14(12)21)28-10-27-15/h2-8H,9-10H2,1H3,(H,22,24)/b17-7+"
SMILES=Cc1ccc(NC(=O)CN2C(=O)SC(=Cc3cc4c(cc3Cl)OCO4)C2=O)cc1
SPECTRUMID=CCMSLIB00010113100
60.06012 2424.0 
66.749496 2887.0 
68.995369 3872.0 
73.962158 2828.0 
90.93309 5779.0 
92.388138 3032.0 
112.985748 12895.0 
118.992523 2791.0 
125.7258 2127.0 
146.923279 4493.0 
157.986404 2722.0 
166.934662 3127.0 
192.92894 9861.0 
203.947388 2309.0 
260.917175 3138.0 
289.90683 3176.0 
328.90329 11852.0 
334.583527 2452.0 
334.990051 2683.0 
365.507782 2909.0 
378.981262 3121.0 
388.185211 2642.0 
404.978424 2497.0 
424.983704 2839.0 
429.030731 3860.0 
436.015503 2471.0 
444.974487 5043.0 
464.985046 29800.0 
END IONS

BEGIN IONS
NAME="bis[(3,5-dimethoxyphenyl)methyl]amine CollisionEnergy:205060" 2M+H
PRECURSOR_MZ=635.333
INCHI="InChI=1S/C18H23NO4/c1-20-15-8-13(9-16(10-15)21-2)11-19-12-14-6-5-7-17(22-3)18(14)23-4/h5-10,19H,11-12H2,1-4H3"
SMILES=COc1cc(CNCc2cccc(OC)c2OC)cc(OC)c1
SPECTRUMID=CCMSLIB00010115401
53.038952 3314.0 
57.685219 3033.0 
65.038963 4976.0 
71.952347 3454.0 
76.834312 3411.0 
78.046883 3213.0 
91.054367 86333.0 
92.365913 4741.0 
93.069946 16514.0 
104.276047 3601.0 
109.064568 6074.0 
121.064957 37597.0 
123.080643 31208.0 
135.043961 67072.0 
135.080795 6919.0 
136.051941 1282963.0 
139.075317 17594.0 
151.075333 325554.0 
157.948517 3322.0 
165.09108 46020.0 
166.085953 5130.0 
180.10025 3499.0 
238.099152 15909.0 
242.74559 3269.0 
254.092819 4934.0 
269.117126 12541.0 
301.143158 113298.0 
318.169495 636186.0 
662.765442 3473.0 
END IONS

BEGIN IONS
NAME="(3,5-dimethoxyphenyl)-N-(3-carbazol-9-ylpropyl)carboxamide CollisionEnergy:205060" M+H
PRECURSOR_MZ=389.186
INCHI="InChI=1S/C24H24N2O3/c1-28-18-14-17(15-19(16-18)29-2)24(27)25-12-7-13-26-22-10-5-3-8-20(22)21-9-4-6-11-23(21)26/h3-6,8-11,14-16H,7,12-13H2,1-2H3,(H,25,27)"
SMILES=COc1cc(OC)cc(C(O)=NCCCn2c3ccccc3c3ccccc32)c1
SPECTRUMID=CCMSLIB00010118388
51.023548 5442.0 
53.039059 52122.0 
58.554939 2824.0 
65.039017 4371.0 
66.046661 7612.0 
68.025948 17279.0 
69.034027 3637.0 
77.038857 12826.0 
78.871101 3032.0 
79.017967 17313.0 
79.054527 63165.0 
81.033623 5714.0 
81.070007 13517.0 
92.025772 26310.0 
93.033127 5209.0 
94.041397 38019.0 
95.049057 27391.0 
105.033546 6871.0 
107.012779 24265.0 
107.04895 6896.0 
109.06472 90868.0 
114.956741 2900.0 
122.036148 577157.0 
124.051498 3426.0 
125.05954 112873.0 
135.054932 35438.0 
137.059235 26279.0 
151.075089 16009.0 
155.07016 1259713.0 
158.014908 3046.0 
165.054565 3002057.0 
178.086304 17660.0 
180.080414 19270.0 
222.112259 1855306.0 
223.259155 2827.0 
389.185089 164697.0 
389.23819 7083.0 
END IONS

BEGIN IONS
NAME=AC1ODT5K CollisionEnergy:205060 2M-H
PRECURSOR_MZ=715.422
INCHI="InChI=1S/C22H30O4/c1-14(2)22(25)12-11-21(4)10-9-15(3)13-18(19(21)22)26-20(24)16-5-7-17(23)8-6-16/h5-9,14,18-19,23,25H,10-13H2,1-4H3/t18-,19-,21-,22+/m0/s1"
SMILES=CC1=CCC2(C)CCC(O)(C(C)C)C2C(OC(=O)c2ccc(O)cc2)C1
SPECTRUMID=CCMSLIB00010118408
66.755798 3688.0 
74.872368 3048.0 
83.968697 2789.0 
93.034439 114372.0 
108.021851 3284.0 
129.713455 3516.0 
136.016479 14455.0 
137.024216 100229.0 
149.097336 24198.0 
208.666611 11069.0 
219.175537 17742.0 
352.680969 3539.0 
357.20697 172341.0 
357.256805 5908.0 
427.374268 3275.0 
540.51239 3183.0 
628.347778 3311.0 
END IONS

BEGIN IONS
NAME="3,6-Dimethyl-4-hydroxycoumarin CollisionEnergy:205060" M-H
PRECURSOR_MZ=189.056
INCHI="InChI=1S/C11H10O3/c1-6-3-4-9-8(5-6)10(12)7(2)11(13)14-9/h3-5,12H,1-2H3"
SMILES=Cc1ccc2oc(=O)c(C)c(O)c2c1
SPECTRUMID=CCMSLIB00010116143
52.880421 1998.0 
60.551071 2019.0 
74.994171 2248.0 
103.450333 2803.0 
130.042465 13087.0 
136.238495 2295.0 
142.916214 2201.0 
144.898605 2833.0 
145.065948 321566.0 
160.892334 4442.0 
176.518906 1991.0 
189.055832 227898.0 
192.656372 2276.0 
END IONS

BEGIN IONS
NAME="N-[4-(trifluoromethyl)phenyl](3,4,5-trimethoxyphenyl)carboxamide CollisionEnergy:102040" M+Cl
PRECURSOR_MZ=390.073
INCHI="InChI=1S/C17H16F3NO4/c1-23-13-8-10(9-14(24-2)15(13)25-3)16(22)21-12-6-4-11(5-7-12)17(18,19)20/h4-9H,1-3H3,(H,21,22)"
SMILES=COc1cc(C(=O)Nc2ccc(C(F)(F)F)cc2)cc(OC)c1OC
SPECTRUMID=CCMSLIB00010106295
62.21114 2513.0 
68.161972 2515.0 
73.956123 2585.0 
101.342972 2305.0 
107.343422 2371.0 
118.658829 2626.0 
121.009041 2826.0 
125.892647 2388.0 
209.292953 9077.0 
294.181488 2880.0 
324.049103 68745.0 
338.064911 16095.0 
339.072113 55454.0 
354.096069 436949.0 
389.98703 3549.0 
390.071594 19924.0 
END IONS

BEGIN IONS
NAME=(4-fluorophenyl)-N-[2-(5-methoxy-2-methylindol-3-yl)ethyl]carboxamide CollisionEnergy:102040 M+Na
PRECURSOR_MZ=349.132
INCHI="InChI=1S/C19H19FN2O2/c1-12-16(17-11-15(24-2)7-8-18(17)22-12)9-10-21-19(23)13-3-5-14(20)6-4-13/h3-8,11,22H,9-10H2,1-2H3,(H,21,23)"
SMILES=COc1ccc2[nH]c(C)c(CCNC(=O)c3ccc(F)cc3)c2c1
SPECTRUMID=CCMSLIB00010106637
50.02821 2972.0 
52.243851 2468.0 
60.860279 3214.0 
92.381477 3134.0 
128.474121 2881.0 
132.080948 6132.0 
173.971054 3458.0 
174.091446 20648.0 
216.101852 6460.0 
290.558289 3082.0 
334.109497 11515.0 
347.446808 4195.0 
349.131805 6429782.0 
350.828064 4469.0 
END IONS

BEGIN IONS
NAME=L-phenylalanine CollisionEnergy:102040 M+H
PRECURSOR_MZ=166.086
INCHI="InChI=1S/C9H11NO2/c10-8(9(11)12)6-7-4-2-1-3-5-7/h1-5,8H,6,10H2,(H,11,12)/t8-/m0/s1"
SMILES=N[C@@H](Cc1ccccc1)C(=O)O
SPECTRUMID=CCMSLIB00010102887
51.8479 253857.0 
61.729301 255641.0 
64.970596 279496.0 
73.967697 296374.0 
78.9851 580462.0 
79.054901 452525.0 
93.070396 688628.0 
96.995598 6353560.0 
103.055 5378370.0 
107.050003 3684080.0 
120.081001 203614000.0 
127.318001 273997.0 
131.048996 8020060.0 
148.078995 11025800.0 
149.059006 2352390.0 
159.764999 282222.0 
166.089005 22432900.0 
END IONS

BEGIN IONS
NAME=genistein CollisionEnergy:102040 M+H
PRECURSOR_MZ=271.06
INCHI="InChI=1S/C15H10O5/c16-9-3-1-8(2-4-9)11-7-20-13-6-10(17)5-12(18)14(13)15(11)19/h1-7,16-18H"
SMILES=O=c1c(-c2ccc(O)cc2)coc2cc(O)cc(O)c12
SPECTRUMID=CCMSLIB00010106534
51.194069 2379.0 
52.375389 2476.0 
56.968781 2531.0 
75.953377 2623.0 
85.563316 2383.0 
92.360977 3755.0 
108.99736 2582.0 
111.008072 2379.0 
119.049919 3233.0 
145.028061 10588.0 
149.023087 20635.0 
153.017868 53445.0 
159.043106 4866.0 
187.036774 2414.0 
215.069763 40527.0 
225.052872 2943.0 
236.386353 3220.0 
243.064301 44173.0 
245.389801 4450.0 
247.892242 3953.0 
253.049164 14870.0 
256.900116 4678.0 
268.456818 2758.0 
271.05957 2326117.0 
END IONS

BEGIN IONS
NAME=Isovincamine CollisionEnergy:205060 M+H
PRECURSOR_MZ=355.202
INCHI="InChI=1S/C21H26N2O3/c1-3-20-10-6-11-22-12-9-15-14-7-4-5-8-16(14)23(17(15)18(20)22)21(25,13-20)19(24)26-2/h4-5,7-8,18,25H,3,6,9-13H2,1-2H3"
SMILES=CCC12CCCN3CCc4c(n(c5ccccc45)C(O)(C(=O)OC)C1)C32
SPECTRUMID=CCMSLIB00010115447
55.054649 3797.0 
56.04985 6543.0 
59.493969 3061.0 
67.054543 10638.0 
68.049728 6393.0 
69.056877 2617.0 
70.065514 75320.0 
76.058067 2696.0 
79.054314 12087.0 
82.065117 16635.0 
82.39975 4093.0 
83.049347 29806.0 
84.081047 48328.0 
88.01828 2891.0 
88.588249 3249.0 
91.054199 13422.0 
92.377762 3356.0 
93.070053 25422.0 
95.048553 3407.0 
95.085274 24318.0 
96.080841 12033.0 
98.096428 7265.0 
103.054497 3158.0 
104.284637 3931.0 
105.069649 16641.0 
106.065269 2814.0 
107.085243 14783.0 
108.080727 6894.0 
110.096542 38984.0 
111.104332 3342.0 
112.112167 4672.0 
117.069908 22988.0 
119.084602 5213.0 
120.080467 4673.0 
121.064407 6978.0 
122.059776 21175.0 
122.096352 23373.0 
123.079842 14608.0 
124.075348 3967.0 
124.111977 28481.0 
129.069565 5405.0 
130.065002 32774.0 
132.080475 20149.0 
133.064575 4325.0 
134.096298 35570.0 
135.080444 20253.0 
136.111374 3797.0 
143.072952 11032.0 
144.080673 299858.0 
146.09668 6239.0 
148.075378 3238.0 
150.091431 13281.0 
152.106888 83072.0 
154.085251 4146.0 
156.080505 20739.0 
157.088135 3997.0 
158.09642 42764.0 
160.111618 4146.0 
162.091492 21026.0 
167.070541 5156.0 
168.081024 14836.0 
169.088638 4315.0 
170.059647 6042.0 
170.096878 23441.0 
171.09079 6441.0 
172.111511 6246.0 
177.091797 4777.0 
177.181244 3109.0 
180.080643 23615.0 
180.099503 2720.0 
181.087814 17651.0 
182.080627 4959.0 
182.096512 26031.0 
183.103928 6265.0 
184.111572 21399.0 
186.126877 5385.0 
192.080887 4782.0 
192.100327 2909.0 
193.087387 4739.0 
194.096146 22699.0 
194.117065 15157.0 
195.1035 12777.0 
196.094467 3403.0 
196.112366 21163.0 
198.127594 13547.0 
202.085434 4116.0 
204.079773 3331.0 
205.088562 6751.0 
206.095749 19292.0 
206.115631 3811.0 
207.103714 13753.0 
208.076538 3424.0 
208.111557 49417.0 
209.120239 53479.0 
210.091492 2931.0 
210.128555 28606.0 
212.105988 17330.0 
212.127838 37720.0 
214.085495 18347.0 
218.096085 5694.0 
218.870071 3837.0 
219.104156 19490.0 
220.112259 30213.0 
221.120621 23368.0 
222.09169 3202.0 
222.127914 58920.0 
223.122437 17521.0 
224.130936 82263.0 
226.122437 20963.0 
231.10405 4044.0 
232.110565 5994.0 
234.09024 3478.0 
234.12735 49428.0 
235.134689 14270.0 
236.107025 12024.0 
236.143753 50443.0 
237.136856 37637.0 
238.086472 7137.0 
238.121399 16568.0 
238.145798 4449.0 
239.067032 4137.0 
239.092804 34493.0 
240.100876 4309.0 
245.117996 3191.0 
245.841721 3636.0 
246.126907 13807.0 
247.123383 3412.0 
248.145142 31584.0 
249.138184 12240.0 
250.084183 3171.0 
250.158417 13790.0 
251.092636 3930.0 
251.152023 21927.0 
252.102127 23498.0 
252.135269 8171.0 
253.109634 16688.0 
253.170151 35727.0 
254.087784 4077.0 
254.116821 47080.0 
260.143402 5636.0 
262.121765 6184.0 
262.149841 4824.0 
264.101868 31042.0 
264.132507 4440.0 
265.1091 73009.0 
265.169647 18283.0 
266.116882 47999.0 
266.151062 21714.0 
267.124207 58585.0 
268.132812 122556.0 
276.133972 4729.0 
277.169037 33303.0 
278.118835 26333.0 
279.124786 69853.0 
280.132812 296003.0 
282.148804 4152.0 
290.116608 10565.0 
291.124786 7193.0 
292.132202 29346.0 
293.139099 17066.0 
294.148254 233350.0 
295.17981 88913.0 
306.147644 6169.0 
307.143524 22957.0 
308.161438 123779.0 
309.161072 3920.0 
310.179565 3633.0 
320.164917 10447.0 
325.189819 12265.0 
326.174286 15302.0 
337.190277 254459.0 
338.17453 6507.0 
355.201019 2130730.0 
END IONS

BEGIN IONS
NAME="3',4',6,7-Tetramethoxyisoflavone CollisionEnergy:205060" M+H
PRECURSOR_MZ=343.118
INCHI="InChI=1S/C19H18O6/c1-21-14-6-5-11(7-16(14)22-2)13-10-25-15-9-18(24-4)17(23-3)8-12(15)19(13)20/h5-10H,1-4H3"
SMILES=COc1ccc(-c2coc3cc(OC)c(OC)cc3c2=O)cc1OC
SPECTRUMID=CCMSLIB00010117740
56.926689 3601.0 
68.997467 5109.0 
70.583893 3573.0 
79.054413 4735.0 
85.028717 5149.0 
91.054237 6822.0 
92.392517 4836.0 
95.049118 6940.0 
98.554062 3850.0 
105.033882 4027.0 
107.049133 79049.0 
108.056908 4536.0 
109.028664 12467.0 
110.035789 6096.0 
118.041222 7654.0 
118.675194 5927.0 
121.028442 6519.0 
123.043777 22150.0 
125.023079 4290.0 
125.059532 37093.0 
131.049362 5530.0 
133.028412 7244.0 
135.044342 28658.0 
136.05188 8392.0 
137.023361 41970.0 
137.059555 17338.0 
138.067551 25608.0 
141.068893 5116.0 
145.028641 28539.0 
147.043976 15450.0 
148.051926 117286.0 
149.023071 25108.0 
149.059708 21700.0 
151.038223 5493.0 
151.075409 153820.0 
152.047058 34979.0 
153.055176 44678.0 
153.068787 7438.0 
154.025742 4928.0 
155.085907 7083.0 
162.030609 5044.0 
162.067535 15102.0 
163.03894 33812.0 
163.075287 22750.0 
164.04628 6746.0 
165.018372 6254.0 
165.05455 26478.0 
165.069763 28694.0 
167.034332 4781.0 
169.064453 16193.0 
171.080475 7231.0 
173.022491 13866.0 
175.03891 5793.0 
177.055145 13566.0 
178.062576 5832.0 
179.069336 4455.0 
180.041977 31643.0 
181.049438 164338.0 
181.065323 25438.0 
182.072708 15384.0 
183.028976 87254.0 
183.080231 44958.0 
185.060196 4076.0 
191.033859 308581.0 
191.066589 11464.0 
195.08075 16518.0 
196.051254 4499.0 
197.05928 59422.0 
198.052002 308019.0 
199.075562 20789.0 
201.09079 5754.0 
205.049118 19866.0 
206.057373 375932.0 
207.06456 26832.0 
209.059509 7665.0 
210.067932 18443.0 
211.058838 29375.0 
211.07843 64281.0 
212.083176 29808.0 
213.056274 6207.0 
213.090805 86642.0 
221.060806 6448.0 
222.041 3858.0 
222.067154 3578.0 
223.075806 19593.0 
224.046844 6905.0 
225.055054 43106.0 
225.090927 16759.0 
226.060883 16339.0 
227.070221 42662.0 
228.078888 8301.0 
229.086792 41740.0 
236.082428 16030.0 
237.054855 47508.0 
238.062042 40048.0 
239.070511 131700.0 
240.052658 3942.0 
240.077942 43625.0 
241.055588 7268.0 
241.085709 182847.0 
242.057037 16061.0 
243.069916 5846.0 
243.101425 139088.0 
244.073441 6742.0 
246.97435 3606.0 
249.054459 15436.0 
251.069977 26712.0 
252.041382 15520.0 
253.049377 27695.0 
253.08577 15530.0 
254.06015 7485.0 
254.093506 24185.0 
255.065231 140387.0 
255.097534 9675.0 
256.072784 16483.0 
256.109131 15957.0 
257.080658 226640.0 
258.086823 7611.0 
264.076233 3950.0 
265.049408 58505.0 
265.081573 5648.0 
266.05719 105264.0 
267.032593 7695.0 
267.065094 197999.0 
268.072906 26913.0 
269.045013 19258.0 
269.0802 150082.0 
270.052765 32866.0 
270.088654 62863.0 
271.096069 94062.0 
272.104095 25633.0 
279.064819 18826.0 
280.037567 5264.0 
280.070984 4409.0 
281.080505 718046.0 
282.052124 16327.0 
282.08786 137780.0 
283.024506 7262.0 
283.060425 207048.0 
283.096344 27595.0 
284.067902 131910.0 
284.104279 53066.0 
285.075775 133701.0 
286.082214 6906.0 
287.091187 6009.0 
287.127655 166004.0 
293.044525 21787.0 
294.051727 68653.0 
295.059967 104309.0 
296.067657 45327.0 
297.039734 17142.0 
297.075317 136773.0 
297.111359 7032.0 
298.04599 21824.0 
298.081512 8055.0 
299.091187 1219707.0 
300.098907 14856.0 
309.075287 253568.0 
310.083099 152664.0 
310.121674 6795.0 
311.05423 89536.0 
311.091705 131146.0 
312.062164 118300.0 
312.097443 9748.0 
313.070312 321549.0 
314.078278 109964.0 
315.083679 4508.0 
325.069946 31973.0 
327.086121 3815406.0 
328.093628 139856.0 
343.117371 7062121.0 
351.901703 4171.0 
END IONS

BEGIN IONS
NAME=N-(4-fluorophenyl)(2-iminochromen-3-yl)carboxamide CollisionEnergy:102040 M+Na
PRECURSOR_MZ=305.07
INCHI="InChI=1S/C16H11FN2O2/c17-11-5-7-12(8-6-11)19-16(20)13-9-10-3-1-2-4-14(10)21-15(13)18/h1-9,18H,(H,19,20)"
SMILES=N=c1oc2ccccc2cc1C(=O)Nc1ccc(F)cc1
SPECTRUMID=CCMSLIB00010104519
52.4758 1998.0 
54.963081 2197.0 
70.010368 2301.0 
73.943451 2242.0 
78.192162 2116.0 
80.489799 2880.0 
81.36866 2308.0 
90.976913 3073.0 
102.98027 2352.0 
117.052872 2090.0 
119.695427 2103.0 
120.751343 2154.0 
209.774994 2499.0 
211.45311 2266.0 
211.540085 2677.0 
281.871368 2626.0 
305.069153 522738.0 
305.136108 37310.0 
END IONS

BEGIN IONS
NAME=N-[2-(5-chloroindol-3-yl)ethyl]propanamide CollisionEnergy:102040 M+H
PRECURSOR_MZ=251.095
INCHI="InChI=1S/C13H15ClN2O/c1-2-13(17)15-6-5-9-8-16-12-4-3-10(14)7-11(9)12/h3-4,7-8,16H,2,5-6H2,1H3,(H,15,17)"
SMILES=CCC(O)=NCCc1c[nH]c2ccc(Cl)cc12
SPECTRUMID=CCMSLIB00010104725
57.033878 37144.0 
74.060303 118834.0 
98.983994 13219.0 
100.075546 41684.0 
134.697922 3008.0 
136.233551 3137.0 
143.072662 290190.0 
152.026627 7080.0 
166.041153 18038.0 
177.427872 6016.0 
178.041473 7370855.0 
178.659103 9148.0 
181.089218 3162.0 
186.946777 4085.0 
195.067932 838012.0 
198.092087 3290.0 
204.957138 12987.0 
206.074448 4114.0 
216.057343 13256.0 
222.066772 13037.0 
227.951355 3508.0 
234.06749 336413.0 
251.093948 1067796.0 
END IONS

BEGIN IONS
NAME=SINAPIC ACID CollisionEnergy:102040 M-H
PRECURSOR_MZ=223.061
INCHI="InChI=1S/C11H12O5/c1-15-8-5-7(3-4-10(12)13)6-9(16-2)11(8)14/h3-6,14H,1-2H3,(H,12,13)/b4-3+"
SMILES=COc1cc(C=CC(=O)O)cc(OC)c1O
SPECTRUMID=CCMSLIB00010113344
51.230061 2356.0 
54.171021 2308.0 
59.998211 2393.0 
65.766968 2241.0 
72.778084 2340.0 
78.548103 2310.0 
92.379066 3426.0 
97.323601 2222.0 
109.029488 2835.0 
109.083672 2359.0 
121.029457 8969.0 
129.411713 2372.0 
135.044968 15799.0 
136.211319 2747.0 
137.024261 11535.0 
149.024475 143635.0 
151.039932 3919.0 
152.011505 87906.0 
163.04039 36517.0 
164.048035 223589.0 
165.019577 5518.0 
167.035217 14735.0 
169.050812 40066.0 
179.071564 99988.0 
180.043808 3611.0 
193.014343 128721.0 
208.037842 604916.0 
223.061356 457789.0 
END IONS

BEGIN IONS
NAME="4,5-diacetyloxy-2-[5,7-diacetyloxy-2-(3,4-diacetyloxyphenyl)-4-oxochromen-3-yl oxy]-6-[(3,4,5-triacetyloxy-6-methyl(2H-3,4,5,6-tetrahydropyran-2-yloxy))methy l]-2H-3,4,5,6-tetrahydropyran-3-yl acetate CollisionEnergy:205060" M+Na
PRECURSOR_MZ=1053.25
INCHI="InChI=1S/C47H50O26/c1-18-38(65-23(6)52)42(67-25(8)54)44(69-27(10)56)46(60-18)59-17-35-40(66-24(7)53)43(68-26(9)55)45(70-28(11)57)47(72-35)73-41-37(58)36-33(64-22(5)51)15-30(61-19(2)48)16-34(36)71-39(41)29-12-13-31(62-20(3)49)32(14-29)63-21(4)50/h12-16,18,35,38,40,42-47H,17H2,1-11H3"
SMILES=CC(=O)Oc1cc(OC(C)=O)c2c(=O)c(OC3OC(COC4OC(C)C(OC(C)=O)C(OC(C)=O)C4OC(C)=O)C(OC(C)=O)C(OC(C)=O)C3OC(C)=O)c(-c3ccc(OC(C)=O)c(OC(C)=O)c3)oc2c1
SPECTRUMID=CCMSLIB00010121157
73.029083 10267.0 
79.054497 108909.0 
81.033783 1795461.0 
81.070053 14797.0 
82.393494 11186.0 
83.010811 47986.0 
83.049423 13713201.0 
85.02861 707723.0 
85.034492 22495.0 
87.044403 49139.0 
91.054176 107619.0 
93.033669 72905.0 
93.069923 70259.0 
95.012878 13917.0 
95.04921 957187.0 
97.028481 880725.0 
97.065308 17556.0 
99.044037 473720.0 
101.059807 168455.0 
103.038689 33954.0 
103.053757 99797.0 
105.033287 11543.0 
105.069572 46160.0 
107.048843 181101.0 
107.085571 15214.0 
109.028473 2962579.0 
109.064819 44773.0 
110.03627 48595.0 
111.044037 21020652.0 
112.046989 13213.0 
115.054466 19799.0 
117.069801 65741.0 
119.049347 43658.0 
119.086639 10918.0 
121.026917 24008.0 
121.065002 154337.0 
123.043922 371474.0 
125.007767 12316.0 
125.023247 1020191.0 
125.059143 116435.0 
127.038918 1376081.0 
129.05452 549610.0 
129.065536 17732.0 
131.01001 80090.0 
131.049011 101176.0 
133.02684 79134.0 
133.064987 24667.0 
135.043915 162630.0 
135.080597 24068.0 
137.023544 74294.0 
137.059952 73420.0 
139.038712 117882.0 
141.054657 64731.0 
145.051575 14143.0 
145.064697 88985.0 
147.044815 70734.0 
147.080505 42588.0 
149.020966 110106.0 
149.059448 239543.0 
151.038727 203488.0 
151.0755 19424.0 
153.018005 50279.0 
153.054535 2063510.0 
155.033325 91915.0 
157.966461 13663.0 
159.044373 11637.0 
161.05986 25695.0 
163.040375 12640.0 
163.075623 69013.0 
165.054672 124149.0 
167.033051 49003.0 
167.069946 24701.0 
169.049728 200473.0 
171.065094 187174.0 
173.044922 11612.0 
173.060211 98631.0 
175.036102 75235.0 
177.052963 357995.0 
179.033173 18655.0 
181.048843 11647.0 
187.060135 15403.0 
191.031723 107150.0 
191.070114 94094.0 
193.047226 647004.0 
195.065155 203935.0 
197.045639 10556.0 
201.054825 44179.0 
207.064468 73741.0 
209.041687 559659.0 
211.059708 16191.0 
213.075897 50772.0 
219.064713 214256.0 
235.05719 175694.0 
237.035904 10009.0 
237.046799 12246.0 
237.074905 149226.0 
245.044098 17206.0 
251.052856 42136.0 
253.069565 75234.0 
256.03775 16445.0 
259.058258 20158.0 
261.075439 17808.0 
273.039154 427841.0 
273.093384 83982.0 
279.082794 34045.0 
285.041962 33756.0 
295.021667 117131.0 
295.078552 404802.0 
295.114655 19483.0 
301.032501 18218.0 
301.069336 38081.0 
302.041718 71484.0 
303.04953 375068.0 
313.035706 71251.0 
313.08963 124715.0 
315.049957 53070.0 
319.079407 85523.0 
321.095581 19590.0 
324.023804 335868.0 
327.051178 15352.0 
337.031769 56951.0 
339.107635 14977.0 
345.058807 232668.0 
355.053864 17398.0 
355.099701 123379.0 
361.089417 200093.0 
365.066193 45089.0 
366.033661 910513.0 
367.038727 41413.0 
369.061279 15809.0 
381.063782 21315.0 
381.117371 78437.0 
387.069305 21949.0 
393.057098 12660.0 
393.113678 21587.0 
399.128693 170258.0 
403.102783 130991.0 
408.045471 309104.0 
409.055084 46331.0 
411.068878 15576.0 
421.109833 708662.0 
435.125519 57401.0 
441.13855 316739.0 
450.058716 23127.0 
451.063904 17875.0 
453.081604 16230.0 
463.120148 2430143.0 
465.136353 24180.0 
481.130737 6756047.0 
492.061127 15980.0 
493.073975 744368.0 
495.153717 20078.0 
509.133118 12530.0 
523.141357 6874960.0 
525.153992 23388.0 
583.16272 22435248.0 
584.167725 61403.0 
765.160339 20341.0 
891.183533 20868.0 
933.202148 51474.0 
971.249939 22088.0 
993.226013 1051546.0 
1010.235413 72972.0 
1011.233582 241156.0 
1053.247681 23782028.0 
END IONS

BEGIN IONS
NAME="2-(2,4-difluorophenoxy)-N-{2-[2-methyl-5-(phenylmethoxy)indol-3-yl]ethyl}aceta mide CollisionEnergy:205060" M+formate
PRECURSOR_MZ=495.174
INCHI="InChI=1S/C26H24F2N2O3/c1-17-21(11-12-29-26(31)16-33-25-10-7-19(27)13-23(25)28)22-14-20(8-9-24(22)30-17)32-15-18-5-3-2-4-6-18/h2-10,13-14,30H,11-12,15-16H2,1H3,(H,29,31)"
SMILES=Cc1[nH]c2ccc(OCc3ccccc3)cc2c1CCN=C(O)COc1ccc(F)cc1F
SPECTRUMID=CCMSLIB00010119535
51.686218 2660.0 
73.85466 2540.0 
74.905121 2581.0 
75.340988 2856.0 
82.434998 2809.0 
86.986259 2799.0 
92.396446 3133.0 
97.764664 3052.0 
99.74823 2894.0 
99.857536 2489.0 
110.041267 6376.0 
112.985748 13306.0 
117.695084 2922.0 
129.015625 215846.0 
136.020706 4377.0 
138.035736 38186.0 
143.712509 2769.0 
144.04567 6276.0 
153.294632 2310.0 
158.060989 69839.0 
158.531433 3036.0 
166.030823 92649.0 
171.068756 4299.0 
173.048538 3923.0 
186.03688 6277.0 
195.594208 2555.0 
218.986572 28846.0 
222.961777 4324.0 
235.340988 2566.0 
290.948242 4680.0 
338.106567 20985.0 
358.113281 199971.0 
429.161743 11640.0 
449.169037 83084.0 
494.981781 5513.0 
END IONS

BEGIN IONS
NAME=6-ethoxy-4-hydroxy-3-benzylhydroquinolin-2-one CollisionEnergy:102040 M+Na
PRECURSOR_MZ=318.11
INCHI="InChI=1S/C18H17NO3/c1-2-22-13-8-9-16-14(11-13)17(20)15(18(21)19-16)10-12-6-4-3-5-7-12/h3-9,11H,2,10H2,1H3,(H2,19,20,21)"
SMILES=CCOc1ccc2nc(O)c(Cc3ccccc3)c(O)c2c1
SPECTRUMID=CCMSLIB00010104252
56.529541 2400.0 
65.899162 2366.0 
66.738419 3458.0 
73.952347 2295.0 
82.394073 3096.0 
82.4002 2335.0 
84.117737 2407.0 
93.51226 2261.0 
104.281052 3515.0 
107.373581 2336.0 
136.206268 2229.0 
157.961761 2645.0 
161.906769 2605.0 
318.109589 2130500.0 
END IONS

BEGIN IONS
NAME="5-[(4-hydroxy-3,5-dimethoxyphenyl)methylene]-1-(3-methoxyphenyl)-1,3-dihydropy rimidine-2,4,6-trione CollisionEnergy:102040" M-H
PRECURSOR_MZ=397.104
INCHI="InChI=1S/C20H18N2O7/c1-27-13-6-4-5-12(10-13)22-19(25)14(18(24)21-20(22)26)7-11-8-15(28-2)17(23)16(9-11)29-3/h4-10,23H,1-3H3,(H,21,24,26)/b14-7+"
SMILES=COc1cccc(N2C(=O)N=C(O)C(=Cc3cc(OC)c(O)c(OC)c3)C2=O)c1
SPECTRUMID=CCMSLIB00010114620
56.850342 2618.0 
90.933151 4526.0 
120.760681 2333.0 
132.000168 2413.0 
157.993393 2498.0 
175.003357 5674.0 
187.009872 2909.0 
188.034714 3737.0 
189.043564 24845.0 
190.027527 75635.0 
192.929443 5869.0 
204.066559 85930.0 
205.050583 92363.0 
205.070831 5054.0 
218.009949 5994.0 
237.042801 2929.0 
242.354752 2526.0 
252.067566 2788.0 
267.090271 11397.0 
280.062469 3903.0 
295.084839 136431.0 
324.051544 4193.0 
339.072906 11158.0 
382.080444 90193.0 
397.103973 901345.0 
END IONS

BEGIN IONS
NAME=Homovanillic acid CollisionEnergy:102040 M-H
PRECURSOR_MZ=181.051
INCHI="InChI=1S/C9H10O4/c1-13-8-4-6(5-9(11)12)2-3-7(8)10/h2-4,10H,5H2,1H3,(H,11,12)"
SMILES=COc1cc(CC(=O)O)ccc1O
SPECTRUMID=CCMSLIB00010126223
66.767799 85172.0 
82.428101 87577.796875 
95.050003 88000.601562 
105.035004 106462.0 
107.050003 359507.0 
121.028999 1177840.0 
122.037003 3010900.0 
122.046997 130806.0 
123.044998 562532.0 
124.016998 604832.0 
129.731995 87752.101562 
136.016006 716667.0 
136.052002 83342.796875 
137.024002 986268.0 
137.061005 11109500.0 
154.026993 1154310.0 
158.841995 76775.101562 
166.028 92003.796875 
168.042999 109976.0 
169.494003 75633.5 
181.050003 2386450.0 
181.067001 133752.0 
END IONS

BEGIN IONS
NAME=6-(Methylthio)purine CollisionEnergy:205060 M+Na
PRECURSOR_MZ=189.021
INCHI="InChI=1S/C6H6N4S/c1-11-6-4-5(8-2-7-4)9-3-10-6/h2-3H,1H3,(H,7,8,9,10)"
SMILES=CSc1ncnc2[nH]cnc12
SPECTRUMID=CCMSLIB00010115339
56.965199 125793.0 
56.968239 5388.0 
61.01104 9446.0 
62.01852 2375.0 
62.990311 3915.0 
63.519699 2737.0 
63.691441 2655.0 
66.728706 2691.0 
67.993767 2753.0 
70.98069 12995.0 
71.95208 17703.0 
72.937477 5554.0 
73.937157 2596.0 
74.975632 10981.0 
76.998642 6003.0 
77.637848 2454.0 
78.013947 3416.0 
79.021423 42836.0 
84.960068 3683.0 
86.003693 5848.0 
104.480003 2196.0 
108.99424 5654.0 
110.011528 2439.0 
113.007103 4823.0 
117.021439 2478.0 
117.999527 5964.0 
119.918694 36374.0 
122.012337 10002.0 
127.004204 64035.0 
131.008698 4636.0 
136.009781 542721.0 
136.511444 26237.0 
137.012085 5395.0 
137.929535 19549.0 
138.013458 3875.0 
140.489426 10154.0 
145.015076 621786.0 
145.51709 44072.0 
146.016693 4774.0 
147.517639 25211.0 
148.000168 31706.0 
149.494232 56719.0 
149.996338 3404.0 
150.010529 3062.0 
150.031204 45347.0 
154.020264 50725.0 
154.521805 3048.0 
155.939911 12363.0 
156.523209 16637.0 
157.006104 171663.0 
157.020981 5839.0 
157.508102 12282.0 
158.499649 459604.0 
159.001465 35710.0 
159.017487 16359.0 
160.497803 3680.0 
161.002014 5347.0 
166.011398 1006452.0 
166.512924 86343.0 
167.01387 4924.0 
167.504868 271134.0 
168.00679 25894.0 
168.514053 17938.0 
170.007248 20876.0 
173.950348 3257.0 
175.016647 235451.0 
175.518204 16920.0 
177.51944 69242.0 
178.025787 260308.0 
179.013168 6014.0 
179.030029 14742.0 
184.020523 3640.0 
186.524216 9210.0 
187.035065 4754.0 
189.020218 238781.0 
189.095718 3521.0 
234.819214 2704.0 
253.001999 4913.0 
271.014679 3482.0 
291.634155 2827.0 
294.631226 2832.0 
331.911163 3195.0 
END IONS

BEGIN IONS
NAME=dimethyl[(6-nitroindol-3-yl)methyl]amine CollisionEnergy:205060 M+Cl
PRECURSOR_MZ=254.07
INCHI="InChI=1S/C11H13N3O2/c1-13(2)7-8-6-12-11-5-9(14(15)16)3-4-10(8)11/h3-6,12H,7H2,1-2H3"
SMILES=CN(C)Cc1c[nH]c2cc([N+](=O)[O-])ccc12
SPECTRUMID=CCMSLIB00010121121
51.068211 1790.0 
56.37981 1692.0 
61.20829 1937.0 
66.75106 2208.0 
92.389091 2693.0 
107.077553 1960.0 
109.822731 1998.0 
111.394951 2100.0 
118.662743 2176.0 
118.671791 2266.0 
131.436432 1981.0 
135.344421 2295.0 
167.536575 2286.0 
174.043762 2538.0 
206.03244 5009.0 
218.093887 13010.0 
252.142792 2418.0 
END IONS

BEGIN IONS
NAME=L-glutamic acid CollisionEnergy:102040 M+H-H2O
PRECURSOR_MZ=130.05
INCHI="InChI=1S/C5H9NO4/c6-3(5(9)10)1-2-4(7)8/h3H,1-2,6H2,(H,7,8)(H,9,10)/t3-/m0/s1"
SMILES=N[C@@H](CCC(=O)O)C(=O)O
SPECTRUMID=CCMSLIB00010126605
51.522701 6507.75 
51.5266 6737.259766 
56.050201 114992.0 
69.488899 7670.100098 
73.9561 11734.200195 
78.155701 7430.549805 
84.044899 4979640.0 
89.235199 7277.930176 
92.381699 8138.47998 
98.669601 7299.549805 
102.055 29057.699219 
118.663002 8738.799805 
130.050003 589990.0 
END IONS

BEGIN IONS
NAME=2382-79-8 CollisionEnergy:102040 M+Na
PRECURSOR_MZ=268.106
INCHI="InChI=1S/C13H15N3O2/c1-8(17)16-12(13(14)18)6-9-7-15-11-5-3-2-4-10(9)11/h2-5,7,12,15H,6H2,1H3,(H2,14,18)(H,16,17)/t12-/m0/s1"
SMILES=CC(O)=NC(Cc1c[nH]c2ccccc12)C(=N)O
SPECTRUMID=CCMSLIB00010112335
63.095501 2871.0 
64.353867 2557.0 
98.91629 2765.0 
130.064209 2748.0 
136.060867 4557.0 
192.992004 2754.0 
220.882614 3336.0 
245.010605 2762.0 
251.078415 15446.0 
266.957703 2732.0 
268.105133 3810250.0 
END IONS

BEGIN IONS
NAME=N-Acetylneuraminic Acid CollisionEnergy:102040 M-H
PRECURSOR_MZ=308.099
INCHI="InChI=1S/C11H19NO9/c1-4(14)12-7-5(15)2-11(20,10(18)19)21-9(7)8(17)6(16)3-13/h5-9,13,15-17,20H,2-3H2,1H3,(H,12,14)(H,18,19)/t5-,6+,7+,8+,9+,11?/m0/s1"
SMILES=CC(O)=N[C@@H]1[C@@H](O)CC(O)(C(=O)O)O[C@H]1[C@H](O)[C@H](O)CO
SPECTRUMID=CCMSLIB00010102587
59.7206 96558.398438 
62.750198 87871.5 
87.008698 18817500.0 
98.061302 1555580.0 
100.041 141824.0 
101.024002 161108.0 
119.035004 1158340.0 
170.046005 3390010.0 
170.061996 161502.0 
308.097992 847411.0 
END IONS

BEGIN IONS
NAME="2-[5-(5-bromo-2-oxo(1H-benzo[d]azolin-3-ylidene))-4-oxo-2-thioxo(1,3-thiazolid in-3-yl)]-3-phenylpropanoic acid CollisionEnergy:102040" M-H
PRECURSOR_MZ=486.943
INCHI="InChI=1S/C20H13BrN2O4S2/c21-11-6-7-13-12(9-11)15(17(24)22-13)16-18(25)23(20(28)29-16)14(19(26)27)8-10-4-2-1-3-5-10/h1-7,9,14H,8H2,(H,22,24)(H,26,27)/b16-15-"
SMILES=O=C(O)C(Cc1ccccc1)N1C(=O)C(=C2C(O)=Nc3ccc(Br)cc32)SC1=S
SPECTRUMID=CCMSLIB00010114333
78.918633 77941.0 
86.452522 3271.0 
87.593719 2845.0 
92.396538 3201.0 
115.997864 2694.0 
116.6278 2788.0 
131.275299 2880.0 
158.001328 3058.0 
178.999603 13589.0 
181.478699 3282.0 
183.360016 3456.0 
190.033585 5819.0 
194.010071 13979.0 
209.956192 460701.0 
219.940948 35625.0 
221.955734 23352.0 
222.005127 3908.0 
239.966995 4377.0 
247.935516 71003.0 
251.912415 124184.0 
252.919739 4006.0 
253.927521 31495.0 
254.986969 4311.0 
266.987976 5174.0 
279.907501 147325.0 
279.939301 5450.0 
281.923859 67653.0 
287.95343 34771.0 
291.93161 57964.0 
292.914581 17020.0 
308.891388 6042.0 
308.934326 3101.0 
316.98114 14980.0 
338.890686 28077.0 
348.997986 6735.0 
351.850708 5223.0 
351.898285 124127.0 
354.978027 4057.0 
366.967865 3856.0 
367.009827 51626.0 
380.971375 3029.0 
382.983978 42417.0 
383.971893 37906.0 
399.946838 32863.0 
402.980804 6777.0 
408.965179 4723.0 
442.953186 371182.0 
446.973969 4910.0 
466.975922 17393.0 
486.941559 844211.0 
END IONS

BEGIN IONS
NAME="ethyl 5-{N-[2-chloro-5-(trifluoromethyl)phenyl]carbamoyl}-4-methyl-2-[(3,4,5-t rimethoxyphenyl)carbonylamino]thiophene-3-carboxylate CollisionEnergy:205060" M-H
PRECURSOR_MZ=599.087
INCHI="InChI=1S/C26H24ClF3N2O7S/c1-6-39-25(35)19-12(2)21(23(34)31-16-11-14(26(28,29)30)7-8-15(16)27)40-24(19)32-22(33)13-9-17(36-3)20(38-5)18(10-13)37-4/h7-11H,6H2,1-5H3,(H,31,34)(H,32,33)"
SMILES=CCOC(=O)c1c(N=C(O)c2cc(OC)c(OC)c(OC)c2)sc(C(=O)Nc2cc(C(F)(F)F)ccc2Cl)c1C
SPECTRUMID=CCMSLIB00010125054
60.54483 2762.0 
60.59243 2959.0 
65.998077 26161.0 
70.995956 22601.0 
74.734009 2872.0 
81.034416 3033.0 
82.410454 3748.0 
101.510437 2786.0 
106.832817 2728.0 
110.007027 90870.0 
111.014526 16616.0 
112.040337 25177.0 
136.004211 3364.0 
136.228485 2970.0 
136.994186 5117.0 
137.024048 4448.0 
138.002045 205200.0 
138.015213 16942.0 
152.988846 21887.0 
153.996582 3569.0 
158.022369 49739.0 
183.036194 87489.0 
193.998917 119254.0 
230.997772 6490.0 
232.007568 3746.0 
249.951981 2974.0 
274.018188 3265.0 
295.014557 4205.0 
307.987 16963.0 
323.011017 102278.0 
335.065582 5002.0 
348.054413 11147.0 
358.987854 34535.0 
371.0401 3721.0 
378.101532 53125.0 
404.020416 10039.0 
563.111633 15628.0 
584.065186 11538.0 
599.087585 502018.0 
END IONS

BEGIN IONS
NAME=(2S)-3-indol-3-yl-2-[(phenylmethoxy)carbonylamino]propanoic acid CollisionEnergy:205060 M+H
PRECURSOR_MZ=339.134
INCHI="InChI=1S/C19H18N2O4/c22-18(23)17(10-14-11-20-16-9-5-4-8-15(14)16)21-19(24)25-12-13-6-2-1-3-7-13/h1-9,11,17,20H,10,12H2,(H,21,24)(H,22,23)/t17-/m0/s1"
SMILES=O=C(O)C(Cc1c[nH]c2ccccc12)N=C(O)OCc1ccccc1
SPECTRUMID=CCMSLIB00010120702
50.23777 3145.0 
60.448811 2689.0 
63.49176 2993.0 
65.039093 47263.0 
66.550293 2946.0 
81.069588 2750.0 
82.403267 3291.0 
83.118767 2981.0 
91.054459 2566176.0 
92.383293 3359.0 
101.905823 2722.0 
115.054161 28342.0 
117.069817 19789.0 
129.07016 3584.0 
130.065186 310294.0 
131.072662 17183.0 
132.080872 16406.0 
136.223923 3325.0 
142.065292 41270.0 
143.073242 46624.0 
144.044647 21240.0 
144.081009 52558.0 
146.060486 4671.0 
147.668701 2837.0 
154.065521 10611.0 
156.081085 40468.0 
157.076614 4177.0 
158.06131 48111.0 
158.083893 206524.0 
160.075729 20113.0 
171.091278 4853.0 
178.078598 3959.0 
179.085632 6653.0 
182.060043 21775.0 
200.070602 32357.0 
202.073242 17649.0 
203.084808 12915.0 
204.080795 5837.0 
205.088135 18872.0 
206.096497 92933.0 
208.111908 43760.0 
215.084885 3054.0 
217.088455 45810.0 
218.096619 244158.0 
219.105225 9753.0 
220.112045 317915.0 
222.127518 92181.0 
230.095734 3393.0 
232.111969 83829.0 
233.119858 35107.0 
234.128723 5190.0 
236.106735 81995.0 
249.138626 133748.0 
259.122833 13211.0 
260.107178 33020.0 
277.133484 27379.0 
278.117401 1233000.0 
293.128265 6906.0 
295.143799 137056.0 
313.662292 3252.0 
321.122742 15431.0 
339.135681 29196.0 
END IONS

BEGIN IONS
NAME=D-glucosamine 6-phosphate CollisionEnergy:102040 M-H
PRECURSOR_MZ=258.038
INCHI="InChI=1S/C6H14NO8P/c7-3-5(9)4(8)2(15-6(3)10)1-14-16(11,12)13/h2-6,8-10H,1,7H2,(H2,11,12,13)/t2-,3-,4-,5-,6?/m1/s1"
SMILES=N[C@H]1C(O)O[C@H](COP(=O)(O)O)[C@@H](O)[C@@H]1O
SPECTRUMID=CCMSLIB00010102515
59.0168 3577.120117 
61.7687 3410.870117 
73.115196 3148.629883 
73.977097 4040.399902 
78.958801 191129.0 
78.963898 6724.290039 
80.032898 3422.409912 
84.949997 3893.280029 
88.628998 3301.179932 
92.6259 3457.620117 
96.969597 580009.0 
99.925797 4636.25 
110.547997 3559.48999 
117.236 3547.560059 
118.684998 4108.200195 
121.980003 3727.469971 
129.106995 4034.01001 
130.720993 3491.98999 
133.764999 4004.5 
138.981003 27137.900391 
152.516006 3842.310059 
158.940002 6988.990234 
199.001999 111085.0 
203.973007 4962.790039 
209.903 13398.799805 
239.869003 22682.5 
240.026993 69605.296875 
257.878998 8786.830078 
257.945007 5422.419922 
258.039001 162081.0 
END IONS

BEGIN IONS
NAME=glycocyamine CollisionEnergy:102040 M+H
PRECURSOR_MZ=118.061
INCHI="InChI=1S/C3H7N3O2/c4-3(5)6-1-2(7)8/h1H2,(H,7,8)(H4,4,5,6)"
SMILES=N=C(N)NCC(=O)O
SPECTRUMID=CCMSLIB00010126963
55.0299 45901.199219 
58.065899 129716.0 
58.687801 3500.879883 
59.0737 119299.0 
67.778198 4136.290039 
72.056297 539010.0 
73.040398 217909.0 
76.040001 544911.0 
78.013901 3948.159912 
89.409897 3860.629883 
100.052002 7174.310059 
101.035004 349117.0 
104.303001 5543.359863 
104.976997 3944.199951 
112.591003 3695.840088 
118.060997 404210.0 
118.086998 767346.0 
END IONS

BEGIN IONS
NAME=(2E)-3-{3-[(3-{[(4-methylphenyl)sulfonyl]amino}quinoxalin-2-yl)amino]phenyl}pr op-2-enoic acid CollisionEnergy:102040 2M-H
PRECURSOR_MZ=919.234
INCHI="InChI=1S/C24H20N4O4S/c1-16-9-12-19(13-10-16)33(31,32)28-24-23(26-20-7-2-3-8-21(20)27-24)25-18-6-4-5-17(15-18)11-14-22(29)30/h2-15H,1H3,(H,25,26)(H,27,28)(H,29,30)/b14-11+"
SMILES=Cc1ccc(S(=O)(=O)N=c2[nH]c3ccccc3nc2Nc2cccc(C=CC(=O)O)c2)cc1
SPECTRUMID=CCMSLIB00010107907
66.749893 4553.0 
76.826462 3441.0 
78.254433 3562.0 
92.385887 4918.0 
104.299477 3950.0 
129.30072 3928.0 
155.016327 6807.0 
157.990051 5039.0 
177.621933 4254.0 
292.896271 3954.0 
385.897858 3773.0 
459.113281 199858.0 
950.353699 3979.0 
END IONS

BEGIN IONS
NAME=Purine CollisionEnergy:205060 M-H
PRECURSOR_MZ=119.036
INCHI="InChI=1S/C5H4N4/c1-4-5(8-2-6-1)9-3-7-4/h1-3H,(H,6,7,8,9)"
SMILES=c1ncc2nc[nH]c2n1
SPECTRUMID=CCMSLIB00010117920
55.941212 87307.0 
57.402359 97215.0 
65.014099 1621506.0 
65.752487 94587.0 
66.745537 97270.0 
67.029778 488320.0 
68.024902 483109.0 
90.009804 151562.0 
92.025337 3683388.0 
92.379921 95563.0 
119.036308 73215056.0 
END IONS

BEGIN IONS
NAME="N-(2,5-difluorophenyl)-2-[2-oxo-4-(piperidylcarbonyl)hydroquinolyl]acetamide CollisionEnergy:205060" M+H
PRECURSOR_MZ=426.162
INCHI="InChI=1S/C23H21F2N3O3/c24-15-8-9-18(25)19(12-15)26-21(29)14-28-20-7-3-2-6-16(20)17(13-22(28)30)23(31)27-10-4-1-5-11-27/h2-3,6-9,12-13H,1,4-5,10-11,14H2,(H,26,29)"
SMILES=O=C(c1cc(=O)n(CC(O)=Nc2cc(F)ccc2F)c2ccccc12)N1CCCCC1
SPECTRUMID=CCMSLIB00010122823
55.054729 4615.0 
56.05019 3651.0 
67.054626 12412.0 
69.033882 4892.0 
69.070236 524597.0 
70.065483 37058.0 
73.949783 4455.0 
82.0653 14756.0 
82.392052 3603.0 
84.080963 151409.0 
86.096672 6820.0 
87.271927 3597.0 
89.038849 5469.0 
92.373734 3827.0 
94.064987 3670.0 
96.080559 5169.0 
98.096428 802172.0 
103.39666 3743.0 
104.27932 4390.0 
105.057152 5553.0 
106.064972 20366.0 
108.080711 3487.0 
110.059967 4308.0 
112.075623 1422071.0 
120.08165 3700.0 
124.512894 3704.0 
128.049377 102464.0 
130.065079 231442.0 
130.076141 7890.0 
132.044586 4950.0 
132.080551 4430.0 
133.052078 45604.0 
135.146774 3299.0 
142.065659 5540.0 
143.072845 4748.0 
144.044067 8089.0 
144.08046 18509.0 
146.060104 33011.0 
154.065338 5696.0 
155.059814 3374.0 
156.044235 77914.0 
156.080872 17472.0 
157.052078 8105.0 
157.075623 13618.0 
158.059921 377589.0 
161.047363 7469.0 
167.072891 15849.0 
169.07576 217180.0 
170.095993 7305.0 
173.070801 4467.0 
180.080704 22568.0 
182.097733 8230.0 
183.091553 23286.0 
185.070801 39766.0 
186.054779 479573.0 
193.089203 5795.0 
196.114029 6603.0 
197.106995 8222.0 
198.127792 14643.0 
208.111862 22521.0 
210.114182 6447.0 
211.121872 4147.0 
213.065231 75982.0 
213.101013 6004.0 
213.138794 20927.0 
225.138168 278791.0 
226.109375 20759.0 
239.11702 7312.0 
241.132828 125035.0 
257.127991 1364689.0 
269.12793 1551445.0 
280.147278 4123.0 
295.79953 4837.0 
297.122772 3961363.0 
298.159088 3718.0 
298.455627 4482.0 
310.15448 65926.0 
END IONS

BEGIN IONS
NAME=N-(3-chloro-4-fluorophenyl)-2-{4-[(4-methylpiperidyl)carbonyl]-2-oxohydroquino lyl}acetamide CollisionEnergy:205060 M+formate
PRECURSOR_MZ=500.139
INCHI="InChI=1S/C24H23ClFN3O3/c1-15-8-10-28(11-9-15)24(32)18-13-23(31)29(21-5-3-2-4-17(18)21)14-22(30)27-16-6-7-20(26)19(25)12-16/h2-7,12-13,15H,8-11,14H2,1H3,(H,27,30)"
SMILES=CC1CCN(C(=O)c2cc(=O)n(CC(O)=Nc3ccc(F)c(Cl)c3)c3ccccc23)CC1
SPECTRUMID=CCMSLIB00010124256
65.922943 2934.0 
73.963638 2703.0 
92.391037 2603.0 
94.007278 2542.0 
104.402222 2321.0 
128.051498 5423.0 
154.116058 2660.0 
184.041367 5671.0 
190.250687 3040.0 
208.093781 12629.0 
209.344513 2877.0 
253.952637 2614.0 
269.130493 5859.0 
365.727203 3045.0 
454.135345 30925.0 
458.974884 2829.0 
END IONS

BEGIN IONS
NAME="N-(4-chlorophenyl)-2-(2,3,3-trimethyl(2,3,4-trihydroisoquinolylidene))acetamid e CollisionEnergy:102040" M+formate
PRECURSOR_MZ=385.132
INCHI="InChI=1S/C20H21ClN2O/c1-20(2)13-14-6-4-5-7-17(14)18(23(20)3)12-19(24)22-16-10-8-15(21)9-11-16/h4-12H,13H2,1-3H3,(H,22,24)/b18-12-"
SMILES=CN1C(=CC(=O)Nc2ccc(Cl)cc2)c2ccccc2CC1(C)C
SPECTRUMID=CCMSLIB00010103724
53.475651 2190.0 
64.601837 2328.0 
66.180817 2535.0 
66.75547 2210.0 
82.417084 2441.0 
82.754807 2401.0 
86.209717 2369.0 
110.551483 2464.0 
112.98555 55989.0 
136.232544 2573.0 
180.973434 11684.0 
203.049881 2755.0 
248.959808 17579.0 
316.948578 2949.0 
339.126038 21402.0 
385.186615 4171.0 
403.719147 2660.0 
END IONS

BEGIN IONS
NAME="5-{5-[3-(trifluoromethyl)phenyl]-2-furyl}-1,3,5,7,8,9,10-heptahydropyrimidino[ 4,5-b]quinoline-2,4,6-trione CollisionEnergy:205060" 2M-H
PRECURSOR_MZ=885.211
INCHI="InChI=1S/C22H16F3N3O4/c23-22(24,25)11-4-1-3-10(9-11)14-7-8-15(32-14)17-16-12(5-2-6-13(16)29)26-19-18(17)20(30)28-21(31)27-19/h1,3-4,7-9,17H,2,5-6H2,(H3,26,27,28,30,31)"
SMILES=O=C1CCCC2=C1C(c1ccc(-c3cccc(C(F)(F)F)c3)o1)c1c(O)nc(O)nc1N2
SPECTRUMID=CCMSLIB00010119255
65.00251 4846.0 
77.29953 4575.0 
90.797913 5528.0 
98.1875 4412.0 
118.676971 4831.0 
144.045822 6289.0 
145.027328 52487.0 
159.054749 5273.0 
160.040405 20395.0 
169.027161 324187.0 
176.046677 7497.0 
186.067276 48586.0 
187.051437 666995.0 
188.046677 26087.0 
189.016541 6690.0 
211.037704 91377.0 
226.074051 8859.0 
228.042526 6027.0 
230.057175 3726830.0 
273.946594 5345.0 
374.842255 5087.0 
381.086151 5302.0 
399.096741 18752.0 
442.102264 4197500.0 
835.811768 5333.0 
END IONS

BEGIN IONS
NAME=3-indol-3-yl-2-({2-[(4-methoxyphenyl)carbonylamino]phenyl}carbonylamino)propan oic acid CollisionEnergy:205060 2M-H
PRECURSOR_MZ=913.32
INCHI="InChI=1S/C26H23N3O5/c1-34-18-12-10-16(11-13-18)24(30)28-22-9-5-3-7-20(22)25(31)29-23(26(32)33)14-17-15-27-21-8-4-2-6-19(17)21/h2-13,15,23,27H,14H2,1H3,(H,28,30)(H,29,31)(H,32,33)"
SMILES=COc1ccc(C(=O)Nc2ccccc2C(O)=NC(Cc2c[nH]c3ccccc23)C(=O)O)cc1
SPECTRUMID=CCMSLIB00010122520
72.008659 18665.0 
74.024483 54974.0 
92.050484 56643.0 
93.034462 9292.0 
100.381248 4420.0 
108.021294 5301.0 
116.050552 184472.0 
117.045723 23224.0 
118.030441 13726.0 
128.876083 4196.0 
130.066986 5839.0 
136.040298 23811.0 
136.255157 4613.0 
142.066116 41132.0 
143.841415 4248.0 
145.040482 23722.0 
147.055695 5464.0 
150.056015 18541.0 
151.039902 116573.0 
159.092697 76336.0 
161.035767 39203.0 
173.6772 4498.0 
175.05072 34174.0 
203.082504 182459.0 
207.069443 9326.0 
209.047913 21355.0 
210.055908 244248.0 
211.064514 30023.0 
223.063889 16805.0 
224.07196 33244.0 
226.087555 58524.0 
233.072113 9182.0 
235.051758 35587.0 
235.086838 6462.0 
236.059006 432201.0 
237.06308 4750.0 
248.059067 79635.0 
249.066528 53600.0 
250.073944 54911.0 
251.082489 614940.0 
253.061691 23042.0 
253.097763 7864.0 
254.070374 9277.0 
255.532288 4469.0 
263.082031 49711.0 
265.097382 43738.0 
267.077148 21325.0 
268.084503 7002.0 
269.093292 114199.0 
283.108917 32434.0 
286.098358 25799.0 
327.098206 28877.0 
344.553345 4678.0 
390.072845 4803.0 
412.166138 148921.0 
456.156281 1963479.0 
555.081421 4968.0 
604.608948 5113.0 
END IONS

BEGIN IONS
NAME="(4-hydroxy-6,7-dimethoxy-2-oxo(3-hydroquinolyl))-N-(3-pyridylmethyl)carboxamid e CollisionEnergy:205060" M+H
PRECURSOR_MZ=356.124
INCHI="InChI=1S/C18H17N3O5/c1-25-13-6-11-12(7-14(13)26-2)21-18(24)15(16(11)22)17(23)20-9-10-4-3-5-19-8-10/h3-8H,9H2,1-2H3,(H,20,23)(H2,21,22,24)"
SMILES=COc1cc2nc(O)c(C(O)=NCc3cccnc3)c(O)c2cc1OC
SPECTRUMID=CCMSLIB00010115961
57.45676 70901.0 
57.735371 87367.0 
58.03336 67893.0 
59.291012 67890.0 
65.039032 6897585.0 
68.997543 357833.0 
77.886063 71275.0 
80.049789 20023830.0 
82.065498 434231.0 
92.049683 50632176.0 
93.057587 1121235.0 
108.044647 126713.0 
108.78167 102805.0 
109.076103 188821648.0 
110.036308 103669.0 
110.060043 4000809.0 
118.672722 97312.0 
125.059792 1478162.0 
136.039581 295707.0 
152.070602 74987216.0 
164.034637 158486.0 
165.04184 805974.0 
177.042511 407812.0 
180.065414 3930190.0 
192.03006 181538.0 
192.066513 129213.0 
204.030228 118747.0 
204.066025 141973.0 
217.036789 449769.0 
220.024216 461090.0 
220.060318 89985.0 
222.039658 123290.0 
222.075607 116587.0 
230.045212 435565.0 
232.023941 2788797.0 
233.03154 92022.0 
234.075165 120883.0 
247.047241 5005468.0 
248.055054 15864304.0 
250.03273 286900.0 
251.042389 96364.0 
264.073639 875662.0 
266.065643 23927850.0 
269.092926 140107.0 
297.086365 772389.0 
313.116882 1172916.0 
322.077454 90830.0 
338.112701 644928.0 
339.095703 659706.0 
341.10025 96925.0 
356.123718 97701336.0 
END IONS

BEGIN IONS
NAME="methylpropyl 4-(3-bromo-5-ethoxy-4-hydroxyphenyl)-7-(4-methoxyphenyl)-2-methyl -5-oxo-1,4,6,7,8-pentahydroquinoline-3-carboxylate CollisionEnergy:102040" M+Na
PRECURSOR_MZ=606.146
INCHI="InChI=1S/C30H34BrNO6/c1-6-16(3)38-30(35)26-17(4)32-23-13-19(18-8-10-21(36-5)11-9-18)14-24(33)28(23)27(26)20-12-22(31)29(34)25(15-20)37-7-2/h8-12,15-16,19,27,32,34H,6-7,13-14H2,1-5H3"
SMILES=CCOc1cc(C2C(C(=O)OC(C)CC)=C(C)NC3=C2C(=O)CC(c2ccc(OC)cc2)C3)cc(Br)c1O
SPECTRUMID=CCMSLIB00010113064
290.114838 75405.0 
308.124908 21950.0 
334.104797 87146.0 
374.201385 4242.0 
550.083801 186096.0 
591.115173 8037.0 
606.145752 5548904.0 
624.159424 5063.0 
647.172668 82762.0 
END IONS

BEGIN IONS
NAME="8-[(4-ethoxy-3-(2-hydrobenzotriazol-2-yl)phenyl)methylthio]-2,9-dimethylhydrop urin-6-one CollisionEnergy:102040" M-H
PRECURSOR_MZ=446.14
INCHI="InChI=1S/C22H21N7O2S/c1-4-31-18-10-9-14(11-17(18)29-26-15-7-5-6-8-16(15)27-29)12-32-22-25-19-20(28(22)3)23-13(2)24-21(19)30/h5-11H,4,12H2,1-3H3,(H,23,24,30)"
SMILES=CCOc1ccc(CSc2nc3c(O)nc(C)nc3n2C)cc1-n1nc2ccccc2n1
SPECTRUMID=CCMSLIB00010106726
57.9753 4010.0 
60.534222 2687.0 
73.948418 2765.0 
82.395493 2954.0 
84.634392 2573.0 
90.544739 2681.0 
104.280273 3307.0 
163.062622 86637.0 
193.018814 33399.0 
194.026855 1638983.0 
203.42897 2878.0 
374.095825 4626.0 
431.821716 2719.0 
446.140747 504943.0 
456.965576 2897.0 
END IONS

BEGIN IONS
NAME="N-benzothiazol-2-yl(3,4-dimethoxyphenyl)carboxamide CollisionEnergy:102040" M+Na
PRECURSOR_MZ=337.062
INCHI="InChI=1S/C16H14N2O3S/c1-20-12-8-7-10(9-13(12)21-2)15(19)18-16-17-11-5-3-4-6-14(11)22-16/h3-9H,1-2H3,(H,17,18,19)"
SMILES=COc1ccc(C(O)=Nc2nc3ccccc3s2)cc1OC
SPECTRUMID=CCMSLIB00010104313
51.157211 2326.0 
52.894939 2329.0 
54.27758 2369.0 
68.22673 2653.0 
70.183052 2416.0 
162.30191 2800.0 
200.052094 2516.0 
263.617065 3129.0 
337.06192 3235609.0 
337.104401 397066.0 
355.074036 4532.0 
END IONS

BEGIN IONS
NAME="N-(2,4-difluorophenyl)-2-[2-oxo-4-(piperidylcarbonyl)hydroquinolyl]acetamide CollisionEnergy:102040" M+Na
PRECURSOR_MZ=448.144
INCHI="InChI=1S/C23H21F2N3O3/c24-15-8-9-19(18(25)12-15)26-21(29)14-28-20-7-3-2-6-16(20)17(13-22(28)30)23(31)27-10-4-1-5-11-27/h2-3,6-9,12-13H,1,4-5,10-11,14H2,(H,26,29)"
SMILES=O=C(c1cc(=O)n(CC(O)=Nc2ccc(F)cc2F)c2ccccc12)N1CCCCC1
SPECTRUMID=CCMSLIB00010112985
58.560558 3155.0 
66.74086 5321.0 
82.396004 3503.0 
83.149727 3324.0 
161.889282 3555.0 
194.009033 5289.0 
269.131561 5038.0 
297.123169 6784.0 
298.12616 4778.0 
333.918152 3784.0 
365.069519 47249.0 
430.133972 16304.0 
445.706299 14635.0 
448.143921 10770104.0 
450.601105 15371.0 
466.157471 5507.0 
END IONS

BEGIN IONS
NAME=myricetin CollisionEnergy:102040 M+H
PRECURSOR_MZ=319.045
INCHI="InChI=1S/C15H10O8/c16-6-3-7(17)11-10(4-6)23-15(14(22)13(11)21)5-1-8(18)12(20)9(19)2-5/h1-4,16-20,22H"
SMILES=O=c1c(O)c(-c2cc(O)c(O)c(O)c2)oc2cc(O)cc(O)c12
SPECTRUMID=CCMSLIB00010108217
58.584381 3101.0 
60.52684 3171.0 
66.732437 3153.0 
68.997421 5363.0 
71.755943 3142.0 
95.011513 3107.0 
104.267143 4058.0 
109.028023 15391.0 
111.007477 68072.0 
125.023247 3891.0 
127.038231 12329.0 
137.023224 37499.0 
139.038773 3120.0 
153.018005 221145.0 
153.054489 4498.0 
155.493622 3235.0 
156.062729 14503.0 
165.018082 152034.0 
166.025803 13645.0 
177.055466 3360.0 
179.033615 44760.0 
180.983582 6540.0 
183.028198 40868.0 
186.014999 7141.0 
189.054413 10941.0 
193.012314 14967.0 
195.029037 23256.0 
203.034042 6494.0 
207.029053 5387.0 
217.048889 59382.0 
221.043427 7193.0 
229.04892 5362.0 
231.028625 6238.0 
235.022949 12271.0 
245.044144 138127.0 
255.028503 22902.0 
263.054413 35774.0 
273.038757 200901.0 
273.072357 6687.0 
283.0224 3917.0 
290.042297 61625.0 
291.049072 11980.0 
295.950928 3342.0 
301.034271 52553.0 
317.576111 4206.0 
319.04425 6132077.0 
END IONS

BEGIN IONS
NAME=nicotinic acid CollisionEnergy:102040 M-H
PRECURSOR_MZ=122.025
INCHI="InChI=1S/C6H5NO2/c8-6(9)5-2-1-3-7-4-5/h1-4H,(H,8,9)"
SMILES=O=C(O)c1cccnc1
SPECTRUMID=CCMSLIB00010102627
54.433498 160823.0 
66.761101 163240.0 
69.101303 163397.0 
71.666901 163061.0 
78.034698 4285450.0 
79.741501 165028.0 
92.401703 197775.0 
94.029701 1274910.0 
104.315002 213281.0 
122.025002 5765110.0 
END IONS

BEGIN IONS
NAME=Caffeic acid phenethyl ester CollisionEnergy:102040 M+H
PRECURSOR_MZ=285.112
INCHI="InChI=1S/C17H16O4/c18-15-8-6-14(12-16(15)19)7-9-17(20)21-11-10-13-4-2-1-3-5-13/h1-9,12,18-19H,10-11H2/b9-7+"
SMILES=O=C(C=Cc1ccc(O)c(O)c1)OCCc1ccccc1
SPECTRUMID=CCMSLIB00010106498
53.03904 4714.0 
55.554401 2777.0 
79.054527 38421.0 
91.054443 41504.0 
92.367996 3533.0 
103.054039 23059.0 
105.069847 2601097.0 
123.043999 13403.0 
127.0728 5862.0 
128.009399 2830.0 
129.069687 10457.0 
138.089081 16180.0 
143.049118 2968.0 
146.096283 4680.0 
146.835022 2635.0 
153.684174 2326.0 
161.059357 17177.0 
163.038635 12882.0 
168.099518 18647.0 
179.084824 4183.0 
189.054474 44714.0 
198.366318 2441.0 
207.080841 11507.0 
211.263321 2515.0 
225.090622 152036.0 
239.040192 4627.0 
239.106964 19047.0 
244.043579 3807.0 
249.092148 3265.0 
257.050262 6044.0 
262.055237 29936.0 
266.069061 2623.0 
267.101074 118461.0 
271.601868 2730.0 
280.06601 17051.0 
285.076569 4720.0 
285.110229 3945.0 
285.177856 170278.0 
288.64679 2642.0 
END IONS

BEGIN IONS
NAME=3-(7-hydroxy-4-methyl-2-oxochromen-3-yl)-N-benzylpropanamide CollisionEnergy:205060 M+H
PRECURSOR_MZ=338.139
INCHI="InChI=1S/C20H19NO4/c1-13-16-8-7-15(22)11-18(16)25-20(24)17(13)9-10-19(23)21-12-14-5-3-2-4-6-14/h2-8,11,22H,9-10,12H2,1H3,(H,21,23)"
SMILES=Cc1c(CCC(O)=NCc2ccccc2)c(=O)oc2cc(O)ccc12
SPECTRUMID=CCMSLIB00010120197
52.919979 3677.0 
65.03891 29301.0 
66.746422 4326.0 
68.659172 3712.0 
68.997437 5631.0 
79.054619 5360.0 
91.054321 887872.0 
91.321854 4184.0 
98.57032 4247.0 
103.054199 25551.0 
104.291786 3759.0 
105.069801 136732.0 
107.049019 16140.0 
108.0812 7307.0 
115.054283 62174.0 
116.828362 3578.0 
117.069901 16777.0 
119.085159 9351.0 
127.054077 13649.0 
127.552254 4110.0 
129.070297 37398.0 
131.04953 5478.0 
131.085785 5714.0 
132.057526 6906.0 
133.064804 174439.0 
141.069763 16564.0 
144.05719 50937.0 
145.064972 28676.0 
147.044418 8641.0 
147.080765 49273.0 
155.059158 9168.0 
157.976776 4055.0 
160.051682 47757.0 
161.059479 422805.0 
175.075027 153270.0 
185.411148 5190.0 
189.054367 11958106.0 
203.069992 2664230.0 
203.127472 7926.0 
231.064819 6677526.0 
234.112274 6048.0 
338.137604 390117.0 
END IONS

BEGIN IONS
NAME=HYDRASTINE CollisionEnergy:205060 M+H
PRECURSOR_MZ=384.144
INCHI="InChI=1S/C21H21NO6/c1-22-7-6-11-8-15-16(27-10-26-15)9-13(11)18(22)19-12-4-5-14(24-2)20(25-3)17(12)21(23)28-19/h4-5,8-9,18-19H,6-7,10H2,1-3H3/t18-,19+/m1/s1"
SMILES=COc1ccc2c(c1OC)C(=O)OC2C1c2cc3c(cc2CCN1C)OCO3
SPECTRUMID=CCMSLIB00010115175
51.40694 3906.0 
58.065571 6846.0 
70.167877 4179.0 
79.054359 7923.0 
91.054291 107641.0 
91.060463 6944.0 
102.046669 4696.0 
103.054138 24169.0 
105.033546 4472.0 
107.048882 5212.0 
115.054314 10671.0 
115.919151 3658.0 
119.049049 106185.0 
121.064247 7723.0 
129.49028 3926.0 
130.041351 9664.0 
131.049286 61050.0 
131.073074 10707.0 
132.080536 8548.0 
135.044052 107211.0 
137.059799 30014.0 
138.0681 6063.0 
143.049271 6968.0 
145.064178 5016.0 
147.043976 27637.0 
147.066971 4831.0 
148.051239 10222.0 
149.023239 16027.0 
149.059586 319426.0 
151.07486 18609.0 
157.982758 4802.0 
159.044159 103563.0 
159.067291 45436.0 
160.051437 28251.0 
160.075073 45151.0 
161.059952 42955.0 
162.05365 7182.0 
162.067734 5521.0 
163.039291 47017.0 
165.054153 35022.0 
165.069839 34640.0 
166.077377 31870.0 
167.087112 5625.0 
173.059174 5884.0 
174.030746 7929.0 
174.054825 23346.0 
175.038879 34588.0 
175.06131 46882.0 
175.076172 17010.0 
176.070694 530828.0 
177.053986 8476.0 
177.068741 44592.0 
178.077316 70054.0 
179.085312 60483.0 
180.041473 9303.0 
181.064209 23139.0 
181.101669 7314.0 
187.038544 28156.0 
187.057205 5153.0 
188.07045 175234.0 
189.079285 233998.0 
190.086136 4594247.0 
191.089066 33879.0 
192.056427 8140.0 
193.048904 187032.0 
194.072571 215624.0 
195.080704 31962.0 
203.085373 10025.0 
204.057083 85443.0 
205.064697 98665.0 
206.071854 88527.0 
207.044678 14536.0 
207.080795 93559.0 
208.050934 8446.0 
208.087448 38152.0 
209.06105 42159.0 
209.095825 129892.0 
210.066849 5136.0 
211.07428 9867.0 
217.064667 41062.0 
218.072754 47118.0 
219.0802 81034.0 
220.051941 60285.0 
220.087402 8046.0 
221.05954 215345.0 
221.09613 24393.0 
222.067261 384067.0 
223.074982 61956.0 
224.082748 51579.0 
225.05394 7007.0 
225.090866 7638.0 
226.063034 9314.0 
229.063904 7474.0 
232.051437 251080.0 
233.059479 114354.0 
234.040543 6588.0 
234.067215 222744.0 
235.039688 26869.0 
235.074966 265285.0 
236.083069 77401.0 
237.054169 106575.0 
237.090576 213764.0 
238.061859 20123.0 
239.071335 61221.0 
239.105667 95450.0 
240.078018 5370.0 
244.05127 18846.0 
245.059143 75401.0 
246.067261 60525.0 
247.043716 9599.0 
247.074921 149666.0 
248.047867 48075.0 
248.082657 41178.0 
249.054108 457495.0 
249.089523 80854.0 
250.062088 933238.0 
251.06987 478898.0 
251.099091 13226.0 
252.077988 119880.0 
253.04834 8576.0 
253.084351 9565.0 
254.056442 17591.0 
259.074371 6735.0 
260.046509 198013.0 
261.054443 74850.0 
261.085724 7516.0 
262.061951 219230.0 
263.038147 8538.0 
263.069946 212329.0 
264.044159 9561.0 
264.077484 117287.0 
265.049835 272660.0 
265.08493 1531250.0 
266.056793 68717.0 
266.092834 94648.0 
267.064819 102207.0 
267.100677 64175.0 
268.071228 21062.0 
272.047516 15973.0 
273.054504 9374.0 
274.061768 211604.0 
275.036255 9196.0 
275.069489 153232.0 
276.041138 27166.0 
276.077301 54442.0 
277.048828 514186.0 
277.085052 149500.0 
278.057037 592484.0 
278.091125 48178.0 
279.064758 482937.0 
279.096436 18018.0 
280.072418 510085.0 
281.080322 83451.0 
282.05542 7838.0 
282.08783 157817.0 
283.059143 14991.0 
283.09552 42281.0 
289.048828 109215.0 
290.054596 87602.0 
290.088074 5566.0 
291.0271 7490.0 
291.064423 350895.0 
292.072266 682328.0 
293.044891 178574.0 
293.079956 2245252.0 
294.052521 16253.0 
294.087769 153963.0 
295.059418 88545.0 
295.095428 759940.0 
296.068573 8881.0 
297.075073 7129.0 
297.111053 81903.0 
302.056427 221110.0 
303.064728 23862.0 
304.070587 201580.0 
305.042938 65183.0 
305.080292 101118.0 
306.049194 6960.0 
307.059296 227440.0 
307.094147 16953.0 
308.06601 346520.0 
309.075409 5787.0 
309.11145 22695.0 
310.082764 26704.0 
311.090576 23646.0 
318.078461 8618.0 
318.260742 5560.0 
319.059418 50286.0 
319.095123 21872.0 
320.066223 198857.0 
321.074066 25536.0 
322.079254 134053.0 
323.090729 2270664.0 
325.10614 30545.0 
332.091187 30746.0 
334.107025 7555.0 
335.090363 316953.0 
336.085815 50781.0 
337.107666 8972.0 
338.075439 7898.0 
338.142609 6098.0 
341.101196 79253.0 
348.121155 28990.0 
350.102112 8231.0 
351.110352 10421.0 
353.100861 58842.0 
366.133484 94662.0 
384.143524 7037440.0 
END IONS

BEGIN IONS
NAME="2-amino-15-[(4-chlorophenyl)methyl]-5,16-dioxospiro[4H-pyrano[3,2-c]chromene-4 ,3'-indoline]-3-carbonitrile CollisionEnergy:205060" M+Cl
PRECURSOR_MZ=516.052
INCHI="InChI=1S/C27H16ClN3O4/c28-16-11-9-15(10-12-16)14-31-20-7-3-2-6-18(20)27(26(31)33)19(13-29)24(30)35-23-17-5-1-4-8-21(17)34-25(32)22(23)27/h1-12H,14,30H2"
SMILES=N#CC1=C(N)Oc2c(c(=O)oc3ccccc23)C12C(=O)N(Cc1ccc(Cl)cc1)c1ccccc12
SPECTRUMID=CCMSLIB00010122794
53.070469 2561.0 
54.927151 2538.0 
55.15403 2674.0 
57.114651 2230.0 
62.553379 2727.0 
65.014183 38493.0 
82.389122 3767.0 
92.246239 2809.0 
104.276878 3090.0 
115.664886 2418.0 
146.661148 2438.0 
146.961411 4004.0 
162.154556 2704.0 
345.049347 2717.0 
362.887421 2633.0 
480.078308 3165.0 
END IONS

BEGIN IONS
NAME=2-[2-(4-methylphenyl)-4-oxochromen-3-yloxy]ethanenitrile CollisionEnergy:205060 M+Na
PRECURSOR_MZ=314.079
INCHI="InChI=1S/C18H13NO3/c1-12-6-8-13(9-7-12)17-18(21-11-10-19)16(20)14-4-2-3-5-15(14)22-17/h2-9H,11H2,1H3"
SMILES=Cc1ccc(-c2oc3ccccc3c(=O)c2OCC#N)cc1
SPECTRUMID=CCMSLIB00010115430
53.72916 2805.0 
55.054749 27516.0 
56.057671 4041.0 
56.96468 18372.0 
60.29784 2819.0 
73.947983 3446.0 
81.173653 2816.0 
82.391586 3457.0 
83.085152 16437.0 
88.924347 2737.0 
104.272392 3324.0 
106.831963 2886.0 
145.02623 3242.0 
146.031158 4214.0 
149.022797 11036.0 
150.026474 4056.0 
153.018494 28135.0 
154.022079 21846.0 
160.046768 5825.0 
163.223007 2495.0 
197.340515 2918.0 
215.069855 11117.0 
216.07341 28154.0 
231.050568 3436.0 
240.056381 3654.0 
243.064606 5248.0 
244.067429 31904.0 
253.050064 3576.0 
254.053238 13294.0 
254.324783 2944.0 
261.051086 5046.0 
271.059723 44819.0 
272.06311 366272.0 
274.059723 5182855.0 
286.058075 4215.0 
292.07074 19136.0 
293.085663 24697.0 
293.585632 4325.0 
301.588806 6793.0 
302.091187 93813.0 
302.590546 40993.0 
311.097565 3654.0 
313.042938 27592.0 
313.600037 23497.0 
314.077789 1605852.0 
315.085236 42097.0 
319.701721 3132.0 
328.029968 14039.0 
332.090027 5980.0 
355.106262 11957.0 
461.100708 3200.0 
592.572266 2835.0 
END IONS

BEGIN IONS
NAME="6,8-dichloro-2-phenylchromen-4-one CollisionEnergy:205060" M+H
PRECURSOR_MZ=290.997
INCHI=InChI=1S/C15H8Cl2O2/c16-10-6-11-13(18)8-14(9-4-2-1-3-5-9)19-15(11)12(17)7-10/h1-8H
SMILES=O=c1cc(-c2ccccc2)oc2c(Cl)cc(Cl)cc12
SPECTRUMID=CCMSLIB00010120488
53.03936 2662.0 
57.070351 3830.0 
58.024029 2618.0 
60.545361 2654.0 
63.32156 2471.0 
65.774513 2674.0 
70.98291 2809.0 
71.085983 4343.0 
84.959869 2971.0 
84.984222 41593.0 
88.844261 2919.0 
88.884903 2646.0 
89.059891 12307.0 
102.046471 9289.0 
103.054237 101873.0 
105.033699 32140.0 
112.978867 5456.0 
120.960739 19978.0 
126.994087 4428.0 
128.002411 10048.0 
129.03334 63370.0 
132.960556 20904.0 
144.960693 2441.0 
151.096313 4176.0 
152.062714 2345.0 
153.98143 2804.0 
160.955811 40234.0 
162.970917 26967.0 
165.069412 40871.0 
171.992325 5653.0 
172.967163 52566.0 
176.062302 10204.0 
188.9505 91292.0 
192.057007 10000.0 
199.030975 58382.0 
200.038361 27614.0 
206.960571 37776.0 
212.038864 50692.0 
220.052017 4529.0 
221.060043 4271.0 
227.025421 17837.0 
228.033432 229687.0 
235.007767 25039.0 
255.020172 36288.0 
256.02829 44443.0 
290.997131 2565387.0 
398.709198 2791.0 
427.935028 3302.0 
476.920532 3012.0 
END IONS

BEGIN IONS
NAME=naringenin CollisionEnergy:102040 2M-H
PRECURSOR_MZ=543.13
INCHI="InChI=1S/C15H12O5/c16-9-3-1-8(2-4-9)13-7-12(19)15-11(18)5-10(17)6-14(15)20-13/h1-6,13,16-18H,7H2"
SMILES=O=C1CC(c2ccc(O)cc2)Oc2cc(O)cc(O)c21
SPECTRUMID=CCMSLIB00010105224
53.49157 2255.0 
70.2938 2564.0 
81.475517 2448.0 
151.003479 2639.0 
271.061554 17596.0 
286.312897 2436.0 
302.043152 2593.0 
406.845886 4608.0 
434.149475 2797.0 
474.832184 5125.0 
509.827728 3177.0 
543.047302 6054.0 
END IONS

BEGIN IONS
NAME=ethyl 6-bromo-5-methoxy-2-methyl-1-phenylindole-3-carboxylate CollisionEnergy:205060 M+H
PRECURSOR_MZ=388.054
INCHI="InChI=1S/C19H18BrNO3/c1-4-24-19(22)18-12(2)21(13-8-6-5-7-9-13)16-11-15(20)17(23-3)10-14(16)18/h5-11H,4H2,1-3H3"
SMILES=CCOC(=O)c1c(C)n(-c2ccccc2)c2cc(Br)c(OC)cc12
SPECTRUMID=CCMSLIB00010121575
53.52129 3022.0 
62.894791 2710.0 
66.541168 2745.0 
66.617287 3008.0 
92.368729 4455.0 
104.276611 3927.0 
118.065742 3569.0 
118.644539 2797.0 
130.065857 3596.0 
165.069748 4827.0 
191.072021 5437.0 
192.080612 68341.0 
193.088531 67721.0 
194.096298 111603.0 
196.076248 3561.0 
204.080933 57675.0 
205.088303 44572.0 
206.09671 12309.0 
207.103333 18006.0 
208.111084 23820.0 
219.066772 4882.0 
219.345261 3328.0 
220.075653 137944.0 
220.111298 43873.0 
221.083038 85518.0 
222.091232 305978.0 
222.128448 19550.0 
234.091309 82021.0 
235.098907 52872.0 
236.106644 231201.0 
237.079468 13970.0 
237.114471 225617.0 
238.085876 197078.0 
238.114716 6054.0 
240.282776 3019.0 
247.062302 3372.0 
248.070221 50744.0 
249.077866 13595.0 
250.086472 47029.0 
250.122253 97025.0 
251.095581 4407.0 
252.101746 6794.0 
262.085846 176205.0 
263.094086 79652.0 
264.101562 221104.0 
264.273376 3185.0 
265.146423 55821.0 
266.080994 480609.0 
270.506165 3248.0 
270.998108 17631.0 
271.978485 3031.0 
272.006439 185924.0 
280.095947 62497.0 
281.104248 259168.0 
294.112122 116291.0 
297.985565 54810.0 
298.993622 55517.0 
300.001373 219510.0 
301.008911 42714.0 
309.135498 1033483.0 
314.017212 12090.0 
315.024902 109457.0 
315.995117 13709.0 
316.03241 10185.0 
326.988617 145920.0 
342.011932 448972.0 
343.990753 28516.0 
359.01474 6341.0 
360.023529 26101.0 
362.462921 2947.0 
388.053619 455286.0 
END IONS

BEGIN IONS
NAME=ouabain CollisionEnergy:102040 M+H
PRECURSOR_MZ=585.291
INCHI="InChI=1S/C29H44O12/c1-13-22(34)23(35)24(36)25(40-13)41-15-8-19(32)28(12-30)21-17(3-5-27(28,37)9-15)29(38)6-4-16(14-7-20(33)39-11-14)26(29,2)10-18(21)31/h7,13,15-19,21-25,30-32,34-38H,3-6,8-12H2,1-2H3/t13-,15-,16+,17+,18+,19+,21+,22-,23+,24+,25-,26+,27-,28+,29-/m0/s1"
SMILES=CC1OC(OC2CC(O)C3(CO)C4C(O)CC5(C)C(C6=CC(=O)OC6)CCC5(O)C4CCC3(O)C2)C(O)C(O)C1O
SPECTRUMID=CCMSLIB00010112687
55.054531 7919.0 
57.03371 16834.0 
58.817749 3093.0 
67.054451 4120.0 
71.049438 125546.0 
73.028358 4257.0 
75.044243 17191.0 
79.054337 4399.0 
81.069893 7832.0 
83.049294 77525.0 
85.028549 201926.0 
91.054092 6604.0 
92.373993 3559.0 
93.069733 7865.0 
105.069397 22071.0 
107.08519 14541.0 
109.026657 3488.0 
109.064201 4097.0 
111.044029 64187.0 
111.909561 3807.0 
117.069687 38295.0 
118.160393 3793.0 
119.085037 23340.0 
121.100891 5142.0 
125.059349 17477.0 
129.054459 159653.0 
129.069748 41651.0 
131.085342 60465.0 
133.100754 21414.0 
133.570648 3855.0 
135.080139 7126.0 
136.147995 3503.0 
141.058197 5903.0 
141.069733 77640.0 
143.085464 82607.0 
145.064499 5891.0 
145.101151 59708.0 
147.064819 34704.0 
147.080215 16940.0 
147.116714 4803.0 
149.095993 7948.0 
153.054108 17154.0 
155.070221 7958.0 
155.0849 43404.0 
157.100998 352634.0 
159.080093 33809.0 
159.116409 50107.0 
161.095413 19355.0 
163.074768 18144.0 
163.111221 5826.0 
165.091217 6674.0 
167.085007 19286.0 
169.100769 49957.0 
171.079788 21026.0 
171.116348 22506.0 
173.095306 8601.0 
175.0755 4473.0 
175.110794 6006.0 
177.090393 20418.0 
179.10585 6025.0 
181.084625 17759.0 
181.101044 35581.0 
183.11647 23982.0 
185.096176 6950.0 
185.132111 6346.0 
187.111786 35144.0 
189.090302 20272.0 
191.084961 5656.0 
191.106323 3706.0 
193.083679 6099.0 
193.100677 14689.0 
195.116562 21003.0 
197.132111 6041.0 
199.110687 15200.0 
203.106583 7001.0 
205.101822 8033.0 
205.121719 5486.0 
207.100128 22331.0 
207.118423 12092.0 
209.094894 3975.0 
209.132187 19308.0 
211.111755 7701.0 
217.099731 6501.0 
219.115524 14299.0 
221.079987 34199.0 
221.132904 8535.0 
225.126572 3993.0 
227.106079 6546.0 
231.116684 6183.0 
233.131287 15336.0 
235.148071 8145.0 
237.126877 7449.0 
239.142395 5949.0 
245.132309 6731.0 
247.147751 15756.0 
249.16333 14725.0 
253.122131 4877.0 
255.135056 4056.0 
257.130981 6236.0 
259.147614 37725.0 
261.163116 7149.0 
263.140686 4957.0 
263.176697 4078.0 
265.157501 5661.0 
271.150299 3801.0 
273.162781 44356.0 
275.178772 18603.0 
277.159332 7699.0 
281.152771 15694.0 
281.28244 3845.0 
285.163727 14636.0 
287.178406 5138.0 
289.15802 4887.0 
291.137634 4485.0 
291.170288 25167.0 
293.153198 6955.0 
293.188568 6764.0 
295.168976 7276.0 
301.157471 28129.0 
303.17157 25355.0 
305.151733 18773.0 
305.187347 10295.0 
307.16864 18030.0 
309.184387 17288.0 
313.15683 8006.0 
319.168549 185703.0 
321.183655 88027.0 
323.163666 26931.0 
331.168091 54006.0 
333.183624 29850.0 
337.179077 422288.0 
339.194122 66784.0 
341.173096 18281.0 
349.179108 234333.0 
351.194824 55385.0 
355.189514 580003.0 
357.205719 21998.0 
359.188293 5471.0 
367.189392 368520.0 
369.205383 93797.0 
373.200165 448515.0 
385.200165 644365.0 
387.215576 14582.0 
403.210724 742481.0 
421.221039 240190.0 
439.231628 407505.0 
439.333282 5698.0 
447.21579 5835.0 
465.22406 21783.0 
465.292389 5160.0 
477.22818 6776.0 
483.239075 8755.0 
495.236237 45344.0 
501.252106 4116.0 
513.248108 73862.0 
531.258118 70939.0 
549.268738 66710.0 
567.279663 74507.0 
585.289368 501609.0 
END IONS

BEGIN IONS
NAME="2',3' cyclic CMP CollisionEnergy:102040" M+Na
PRECURSOR_MZ=328.03
INCHI="InChI=1S/C9H12N3O7P/c10-5-1-2-12(9(14)11-5)8-7-6(4(3-13)17-8)18-20(15,16)19-7/h1-2,4,6-8,13H,3H2,(H,15,16)(H2,10,11,14)/t4-,6-,7-,8?/m1/s1"
SMILES=N=c1ccn(C2O[C@H](CO)[C@H]3OP(=O)(O)O[C@@H]23)c(O)n1
SPECTRUMID=CCMSLIB00010126766
66.518097 2383.169922 
73.959602 2468.0 
76.536102 2689.469971 
78.175598 2378.439941 
82.406998 2356.22998 
92.3881 2599.679932 
100.226997 3014.889893 
104.299004 3189.060059 
120.966003 4922.339844 
126.771004 2328.149902 
134.031998 217078.0 
136.220993 3337.199951 
136.231995 2678.379883 
178.061005 3222.439941 
200.042007 9750.650391 
216.987 416837.0 
230.052002 16050.200195 
234.996994 29473.400391 
258.013 9537.719727 
270.36499 2341.679932 
328.028992 372755.0 
END IONS

BEGIN IONS
NAME=4-CHLORO-L-PHENYLALANINE CollisionEnergy:205060 M+H
PRECURSOR_MZ=200.047
INCHI="InChI=1S/C9H10ClNO2/c10-7-3-1-6(2-4-7)5-8(11)9(12)13/h1-4,8H,5,11H2,(H,12,13)/t8-/m0/s1"
SMILES=NC(Cc1ccc(Cl)cc1)C(=O)O
SPECTRUMID=CCMSLIB00010123672
55.934898 229530.0 
70.958344 33325.0 
71.929718 16191.0 
72.937462 58905.0 
73.94529 4047.0 
73.961327 3775.0 
74.096809 14395.0 
75.099854 4363.0 
84.329987 2943.0 
87.643669 2827.0 
88.968674 62453.0 
89.939934 21310.0 
90.947823 50796.0 
91.054352 62261.0 
102.046753 4420.0 
103.054443 3097.0 
103.943123 4579.0 
105.934723 18193.0 
106.979027 3760.0 
107.950409 49051.0 
111.984398 3843.0 
113.015167 68960.0 
113.963837 18010.0 
117.934761 7120.0 
118.065117 750899.0 
119.072983 1209068.0 
123.945953 2891.0 
125.015678 5552.0 
125.960716 51482.0 
127.031281 4856.0 
128.950668 338977.0 
130.966431 27376.0 
135.93367 6635.0 
135.945343 144749.0 
136.22348 3736.0 
137.004791 4600.0 
137.015259 237778.0 
141.010101 296205.0 
146.950897 3820.0 
146.961288 206734.0 
148.977142 38010.0 
153.956161 69523.0 
154.041763 5455930.0 
155.025909 4310.0 
158.946564 6997.0 
158.961151 138336.0 
165.010101 191113.0 
169.97699 23875.0 
176.957214 4762.0 
176.970993 40920.0 
183.020599 139518.0 
199.989639 6521.0 
200.047165 260946.0 
END IONS

BEGIN IONS
NAME=folic acid CollisionEnergy:205060 M-2H]
PRECURSOR_MZ=219.563
INCHI="InChI=1S/C19H19N7O6/c20-19-25-15-14(17(30)26-19)23-11(8-22-15)7-21-10-3-1-9(2-4-10)16(29)24-12(18(31)32)5-6-13(27)28/h1-4,8,12,21H,5-7H2,(H,24,29)(H,27,28)(H,31,32)(H3,20,22,25,26,30)/t12-/m0/s1"
SMILES=N=c1nc(O)c2nc(CNc3ccc(C(=O)NC(CCC(=O)O)C(=O)O)cc3)cnc2[nH]1
SPECTRUMID=CCMSLIB00010123424
66.009193 4422.0 
73.153831 2294.0 
82.030273 2305.0 
84.416779 2020.0 
85.029083 2518.0 
92.050209 8432.0 
92.398216 2405.0 
102.179031 2468.0 
104.308098 2679.0 
119.03701 2554.0 
122.024719 11776.0 
123.076241 2115.0 
128.035217 2699.0 
131.048813 8660.0 
131.156052 2019.0 
132.044067 67312.0 
135.03273 14884.0 
135.055405 3137.0 
147.05629 20831.0 
148.137589 2278.0 
154.54895 28318.0 
155.026871 2546.0 
155.041077 71686.0 
155.054672 3261.0 
155.542572 3261.0 
156.768875 2354.0 
161.072128 18570.0 
162.041214 2710.0 
164.033249 9744.0 
174.042206 10998.0 
175.04985 109201.0 
175.087341 10156.0 
175.572403 30339.0 
176.056961 9934.0 
176.094193 5409.0 
177.103333 3719.0 
197.567657 141551.0 
198.069199 18520.0 
207.039749 93761.0 
208.040726 3882.0 
219.56218 23882.0 
219.844467 2521.0 
220.063248 3947.0 
224.09523 2286.0 
267.099731 5345.0 
269.07785 10739.0 
279.097504 2314.0 
292.096344 3201.0 
293.11734 9532.0 
311.089203 4659.0 
322.106964 22046.0 
333.146637 2219.0 
336.121643 25020.0 
337.123596 2931.0 
350.136932 10743.0 
END IONS

BEGIN IONS
NAME="N-(3-ethyl-4-oxo(3-hydroquinazolin-7-yl))(3,4,5-trimethoxyphenyl)carboxamide CollisionEnergy:205060" M+H
PRECURSOR_MZ=384.155
INCHI="InChI=1S/C20H21N3O5/c1-5-23-11-21-15-10-13(6-7-14(15)20(23)25)22-19(24)12-8-16(26-2)18(28-4)17(9-12)27-3/h6-11H,5H2,1-4H3,(H,22,24)"
SMILES=CCn1cnc2cc(N=C(O)c3cc(OC)c(OC)c(OC)c3)ccc2c1=O
SPECTRUMID=CCMSLIB00010115227
53.039131 340681.0 
55.018391 71954.0 
57.543831 56444.0 
57.992081 66798.0 
65.039001 886633.0 
66.548668 58687.0 
67.01825 125189.0 
67.054527 264878.0 
69.033829 357524.0 
71.013123 159778.0 
73.334663 58698.0 
73.429749 59414.0 
75.044403 279207.0 
77.039078 112737.0 
78.046638 263683.0 
79.054497 3463585.0 
81.033691 1402462.0 
81.070183 1725822.0 
82.00515 114571.0 
82.041443 391850.0 
82.416481 74676.0 
83.01329 98843.0 
83.049522 131982.0 
85.028648 347769.0 
91.054367 336938.0 
92.026482 254722.0 
92.398888 83812.0 
93.033684 763493.0 
94.041458 269083.0 
95.049377 550520.0 
97.028488 110723.0 
97.064713 127106.0 
101.059608 84255.0 
105.033417 789739.0 
106.041153 160441.0 
107.049118 554918.0 
108.020576 72043.0 
108.056648 502857.0 
109.028267 614754.0 
109.064697 2341553.0 
110.036392 145678.0 
111.043854 129200.0 
111.080406 717487.0 
113.023247 624746.0 
113.059647 397136.0 
120.044319 566414.0 
121.028381 637890.0 
121.064751 79157.0 
122.036133 1442511.0 
123.044296 139488.0 
123.887482 66271.0 
124.05191 2728703.0 
124.061752 139837.0 
125.023552 115319.0 
125.059341 572298.0 
127.039238 139143.0 
128.046768 1197908.0 
133.028259 422855.0 
134.036209 359778.0 
134.047455 352515.0 
135.043991 18695868.0 
136.039825 136296.0 
137.023163 1293403.0 
138.031586 274577.0 
138.067352 80957.0 
139.03952 134532.0 
139.075348 5610600.0 
141.018188 1366919.0 
141.054749 103561.0 
142.026001 280509.0 
143.070343 300844.0 
145.03978 410727.0 
146.023117 496089.0 
149.023285 273275.0 
151.038757 2176298.0 
151.052567 81969.0 
152.046677 7092656.0 
153.054916 128242.0 
154.062424 864797.0 
155.033905 303606.0 
156.041489 2032485.0 
161.058243 8784158.0 
162.032333 81312.0 
162.06604 2608610.0 
163.038177 8540714.0 
163.050369 27223674.0 
165.018173 1212735.0 
166.025955 146097.0 
167.034164 158787.0 
167.070526 299552.0 
169.086243 148299.0 
170.019653 71085.0 
171.020279 85944.0 
171.065155 992286.0 
176.081345 105956.0 
179.033997 987611.0 
180.041565 469971.0 
181.049393 27564694.0 
184.036621 1659599.0 
185.081131 682435.0 
185.464767 64731.0 
188.045181 4122660.0 
189.089462 5349338.0 
190.09726 674142.0 
191.081329 2105392.0 
194.081223 484381.0 
194.359894 67638.0 
195.065109 67496848.0 
216.076401 830061.0 
238.061523 76223.0 
252.076645 1375241.0 
255.100433 132668.0 
264.076355 409386.0 
266.056427 81751.0 
266.091339 121541.0 
276.077148 333533.0 
280.071472 485529.0 
280.107941 1387071.0 
282.086945 150473.0 
292.07196 272359.0 
292.108246 442813.0 
293.079193 90801.0 
294.087189 1562800.0 
294.121582 156168.0 
298.081757 403494.0 
298.117096 117103.0 
304.071442 566466.0 
304.107941 361190.0 
305.077454 101937.0 
306.088318 100840.0 
308.067627 141115.0 
308.100281 593835.0 
310.081635 2074230.0 
312.062073 192598.0 
312.097229 1079965.0 
320.103485 320144.0 
322.081238 1114754.0 
322.119232 956653.0 
324.060974 246164.0 
326.076324 7835491.0 
326.114166 872300.0 
332.101685 781060.0 
334.119629 74736.0 
336.101318 94721.0 
338.113068 2001903.0 
340.091034 3740846.0 
340.129242 495377.0 
350.113312 1938463.0 
354.107941 3407900.0 
356.123444 5662001.0 
368.122955 3068554.0 
369.131439 343182.0 
382.213837 93524.0 
384.154816 134891248.0 
386.114746 114817.0 
END IONS

BEGIN IONS
NAME=4-(4-methylphenyl)-4-oxo-2-(phenylmethylamino)butanoic acid CollisionEnergy:205060 M-H
PRECURSOR_MZ=296.129
INCHI="InChI=1S/C18H19NO3/c1-13-7-9-15(10-8-13)17(20)11-16(18(21)22)19-12-14-5-3-2-4-6-14/h2-10,16,19H,11-12H2,1H3,(H,21,22)"
SMILES=Cc1ccc(C(=O)CC(NCc2ccccc2)C(=O)O)cc1
SPECTRUMID=CCMSLIB00010117064
50.696541 2172.0 
77.653374 2014.0 
84.144791 2340.0 
92.387749 3004.0 
97.688316 2445.0 
117.070961 174691.0 
119.050247 22734.0 
133.06572 25390.0 
143.050034 2850.0 
145.065918 102309.0 
160.076935 3079.0 
161.061096 40140.0 
162.056107 13763.0 
189.055923 660294.0 
296.131073 2787.0 
END IONS

BEGIN IONS
NAME="3,3',5'-Triiodo-L-thyronine CollisionEnergy:102040" M-H
PRECURSOR_MZ=649.783
INCHI="InChI=1S/C15H12I3NO4/c16-9-3-7(4-12(19)15(21)22)1-2-13(9)23-8-5-10(17)14(20)11(18)6-8/h1-3,5-6,12,20H,4,19H2,(H,21,22)/t12-/m0/s1"
SMILES=N[C@@H](Cc1ccc(Oc2cc(I)c(O)c(I)c2)c(I)c1)C(=O)O
SPECTRUMID=CCMSLIB00010102743
54.098999 149585.0 
54.811001 121015.0 
55.1894 122039.0 
60.571499 132857.0 
66.780403 154310.0 
72.008904 2938380.0 
73.996101 199906.0 
118.718002 246186.0 
126.904999 45666200.0 
136.283997 160718.0 
158.059998 136133.0 
211.067993 383887.0 
329.411011 153393.0 
362.134003 172583.0 
448.854004 1551290.0 
493.223999 146040.0 
505.85199 799664.0 
522.880005 565786.0 
632.755981 2919820.0 
649.783997 8510630.0 
END IONS

BEGIN IONS
NAME=6-amino-9-[2-(4-methylphenoxy)ethyl]purine-8-thiol CollisionEnergy:102040 2M-H
PRECURSOR_MZ=601.192
INCHI="InChI=1S/C14H15N5OS/c1-9-2-4-10(5-3-9)20-7-6-19-13-11(18-14(19)21)12(15)16-8-17-13/h2-5,8H,6-7H2,1H3,(H,18,21)(H2,15,16,17)"
SMILES=Cc1ccc(OCCn2c(S)nc3c(N)ncnc32)cc1
SPECTRUMID=CCMSLIB00010104905
63.910759 3486.0 
64.325287 3306.0 
64.334122 3734.0 
69.576103 3441.0 
81.884613 3190.0 
82.417664 3850.0 
107.050209 2305607.0 
111.607269 3010.0 
118.679604 3695.0 
192.034958 98215.0 
192.053406 5024.0 
300.092194 1744721.0 
303.218323 6420.0 
333.422974 3614.0 
372.394775 4027.0 
374.436432 3241.0 
396.887024 3083.0 
END IONS

BEGIN IONS
NAME=enoxolone CollisionEnergy:102040 M+formate
PRECURSOR_MZ=515.338
INCHI="InChI=1S/C30H46O4/c1-25(2)21-8-11-30(7)23(28(21,5)10-9-22(25)32)20(31)16-18-19-17-27(4,24(33)34)13-12-26(19,3)14-15-29(18,30)6/h16,19,21-23,32H,8-15,17H2,1-7H3,(H,33,34)/t19-,21-,22-,23+,26+,27-,28-,29+,30+/m0/s1"
SMILES=CC1(C(=O)O)CCC2(C)CCC3(C)C(=CC(=O)C4C5(C)CCC(O)C(C)(C)C5CCC43C)C2C1
SPECTRUMID=CCMSLIB00010106996
112.737488 2809.0 
174.956177 46967.0 
242.943069 34775.0 
259.781769 2775.0 
310.931 19017.0 
311.166748 3648.0 
378.918976 20545.0 
446.908142 3271.0 
469.332367 179322.0 
690.810303 2942.0 
END IONS

BEGIN IONS
NAME=ethyl 3-indol-3-yl-2-{[(4-methylphenyl)sulfonyl]amino}propanoate CollisionEnergy:205060 M+H
PRECURSOR_MZ=387.137
INCHI="InChI=1S/C20H22N2O4S/c1-3-26-20(23)19(12-15-13-21-18-7-5-4-6-17(15)18)22-27(24,25)16-10-8-14(2)9-11-16/h4-11,13,19,21-22H,3,12H2,1-2H3"
SMILES=CCOC(=O)C(Cc1c[nH]c2ccccc12)NS(=O)(=O)c1ccc(C)cc1
SPECTRUMID=CCMSLIB00010120916
51.744289 3097.0 
52.192558 2804.0 
55.01825 5654.0 
65.039078 32834.0 
66.744049 3222.0 
67.054466 21095.0 
68.549713 2851.0 
91.054329 96684.0 
103.054092 6049.0 
109.064774 24649.0 
115.054314 33087.0 
116.061737 5515.0 
117.057541 15354.0 
117.069557 34050.0 
118.065041 243662.0 
119.06015 27047.0 
130.065109 886970.0 
131.073105 50286.0 
132.08078 33175.0 
140.049728 6912.0 
142.065109 75317.0 
143.072891 666657.0 
144.044708 25787.0 
144.080719 346970.0 
146.059937 318207.0 
155.016006 25960.0 
156.068161 81488.0 
156.080902 5866.0 
157.075928 625767.0 
157.088089 24244.0 
158.083817 2027065.0 
159.091507 37744.0 
160.075714 15241.0 
170.059952 178739.0 
172.112061 36915.0 
174.091202 394488.0 
174.285797 3278.0 
188.070374 33821.0 
216.101776 1355738.0 
231.112366 19656.0 
232.120255 16921.0 
267.591309 3551.0 
306.463257 3095.0 
313.099762 556481.0 
331.131958 4020.0 
387.137329 84631.0 
390.206085 3202.0 
END IONS

BEGIN IONS
NAME="N-(4-chlorophenyl)-2-[6-hydroxy-2-(3,4,5-trimethoxyphenyl)-3-azabicyclo[4.4.0] dec-3-yl]acetamide CollisionEnergy:102040" M+H
PRECURSOR_MZ=489.215
INCHI="InChI=1S/C26H33ClN2O5/c1-32-21-14-17(15-22(33-2)25(21)34-3)24-20-6-4-5-11-26(20,31)12-13-29(24)16-23(30)28-19-9-7-18(27)8-10-19/h7-10,14-15,20,24,31H,4-6,11-13,16H2,1-3H3,(H,28,30)"
SMILES=COc1cc(C2C3CCCCC3(O)CCN2CC(=O)Nc2ccc(Cl)cc2)cc(OC)c1OC
SPECTRUMID=CCMSLIB00010107010
56.049919 465609.0 
60.54179 4129.0 
67.054573 184695.0 
70.029083 6393.0 
77.039017 4032.0 
79.054237 16537.0 
81.070122 21055.0 
84.044533 50230.0 
91.054153 24883.0 
93.069801 7882.0 
101.267349 4665.0 
104.292488 5334.0 
107.085403 66050.0 
107.424683 4380.0 
109.101059 137658.0 
110.059769 9075.0 
119.085403 120498.0 
125.095703 7435.0 
128.025925 174313.0 
137.094803 3785.0 
140.025986 2922845.0 
148.112045 6524.0 
151.075592 6481.0 
154.041519 197239.0 
154.062683 22443.0 
166.062164 55713.0 
167.070145 31216.0 
169.051941 4945.0 
169.085464 54570.0 
171.907822 4370.0 
176.083191 6965.0 
177.077972 58762.0 
179.037048 5699.0 
181.085617 1445519.0 
185.047318 427763.0 
188.082932 5215.0 
192.077347 8367.0 
193.053101 3967.0 
195.101654 18012.0 
197.047348 2032919.0 
197.080826 69937.0 
201.089813 4606.0 
201.125763 8026.0 
202.099045 7677.0 
204.077499 7884.0 
205.085205 6592.0 
205.122025 16160.0 
207.101379 89279.0 
208.096436 42839.0 
209.178558 4294.0 
211.062912 1759107.0 
212.119598 5685.0 
219.100845 42280.0 
221.116867 6281.0 
228.113678 6612.0 
229.121292 6847.0 
230.129807 36960.0 
231.102234 9172.0 
233.116714 51950.0 
243.136795 26602.0 
244.145203 99274.0 
256.146729 41446.0 
260.14035 18038.0 
261.147797 105956.0 
268.764465 4058.0 
270.148926 8365.0 
272.138306 7266.0 
273.147034 19007.0 
274.142303 17025.0 
275.1633 352888.0 
279.158966 58936.0 
284.164124 21371.0 
285.170929 50215.0 
287.163574 342158.0 
287.219635 5401.0 
288.159088 20211.0 
293.173584 84525.0 
302.174133 27027.0 
303.125275 8871.0 
305.173737 54313.0 
316.189667 147866.0 
334.201538 59473.0 
363.109039 115493.0 
471.203491 2545702.0 
474.184753 4638.0 
489.214172 8347977.0 
END IONS

BEGIN IONS
NAME=Tectochrysin CollisionEnergy:205060 M-H
PRECURSOR_MZ=267.066
INCHI="InChI=1S/C16H12O4/c1-19-11-7-12(17)16-13(18)9-14(20-15(16)8-11)10-5-3-2-4-6-10/h2-9,17H,1H3"
SMILES=COc1cc(O)c2c(=O)cc(-c3ccccc3)oc2c1
SPECTRUMID=CCMSLIB00010120302
82.4161 2528.0 
91.018829 4781.0 
118.677132 2546.0 
132.022079 2432.0 
135.008591 13173.0 
136.242447 2978.0 
153.018982 4506.0 
179.779922 2834.0 
195.045166 31381.0 
196.053192 4933.0 
223.040161 397295.0 
224.048157 47341.0 
252.042892 372512.0 
267.066406 366639.0 
END IONS

BEGIN IONS
NAME=ST082265 CollisionEnergy:102040 M+H
PRECURSOR_MZ=419.279
INCHI="InChI=1S/C25H38O5/c1-14(26)20-8-9-21-19-7-6-17-12-18(29-15(2)27)10-11-24(17,4)22(19)13-23(25(20,21)5)30-16(3)28/h17-23H,6-13H2,1-5H3/t17-,18-,19+,20-,21+,22+,23+,24+,25-/m1/s1"
SMILES=CC(=O)OC1CCC2(C)C(CCC3C2CC(OC(C)=O)C2(C)C(C(C)=O)CCC32)C1
SPECTRUMID=CCMSLIB00010106929
55.15279 2261.0 
64.070557 2147.0 
85.06472 2902.0 
90.976547 3980.0 
104.137787 2317.0 
121.028282 2410.0 
138.980209 3203.0 
159.115646 3132.0 
164.901398 2106.0 
168.631546 2234.0 
183.538544 2370.0 
189.127182 9595.0 
208.23024 11553.0 
208.251144 2820.0 
281.225708 29390.0 
299.237091 74214.0 
350.890778 8996.0 
359.25824 67520.0 
397.203888 9531.0 
415.214233 5257.0 
419.219391 25204.0 
419.274597 9990.0 
END IONS

BEGIN IONS
NAME="4-hydroxy-5,7-dimethyl-3-phenylhydroquinolin-2-one CollisionEnergy:102040" M+Na
PRECURSOR_MZ=288.099
INCHI="InChI=1S/C17H15NO2/c1-10-8-11(2)14-13(9-10)18-17(20)15(16(14)19)12-6-4-3-5-7-12/h3-9H,1-2H3,(H2,18,19,20)"
SMILES=Cc1cc(C)c2c(O)c(-c3ccccc3)c(O)nc2c1
SPECTRUMID=CCMSLIB00010103581
54.504028 2073.0 
83.443489 2618.0 
90.119003 2559.0 
120.35482 2115.0 
125.751518 2180.0 
156.009705 2594.0 
288.098969 1849718.0 
306.107849 8981.0 
END IONS

BEGIN IONS
NAME=N-(5-chloro-2-methoxyphenyl)-2-(6-oxo-9-phenylhydropurin-8-ylthio)acetamide CollisionEnergy:102040 M-H
PRECURSOR_MZ=440.059
INCHI="InChI=1S/C20H16ClN5O3S/c1-29-15-8-7-12(21)9-14(15)24-16(27)10-30-20-25-17-18(22-11-23-19(17)28)26(20)13-5-3-2-4-6-13/h2-9,11H,10H2,1H3,(H,24,27)(H,22,23,28)"
SMILES=COc1ccc(Cl)cc1N=C(O)CSc1nc2c(O)ncnc2n1-c1ccccc1
SPECTRUMID=CCMSLIB00010112936
57.975471 4895.0 
65.014099 12371.0 
65.998138 11779.0 
66.892418 2530.0 
67.472961 2777.0 
88.746986 2833.0 
92.025208 21048.0 
92.384933 3807.0 
93.009148 4605.0 
104.291969 3152.0 
109.01123 3230.0 
118.657562 3378.0 
129.118744 2688.0 
141.045853 192038.0 
142.006287 18209.0 
174.466629 2807.0 
183.044556 3197.0 
184.050888 5446.0 
194.991379 3107.0 
195.009079 25984.0 
195.027374 3549.0 
211.062592 538214.0 
212.965485 13212.0 
222.055069 3421.0 
227.059143 4022.0 
227.98912 87687.0 
235.927048 5842.0 
241.019897 18209.0 
242.02681 249730.0 
243.033844 66560.0 
255.035507 11380.0 
257.050232 442255.0 
283.029205 12612.0 
351.052856 59459.0 
366.076233 456886.0 
440.058899 723850.0 
END IONS

BEGIN IONS
NAME="(3,4-dimethoxyphenyl)-N-[1-(methylethyl)pyrazol-4-yl]carboxamide CollisionEnergy:102040" M+Na
PRECURSOR_MZ=312.132
INCHI="InChI=1S/C15H19N3O3/c1-10(2)18-9-12(8-16-18)17-15(19)11-5-6-13(20-3)14(7-11)21-4/h5-10H,1-4H3,(H,17,19)"
SMILES=COc1ccc(C(O)=Nc2cnn(C(C)C)c2)cc1OC
SPECTRUMID=CCMSLIB00010103737
52.18782 2250.0 
62.364029 2333.0 
66.749153 3114.0 
92.386864 3124.0 
104.29599 3681.0 
198.626221 2066.0 
250.262543 2155.0 
260.930786 3226.0 
262.717621 2382.0 
270.91687 4243.0 
288.927979 33571.0 
306.939423 3145.0 
312.13147 966599.0 
330.141602 21906.0 
END IONS

BEGIN IONS
NAME=CHEBI:90416 CollisionEnergy:205060 M
PRECURSOR_MZ=267.149
INCHI="InChI=1S/C17H19N2O/c1-18(2)14-7-5-12-9-13-6-8-15(19(3)4)11-17(13)20-16(12)10-14/h5-11H,1-4H3/q+1"
SMILES=CN(C)c1ccc2cc3ccc(N(C)C)cc3[o+]c2c1
SPECTRUMID=CCMSLIB00010115002
64.734787 14436.0 
64.738281 10651.0 
92.376282 7054.0 
105.499992 4859.0 
111.124496 5726.0 
120.140266 6521.0 
174.899933 10465.0 
192.91214 13794.0 
207.069244 13777.0 
210.089188 6892.0 
210.923798 8284.0 
211.098267 13764.0 
220.905624 22266.0 
222.090561 105475.0 
223.099228 79609.0 
224.106918 715717.0 
226.083496 7918.0 
235.086273 67116.0 
236.095169 28288.0 
237.100494 175856.0 
239.092346 48353.0 
251.117737 15534103.0 
252.125473 2970227.0 
255.08873 1744287.0 
259.116394 21109.0 
265.133911 11941.0 
266.025574 11152.0 
266.140625 35872.0 
267.148926 42581220.0 
284.115112 72689.0 
286.339966 8435.0 
END IONS

BEGIN IONS
NAME="6,7-dimethoxy-1,2,4-trihydroisoquinolin-3-one CollisionEnergy:102040" M+H
PRECURSOR_MZ=208.097
INCHI="InChI=1S/C11H13NO3/c1-14-9-3-7-5-11(13)12-6-8(7)4-10(9)15-2/h3-4H,5-6H2,1-2H3,(H,12,13)"
SMILES=COc1cc2c(cc1OC)CC(O)=NC2
SPECTRUMID=CCMSLIB00010106063
55.020088 2891.0 
55.4832 2953.0 
82.734123 3048.0 
84.959999 59309.0 
89.173378 3030.0 
101.650269 3234.0 
102.970444 3189.0 
104.285294 3249.0 
125.985947 20169.0 
131.577469 3539.0 
138.067596 17034.0 
143.997192 23456.0 
148.076019 16591.0 
149.059189 48437.0 
151.075195 105267.0 
153.091049 29616.0 
163.060089 6391.0 
163.075317 189681.0 
165.089584 3453.0 
175.063049 19754.0 
176.070541 71787.0 
177.078369 260525.0 
178.086395 41617.0 
179.069901 12669.0 
180.101852 81457.0 
181.086441 7012.0 
184.969452 29822.0 
190.086166 1881584.0 
191.07019 514762.0 
192.064682 46060.0 
193.073013 42951.0 
206.081284 131419.0 
207.323532 12455.0 
208.096771 9859766.0 
208.876144 5405.0 
249.123978 12109.0 
END IONS

BEGIN IONS
NAME=2-Phospho-D-Glyceric Acid CollisionEnergy:102040 2M-H
PRECURSOR_MZ=370.979
INCHI="InChI=1S/C3H7O7P/c4-1-2(3(5)6)10-11(7,8)9/h2,4H,1H2,(H,5,6)(H2,7,8,9)/t2-/m1/s1"
SMILES=O=C(O)[C@@H](CO)OP(=O)(O)O
SPECTRUMID=CCMSLIB00010126393
51.0023 2502.139893 
63.173199 2642.820068 
73.976601 2291.919922 
76.693802 2223.23999 
78.9589 78223.203125 
87.442299 2218.899902 
89.621803 2167.98999 
92.408096 4607.509766 
96.969803 30286.400391 
102.794998 2883.620117 
104.317001 2388.72998 
166.975006 3734.879883 
167.386002 2338.439941 
184.985992 273145.0 
296.217987 2181.26001 
END IONS

BEGIN IONS
NAME="N-(4-methoxyphenyl){2-[(4-methylphenyl)sulfonyl](3-1,2,3,4-tetrahydroisoquinol yl)}carboxamide CollisionEnergy:205060" M+Na
PRECURSOR_MZ=459.135
INCHI="InChI=1S/C24H24N2O4S/c1-17-7-13-22(14-8-17)31(28,29)26-16-19-6-4-3-5-18(19)15-23(26)24(27)25-20-9-11-21(30-2)12-10-20/h3-14,23H,15-16H2,1-2H3,(H,25,27)"
SMILES=COc1ccc(NC(=O)C2Cc3ccccc3CN2S(=O)(=O)c2ccc(C)cc2)cc1
SPECTRUMID=CCMSLIB00010118311
59.818249 2718.0 
71.097893 2590.0 
72.895576 2342.0 
73.97963 3332.0 
92.411957 2560.0 
104.584587 2417.0 
112.138641 2913.0 
125.772522 2847.0 
145.049408 3073.0 
158.895126 2680.0 
189.013626 2819.0 
191.413254 2631.0 
208.299118 3024.0 
260.415436 2875.0 
459.134766 2597490.0 
END IONS

BEGIN IONS
NAME=erythraric acid CollisionEnergy:102040 M-H
PRECURSOR_MZ=149.009
INCHI="InChI=1S/C4H6O6/c5-1(3(7)8)2(6)4(9)10/h1-2,5-6H,(H,7,8)(H,9,10)/t1-,2+"
SMILES=O=C(O)[C@@H](O)[C@@H](O)C(=O)O
SPECTRUMID=CCMSLIB00010126415
56.552898 39205.5 
58.005402 53227.800781 
59.013401 1020340.0 
59.384701 36952.101562 
59.441898 33646.0 
72.992996 3049230.0 
75.0084 64263.898438 
80.0896 33075.5 
87.008797 4264740.0 
92.867798 37216.699219 
103.003998 789040.0 
104.319 41489.699219 
105.019997 443525.0 
117.149002 38926.601562 
122.733002 37099.5 
130.998993 196780.0 
136.244995 38725.601562 
149.009003 2287440.0 
END IONS

BEGIN IONS
NAME="3-(2-hydroxyethyl)-1,3-dihydroquinazoline-2,4-dione CollisionEnergy:102040" M-H
PRECURSOR_MZ=205.062
INCHI="InChI=1S/C10H10N2O3/c13-6-5-12-9(14)7-3-1-2-4-8(7)11-10(12)15/h1-4,13H,5-6H2,(H,11,15)"
SMILES=O=c1c2ccccc2nc(O)n1CCO
SPECTRUMID=CCMSLIB00010108085
69.397018 2207.0 
90.99855 2539.0 
92.408913 2429.0 
104.320747 2324.0 
118.029671 11009.0 
131.061157 3084.0 
145.040497 118314.0 
158.95079 8918.0 
161.0354 93271.0 
161.849091 3544.0 
175.050888 36716.0 
187.051056 158213.0 
203.046204 18034.0 
205.061722 1923144.0 
206.033554 2553.0 
212.859772 3067.0 
END IONS

BEGIN IONS
NAME=kinetin CollisionEnergy:205060 M-H
PRECURSOR_MZ=214.073
INCHI="InChI=1S/C10H9N5O/c1-2-7(16-3-1)4-11-9-8-10(13-5-12-8)15-6-14-9/h1-3,5-6H,4H2,(H2,11,12,13,14,15)"
SMILES=c1coc(CNc2nc[nH]c3ncnc2-3)c1
SPECTRUMID=CCMSLIB00010116421
66.009407 3091.0 
66.741707 3555.0 
69.034363 5635.0 
73.952087 2444.0 
75.121033 2314.0 
79.017563 3100.0 
82.177383 2343.0 
83.547539 2418.0 
92.025398 30543.0 
106.028419 46921.0 
107.012543 4685.0 
107.036278 64735.0 
117.020554 47417.0 
121.041313 5731.0 
132.031677 129184.0 
133.039551 1369934.0 
134.047379 871507.0 
142.041031 28747.0 
144.031418 13891.0 
146.047073 18544.0 
158.047653 24112.0 
160.026993 11925.0 
160.063156 14615.0 
169.052231 17273.0 
170.047668 70131.0 
172.063187 12360.0 
173.034012 4662.0 
184.062424 2733.0 
186.078781 49002.0 
187.062958 18992.0 
195.054672 3153.0 
196.063004 168157.0 
199.049545 3266.0 
214.073792 958235.0 
END IONS

BEGIN IONS
NAME=3-[(4-ethylphenyl)indol-3-ylmethyl]indole CollisionEnergy:205060 M+formate
PRECURSOR_MZ=395.177
INCHI="InChI=1S/C25H22N2/c1-2-17-11-13-18(14-12-17)25(21-15-26-23-9-5-3-7-19(21)23)22-16-27-24-10-6-4-8-20(22)24/h3-16,25-27H,2H2,1H3"
SMILES=CCc1ccc(C(c2c[nH]c3ccccc23)c2c[nH]c3ccccc23)cc1
SPECTRUMID=CCMSLIB00010123252
50.937408 2266.0 
52.59354 2354.0 
54.198029 2377.0 
62.360241 2356.0 
66.502403 2110.0 
72.292381 2179.0 
82.412132 3497.0 
88.491623 2202.0 
92.395309 3221.0 
102.948334 4077.0 
116.050537 4355.0 
130.992508 3788.0 
133.015991 3453.0 
136.235046 2584.0 
146.938492 4926.0 
180.98822 3357.0 
190.928268 11809.0 
223.591141 2611.0 
272.017639 2536.0 
328.98114 3217.0 
330.979431 17433.0 
349.164642 3583.0 
349.241608 2671.0 
394.977966 15867.0 
395.139557 31310.0 
END IONS

BEGIN IONS
NAME=2-{1-[(4-chlorophenyl)carbonyl]-5-methoxy-2-methylindol-3-yl}-N-[(4-methoxyphe nyl)methyl]acetamide CollisionEnergy:205060 M+Na
PRECURSOR_MZ=499.139
INCHI="InChI=1S/C27H25ClN2O4/c1-17-23(15-26(31)29-16-18-4-10-21(33-2)11-5-18)24-14-22(34-3)12-13-25(24)30(17)27(32)19-6-8-20(28)9-7-19/h4-14H,15-16H2,1-3H3,(H,29,31)"
SMILES=COc1ccc(CN=C(O)Cc2c(C)n(C(=O)c3ccc(Cl)cc3)c3ccc(OC)cc23)cc1
SPECTRUMID=CCMSLIB00010121318
55.797501 2725.0 
58.515999 2491.0 
90.976761 55403.0 
94.954338 2593.0 
114.74202 2534.0 
117.907089 2773.0 
118.649193 2898.0 
157.964539 3043.0 
158.964127 10852.0 
201.228561 2989.0 
226.951721 37652.0 
381.530365 3283.0 
403.726837 3021.0 
499.139008 2096438.0 
514.331543 3249.0 
END IONS

BEGIN IONS
NAME="2-amino-4-(5-methyl(2-furyl))-5-oxo-4H-pyrano[3,2-c]chromene-3-carbonitrile CollisionEnergy:205060" M-H
PRECURSOR_MZ=319.072
INCHI="InChI=1S/C18H12N2O4/c1-9-6-7-13(22-9)14-11(8-19)17(20)24-16-10-4-2-3-5-12(10)23-18(21)15(14)16/h2-7,14H,20H2,1H3"
SMILES=Cc1ccc(C2C(C#N)=C(N)Oc3c2c(=O)oc2ccccc32)o1
SPECTRUMID=CCMSLIB00010122371
59.319431 9534.0 
64.006149 13536.0 
64.877632 64236.0 
64.977524 90196.0 
65.014107 38957016.0 
65.049133 55627.0 
65.151649 62442.0 
92.38224 11050.0 
118.992287 20040.0 
120.699562 8900.0 
121.356041 9938.0 
136.210999 10738.0 
140.151749 9967.0 
159.711441 8753.0 
204.99025 12653.0 
253.049744 18087.0 
271.138 8069.0 
278.986328 10843.0 
318.979858 110287.0 
END IONS

BEGIN IONS
NAME=2-methoxyethyl 1-[2-(4-ethylphenoxy)ethyl]-5-hydroxy-2-methylbenzo[g]indole-3- carboxylate CollisionEnergy:102040 M+H
PRECURSOR_MZ=448.212
INCHI="InChI=1S/C27H29NO5/c1-4-19-9-11-20(12-10-19)32-14-13-28-18(2)25(27(30)33-16-15-31-3)23-17-24(29)21-7-5-6-8-22(21)26(23)28/h5-12,17,29H,4,13-16H2,1-3H3"
SMILES=CCc1ccc(OCCn2c(C)c(C(=O)OCCOC)c3cc(O)c4ccccc4c32)cc1
SPECTRUMID=CCMSLIB00010112423
50.619991 3151.0 
58.560551 3110.0 
59.049381 3824.0 
61.249519 2796.0 
61.54591 3369.0 
73.840157 2766.0 
93.069801 40709.0 
104.417923 3129.0 
118.645073 3577.0 
120.706558 3363.0 
120.857658 3562.0 
121.064682 109541.0 
138.068481 3010.0 
149.095856 75071.0 
157.258591 3118.0 
196.075424 6499.0 
196.111191 14685.0 
197.083801 6039.0 
222.055252 5886.0 
222.091049 25195.0 
223.062225 139906.0 
223.097595 35656.0 
224.069901 120790.0 
224.10556 34232.0 
228.842224 3110.0 
229.586426 3865.0 
236.070114 75623.0 
250.085739 475013.0 
251.093155 46434.0 
344.167694 23002.0 
372.158539 5091565.0 
416.185303 5063.0 
419.328613 2984.0 
448.208984 226458.0 
END IONS

BEGIN IONS
NAME="7-adamantanyl-8-(2-hydroxy-2-phenylethyl)-1,3-dimethyl-1,3,5-trihydro-4-imidaz olino[1,2-h]purine-2,4-dione CollisionEnergy:205060" M+Cl
PRECURSOR_MZ=508.212
INCHI="InChI=1S/C27H31N5O3/c1-29-23-22(24(34)30(2)26(29)35)32-15-21(27-11-16-8-17(12-27)10-18(9-16)13-27)31(25(32)28-23)14-20(33)19-6-4-3-5-7-19/h3-7,15-18,20,33H,8-14H2,1-2H3"
SMILES=Cn1c(=O)c2c(nc3n(CC(O)c4ccccc4)c(C45CC6CC(CC(C6)C4)C5)cn23)n(C)c1=O
SPECTRUMID=CCMSLIB00010115554
82.404457 4434.0 
91.449623 2300.0 
97.411613 2643.0 
99.134331 2447.0 
136.212769 2992.0 
163.952377 2401.0 
174.308838 2431.0 
174.955627 3086.0 
204.990311 2367.0 
235.926331 3092.0 
366.612183 2873.0 
436.596313 2883.0 
663.900574 3066.0 
848.154663 3134.0 
END IONS

BEGIN IONS
NAME="2,2',5'-Trihydroxychalcone CollisionEnergy:102040" M+H-H2O
PRECURSOR_MZ=239.07
INCHI="InChI=1S/C15H12O4/c16-11-6-8-15(19)12(9-11)14(18)7-5-10-3-1-2-4-13(10)17/h1-9,16-17,19H/b7-5+"
SMILES=O=C(C=Cc1ccccc1O)c1cc(O)ccc1O
SPECTRUMID=CCMSLIB00010108341
54.613571 2385.0 
66.752052 2426.0 
68.061653 2515.0 
69.353737 2554.0 
87.736298 2581.0 
102.445107 2438.0 
105.032822 2740.0 
131.048843 6431.0 
135.043716 5631.0 
141.069275 2802.0 
155.085495 6474.0 
165.069885 14039.0 
183.080643 15872.0 
211.074997 21969.0 
224.081757 2977.0 
238.058136 57127.0 
239.069977 4803916.0 
END IONS

BEGIN IONS
NAME=N-(3-fluorophenyl)-2-[4-(N-methylcarbamoyl)-2-oxohydroquinolyl]acetamide CollisionEnergy:102040 M+Na
PRECURSOR_MZ=376.107
INCHI="InChI=1S/C19H16FN3O3/c1-21-19(26)15-10-18(25)23(16-8-3-2-7-14(15)16)11-17(24)22-13-6-4-5-12(20)9-13/h2-10H,11H2,1H3,(H,21,26)(H,22,24)"
SMILES=CN=C(O)c1cc(=O)n(CC(O)=Nc2cccc(F)c2)c2ccccc12
SPECTRUMID=CCMSLIB00010113334
50.521412 2088.0 
55.226002 2370.0 
59.639141 2606.0 
66.756653 2730.0 
67.560562 2597.0 
82.412971 2452.0 
114.037727 2434.0 
115.025223 2436.0 
215.081055 2697.0 
243.075089 2654.0 
325.702301 5357.0 
358.095917 3550.0 
376.106567 1468681.0 
394.118774 3114.0 
END IONS

BEGIN IONS
NAME=2-(4-oxo-2-phenylchromen-6-yloxy)acetamide CollisionEnergy:102040 M+H
PRECURSOR_MZ=296.092
INCHI="InChI=1S/C17H13NO4/c18-17(20)10-21-12-6-7-15-13(8-12)14(19)9-16(22-15)11-4-2-1-3-5-11/h1-9H,10H2,(H2,18,20)"
SMILES=N=C(O)COc1ccc2oc(-c3ccccc3)cc(=O)c2c1
SPECTRUMID=CCMSLIB00010104509
50.12804 2750.0 
82.086357 2987.0 
86.114227 2856.0 
92.394371 3944.0 
105.033386 14799.0 
121.028778 23719.0 
121.036636 2796.0 
130.457184 2881.0 
140.771118 2654.0 
149.023285 157474.0 
167.033707 33899.0 
167.085159 5778.0 
168.964478 4262.0 
195.080582 46629.0 
210.067795 6209.0 
219.591644 3456.0 
221.059631 85076.0 
223.075119 245034.0 
238.061981 39192.0 
239.069962 375142.0 
251.069977 1487837.0 
279.06485 98669.0 
294.77417 4202.0 
296.091339 4531592.0 
297.415802 5311.0 
END IONS

BEGIN IONS
NAME=N-(6-ethyl-2-methylphenyl)-2-{4-[(7-methyl-2-oxochromen-4-yl)methyl]piperaziny l}acetamide CollisionEnergy:102040 M+Na
PRECURSOR_MZ=456.226
INCHI="InChI=1S/C26H31N3O3/c1-4-20-7-5-6-19(3)26(20)27-24(30)17-29-12-10-28(11-13-29)16-21-15-25(31)32-23-14-18(2)8-9-22(21)23/h5-9,14-15H,4,10-13,16-17H2,1-3H3,(H,27,30)"
SMILES=CCc1cccc(C)c1N=C(O)CN1CCN(Cc2cc(=O)oc3cc(C)ccc23)CC1
SPECTRUMID=CCMSLIB00010105788
67.551727 3087.0 
73.957268 3099.0 
92.381653 3223.0 
97.076668 3865.0 
118.659241 4061.0 
135.709045 2822.0 
282.157684 20854.0 
288.149384 3089.0 
320.962769 3324.0 
453.718964 3403.0 
456.225494 3945356.0 
END IONS

BEGIN IONS
NAME=2-methoxyethyl 5-hydroxy-2-methyl-1-(2-{[2-nitro-4-(trifluoromethyl)phenyl]ami no}ethyl)benzo[g]indole-3-carboxylate CollisionEnergy:205060 M+formate
PRECURSOR_MZ=576.16
INCHI="InChI=1S/C26H24F3N3O6/c1-15-23(25(34)38-12-11-37-2)19-14-22(33)17-5-3-4-6-18(17)24(19)31(15)10-9-30-20-8-7-16(26(27,28)29)13-21(20)32(35)36/h3-8,13-14,30,33H,9-12H2,1-2H3"
SMILES=COCCOC(=O)c1c(C)n(CCNc2ccc(C(F)(F)F)cc2[N+](=O)[O-])c2c1cc(O)c1ccccc12
SPECTRUMID=CCMSLIB00010124137
54.666729 2463.0 
61.760719 2544.0 
88.139267 2643.0 
104.296379 3531.0 
129.356567 2608.0 
222.057068 4455.0 
298.107758 13462.0 
392.102051 3776.0 
470.541199 2568.0 
END IONS

BEGIN IONS
NAME=Rapamycin CollisionEnergy:205060 M+formate
PRECURSOR_MZ=958.553
INCHI="InChI=1S/C51H79NO13/c1-30-16-12-11-13-17-31(2)42(61-8)28-38-21-19-36(7)51(60,65-38)48(57)49(58)52-23-15-14-18-39(52)50(59)64-43(33(4)26-37-20-22-40(53)44(27-37)62-9)29-41(54)32(3)25-35(6)46(56)47(63-10)45(55)34(5)24-30/h11-13,16-17,25,30,32-34,36-40,42-44,46-47,53,56,60H,14-15,18-24,26-29H2,1-10H3/b13-11+,16-12+,31-17+,35-25+/t30-,32-,33-,34-,36-,37+,38+,39+,40-,42?,43+,44-,46-,47+,51-/m1/s1"
SMILES=COC1CC2CCC(C)C(O)(O2)C(=O)C(=O)N2CCCCC2C(=O)OC(C(C)CC2CCC(O)C(OC)C2)CC(=O)C(C)C=C(C)C(O)C(OC)C(=O)C(C)CC(C)C=CC=CC=C1C
SPECTRUMID=CCMSLIB00010121975
66.738518 3939.0 
68.995583 7500.0 
69.03434 113606.0 
85.02951 8425.0 
87.044853 6674.0 
97.066032 40981.0 
99.249603 3919.0 
101.060989 98536.0 
110.777458 3796.0 
112.076828 15311.0 
121.066254 26921.0 
128.07196 28164.0 
135.082794 4881.0 
147.11821 35972.0 
153.040649 5092.0 
167.058792 293366.0 
168.066589 107378.0 
178.087936 5728.0 
187.112946 9797.0 
188.011353 4299.0 
206.60762 4264.0 
225.15065 23135.0 
229.161179 16056.0 
252.125183 4982.0 
261.185883 33025.0 
303.404846 8535.0 
303.443146 16529.0 
321.207001 102669.0 
352.338135 4121.0 
496.31012 5299.0 
528.333069 9188.0 
546.345032 27153.0 
590.333618 104694.0 
631.140442 4575.0 
741.502136 4648.0 
785.483582 5723.0 
912.549194 514744.0 
979.539917 5330.0 
END IONS

BEGIN IONS
NAME=N-(4-bromophenyl)-2-[4-(morpholin-4-ylcarbonyl)-2-oxohydroquinolyl]acetamide CollisionEnergy:205060 M+formate
PRECURSOR_MZ=514.062
INCHI="InChI=1S/C22H20BrN3O4/c23-15-5-7-16(8-6-15)24-20(27)14-26-19-4-2-1-3-17(19)18(13-21(26)28)22(29)25-9-11-30-12-10-25/h1-8,13H,9-12,14H2,(H,24,27)"
SMILES=O=C(Cn1c(=O)cc(C(=O)N2CCOCC2)c2ccccc21)Nc1ccc(Br)cc1
SPECTRUMID=CCMSLIB00010125323
78.918694 3462.0 
87.324913 2561.0 
97.896378 2481.0 
100.070847 2557.0 
115.556183 2333.0 
128.050308 6368.0 
144.046112 3173.0 
156.044708 3248.0 
171.552704 2726.0 
184.040787 15094.0 
185.418304 2577.0 
208.098831 13958.0 
257.092926 16313.0 
308.167633 2584.0 
468.056671 50157.0 
END IONS

BEGIN IONS
NAME=3-[(4-fluorophenyl)(4-hydroxy-2-oxo-8-phenyl(3-hydroquinolyl))methyl]-4-hydrox y-1-phenylhydroquinolin-2-one CollisionEnergy:102040 M+Na
PRECURSOR_MZ=603.169
INCHI="InChI=1S/C37H25FN2O4/c38-24-20-18-23(19-21-24)30(31-35(42)28-16-9-15-26(33(28)39-36(31)43)22-10-3-1-4-11-22)32-34(41)27-14-7-8-17-29(27)40(37(32)44)25-12-5-2-6-13-25/h1-21,30,41H,(H2,39,42,43)"
SMILES=O=c1c(C(c2ccc(F)cc2)c2c(O)nc3c(-c4ccccc4)cccc3c2O)c(O)c2ccccc2n1-c1ccccc1
SPECTRUMID=CCMSLIB00010113029
55.656281 3016.0 
60.78315 2793.0 
66.747513 3761.0 
80.706467 3099.0 
84.541382 2837.0 
129.197708 3703.0 
153.469604 3412.0 
215.535706 3480.0 
244.184387 3964.0 
260.067963 3028439.0 
278.07785 32172.0 
282.152069 3475.0 
301.094269 108443.0 
366.089508 58216.0 
508.004486 3443.0 
603.16803 942508.0 
END IONS

BEGIN IONS
NAME="2-{2-[(3,4-dimethoxyphenyl)methylene]-3-oxobenzo[3,4-b]furan-6-yloxy}acetamide CollisionEnergy:102040" M-e
PRECURSOR_MZ=355.105
INCHI="InChI=1S/C19H17NO6/c1-23-14-6-3-11(7-16(14)24-2)8-17-19(22)13-5-4-12(9-15(13)26-17)25-10-18(20)21/h3-9H,10H2,1-2H3,(H2,20,21)/b17-8-"
SMILES=COc1ccc(C=C2Oc3cc(OCC(=N)O)ccc3C2=O)cc1OC
SPECTRUMID=CCMSLIB00010111902
56.96833 2146.0 
59.830872 2243.0 
60.539051 2519.0 
61.376461 2383.0 
73.145813 2388.0 
102.73275 2344.0 
147.663986 2383.0 
163.13945 2481.0 
164.401764 2416.0 
199.919418 2543.0 
255.064941 13895.0 
267.065582 10945.0 
283.059143 19220.0 
297.07309 4719.0 
298.083649 11750.0 
308.901459 8656.0 
309.061584 5682.0 
312.085876 22969.0 
324.08609 28420.0 
331.914856 10355.0 
331.960754 3094.0 
340.08136 72686.0 
354.096588 64424.0 
355.104523 576271.0 
356.112152 12309.0 
615.099915 2996.0 
END IONS

BEGIN IONS
NAME="7a-methyl-5-oxo-2,3,6,7,7a-pentahydrothiapyrrolizine-3-carboxylic acid CollisionEnergy:102040" M-H
PRECURSOR_MZ=200.039
INCHI="InChI=1S/C8H11NO3S/c1-8-3-2-6(10)9(8)5(4-13-8)7(11)12/h5H,2-4H2,1H3,(H,11,12)"
SMILES=CC12CCC(=O)N1C(C(=O)O)CS2
SPECTRUMID=CCMSLIB00010109538
50.944538 2201.0 
53.938389 2352.0 
82.427498 2845.0 
87.027313 4651.0 
96.045723 37261.0 
103.920387 11488.0 
104.323708 2904.0 
113.007057 21786.0 
122.061211 97099.0 
124.891022 4349.0 
156.049072 528245.0 
158.026871 2425.0 
199.850784 4149.0 
200.039017 123355.0 
END IONS

BEGIN IONS
NAME="4-Allyl-2,6-dimethoxyphenol CollisionEnergy:102040" M+H
PRECURSOR_MZ=195.102
INCHI="InChI=1S/C11H14O3/c1-4-5-8-6-9(13-2)11(12)10(7-8)14-3/h4,6-7,12H,1,5H2,2-3H3"
SMILES=C=CCc1cc(OC)c(O)c(OC)c1
SPECTRUMID=CCMSLIB00010114302
50.061741 2712.0 
53.00272 5370.0 
55.01825 16398.0 
55.021118 2621.0 
56.965191 28204.0 
57.033829 4595.0 
58.50634 2564.0 
65.039032 4189.0 
70.197723 3837.0 
70.980759 3008.0 
74.31012 2684.0 
76.220337 3265.0 
79.021523 20979.0 
79.054443 59336.0 
81.033577 5023.0 
91.054169 44161.0 
92.361908 3740.0 
93.033569 13433.0 
93.069832 12182.0 
95.049294 15870.0 
97.991158 4072.0 
103.045929 6474.0 
103.054123 461943.0 
105.069847 154081.0 
107.049026 803834.0 
107.085457 14664.0 
109.027779 3131.0 
109.958794 4551.0 
111.043877 18308.0 
115.054062 39226.0 
117.069977 35174.0 
119.049103 5565.0 
120.057098 31839.0 
120.393959 2748.0 
121.028526 3948.0 
121.06456 52936.0 
122.036362 3112.0 
124.052101 12268.0 
125.059334 20411.0 
131.049026 157557.0 
131.18837 3167.0 
132.056396 6276.0 
133.06485 30112.0 
135.044022 17365.0 
135.080322 647666.0 
139.038834 113901.0 
139.074036 3066.0 
144.02446 3157.0 
145.064316 18602.0 
145.076233 27180.0 
148.051529 29413.0 
151.033722 4860.0 
153.05481 6432.0 
153.566895 3956.0 
154.062347 3035177.0 
154.559753 3398.0 
157.010498 4451.0 
160.038513 4348.0 
163.075226 2085160.0 
166.99527 16508.0 
167.070236 171523.0 
175.594894 3328.0 
180.077713 41275.0 
185.005951 15487.0 
185.369171 3402.0 
194.989868 13599.0 
195.066345 22574.0 
195.101395 710118.0 
209.081345 15274.0 
END IONS

BEGIN IONS
NAME=O-phospho-L-serine CollisionEnergy:102040 M-H
PRECURSOR_MZ=184.002
INCHI="InChI=1S/C3H8NO6P/c4-2(3(5)6)1-10-11(7,8)9/h2H,1,4H2,(H,5,6)(H2,7,8,9)/t2-/m0/s1"
SMILES=N[C@@H](COP(=O)(O)O)C(=O)O
SPECTRUMID=CCMSLIB00010126464
57.262699 3004.610107 
63.115299 2683.389893 
68.306702 2792.620117 
73.976601 3109.02002 
78.958801 375682.0 
82.423599 3666.679932 
84.214401 3119.459961 
92.404099 3602.429932 
96.969597 1255130.0 
108.169998 2975.810059 
136.251999 4161.939941 
165.990997 4120.689941 
184.001007 27926.300781 
END IONS

BEGIN IONS
NAME=7-Hydroxy-5-methylflavone CollisionEnergy:102040 M+Na
PRECURSOR_MZ=275.068
INCHI="InChI=1S/C16H12O3/c1-10-7-12(17)8-15-16(10)13(18)9-14(19-15)11-5-3-2-4-6-11/h2-9,17H,1H3"
SMILES=Cc1cc(O)cc2oc(-c3ccccc3)cc(=O)c12
SPECTRUMID=CCMSLIB00010103560
55.017441 2171.0 
92.370918 2083.0 
142.00177 2236.0 
183.979172 2333.0 
275.067017 237692.0 
275.15921 3557.0 
293.076935 8803.0 
END IONS

BEGIN IONS
NAME=N-Acetylisoleucine CollisionEnergy:102040 M-H
PRECURSOR_MZ=172.098
INCHI="InChI=1S/C8H15NO3/c1-4-5(2)7(8(11)12)9-6(3)10/h5,7H,4H2,1-3H3,(H,9,10)(H,11,12)"
SMILES=CCC(C)C(N=C(C)O)C(=O)O
SPECTRUMID=CCMSLIB00010106680
58.02948 14642.0 
61.988049 2499.0 
68.209686 2243.0 
73.957916 2124.0 
97.93119 4414.0 
103.920593 2813.0 
113.927116 3828.0 
118.652817 2265.0 
128.108215 96983.0 
128.119064 3282.0 
128.878601 3962.0 
130.087418 1205979.0 
136.211838 3451.0 
144.003372 2542.0 
154.945724 2769.0 
172.097977 484344.0 
END IONS

BEGIN IONS
NAME="6-(2H-benzo[3,4-d]1,3-dioxolan-5-yl)-4-(4-chlorophenyl)-2-oxohydropyridine-3-c arbonitrile CollisionEnergy:102040" M-H
PRECURSOR_MZ=349.039
INCHI="InChI=1S/C19H11ClN2O3/c20-13-4-1-11(2-5-13)14-8-16(22-19(23)15(14)9-21)12-3-6-17-18(7-12)25-10-24-17/h1-8H,10H2,(H,22,23)"
SMILES=N#Cc1c(-c2ccc(Cl)cc2)cc(-c2ccc3c(c2)OCO3)nc1O
SPECTRUMID=CCMSLIB00010109525
60.428059 2531.0 
65.997612 19128.0 
71.553818 3083.0 
80.661972 3140.0 
93.03447 30693.0 
104.301033 2814.0 
118.029068 5113.0 
121.770538 3409.0 
124.429611 3066.0 
160.04007 3928.0 
180.99202 3660.0 
182.418884 2593.0 
201.022461 49375.0 
202.005814 4706.0 
209.042862 6372.0 
209.062622 4039.0 
227.002151 15882.0 
234.96907 2718.0 
266.865082 2837.0 
266.990112 3328.0 
278.038269 24789.0 
282.980743 12993.0 
293.049408 34363.0 
304.982819 6092.0 
305.048737 2946.0 
319.027802 89612.0 
320.035614 83228.0 
321.043518 1063398.0 
326.980408 3238.0 
328.983307 26302.0 
335.0224 4126.0 
347.023438 23752.0 
349.038635 4538572.0 
END IONS

BEGIN IONS
NAME="(9S,10S,1R)-3-hydroxy-4,12-dimethoxy-17-methyl-17-azatetracyclo[7.5.3.0<1,10>. 0<2,7>]heptadeca-2,4,6,11-tetraen-13-one CollisionEnergy:102040" M+Na
PRECURSOR_MZ=352.152
INCHI="InChI=1S/C19H23NO4/c1-20-7-6-19-10-14(21)16(24-3)9-12(19)13(20)8-11-4-5-15(23-2)18(22)17(11)19/h4-5,9,12-13,22H,6-8,10H2,1-3H3"
SMILES=COC1=CC2C3Cc4ccc(OC)c(O)c4C2(CCN3C)CC1=O
SPECTRUMID=CCMSLIB00010106049
50.477268 3519.0 
79.021248 14821.0 
79.327141 2569.0 
85.99485 2461.0 
91.041901 2768.0 
104.287628 3626.0 
131.592239 3000.0 
135.104675 3144.0 
228.930252 4203.0 
263.941376 3947.0 
273.925781 57754.0 
291.93631 26147.0 
323.944885 23293.0 
329.322266 3586.0 
337.127594 14805.0 
350.444916 3649.0 
352.151123 6167786.0 
363.287201 3321.0 
370.16153 75192.0 
END IONS

BEGIN IONS
NAME=methyl 2-[2-(6-oxo-9-phenylhydropurin-8-ylthio)acetylamino]benzoate CollisionEnergy:205060 2M-H
PRECURSOR_MZ=869.193
INCHI="InChI=1S/C21H17N5O4S/c1-30-20(29)14-9-5-6-10-15(14)24-16(27)11-31-21-25-17-18(22-12-23-19(17)28)26(21)13-7-3-2-4-8-13/h2-10,12H,11H2,1H3,(H,24,27)(H,22,23,28)"
SMILES=COC(=O)c1ccccc1N=C(O)CSc1nc2c(O)ncnc2n1-c1ccccc1
SPECTRUMID=CCMSLIB00010121993
65.014122 4046.0 
90.985977 16998.0 
92.050331 41639.0 
98.076729 3679.0 
100.880371 3183.0 
104.293297 3395.0 
136.040451 51511.0 
141.045776 45803.0 
211.062363 17949.0 
241.018906 6533.0 
242.026535 22963.0 
257.051117 16612.0 
282.773315 4102.0 
316.044647 3807.0 
434.091705 45593.0 
533.547913 3986.0 
614.517761 3921.0 
END IONS

BEGIN IONS
NAME="4,2',5'-TRIHYDROXYCHALCONE CollisionEnergy:205060" M+H-H2O
PRECURSOR_MZ=239.07
INCHI="InChI=1S/C15H12O4/c16-11-4-1-10(2-5-11)3-7-14(18)13-9-12(17)6-8-15(13)19/h1-9,16-17,19H/b7-3+"
SMILES=O=C(C=Cc1ccc(O)cc1)c1cc(O)ccc1O
SPECTRUMID=CCMSLIB00010117737
51.336128 2606.0 
55.018349 19137.0 
56.96524 4172.0 
65.038933 18866.0 
68.997459 84268.0 
69.033829 16402.0 
73.94754 2944.0 
79.021423 4336.0 
84.96032 4921.0 
91.054413 4062.0 
95.012863 26223.0 
103.054153 6016.0 
104.279053 4028.0 
104.476707 2591.0 
105.033661 4811.0 
115.054199 24250.0 
118.647713 3955.0 
119.01252 5343.0 
121.027832 5171.0 
128.061996 18240.0 
129.069931 5732.0 
131.048996 40793.0 
141.069794 86806.0 
143.085403 5730.0 
147.043884 30884.0 
152.061874 34906.0 
153.069809 80118.0 
154.077576 10201.0 
155.04863 18567.0 
155.08548 101326.0 
165.069809 318433.0 
166.077606 11925.0 
167.085449 3050.0 
168.056885 29763.0 
169.064606 120822.0 
170.071533 12309.0 
171.0439 196002.0 
171.07991 41217.0 
176.061783 15188.0 
177.070251 20080.0 
181.064911 29535.0 
182.072174 15403.0 
183.080368 167780.0 
193.065155 28013.0 
194.072922 24454.0 
195.079941 4576.0 
197.059616 334560.0 
210.06813 23654.0 
211.075119 121382.0 
215.920105 3308.0 
221.060242 35352.0 
234.650406 3088.0 
238.057983 53898.0 
239.069931 6130338.0 
END IONS

BEGIN IONS
NAME="1-(2,3-dibenzimidazol-2-ylpropyl)-2-methoxybenzene CollisionEnergy:205060" M+H
PRECURSOR_MZ=383.187
INCHI="InChI=1S/C24H22N4O/c1-29-22-13-7-2-8-16(22)14-17(24-27-20-11-5-6-12-21(20)28-24)15-23-25-18-9-3-4-10-19(18)26-23/h2-13,17H,14-15H2,1H3,(H,25,26)(H,27,28)"
SMILES=COc1ccccc1CC(Cc1nc2ccccc2[nH]1)c1nc2ccccc2[nH]1
SPECTRUMID=CCMSLIB00010114813
50.275631 6497.0 
51.365181 5213.0 
55.148251 5901.0 
65.038902 58475.0 
67.054642 13239.0 
78.046608 6070.0 
78.353539 6702.0 
78.357559 6267.0 
82.38179 6913.0 
82.635643 5344.0 
89.770073 6024.0 
90.291321 5331.0 
91.054237 457173.0 
92.049477 51547.0 
93.069939 427797.0 
95.049156 6269.0 
104.049057 9533.0 
105.069656 5820.0 
106.041237 84537.0 
106.049393 7374.0 
106.052109 8165.0 
107.048828 41050.0 
107.06015 36422.0 
109.064713 103807.0 
118.051903 16075.0 
119.060303 2921915.0 
121.064667 2428012.0 
124.051613 65069.0 
131.060303 1190093.0 
132.0681 3724004.0 
133.039841 13056.0 
133.065628 9902.0 
133.075729 268692.0 
133.087204 11209.0 
134.047363 21913.0 
143.06012 216425.0 
144.068085 1926031.0 
145.075882 1497794.0 
146.083725 30054.0 
147.054733 26347.0 
147.080048 105380.0 
148.062119 11945.0 
156.067947 42306.0 
157.075867 2246210.0 
158.083481 10957.0 
159.055191 443842.0 
159.0914 81274.0 
170.071655 6198.0 
176.058075 11078.0 
193.427994 5564.0 
194.083008 11405.0 
205.075638 9404.0 
207.090775 38124.0 
219.091339 1535010.0 
220.100204 12417.0 
221.106979 1476253.0 
222.114349 72322.0 
223.086594 65201.0 
223.122391 198473.0 
232.09877 45327.0 
233.106934 3856187.0 
234.088974 42767.0 
234.114655 127298.0 
235.086014 476417.0 
235.120575 24163.0 
236.094238 65176.0 
237.101715 523673.0 
247.097549 67162.0 
249.10199 354235.0 
250.109848 227383.0 
251.117371 1125852.0 
252.125031 37445.0 
253.132736 26577.0 
260.105133 24284.0 
261.113068 14675211.0 
262.120819 4392491.0 
265.132935 7491756.0 
275.128632 45384.0 
351.158661 48313.0 
382.1763 14333.0 
383.185883 20198078.0 
385.13446 7205.0 
END IONS

BEGIN IONS
NAME=2-(9-ethyl-6-oxohydropurin-8-ylthio)-N-[2-(trifluoromethyl)phenyl]acetamide CollisionEnergy:205060 2M-H
PRECURSOR_MZ=793.157
INCHI="InChI=1S/C16H14F3N5O2S/c1-2-24-13-12(14(26)21-8-20-13)23-15(24)27-7-11(25)22-10-6-4-3-5-9(10)16(17,18)19/h3-6,8H,2,7H2,1H3,(H,22,25)(H,20,21,26)"
SMILES=CCn1c(SCC(O)=Nc2ccccc2C(F)(F)F)nc2c(O)ncnc21
SPECTRUMID=CCMSLIB00010119963
55.811409 3119.0 
60.462078 2900.0 
66.741074 3929.0 
73.953499 4306.0 
78.240227 3528.0 
82.396057 4210.0 
92.378487 3334.0 
135.03096 14735.0 
136.205536 4457.0 
154.395462 4252.0 
163.061752 10248.0 
167.003235 7553.0 
168.327881 3343.0 
179.00354 21001.0 
194.026855 41828.0 
195.034149 73162.0 
199.025314 4420.0 
273.706116 3068.0 
396.075134 92513.0 
764.139221 3481.0 
END IONS

BEGIN IONS
NAME=Hippuric acid CollisionEnergy:205060 M+Na
PRECURSOR_MZ=202.047
INCHI="InChI=1S/C9H9NO3/c11-8(12)6-10-9(13)7-4-2-1-3-5-7/h1-5H,6H2,(H,10,13)(H,11,12)"
SMILES=O=C(O)CN=C(O)c1ccccc1
SPECTRUMID=CCMSLIB00010119905
54.89344 4747.0 
66.342537 4484.0 
76.441597 6121.0 
82.004189 4852.0 
89.997833 4673.0 
96.826286 5816.0 
104.257408 7234.0 
112.176498 4915.0 
147.949844 5186.0 
161.067307 5360.0 
179.267792 5567.0 
202.047272 171979.0 
END IONS

BEGIN IONS
NAME=2-(4-ethoxyphenyl)-4-oxochromen-3-yl 4-methylbenzenesulfonate CollisionEnergy:205060 M+Na
PRECURSOR_MZ=459.087
INCHI="InChI=1S/C24H20O6S/c1-3-28-18-12-10-17(11-13-18)23-24(22(25)20-6-4-5-7-21(20)29-23)30-31(26,27)19-14-8-16(2)9-15-19/h4-15H,3H2,1-2H3"
SMILES=CCOc1ccc(-c2oc3ccccc3c(=O)c2OS(=O)(=O)c2ccc(C)cc2)cc1
SPECTRUMID=CCMSLIB00010117642
60.544289 2919.0 
61.637901 3211.0 
65.346199 2752.0 
82.407768 3452.0 
88.669197 3165.0 
100.693039 3429.0 
136.848206 2843.0 
221.044647 5067.0 
275.030731 28109.0 
289.603485 2953.0 
302.695007 3479.0 
304.070129 4209749.0 
322.080902 12894.0 
345.095551 41387.0 
395.123718 5805.0 
459.086426 599739.0 
END IONS

BEGIN IONS
NAME=k-Strophanthidin CollisionEnergy:102040 M+formate
PRECURSOR_MZ=449.218
INCHI="InChI=1S/C23H32O6/c1-20-6-3-17-18(4-8-22(27)11-15(25)2-7-21(17,22)13-24)23(20,28)9-5-16(20)14-10-19(26)29-12-14/h10,13,15-18,25,27-28H,2-9,11-12H2,1H3/t15-,16?,17?,18?,20+,21-,22-,23-/m0/s1"
SMILES=CC12CCC3C(CCC4(O)CC(O)CCC34C=O)C1(O)CCC2C1=CC(=O)OC1
SPECTRUMID=CCMSLIB00010112726
52.838009 2411.0 
54.876629 2422.0 
59.585522 2590.0 
62.00584 2224.0 
73.967712 2521.0 
83.766762 2799.0 
92.393784 3530.0 
108.713623 2936.0 
135.080566 3066.0 
136.391861 2742.0 
152.661407 2602.0 
209.937622 3795.0 
209.956528 2776.0 
268.792847 2805.0 
313.178497 2970.0 
315.195801 4677.0 
329.175568 99284.0 
329.217987 4765.0 
332.825897 2720.0 
341.17569 29976.0 
347.188019 13010.0 
357.208618 23364.0 
359.186066 92550.0 
367.188446 3996.0 
385.202026 35990.0 
403.212708 629166.0 
435.203918 2877.0 
449.218567 624928.0 
459.025787 2827.0 
END IONS

BEGIN IONS
NAME="N-methyl-N-phenyl[3-(3,4,5-trimethoxyphenyl)(4,5-dihydroisoxazol-5-yl)]carboxa mide CollisionEnergy:102040" M+Na
PRECURSOR_MZ=393.142
INCHI="InChI=1S/C20H22N2O5/c1-22(14-8-6-5-7-9-14)20(23)18-12-15(21-27-18)13-10-16(24-2)19(26-4)17(11-13)25-3/h5-11,18H,12H2,1-4H3"
SMILES=COc1cc(C2=NOC(C(=O)N(C)c3ccccc3)C2)cc(OC)c1OC
SPECTRUMID=CCMSLIB00010106606
104.306778 3661.0 
108.386818 3106.0 
150.159378 2894.0 
184.073547 49994.0 
186.052582 33281.0 
216.062561 2969.0 
219.656799 2798.0 
260.70813 3415.0 
375.131989 3469.0 
377.108276 4274.0 
378.115784 5341.0 
385.165131 3389.0 
393.141907 5152087.0 
399.582855 3036.0 
END IONS

BEGIN IONS
NAME="8-{[2-(4-chlorophenyl)-5-methyl(1,3-oxazol-4-yl)]methylthio}-9-phenylhydropuri n-6-one CollisionEnergy:205060" M+H
PRECURSOR_MZ=450.079
INCHI="InChI=1S/C22H16ClN5O2S/c1-13-17(26-21(30-13)14-7-9-15(23)10-8-14)11-31-22-27-18-19(24-12-25-20(18)29)28(22)16-5-3-2-4-6-16/h2-10,12H,11H2,1H3,(H,24,25,29)"
SMILES=Cc1oc(-c2ccc(Cl)cc2)nc1CSc1nc2c(O)ncnc2n1-c1ccccc1
SPECTRUMID=CCMSLIB00010120930
59.049278 4136.0 
66.829971 3863.0 
69.03389 726722.0 
69.975029 15698.0 
71.519997 3321.0 
86.999977 5676.0 
89.018112 3887.0 
110.999817 5685.0 
118.636932 3756.0 
129.044983 7092.0 
130.040436 3939.0 
137.004486 4660.0 
137.01564 15308.0 
138.010483 4458918.0 
138.994461 58473.0 
139.991241 13593.0 
147.930405 4109.0 
156.02095 59631.0 
167.002319 57886.0 
172.97847 3635.0 
173.016312 44428.0 
179.036942 57084.0 
180.057098 5109.0 
201.01149 85602.0 
206.036606 5088728.0 
218.038086 43721.0 
219.021957 4038.0 
245.048859 1143578.0 
247.062805 36378.0 
266.092621 13331.0 
450.077972 875899.0 
END IONS

BEGIN IONS
NAME=3-methyl-N-[2-(2-methylindol-3-yl)ethyl]-2-(phenylcarbonylamino)but-2-enamide CollisionEnergy:205060 M-H
PRECURSOR_MZ=374.187
INCHI="InChI=1S/C23H25N3O2/c1-15(2)21(26-22(27)17-9-5-4-6-10-17)23(28)24-14-13-18-16(3)25-20-12-8-7-11-19(18)20/h4-12,25H,13-14H2,1-3H3,(H,24,28)(H,26,27)"
SMILES=CC(C)=C(N=C(O)c1ccccc1)C(O)=NCCc1c(C)[nH]c2ccccc12
SPECTRUMID=CCMSLIB00010118084
54.725498 2422.0 
59.6674 2638.0 
66.267448 2984.0 
68.013763 12961.0 
73.126389 2448.0 
93.034317 18814.0 
96.045341 71600.0 
118.708839 2644.0 
120.04554 56662.0 
121.029121 4858.0 
130.066467 6470.0 
131.037628 22999.0 
137.23111 2838.0 
139.0513 32370.0 
142.066849 2941.0 
144.081451 5800.0 
145.065704 13064.0 
147.081512 93937.0 
151.338882 2681.0 
156.081802 38029.0 
158.044815 2739.0 
158.061615 3605.0 
171.092529 6495.0 
172.077682 4473.0 
173.108383 777999.0 
174.092392 419391.0 
174.580673 3051.0 
175.064758 3711.0 
199.087708 220657.0 
200.071381 25723.0 
202.087463 3142.0 
209.112396 9096.0 
209.13385 5868.0 
217.097855 48683.0 
277.134796 29522.0 
288.243744 2884.0 
296.138428 3821.0 
356.176758 45415.0 
357.021851 2947.0 
374.187225 1796518.0 
END IONS

BEGIN IONS
NAME="N-[2-(3,4-dimethoxyphenyl)ethyl]-2-(4-methylphenoxy)acetamide CollisionEnergy:102040" M+H
PRECURSOR_MZ=330.17
INCHI="InChI=1S/C19H23NO4/c1-14-4-7-16(8-5-14)24-13-19(21)20-11-10-15-6-9-17(22-2)18(12-15)23-3/h4-9,12H,10-11,13H2,1-3H3,(H,20,21)"
SMILES=COc1ccc(CCN=C(O)COc2ccc(C)cc2)cc1OC
SPECTRUMID=CCMSLIB00010105332
50.774189 3269.0 
73.962227 2838.0 
77.039291 3957.0 
79.054398 20571.0 
91.054253 14216.0 
93.070351 25126.0 
101.09317 3316.0 
103.05407 26158.0 
105.061783 4321.0 
105.069794 125967.0 
107.048943 7914.0 
108.057693 3261.0 
109.064728 5619.0 
118.041199 7724.0 
119.049347 5013.0 
120.056633 14600.0 
121.064529 149496.0 
123.080254 6125.0 
131.072601 5619.0 
133.064682 142818.0 
133.075668 6543.0 
134.072418 63316.0 
135.043839 21118.0 
135.080292 88013.0 
137.058563 5861.0 
137.095764 4981.0 
145.027802 3134.0 
145.064667 4098.0 
146.071884 4403.0 
147.067856 5184.0 
148.075577 3647.0 
149.059387 17054.0 
150.067368 823577.0 
151.075027 23739.0 
162.091125 72028.0 
163.098938 6091.0 
164.082901 56271.0 
165.09082 7167031.0 
166.086243 6945.0 
175.3181 3528.0 
177.090286 49879.0 
179.09436 5251.0 
182.116959 42400.0 
190.086243 17155.0 
192.101517 13008.0 
194.117233 266806.0 
198.567368 3757.0 
204.10144 16087.0 
205.08609 3794.0 
205.107956 3908.0 
206.093735 36546.0 
208.364899 7495.0 
222.112106 15281.0 
241.122192 13745.0 
263.105042 6260.0 
280.132507 13777.0 
298.142883 45787.0 
307.282166 3367.0 
312.157837 37738.0 
313.142548 75818.0 
330.169189 2677142.0 
END IONS

BEGIN IONS
NAME=3-benzothiazol-2-yl-6-chlorochromen-2-one CollisionEnergy:102040 M+Na
PRECURSOR_MZ=335.986
INCHI=InChI=1S/C16H8ClNO2S/c17-10-5-6-13-9(7-10)8-11(16(19)20-13)15-18-12-3-1-2-4-14(12)21-15/h1-8H
SMILES=O=c1oc2ccc(Cl)cc2cc1-c1nc2ccccc2s1
SPECTRUMID=CCMSLIB00010105661
58.970581 2237.0 
66.191917 2479.0 
73.952797 3363.0 
83.701012 2261.0 
92.376167 2272.0 
104.282944 2556.0 
118.2435 2366.0 
179.140747 2351.0 
204.932205 2473.0 
208.049164 3138.0 
208.067932 5781.0 
271.939941 2574.0 
335.985504 579218.0 
336.219177 3922.0 
END IONS

BEGIN IONS
NAME=phenylmethyl (2S)-3-hydroxy-2-[(phenylmethoxy)carbonylamino]propanoate CollisionEnergy:102040 M+formate
PRECURSOR_MZ=374.125
INCHI="InChI=1S/C18H19NO5/c20-11-16(17(21)23-12-14-7-3-1-4-8-14)19-18(22)24-13-15-9-5-2-6-10-15/h1-10,16,20H,11-13H2,(H,19,22)/t16-/m0/s1"
SMILES=O=C(OCc1ccccc1)C(CO)N=C(O)OCc1ccccc1
SPECTRUMID=CCMSLIB00010111169
59.338631 2008.0 
60.432732 2236.0 
72.214592 2320.0 
82.40332 2758.0 
85.221733 2199.0 
85.228157 2995.0 
92.38369 2512.0 
104.286987 3272.0 
113.248672 2228.0 
144.5858 2584.0 
190.05069 3572.0 
204.341614 3284.0 
218.592545 2326.0 
220.061737 3965.0 
232.50473 2699.0 
233.185669 2499.0 
243.987442 3671.0 
END IONS

BEGIN IONS
NAME="ethyl 2-amino-4-(2-chloro-6-fluorophenyl)-5-oxo-4H-pyrano[3,2-c]chromene-3-car boxylate CollisionEnergy:205060" M+Na
PRECURSOR_MZ=438.051
INCHI="InChI=1S/C21H15ClFNO5/c1-2-27-20(25)17-15(14-11(22)7-5-8-12(14)23)16-18(29-19(17)24)10-6-3-4-9-13(10)28-21(16)26/h3-9,15H,2,24H2,1H3"
SMILES=CCOC(=O)C1=C(N)Oc2c(c(=O)oc3ccccc23)C1c1c(F)cccc1Cl
SPECTRUMID=CCMSLIB00010119841
50.866261 2289.0 
59.416271 2574.0 
63.201809 2427.0 
75.124077 2438.0 
82.389053 3557.0 
108.757118 2653.0 
118.638939 3353.0 
136.194412 3215.0 
210.008896 2702.0 
212.625229 3063.0 
256.190063 2673.0 
257.230255 2861.0 
266.256622 2798.0 
283.016022 3439.0 
392.00882 429729.0 
410.020081 4932.0 
433.035065 44887.0 
438.050598 440085.0 
END IONS

BEGIN IONS
NAME="(3,4-diethoxyphenyl)-N-(5-hydroxy-7-methyl(4-hydro-1,2,4-triazolo[1,5-a]pyrimi din-6-yl))carboxamide CollisionEnergy:205060" M+Na
PRECURSOR_MZ=380.133
INCHI="InChI=1S/C17H19N5O4/c1-4-25-12-7-6-11(8-13(12)26-5-2)15(23)21-14-10(3)20-17-18-9-19-22(17)16(14)24/h6-9,24H,4-5H2,1-3H3,(H,21,23)"
SMILES=CCOc1ccc(C(O)=Nc2c(C)nc3ncnn3c2O)cc1OCC
SPECTRUMID=CCMSLIB00010119584
50.474758 2752.0 
74.180473 2799.0 
78.670143 2344.0 
81.033707 4309.0 
137.023392 76871.0 
137.034119 9390.0 
157.976425 3712.0 
165.054672 45988.0 
193.086182 66488.0 
228.046951 11174.0 
264.69342 3528.0 
283.071198 13577.0 
284.078552 3712.0 
296.076996 5464.0 
311.979919 3043.0 
312.108795 4612.0 
340.139008 23573.0 
380.132629 3776704.0 
398.142639 43990.0 
END IONS

BEGIN IONS
NAME="N-(2,4-dimethoxyphenyl)-2-(9-methyl-6-oxohydropurin-8-ylthio)acetamide CollisionEnergy:205060" M+H
PRECURSOR_MZ=376.107
INCHI="InChI=1S/C16H17N5O4S/c1-21-14-13(15(23)18-8-17-14)20-16(21)26-7-12(22)19-10-5-4-9(24-2)6-11(10)25-3/h4-6,8H,7H2,1-3H3,(H,19,22)(H,17,18,23)"
SMILES=COc1ccc(N=C(O)CSc2nc3c(O)ncnc3n2C)c(OC)c1
SPECTRUMID=CCMSLIB00010123129
57.045261 16581.0 
58.995411 8280.0 
65.038979 8149.0 
79.054459 74087.0 
82.402122 5142.0 
84.985641 33365.0 
91.054413 4182.0 
93.033569 6854.0 
93.057579 7767.0 
94.040733 4071.0 
94.065407 3592.0 
96.644203 3463.0 
104.0495 6266.0 
106.039772 14949.0 
106.06485 15043.0 
107.024239 17863.0 
108.055519 28082.0 
110.034721 6929.0 
111.042908 23252.0 
111.067963 6514.0 
119.036522 8036.0 
121.051826 8463.0 
122.036041 15561.0 
122.059868 6249.0 
123.001091 4462.0 
123.068039 26210.0 
124.050339 30018.0 
125.016808 5890.0 
126.00135 4410.0 
126.012047 8716.0 
133.050446 18844.0 
134.035278 5656.0 
134.059906 224809.0 
136.075592 118977.0 
136.215561 4484.0 
137.045715 169711.0 
137.057663 7510.0 
138.067657 7058.0 
139.063004 6791.0 
139.074295 4578.0 
139.991425 78959.0 
140.027496 8430.0 
146.060089 20922.0 
149.045624 209438.0 
150.042496 4661.0 
150.053482 291983.0 
150.996048 70181.0 
151.061325 669969.0 
152.027542 25178.0 
153.010803 4987.0 
153.022751 25673.0 
154.006805 18849.0 
154.086029 176785.0 
155.070648 13142.0 
161.045609 41183.0 
162.054016 274530.0 
163.061188 247832.0 
164.069946 16856.0 
166.08606 370752.0 
168.022369 152997.0 
170.038223 17915.0 
176.070374 35597.0 
177.022385 28062.0 
177.078232 112682.0 
179.057083 27127.0 
181.017654 2137357.0 
183.033218 30240.0 
186.032959 23164.0 
192.065231 50941.0 
194.080688 58188.0 
195.03334 5194010.0 
213.043625 59046.0 
222.044052 24655.0 
223.028107 6615686.0 
236.059067 49306.0 
343.072998 4034.0 
376.106934 105609.0 
END IONS

BEGIN IONS
NAME=D-Ribopyranose CollisionEnergy:102040 M-H
PRECURSOR_MZ=149.046
INCHI="InChI=1S/C5H10O5/c6-2-1-10-5(9)4(8)3(2)7/h2-9H,1H2/t2-,3-,4-,5?/m1/s1"
SMILES=OC1OC[C@@H](O)[C@@H](O)[C@H]1O
SPECTRUMID=CCMSLIB00010126062
59.013599 2667.919922 
66.7621 1919.359985 
66.8554 1961.619995 
71.014099 3307.360107 
88.471199 1799.319946 
126.760002 2242.48999 
END IONS

BEGIN IONS
NAME="8-[(2,6-dimethylmorpholin-4-yl)methyl]-7-hydroxy-3-(2-methoxyphenyl)-2-(triflu oromethyl)chromen-4-one CollisionEnergy:102040" M+Na
PRECURSOR_MZ=486.15
INCHI="InChI=1S/C24H24F3NO5/c1-13-10-28(11-14(2)32-13)12-17-18(29)9-8-16-21(30)20(15-6-4-5-7-19(15)31-3)23(24(25,26)27)33-22(16)17/h4-9,13-14,29H,10-12H2,1-3H3"
SMILES=COc1ccccc1-c1c(C(F)(F)F)oc2c(CN3CC(C)OC(C)C3)c(O)ccc2c1=O
SPECTRUMID=CCMSLIB00010103720
55.45726 3023.0 
88.960907 2908.0 
92.375221 3718.0 
110.717278 2494.0 
124.757248 3301.0 
136.211197 2557.0 
145.86438 2717.0 
157.963898 3776.0 
164.219757 2796.0 
204.70195 2859.0 
371.049683 1953372.0 
389.06073 13078.0 
412.076538 56053.0 
426.718414 2990.0 
486.149506 641071.0 
END IONS

BEGIN IONS
NAME="methyl 3,4,5-trimethoxy-2-[2-oxo-2-(2-phenylindol-3-yl)acetylamino]benzoate CollisionEnergy:102040" M-H
PRECURSOR_MZ=487.151
INCHI="InChI=1S/C27H24N2O7/c1-33-19-14-17(27(32)36-4)22(25(35-3)24(19)34-2)29-26(31)23(30)20-16-12-8-9-13-18(16)28-21(20)15-10-6-5-7-11-15/h5-14,28H,1-4H3,(H,29,31)"
SMILES=COC(=O)c1cc(OC)c(OC)c(OC)c1NC(=O)C(=O)c1c(-c2ccccc2)[nH]c2ccccc12
SPECTRUMID=CCMSLIB00010109681
82.396072 3957.0 
114.581017 3033.0 
130.386215 3232.0 
136.202881 4292.0 
137.970596 3193.0 
158.754196 3771.0 
179.352859 2840.0 
186.33786 3066.0 
192.082047 3844154.0 
192.783279 4013.0 
210.039658 6071.0 
316.982452 5982.0 
371.585266 4134.0 
455.126831 14295.0 
487.151215 1756752.0 
END IONS

BEGIN IONS
NAME=biliverdin CollisionEnergy:102040 M-H
PRECURSOR_MZ=581.241
INCHI="InChI=1S/C33H34N4O6/c1-7-20-19(6)32(42)37-27(20)14-25-18(5)23(10-12-31(40)41)29(35-25)15-28-22(9-11-30(38)39)17(4)24(34-28)13-26-16(3)21(8-2)33(43)36-26/h7-8,13-15,34-35H,1-2,9-12H2,3-6H3,(H,37,42)(H,38,39)(H,40,41)/b24-13+,27-14-,28-15-"
SMILES=C=CC1=C(C)C(C=c2[nH]c(=Cc3[nH]c(C=C4N=C(O)C(C)=C4C=C)c(C)c3CCC(=O)O)c(CCC(=O)O)c2C)=NC1=O
SPECTRUMID=CCMSLIB00010107770
59.013401 64211.0 
60.533482 7216.0 
72.086929 7594.0 
77.999268 9264.0 
92.372261 7865.0 
104.27845 9666.0 
120.081612 61087.0 
121.053596 80545.0 
122.061203 206341.0 
134.06102 16704.0 
137.420303 7542.0 
160.064728 81032.0 
198.128265 9120.0 
213.103729 498986.0 
225.103607 29140.0 
226.111649 18267.0 
239.119415 1918625.0 
241.135056 754097.0 
251.120651 17400.0 
253.135345 116942.0 
267.149475 70361.0 
285.124908 3510303.0 
449.199738 10775.0 
465.225983 8767.0 
493.261475 231507.0 
537.251892 2231250.0 
581.242004 2885803.0 
END IONS

BEGIN IONS
NAME=Gardenin CollisionEnergy:102040 M+H
PRECURSOR_MZ=419.134
INCHI="InChI=1S/C21H22O9/c1-24-13-7-10(8-14(25-2)17(13)26-3)12-9-11(22)15-16(23)19(27-4)21(29-6)20(28-5)18(15)30-12/h7-9,23H,1-6H3"
SMILES=COc1cc(-c2cc(=O)c3c(O)c(OC)c(OC)c(OC)c3o2)cc(OC)c1OC
SPECTRUMID=CCMSLIB00010113020
57.938568 3410.0 
61.781261 3150.0 
66.480087 2990.0 
82.38308 3223.0 
90.976624 5909.0 
136.185532 4855.0 
157.94429 4147.0 
167.033997 14024.0 
169.279373 3377.0 
178.062805 3754.0 
193.08609 7536.0 
195.028702 3903.0 
195.063812 6278.0 
197.008347 7472.0 
215.018494 4884.0 
227.054611 42791.0 
283.060028 3599.0 
310.046204 7483.0 
311.057709 3151.0 
313.073303 4339.0 
315.084473 5943.0 
325.069977 23214.0 
328.057709 50371.0 
328.098358 5086.0 
329.1008 5257.0 
330.108917 14095.0 
332.087891 8100.0 
343.041992 14616.0 
343.080994 52567.0 
345.056793 4936.0 
345.0979 6881.0 
346.060852 10402.0 
350.89209 7668.0 
353.066803 6009.0 
356.049957 33249.0 
357.097961 47290.0 
358.06076 6232.0 
358.104858 109611.0 
359.039124 19645.0 
361.091522 47571.0 
369.098328 7772.0 
371.075623 581446.0 
373.092041 232203.0 
373.130768 4438.0 
374.061279 34482.0 
375.106415 28296.0 
385.091125 67545.0 
386.098663 89872.0 
389.086365 1778686.0 
390.095764 6790.0 
403.101624 106660.0 
404.109863 154047.0 
416.907501 5498.0 
419.133209 7045167.0 
421.376862 5853.0 
END IONS

BEGIN IONS
NAME=3-phenyl-2-[(phenylmethoxy)carbonylamino]propanoic acid CollisionEnergy:205060 M+Na
PRECURSOR_MZ=322.105
INCHI="InChI=1S/C17H17NO4/c19-16(20)15(11-13-7-3-1-4-8-13)18-17(21)22-12-14-9-5-2-6-10-14/h1-10,15H,11-12H2,(H,18,21)(H,19,20)"
SMILES=O=C(O)C(Cc1ccccc1)N=C(O)OCc1ccccc1
SPECTRUMID=CCMSLIB00010124428
56.08337 2182.0 
66.75544 2609.0 
91.054283 35423.0 
92.391632 3300.0 
110.103996 2137.0 
118.678146 2964.0 
120.849213 2176.0 
136.235611 2447.0 
142.062592 46887.0 
157.998459 3015.0 
164.420166 2386.0 
170.9328 2502.0 
175.036209 10541.0 
278.114777 23848.0 
300.246765 2659.0 
322.104126 624284.0 
END IONS

BEGIN IONS
NAME=Adenosine diphosphate CollisionEnergy:102040 M-H
PRECURSOR_MZ=426.022
INCHI="InChI=1S/C10H15N5O10P2/c11-8-5-9(13-2-12-8)15(3-14-5)10-7(17)6(16)4(24-10)1-23-27(21,22)25-26(18,19)20/h2-4,6-7,10,16-17H,1H2,(H,21,22)(H2,11,12,13)(H2,18,19,20)/t4-,6-,7-,10-/m1/s1"
SMILES=Nc1ncnc2c1ncn2[C@@H]1O[C@H](COP(=O)(O)OP(=O)(O)O)[C@@H](O)[C@H]1O
SPECTRUMID=CCMSLIB00010126120
53.326 6563.939941 
54.7715 5453.330078 
58.638599 5795.529785 
63.235802 7443.279785 
73.391701 6195.830078 
76.996101 5926.120117 
78.9589 626410.0 
82.551697 6586.430176 
96.969803 25128.5 
104.255997 6224.220215 
120.293999 5875.029785 
134.046997 380131.0 
139.362 6276.560059 
158.925995 468060.0 
193.078003 6597.450195 
235.462997 6295.459961 
267.031006 8100.52002 
272.958008 55026.0 
290.363007 6578.700195 
290.970001 10407.400391 
304.016998 15006.200195 
328.04599 254241.0 
346.054993 10182.700195 
408.011993 87507.898438 
426.02301 1215100.0 
END IONS

BEGIN IONS
NAME=Purine CollisionEnergy:102040 M-H
PRECURSOR_MZ=119.036
INCHI="InChI=1S/C5H4N4/c1-4-5(8-2-6-1)9-3-7-4/h1-3H,(H,6,7,8,9)"
SMILES=c1ncc2nc[nH]c2n1
SPECTRUMID=CCMSLIB00010102717
50.6562 1154500.0 
52.904202 1076330.0 
55.170502 1022880.0 
65.014099 9007900.0 
67.0299 2311290.0 
68.025101 1053810.0 
79.837898 969359.0 
82.416199 1328000.0 
90.010002 1592210.0 
92.025299 24241200.0 
100.568001 1097400.0 
104.307999 1227870.0 
118.675003 1180480.0 
119.036003 807299008.0 
END IONS

BEGIN IONS
NAME=7-chloro-2-(4-fluorophenyl)-3-hydroxychromen-4-one CollisionEnergy:102040 M+H
PRECURSOR_MZ=291.022
INCHI="InChI=1S/C15H8ClFO3/c16-9-3-6-11-12(7-9)20-15(14(19)13(11)18)8-1-4-10(17)5-2-8/h1-7,19H"
SMILES=O=c1c(O)c(-c2ccc(F)cc2)oc2cc(Cl)ccc12
SPECTRUMID=CCMSLIB00010110033
58.848942 2777.0 
66.734833 3816.0 
68.073227 2843.0 
71.310654 3003.0 
74.096474 3027.0 
82.391769 3683.0 
104.279137 3973.0 
123.024002 98082.0 
125.015251 3442.0 
138.994598 78087.0 
143.37941 3859.0 
154.989288 74179.0 
166.989532 64988.0 
171.060272 4844.0 
183.062531 3648.0 
184.068466 4618.0 
184.99884 6372.0 
199.055222 15214.0 
200.063019 17487.0 
215.027298 5242.0 
217.02066 12052.0 
227.050079 29573.0 
228.05838 20293.0 
235.031677 14734.0 
243.019638 7285.0 
255.045059 52148.0 
256.052521 210968.0 
271.016205 14600.0 
273.010956 20823.0 
289.710144 3896.0 
289.745483 12179.0 
290.01123 3775.0 
291.021515 11600781.0 
292.306427 11231.0 
END IONS

BEGIN IONS
NAME="(2,2-diphenylcyclopropyl)-N-(2-indol-3-ylethyl)carboxamide CollisionEnergy:205060" M+Na
PRECURSOR_MZ=403.178
INCHI="InChI=1S/C26H24N2O/c29-25(27-16-15-19-18-28-24-14-8-7-13-22(19)24)23-17-26(23,20-9-3-1-4-10-20)21-11-5-2-6-12-21/h1-14,18,23,28H,15-17H2,(H,27,29)"
SMILES=OC(=NCCc1c[nH]c2ccccc12)C1CC1(c1ccccc1)c1ccccc1
SPECTRUMID=CCMSLIB00010117946
50.424 2581.0 
60.02272 2886.0 
73.94619 3074.0 
92.36792 2765.0 
104.278549 2639.0 
117.650948 2878.0 
136.200699 3397.0 
181.012482 12009.0 
195.064514 5246.0 
229.039001 2864.0 
240.707977 2872.0 
283.060181 4130.0 
284.265717 12822.0 
403.177612 4143928.0 
END IONS

BEGIN IONS
NAME=50-22-6 CollisionEnergy:205060 M+H
PRECURSOR_MZ=347.222
INCHI="InChI=1S/C21H30O4/c1-20-8-7-13(23)9-12(20)3-4-14-15-5-6-16(18(25)11-22)21(15,2)10-17(24)19(14)20/h9,14-17,19,22,24H,3-8,10-11H2,1-2H3/t14-,15-,16+,17-,19+,20-,21-/m0/s1"
SMILES=CC12CCC(=O)C=C1CCC1C2C(O)CC2(C)C(C(=O)CO)CCC12
SPECTRUMID=CCMSLIB00010118892
50.59547 199661.0 
52.989262 218435.0 
53.039261 393384.0 
55.018391 436198.0 
55.054878 799918.0 
58.788052 221192.0 
67.054909 2331167.0 
69.034248 694962.0 
69.070312 974426.0 
69.079872 177003.0 
79.054832 4389885.0 
81.070457 3593941.0 
83.049744 2832444.0 
83.086029 193589.0 
87.044167 997722.0 
91.054718 3782040.0 
93.070343 5028201.0 
95.049698 319145.0 
95.08596 4137141.0 
97.065231 8917348.0 
101.052818 211445.0 
101.059914 1327292.0 
105.070122 6188736.0 
107.0495 861925.0 
107.085777 5323661.0 
109.065048 5254282.0 
109.101471 466641.0 
111.044434 314619.0 
111.080513 208307.0 
115.055069 283919.0 
117.070236 1775188.0 
118.584778 201420.0 
119.085693 4764175.0 
121.064949 15415365.0 
121.101219 1335931.0 
123.080544 6909299.0 
128.062317 316842.0 
129.069733 1608588.0 
131.085846 3557517.0 
133.064621 464793.0 
133.101212 3882558.0 
135.080551 2862762.0 
135.116623 1076261.0 
137.096085 456084.0 
141.069656 418359.0 
142.077271 932916.0 
143.085434 3340606.0 
145.064865 245031.0 
145.101044 5045084.0 
147.080475 1783746.0 
147.11618 2609031.0 
149.095795 1051032.0 
155.085144 1563733.0 
156.09343 1163063.0 
157.100983 3747362.0 
159.081161 609490.0 
159.116806 2948454.0 
161.096313 2104671.0 
161.132553 441521.0 
163.111771 3514861.0 
167.085373 312986.0 
169.101212 1834630.0 
171.079971 273871.0 
171.116562 3179495.0 
173.096344 1419621.0 
173.131897 885676.0 
175.11203 1859593.0 
177.126907 785798.0 
179.085266 304188.0 
181.100708 1145273.0 
182.109711 294809.0 
183.116318 1525556.0 
185.132599 1038044.0 
187.111038 1063347.0 
187.147995 462136.0 
189.126785 1288196.0 
193.101486 395887.0 
193.122177 921548.0 
195.11647 1206775.0 
197.132599 1303968.0 
199.111588 273581.0 
199.147919 279412.0 
201.126984 859095.0 
207.116287 352189.0 
207.137558 230199.0 
209.131897 817707.0 
210.553558 382553.0 
211.112213 319095.0 
211.147659 884356.0 
213.127106 466201.0 
215.142944 285034.0 
223.147827 775602.0 
225.163498 819681.0 
227.142639 399733.0 
229.158203 1289012.0 
233.155411 256716.0 
235.146973 444365.0 
237.165894 327379.0 
241.157837 975400.0 
245.1539 332120.0 
247.145844 255049.0 
251.179062 1072060.0 
253.158813 1087894.0 
253.192978 222765.0 
263.179504 207246.0 
265.159454 476718.0 
265.194214 865686.0 
267.173279 295815.0 
269.189178 1429626.0 
271.169739 314681.0 
271.204926 382339.0 
275.179718 457768.0 
281.189453 778138.0 
283.170197 632462.0 
283.20578 1105688.0 
293.189423 4301229.0 
299.201111 325832.0 
311.200073 6073291.0 
327.464935 216870.0 
329.210449 15055622.0 
344.362793 212822.0 
347.221039 47276200.0 
END IONS

BEGIN IONS
NAME=Fisetin CollisionEnergy:205060 M+H
PRECURSOR_MZ=287.055
INCHI="InChI=1S/C15H10O6/c16-8-2-3-9-12(6-8)21-15(14(20)13(9)19)7-1-4-10(17)11(18)5-7/h1-6,16-18,20H"
SMILES=O=c1c(O)c(-c2ccc(O)c(O)c2)oc2cc(O)ccc12
SPECTRUMID=CCMSLIB00010120941
55.018391 18839.0 
65.039017 56271.0 
67.054451 11170.0 
68.997337 41862.0 
71.013 4543.0 
77.873466 2772.0 
81.033882 46642.0 
83.747864 3249.0 
90.911377 3159.0 
92.375298 3879.0 
93.033501 47802.0 
95.013077 5250.0 
95.049248 37356.0 
96.020264 3361.0 
97.028603 3034.0 
103.054123 3781.0 
104.279083 3039.0 
105.033493 6614.0 
106.729088 3193.0 
107.013046 3365.0 
107.048622 5262.0 
109.02816 26543.0 
110.036148 4245.0 
111.043808 30411.0 
115.054047 20257.0 
115.867081 3147.0 
117.069717 4538.0 
121.028343 335480.0 
123.044167 52364.0 
127.039078 10723.0 
128.06192 5969.0 
129.069794 32616.0 
133.028076 4408.0 
135.080383 4588.0 
137.02327 948304.0 
139.054047 17344.0 
141.070236 24386.0 
143.048782 5392.0 
145.064697 12949.0 
147.043884 24582.0 
147.081116 5560.0 
149.023239 303360.0 
150.030609 24096.0 
155.033752 13308.0 
157.042297 3462.0 
157.064774 134421.0 
160.051529 4804.0 
161.059326 23188.0 
163.038788 41080.0 
167.034256 52054.0 
167.049179 10572.0 
168.056808 3516.0 
169.065216 12618.0 
171.043579 26739.0 
175.039719 6837.0 
175.075165 43890.0 
177.017944 5774.0 
178.025162 3419.0 
179.034119 21116.0 
184.050964 4111.0 
185.059464 336923.0 
187.038055 4626.0 
189.018875 3745.0 
189.053864 26465.0 
191.033203 23580.0 
195.05658 5931.0 
197.059082 31421.0 
199.038925 15558.0 
203.069794 58250.0 
205.050034 4674.0 
212.045807 28740.0 
213.054291 649390.0 
215.03334 3445.0 
216.04129 21714.0 
217.049072 14885.0 
223.040085 32439.0 
229.048767 7173.0 
230.056076 11525.0 
231.064911 136319.0 
240.118576 2812.0 
241.049026 304211.0 
251.035828 8447.0 
258.051849 60251.0 
259.058777 29141.0 
263.904968 33634.0 
269.043945 137594.0 
270.051239 3185.0 
287.054504 3605003.0 
END IONS

BEGIN IONS
NAME="3-hydroxy-4,5-dimethoxybenzaldehyde CollisionEnergy:102040" M+H
PRECURSOR_MZ=183.065
INCHI="InChI=1S/C9H10O4/c1-12-8-4-6(5-10)3-7(11)9(8)13-2/h3-5,11H,1-2H3"
SMILES=COc1cc(C=O)cc(O)c1OC
SPECTRUMID=CCMSLIB00010111331
52.03167 3349.0 
53.039131 13139.0 
53.929192 2451.0 
55.934959 3267.0 
56.942699 42844.0 
65.03907 2816.0 
67.054657 10820.0 
68.366478 2703.0 
72.937477 445189.0 
88.932167 41576.0 
89.939957 29507.0 
90.947853 190007.0 
95.049232 1053539.0 
97.969177 5948.0 
99.948036 34220.0 
102.947571 4665.0 
106.828957 2775.0 
106.94268 29329.0 
107.950371 31783.0 
108.020981 3978.0 
108.958321 24858.0 
109.064072 2986.0 
112.955963 5293.0 
113.963676 577619.0 
117.958351 5898.0 
118.942879 10977.0 
118.96727 2783.0 
123.043968 705394.0 
124.953133 16924.0 
125.960953 25300.0 
127.075272 30306.0 
129.958801 3956.0 
130.966293 54724.0 
131.974167 206262.0 
132.945831 4166.0 
136.953598 3469.0 
140.046722 401254.0 
141.054535 660396.0 
141.958557 370659.0 
147.968521 3895.0 
148.97702 79932.0 
150.955948 15576.0 
154.990036 37736.0 
155.07016 1285724.0 
155.97438 11741.0 
159.96904 374744.0 
164.07045 6321.0 
165.091721 2907.0 
171.992722 4663.0 
176.24733 2736.0 
177.957901 4631.0 
177.978897 4551.0 
182.984802 57356.0 
183.065033 177213.0 
183.092239 4828.0 
183.193359 3556.0 
190.956192 3281.0 
191.428619 2972.0 
210.271927 3148.0 
279.183228 3081.0 
381.244537 2946.0 
END IONS

BEGIN IONS
NAME=2-(4-methoxyphenyl)-N-[2-(2-methylindol-3-yl)ethyl]acetamide CollisionEnergy:205060 M+H
PRECURSOR_MZ=323.175
INCHI="InChI=1S/C20H22N2O2/c1-14-17(18-5-3-4-6-19(18)22-14)11-12-21-20(23)13-15-7-9-16(24-2)10-8-15/h3-10,22H,11-13H2,1-2H3,(H,21,23)"
SMILES=COc1ccc(CC(O)=NCCc2c(C)[nH]c3ccccc23)cc1
SPECTRUMID=CCMSLIB00010118094
61.2034 3150.0 
68.509407 3330.0 
78.905724 3578.0 
79.609039 3174.0 
80.049789 6504.0 
82.396103 3837.0 
91.054291 39238.0 
92.377434 5638.0 
101.592018 3357.0 
115.054138 33215.0 
116.062561 5510.0 
117.057228 46364.0 
117.069763 109757.0 
118.065681 6954.0 
121.064659 852434.0 
129.070312 5991.0 
130.065018 91835.0 
130.076065 3903.0 
131.073425 12132.0 
131.085205 78707.0 
132.081238 26567.0 
141.069473 60179.0 
142.06543 6603.0 
143.072815 1505212.0 
144.756699 3405.0 
146.096802 6616.0 
156.080887 14337.0 
157.088135 53762.0 
157.583115 5870.0 
158.096268 11536296.0 
158.612152 6040.0 
166.086441 35751.0 
170.096954 5137.0 
175.122818 152429.0 
192.101547 93904.0 
288.135101 4634.0 
306.147583 31875.0 
323.174774 651950.0 
END IONS

BEGIN IONS
NAME=N-[3-((1E)-3-{3-[(4-bromophenyl)carbonylamino]phenyl}-3-oxoprop-1-enyl)phenyl] (4-bromophenyl)carboxamide CollisionEnergy:102040 M+formate
PRECURSOR_MZ=646.982
INCHI="InChI=1S/C29H20Br2N2O3/c30-23-12-8-20(9-13-23)28(35)32-25-5-1-3-19(17-25)7-16-27(34)22-4-2-6-26(18-22)33-29(36)21-10-14-24(31)15-11-21/h1-18H,(H,32,35)(H,33,36)/b16-7+"
SMILES=O=C(C=Cc1cccc(NC(=O)c2ccc(Br)cc2)c1)c1cccc(NC(=O)c2ccc(Br)cc2)c1
SPECTRUMID=CCMSLIB00010114272
102.950172 3884.0 
102.956833 65775.0 
104.306793 4236.0 
112.985489 34483.0 
116.413208 3151.0 
134.778381 2946.0 
145.594238 3070.0 
170.943466 6621.0 
180.972748 4028.0 
198.426926 3376.0 
238.931763 37554.0 
248.96051 6734.0 
289.062164 8127.0 
303.219391 7505.0 
303.26059 6017.0 
306.918915 49578.0 
316.949219 3973.0 
364.544556 4350.0 
374.820587 3577.0 
374.907715 49540.0 
402.013977 31519.0 
417.02359 8222.0 
442.897308 25238.0 
445.019806 201817.0 
510.879822 49615.0 
521.046082 4697.0 
578.869751 12397.0 
600.977844 3034166.0 
646.980835 27696.0 
706.823242 3222.0 
919.893311 3394.0 
991.799744 3934.0 
1280.09436 3594.0 
END IONS

BEGIN IONS
NAME=3-(3-chlorophenyl)-6-hydroxy-4-methylchromen-2-one CollisionEnergy:205060 M+Na
PRECURSOR_MZ=309.029
INCHI="InChI=1S/C16H11ClO3/c1-9-13-8-12(18)5-6-14(13)20-16(19)15(9)10-3-2-4-11(17)7-10/h2-8,18H,1H3"
SMILES=Cc1c(-c2cccc(Cl)c2)c(=O)oc2ccc(O)cc12
SPECTRUMID=CCMSLIB00010118806
52.394569 1907.0 
54.18111 1929.0 
61.248539 2151.0 
70.747223 2656.0 
77.872231 2436.0 
86.204437 2688.0 
88.296638 2207.0 
89.322197 2257.0 
98.920143 2097.0 
104.276337 2303.0 
127.01226 4693.0 
130.46138 2330.0 
134.524063 2195.0 
189.668549 2248.0 
202.263748 2429.0 
205.392303 1984.0 
212.318008 2873.0 
267.901031 2205.0 
309.028168 190267.0 
309.165771 2741.0 
309.203857 2864.0 
327.036591 2608.0 
END IONS

BEGIN IONS
NAME="2-[1-(4-methoxyphenyl)(1,2,3,4-tetrahydrobeta-carbolin-2-yl)]-N-naphthylacetam ide CollisionEnergy:205060" M+H
PRECURSOR_MZ=462.218
INCHI="InChI=1S/C30H27N3O2/c1-35-22-15-13-21(14-16-22)30-29-25(24-10-4-5-11-27(24)32-29)17-18-33(30)19-28(34)31-26-12-6-8-20-7-2-3-9-23(20)26/h2-16,30,32H,17-19H2,1H3,(H,31,34)"
SMILES=COc1ccc(C2c3[nH]c4ccccc4c3CCN2CC(O)=Nc2cccc3ccccc23)cc1
SPECTRUMID=CCMSLIB00010118704
73.141167 3279.0 
91.054314 3503.0 
103.45285 3151.0 
104.289108 3307.0 
115.054367 4815.0 
121.064743 130225.0 
128.062408 3008.0 
129.069733 89048.0 
142.064682 5993.0 
143.072845 6191.0 
144.080719 212887.0 
145.064896 19804.0 
148.075562 6047.0 
154.064896 3953.0 
156.080704 1368702.0 
171.091537 3324.0 
182.05957 4982.0 
193.089432 4261.0 
204.079514 6715.0 
205.08783 4432.0 
206.096283 5255.0 
207.104111 18978.0 
213.102036 448755.0 
217.088089 15933.0 
218.096191 47303.0 
219.103561 24080.0 
220.075195 18681.0 
221.083237 6587.0 
230.095886 13313.0 
234.09108 27159.0 
235.098907 72342.0 
236.106659 102537.0 
247.098267 4588.0 
248.106873 5602.0 
250.122299 726981.0 
262.122467 87251.0 
264.138397 12419.0 
291.148956 18207.0 
319.143829 16377.0 
462.216522 91536.0 
END IONS

BEGIN IONS
NAME=CHEMBL1454040 CollisionEnergy:102040 M+H
PRECURSOR_MZ=449.108
INCHI="InChI=1S/C21H20O11/c22-7-14-16(26)18(28)19(29)21(32-14)31-12-4-2-9-15(25)13(30-20(9)17(12)27)6-8-1-3-10(23)11(24)5-8/h1-6,14,16,18-19,21-24,26-29H,7H2/b13-6+/t14-,16-,18+,19-,21-/m1/s1"
SMILES=O=C1C(=Cc2ccc(O)c(O)c2)Oc2c1ccc(OC1OC(CO)C(O)C(O)C1O)c2O
SPECTRUMID=CCMSLIB00010113923
55.24041 3266.0 
66.745796 3269.0 
70.89106 3912.0 
72.631126 3497.0 
82.412018 3893.0 
85.028397 4870.0 
97.028603 3810.0 
97.9804 3411.0 
102.910606 2911.0 
105.033333 4711.0 
123.007607 3307.0 
125.023193 7158.0 
149.02301 3530.0 
151.003387 3299.0 
153.018204 189047.0 
161.023224 121765.0 
161.982697 3330.0 
185.059952 17248.0 
203.070236 4355.0 
213.054214 27572.0 
217.049057 5385.0 
220.65152 3755.0 
225.055969 3593.0 
231.065033 83746.0 
241.04924 72766.0 
259.059784 37421.0 
269.043732 42188.0 
270.052155 3387.0 
287.054779 5181091.0 
393.011871 3576.0 
449.047058 9693.0 
449.10733 277147.0 
END IONS

BEGIN IONS
NAME=Taurolithocholate CollisionEnergy:102040 M-H
PRECURSOR_MZ=482.295
INCHI="InChI=1S/C26H45NO5S/c1-17(4-9-24(29)27-14-15-33(30,31)32)21-7-8-22-20-6-5-18-16-19(28)10-12-25(18,2)23(20)11-13-26(21,22)3/h17-23,28H,4-16H2,1-3H3,(H,27,29)(H,30,31,32)/t17-,18-,19-,20+,21-,22+,23+,25+,26-/m1/s1"
SMILES=CC(CCC(O)=NCCS(=O)(=O)O)C1CCC2C3CCC4CC(O)CCC4(C)C3CCC12C
SPECTRUMID=CCMSLIB00010107960
64.884499 224886.0 
82.329247 235533.0 
82.429192 289328.0 
104.324318 267796.0 
113.653549 217470.0 
124.007668 302656.0 
158.029007 196057.0 
179.708603 233897.0 
253.105225 243432.0 
363.5448 308857.0 
424.045349 220883.0 
482.295044 286859264.0 
END IONS

BEGIN IONS
NAME=N-(2-methoxy-5-methylphenyl)-2-(9-methyl-6-oxohydropurin-8-ylthio)acetamide CollisionEnergy:205060 M+H
PRECURSOR_MZ=360.113
INCHI="InChI=1S/C16H17N5O3S/c1-9-4-5-11(24-3)10(6-9)19-12(22)7-25-16-20-13-14(21(16)2)17-8-18-15(13)23/h4-6,8H,7H2,1-3H3,(H,19,22)(H,17,18,23)"
SMILES=COc1ccc(C)cc1N=C(O)CSc1nc2c(O)ncnc2n1C
SPECTRUMID=CCMSLIB00010121872
54.230381 2884.0 
54.55423 3459.0 
57.045029 3684.0 
58.995461 6970.0 
72.433319 3068.0 
73.954224 3610.0 
79.054153 5042.0 
84.985626 26866.0 
86.005966 5521.0 
91.054207 23923.0 
92.062019 5408.0 
92.657021 2881.0 
104.051407 2867.0 
104.285728 4860.0 
105.069366 4387.0 
106.040237 6313.0 
107.023819 5725.0 
107.072723 15766.0 
108.055847 19699.0 
110.035004 5380.0 
111.04248 7288.0 
117.056847 4061.0 
118.06488 32343.0 
119.072952 15113.0 
120.080544 7283.0 
122.06031 28637.0 
122.06955 3876.0 
123.068413 3445.0 
123.080322 18787.0 
124.050301 19457.0 
125.016373 5539.0 
126.001137 4126.0 
126.011337 7099.0 
132.080994 3841.0 
133.050842 17597.0 
133.06279 3452.0 
134.059723 46521.0 
135.067612 71451.0 
135.079971 13761.0 
137.045609 104859.0 
137.083664 44436.0 
138.090317 5338.0 
139.991028 51942.0 
140.027969 3502.0 
146.05986 91739.0 
147.067444 55398.0 
148.038452 5558.0 
148.0755 26066.0 
149.045578 148463.0 
149.059311 4845.0 
150.053406 195207.0 
150.091125 82987.0 
150.996063 48125.0 
151.061157 420829.0 
152.027298 13447.0 
153.022522 17535.0 
154.007004 14967.0 
160.075546 39081.0 
161.045441 26009.0 
161.083481 20309.0 
162.053284 97145.0 
163.061386 202429.0 
168.022369 97296.0 
170.038193 7828.0 
176.070572 28887.0 
177.022415 15611.0 
178.086243 5867.0 
181.017502 1307932.0 
186.032547 14510.0 
192.886002 3661.0 
195.033203 3366313.0 
199.621262 3650.0 
208.41507 3514.0 
213.043243 42732.0 
222.044128 17194.0 
223.027985 4205858.0 
236.059204 35843.0 
311.083282 6887.0 
342.102325 24223.0 
360.110962 37344.0 
END IONS

BEGIN IONS
NAME="N-(3,4-dimethylphenyl)-2-(9-methyl-6-oxohydropurin-8-ylthio)acetamide CollisionEnergy:102040" M-H
PRECURSOR_MZ=342.103
INCHI="InChI=1S/C16H17N5O2S/c1-9-4-5-11(6-10(9)2)19-12(22)7-24-16-20-13-14(21(16)3)17-8-18-15(13)23/h4-6,8H,7H2,1-3H3,(H,19,22)(H,17,18,23)"
SMILES=Cc1ccc(NC(=O)CSc2nc3c(O)ncnc3n2C)cc1C
SPECTRUMID=CCMSLIB00010109822
50.359501 2631.0 
50.915722 2573.0 
52.726212 2468.0 
58.633881 2174.0 
61.093239 2506.0 
81.907883 2353.0 
84.737106 2177.0 
84.855301 2244.0 
149.047012 196078.0 
152.028442 3523.0 
158.061417 30729.0 
179.004791 3310.0 
180.011414 213699.0 
181.019089 63209.0 
192.049561 15051.0 
193.019089 12113.0 
195.034973 43847.0 
200.453537 2727.0 
220.617828 2348.0 
221.014481 23153.0 
266.081207 2682.0 
268.120941 30335.0 
282.075897 2456.0 
313.128571 2257.0 
342.103241 360110.0 
END IONS

BEGIN IONS
NAME="2-[4-(N,N-diethylcarbamoyl)-2-oxohydroquinolyl]-N-(3-bromophenyl)acetamide CollisionEnergy:205060" M+formate
PRECURSOR_MZ=500.083
INCHI="InChI=1S/C22H22BrN3O3/c1-3-25(4-2)22(29)18-13-21(28)26(19-11-6-5-10-17(18)19)14-20(27)24-16-9-7-8-15(23)12-16/h5-13H,3-4,14H2,1-2H3,(H,24,27)"
SMILES=CCN(CC)C(=O)c1cc(=O)n(CC(O)=Nc2cccc(Br)c2)c2ccccc12
SPECTRUMID=CCMSLIB00010124770
82.418411 3097.0 
84.947021 2768.0 
88.495041 2356.0 
92.401497 3259.0 
112.985657 15093.0 
117.924713 2521.0 
128.050705 6093.0 
152.894043 2119.0 
167.587173 2533.0 
184.040085 4859.0 
193.915024 2923.0 
243.114029 6072.0 
311.511078 3332.0 
347.483368 2612.0 
454.079865 22415.0 
463.729675 2588.0 
518.605652 2733.0 
785.992859 2520.0 
END IONS

BEGIN IONS
NAME=plicamycin CollisionEnergy:102040 M-H
PRECURSOR_MZ=1083.47
INCHI="InChI=1S/C52H76O24/c1-18-29(72-34-14-30(43(58)21(4)68-34)73-33-13-28(54)42(57)20(3)67-33)12-26-10-25-11-27(49(66-9)48(63)41(56)19(2)53)50(47(62)39(25)46(61)38(26)40(18)55)76-36-16-31(44(59)23(6)70-36)74-35-15-32(45(60)22(5)69-35)75-37-17-52(8,65)51(64)24(7)71-37/h10,12,19-24,27-28,30-37,41-45,49-51,53-61,64-65H,11,13-17H2,1-9H3/t19-,20?,21?,22?,23?,24?,27+,28?,30?,31?,32?,33?,34?,35?,36?,37?,41+,42?,43?,44?,45?,49+,50+,51?,52?/m1/s1"
SMILES=COC(C(=O)C(O)C(C)O)C1Cc2cc3cc(OC4CC(OC5CC(O)C(O)C(C)O5)C(O)C(C)O4)c(C)c(O)c3c(O)c2C(=O)C1OC1CC(OC2CC(OC3CC(C)(O)C(O)C(C)O3)C(O)C(C)O2)C(O)C(C)O1
SPECTRUMID=CCMSLIB00010114561
84.700439 4912.0 
84.910103 4660.0 
89.594101 4668.0 
104.287392 6157.0 
133.595047 5424.0 
197.839874 5590.0 
241.052124 6606.0 
253.051178 6751.0 
269.045685 831796.0 
270.053162 92067.0 
271.061401 42586.0 
295.061707 5799.0 
324.06665 19318.0 
325.073822 11604.0 
341.066498 83248.0 
341.107544 5532.0 
505.015259 5879.0 
530.180969 104588.0 
531.185364 47463.0 
532.648926 5793.0 
585.197998 11391.0 
601.307129 6576.0 
672.454468 6032.0 
675.270081 26470.0 
678.258301 10284.0 
935.393616 1067830.0 
1007.410767 30901.0 
1039.44104 160645.0 
1083.466064 2061921.0 
END IONS

BEGIN IONS
NAME=2-{[(2-fluorophenyl)methyl]amino}-3-indol-3-ylpropanoic acid CollisionEnergy:205060 M-H
PRECURSOR_MZ=311.12
INCHI="InChI=1S/C18H17FN2O2/c19-15-7-3-1-5-12(15)10-21-17(18(22)23)9-13-11-20-16-8-4-2-6-14(13)16/h1-8,11,17,20-21H,9-10H2,(H,22,23)"
SMILES=O=C(O)C(Cc1c[nH]c2ccccc12)NCc1ccccc1F
SPECTRUMID=CCMSLIB00010116856
53.229439 2594.0 
56.63203 2540.0 
59.013309 37385.0 
67.094971 2988.0 
72.00869 1949382.0 
80.75367 2793.0 
92.050034 4199.0 
92.379791 3381.0 
93.034332 192075.0 
95.030128 16653.0 
104.289093 3357.0 
107.049896 37715.0 
109.036591 5834.0 
109.039124 9789.0 
109.045624 674408.0 
116.050308 779525.0 
118.05555 2957.0 
118.065338 2811.0 
118.966408 11889.0 
120.045998 2800.0 
130.066177 22805.0 
131.940979 3252.0 
134.061234 41008.0 
142.065811 157487.0 
144.045547 5187.0 
144.080826 3193.0 
146.960709 93538.0 
153.035355 17744.0 
157.076675 87132.0 
157.090576 4363.0 
158.941879 2763.0 
160.039719 29836.0 
161.380234 3449.0 
162.055649 57169.0 
169.076279 5963.0 
174.955765 123318.0 
180.046432 5670.0 
185.070862 4255.0 
186.056198 25699.0 
188.071304 7051.0 
224.08844 15405.0 
242.943314 18826.0 
259.019958 2990.0 
263.119049 6356.0 
263.458557 2891.0 
265.115845 3622.0 
288.775604 2895.0 
291.114746 4733.0 
311.120117 2379957.0 
319.187164 2842.0 
321.684021 2946.0 
462.278503 2907.0 
END IONS

BEGIN IONS
NAME="8-{[5-methyl-2-(3-methylphenyl)(1,3-oxazol-4-yl)]methylthio}-9-(4-methylphenyl )hydropurin-6-one CollisionEnergy:102040" M-H
PRECURSOR_MZ=442.134
INCHI="InChI=1S/C24H21N5O2S/c1-14-7-9-18(10-8-14)29-21-20(22(30)26-13-25-21)28-24(29)32-12-19-16(3)31-23(27-19)17-6-4-5-15(2)11-17/h4-11,13H,12H2,1-3H3,(H,25,26,30)"
SMILES=Cc1ccc(-n2c(SCc3nc(-c4cccc(C)c4)oc3C)nc3c(O)ncnc32)cc1
SPECTRUMID=CCMSLIB00010109477
57.975201 37641.0 
60.885281 2724.0 
72.934319 3333.0 
73.957123 2686.0 
155.061996 23879.0 
197.059418 31138.0 
198.067505 13444.0 
208.340256 2919.0 
214.705887 3291.0 
224.832947 2688.0 
225.078262 89240.0 
255.034561 81833.0 
256.042786 1279347.0 
257.050537 164828.0 
442.134613 467205.0 
END IONS

BEGIN IONS
NAME="2-[4-(N,N-diethylcarbamoyl)-2-oxohydroquinolyl]-N-(2,4,6-trimethylphenyl)aceta mide CollisionEnergy:205060" M-H
PRECURSOR_MZ=418.214
INCHI="InChI=1S/C25H29N3O3/c1-6-27(7-2)25(31)20-14-23(30)28(21-11-9-8-10-19(20)21)15-22(29)26-24-17(4)12-16(3)13-18(24)5/h8-14H,6-7,15H2,1-5H3,(H,26,29)"
SMILES=CCN(CC)C(=O)c1cc(=O)n(CC(O)=Nc2c(C)cc(C)cc2C)c2ccccc12
SPECTRUMID=CCMSLIB00010124412
73.9646 2813.0 
77.680473 2511.0 
105.389343 2071.0 
108.622269 3566.0 
128.050613 26392.0 
142.662964 2694.0 
144.0457 17817.0 
146.061829 3843.0 
156.046021 5951.0 
157.053665 19487.0 
158.02565 10667.0 
172.041 5136.0 
174.05722 2771.0 
176.035782 5656.0 
184.04097 46384.0 
215.119553 4764.0 
229.135147 5223.0 
243.114334 26753.0 
257.129974 51361.0 
259.10907 40697.0 
259.165985 2807.0 
261.547852 2515.0 
266.010071 2538.0 
283.109283 3374.0 
298.430786 2814.0 
326.088104 2507.0 
347.178009 21119.0 
390.21991 3874.0 
418.214539 134596.0 
END IONS

BEGIN IONS
NAME=4'-Methylflavone CollisionEnergy:102040 M+H
PRECURSOR_MZ=237.091
INCHI="InChI=1S/C16H12O2/c1-11-6-8-12(9-7-11)16-10-14(17)13-4-2-3-5-15(13)18-16/h2-10H,1H3"
SMILES=Cc1ccc(-c2cc(=O)c3ccccc3o2)cc1
SPECTRUMID=CCMSLIB00010103607
50.303902 3042.0 
52.41824 2838.0 
57.468102 3189.0 
73.740303 2839.0 
76.694283 3257.0 
95.049553 10445.0 
104.282967 3104.0 
115.054352 4949.0 
117.069588 22176.0 
121.028358 45891.0 
126.678307 3076.0 
143.049377 4299.0 
157.970444 4095.0 
165.070877 3895.0 
166.077286 12994.0 
178.077805 19679.0 
181.101807 11541.0 
213.92244 18429.0 
222.067764 5274.0 
236.082825 13206.0 
236.149048 19297.0 
237.090958 11374738.0 
238.03894 17140.0 
238.06427 3754.0 
249.765594 3651.0 
END IONS

BEGIN IONS
NAME="7,2',3'-Trimethoxyflavanone CollisionEnergy:102040" M+H
PRECURSOR_MZ=315.123
INCHI="InChI=1S/C18H18O5/c1-20-11-7-8-12-14(19)10-17(23-16(12)9-11)13-5-4-6-15(21-2)18(13)22-3/h4-9,17H,10H2,1-3H3"
SMILES=COc1ccc2c(c1)OC(c1cccc(OC)c1OC)CC2=O
SPECTRUMID=CCMSLIB00010105184
65.487869 3513.0 
70.874329 3805.0 
71.049538 7892.0 
82.390381 7966.0 
91.053963 5688.0 
92.366096 4505.0 
95.049187 63144.0 
103.054024 23068.0 
105.069603 31444.0 
107.049049 6652.0 
108.020508 8519.0 
119.04821 5023.0 
120.057732 5186.0 
121.064629 18104.0 
123.043877 8168.0 
131.049149 7628.0 
132.056412 4842.0 
133.065399 5098.0 
135.08049 61172.0 
136.015701 6013.0 
136.051926 18119.0 
136.194199 5212.0 
137.059692 239081.0 
139.073822 5801.0 
148.052063 32286.0 
149.059189 70207.0 
150.548309 4471.0 
150.560791 21046.0 
151.038971 15378148.0 
151.519424 24182.0 
153.054016 8715.0 
161.058945 14366.0 
163.076248 40573.0 
165.054642 22720.0 
167.069611 6764.0 
169.049438 61896.0 
176.046707 750373.0 
177.05455 301128.0 
177.068466 4644.0 
177.072678 5075.0 
179.070618 5433.0 
187.07309 5178.0 
190.390152 4877.0 
191.07019 6515516.0 
191.754486 5795.0 
213.091125 131233.0 
215.212036 4663.0 
230.092575 15563.0 
241.084579 62737.0 
245.117615 8783.0 
253.086548 5324.0 
273.111786 168970.0 
281.080811 23746.0 
282.088013 18307.0 
284.099182 8581.0 
285.074463 16990.0 
297.11203 8284.0 
300.097687 26991.0 
315.12207 1869592.0 
END IONS

BEGIN IONS
NAME=N-(5-chloro-2-methylphenyl)-2-[2-oxo-4-(N-propylcarbamoyl)hydroquinolyl]acetam ide CollisionEnergy:205060 M+H
PRECURSOR_MZ=412.142
INCHI="InChI=1S/C22H22ClN3O3/c1-3-10-24-22(29)17-12-21(28)26(19-7-5-4-6-16(17)19)13-20(27)25-18-11-15(23)9-8-14(18)2/h4-9,11-12H,3,10,13H2,1-2H3,(H,24,29)(H,25,27)"
SMILES=CCCN=C(O)c1cc(=O)n(CC(O)=Nc2cc(Cl)ccc2C)c2ccccc12
SPECTRUMID=CCMSLIB00010124930
70.065582 4582.0 
86.059898 11536.0 
92.366417 2678.0 
101.216751 3020.0 
118.640739 3120.0 
127.035133 42516.0 
128.049469 51401.0 
130.065063 217271.0 
133.05191 10964.0 
144.033539 7251.0 
144.044296 28740.0 
146.046646 4450.0 
146.060059 135171.0 
156.044174 10725.0 
157.075836 15615.0 
158.059891 168196.0 
162.043182 15154.0 
173.071594 20123.0 
181.315216 2894.0 
186.054794 23706.0 
187.049927 123260.0 
187.069 4449.0 
187.122543 3111.0 
188.053406 4068.0 
201.06604 21945.0 
215.117477 19866.0 
231.112473 290907.0 
234.041702 2641.0 
243.112488 305736.0 
248.07016 6105.0 
250.039093 3405.0 
271.107239 661129.0 
273.062469 5303.0 
273.091125 9997.0 
284.139282 16657.0 
289.085144 11810.0 
291.074493 4652.0 
309.085846 50665.0 
310.088623 2935.0 
311.081573 11696.0 
313.076935 10134.0 
315.799713 3127.0 
319.095642 13683.0 
337.107178 6243.0 
362.688263 2778.0 
470.093353 11367.0 
486.108887 11391.0 
488.1026 24842.0 
511.121094 4141.0 
548.536316 2705.0 
END IONS

BEGIN IONS
NAME="1-(5-deoxypentofuranosyl)-5-fluoropyrimidine-2,4(1h,3h)-dione CollisionEnergy:205060" M-H
PRECURSOR_MZ=245.058
INCHI="InChI=1S/C9H11FN2O5/c1-3-5(13)6(14)8(17-3)12-2-4(10)7(15)11-9(12)16/h2-3,5-6,8,13-14H,1H3,(H,11,15,16)"
SMILES=CC1OC(n2cc(F)c(O)nc2=O)C(O)C1O
SPECTRUMID=CCMSLIB00010124390
52.018921 3047.0 
53.002869 17592.0 
53.928139 2645.0 
62.00449 12009.0 
64.018921 42389.0 
65.998177 230353.0 
66.034523 2959.0 
66.234009 2716.0 
68.013977 16814.0 
68.166649 2497.0 
68.997849 2765.0 
70.029541 162279.0 
71.013481 4904.0 
72.008926 6187.0 
73.009102 22319.0 
80.014069 75726.0 
80.997993 40483.0 
82.029556 19450.0 
84.025368 505619.0 
89.547684 2683.0 
92.050438 17839.0 
93.034332 4396.0 
94.029922 17614.0 
95.025017 13819.0 
96.00898 11778.0 
99.012917 5135.0 
100.020638 17602.0 
101.004593 52250.0 
108.009247 670559.0 
110.024918 13882.0 
110.061401 4232.0 
111.511208 2751.0 
113.016167 5284.0 
113.024193 5214.0 
114.93428 3038.0 
118.690399 3272.0 
120.045319 16351.0 
122.699654 3000.0 
123.020012 3816.0 
124.004738 3435.0 
126.019836 112629.0 
128.004303 5218.0 
128.015518 257443.0 
129.010818 1143524.0 
131.636765 3143.0 
136.040115 3905.0 
138.020111 4678.0 
138.056488 5472.0 
143.025681 3164.0 
151.015076 13710.0 
158.0233 4035.0 
164.035736 5966.0 
171.021439 451639.0 
178.202698 2560.0 
182.046631 15228.0 
202.052368 140493.0 
211.451538 4259.0 
227.048203 13065.0 
245.058197 2275562.0 
269.362091 2924.0 
END IONS

BEGIN IONS
NAME="6-amino-4-(4-hydroxy-3-methoxyphenyl)-3-(methylethyl)-4H-pyrano[2,3-c]pyrazole -5-carbonitrile CollisionEnergy:205060" M-H
PRECURSOR_MZ=325.131
INCHI="InChI=1S/C17H18N4O3/c1-8(2)15-14-13(9-4-5-11(22)12(6-9)23-3)10(7-18)16(19)24-17(14)21-20-15/h4-6,8,13,22H,19H2,1-3H3,(H,20,21)"
SMILES=COc1cc(C2C(C#N)=C(N)Oc3n[nH]c(C(C)C)c32)ccc1O
SPECTRUMID=CCMSLIB00010120062
60.067139 2578.0 
65.014259 55136.0 
86.339188 2414.0 
89.014397 10016.0 
92.379646 2243.0 
95.013618 3071.0 
109.029617 20194.0 
111.008888 3657.0 
116.007309 2347.0 
118.654137 2550.0 
124.016609 4751.0 
132.020767 3145.0 
144.139038 2525.0 
146.048615 13782.0 
159.031754 3461.0 
173.059784 44422.0 
174.068222 18982.0 
185.033142 17321.0 
198.418045 2097.0 
199.062714 11282.0 
200.071045 5003.0 
201.078506 107747.0 
202.687988 2288.0 
223.037521 3519.0 
224.047455 2837.0 
229.061539 4883.0 
236.591965 2649.0 
243.078842 3456.0 
244.085632 20344.0 
245.093323 64553.0 
259.110657 4084.0 
266.094269 9887.0 
267.05484 3214.0 
281.098785 2414.0 
283.09433 3224.0 
309.099823 53261.0 
310.107056 50544.0 
319.319366 2680.0 
325.130981 380944.0 
END IONS

BEGIN IONS
NAME="N-[4-(acetylamino)-2-({3,4-dihydroxy-6-(hydroxymethyl)-5-[3,4,5-trihydroxy-6-( hydroxymethyl)(2H-3,4,5,6-tetrahydropyran-2-yloxy)](2H-3,4,5,6-tetrahydropyran -2-yl)}amino)phenyl]acetamide CollisionEnergy:205060" M+formate
PRECURSOR_MZ=576.205
INCHI="InChI=1S/C22H33N3O12/c1-8(28)23-10-3-4-11(24-9(2)29)12(5-10)25-21-18(33)17(32)20(14(7-27)35-21)37-22-19(34)16(31)15(30)13(6-26)36-22/h3-5,13-22,25-27,30-34H,6-7H2,1-2H3,(H,23,28)(H,24,29)"
SMILES=CC(O)=Nc1ccc(N=C(C)O)c(NC2OC(CO)C(OC3OC(CO)C(O)C(O)C3O)C(O)C2O)c1
SPECTRUMID=CCMSLIB00010125811
52.64872 2293.0 
53.213058 2583.0 
59.01347 21593.0 
71.013763 15858.0 
82.405823 2934.0 
87.18071 2768.0 
89.024551 15325.0 
92.388443 4548.0 
101.024551 3445.0 
104.294029 3288.0 
108.848793 2738.0 
110.379822 2809.0 
113.024399 4084.0 
118.667633 3857.0 
119.035202 3513.0 
120.813408 2432.0 
146.072403 5821.0 
161.046387 5204.0 
164.083496 4992.0 
174.067398 102229.0 
179.056351 58577.0 
186.067856 11182.0 
188.083023 46379.0 
200.081863 2903.0 
202.099518 24641.0 
207.603409 7893.0 
207.625458 5098.0 
212.085281 3196.0 
230.093887 16885.0 
248.103745 48908.0 
272.105347 5642.0 
290.115143 67977.0 
314.11499 4599.0 
327.135864 3251.0 
332.124268 20102.0 
350.137299 12004.0 
434.746033 3006.0 
438.298798 3116.0 
END IONS

BEGIN IONS
NAME=corynanthine CollisionEnergy:102040 M+H
PRECURSOR_MZ=355.202
INCHI="InChI=1S/C21H26N2O3/c1-26-21(25)19-15-10-17-20-14(13-4-2-3-5-16(13)22-20)8-9-23(17)11-12(15)6-7-18(19)24/h2-5,12,15,17-19,22,24H,6-11H2,1H3/t12-,15-,17-,18-,19-/m0/s1"
SMILES=COC(=O)C1C(O)CCC2CN3CCc4c([nH]c5ccccc45)C3CC21
SPECTRUMID=CCMSLIB00010104424
51.16016 4185.0 
56.049911 8472.0 
62.81139 4091.0 
69.522522 4659.0 
80.049751 10526.0 
91.053902 6388.0 
93.069908 5398.0 
94.064957 6881.0 
104.272926 4891.0 
105.069832 27090.0 
107.085388 8334.0 
117.069702 177577.0 
119.08577 5189.0 
129.069168 5512.0 
130.064941 78352.0 
132.080505 33850.0 
134.09639 61144.0 
135.080505 23622.0 
136.112122 24025.0 
143.073181 16208.0 
143.633621 5644.0 
144.080627 6525048.0 
144.528671 7580.0 
145.064774 29581.0 
146.096313 21043.0 
149.096893 4880.0 
152.107178 9364.0 
156.080139 7031.0 
158.096207 49389.0 
162.091019 222284.0 
163.074615 34819.0 
167.602463 4961.0 
168.080811 8251.0 
170.096054 8857.0 
177.090942 61982.0 
178.085739 8562.0 
180.083771 8620.0 
180.101532 224045.0 
180.119553 7639.0 
182.097107 4812.0 
192.101578 79730.0 
194.117584 66853.0 
198.111816 28557.0 
206.117615 24336.0 
208.112137 9560.0 
210.112579 17146.0 
212.127823 3642943.0 
217.41925 4852.0 
218.094696 4698.0 
220.112503 17202.0 
221.118713 5098.0 
224.127655 643738.0 
226.143295 29797.0 
234.127411 17201.0 
246.127686 18903.0 
248.141754 39098.0 
260.142731 73636.0 
264.1362 4996.0 
266.15448 5018.0 
276.136261 10805.0 
278.154449 6925.0 
279.189545 17406.0 
280.134033 30969.0 
288.138519 23133.0 
292.132324 7660.0 
294.147888 69700.0 
295.182404 6569.0 
296.188477 7113.0 
305.167145 7048.0 
306.148773 71436.0 
308.164154 59371.0 
312.1586 28889.0 
320.163391 58371.0 
323.174011 18527.0 
324.157928 50901.0 
326.173431 98525.0 
331.914948 5874.0 
333.531464 4726.0 
337.189758 25391.0 
338.174469 206865.0 
353.480286 32083.0 
354.193878 10946.0 
355.200806 25077874.0 
356.933197 34797.0 
END IONS

BEGIN IONS
NAME=6-ethyl-4-methylhydroquinolin-2-one CollisionEnergy:205060 M+H
PRECURSOR_MZ=188.107
INCHI="InChI=1S/C12H13NO/c1-3-9-4-5-11-10(7-9)8(2)6-12(14)13-11/h4-7H,3H2,1-2H3,(H,13,14)"
SMILES=CCc1ccc2nc(O)cc(C)c2c1
SPECTRUMID=CCMSLIB00010114901
55.93491 3230.0 
60.53204 2331.0 
66.735031 3030.0 
84.96006 11284.0 
88.021744 11662.0 
88.149269 2368.0 
89.025414 5245.0 
92.367722 3151.0 
97.007874 5230.0 
105.94265 3174.0 
115.054298 30108.0 
122.961533 4311.0 
128.06218 2816.0 
140.050354 4356.0 
142.065323 679440.0 
143.085754 20814.0 
153.069641 3261.0 
154.221954 2455.0 
155.073395 4910.0 
159.068207 3005.0 
160.075851 22940.0 
164.983429 10453.0 
168.080765 3042.0 
170.096588 230786.0 
173.083694 103278.0 
173.100616 3671.0 
185.385284 2870.0 
188.107147 2706594.0 
END IONS

BEGIN IONS
NAME=2-(4-hydroxyquinazolin-2-ylthio)-N-(4-methylphenyl)acetamide CollisionEnergy:102040 M+Na
PRECURSOR_MZ=348.078
INCHI="InChI=1S/C17H15N3O2S/c1-11-6-8-12(9-7-11)18-15(21)10-23-17-19-14-5-3-2-4-13(14)16(22)20-17/h2-9H,10H2,1H3,(H,18,21)(H,19,20,22)"
SMILES=Cc1ccc(NC(=O)CSc2nc(O)c3ccccc3n2)cc1
SPECTRUMID=CCMSLIB00010108226
73.939499 3099.0 
82.382446 2535.0 
84.596024 2971.0 
92.357361 3015.0 
103.940826 2142.0 
124.241623 2597.0 
142.494278 2654.0 
144.202774 2288.0 
157.937454 3532.0 
202.028946 4648.0 
213.008575 4167.0 
215.024277 5983.0 
241.003906 71976.0 
274.093475 3150.0 
297.063354 3731.0 
307.04837 5321.0 
331.492645 2522.0 
347.5672 3053.0 
348.077148 2018364.0 
END IONS

BEGIN IONS
NAME=4-hydroxy-3-benzylchromen-2-one CollisionEnergy:102040 M+H
PRECURSOR_MZ=253.086
INCHI="InChI=1S/C16H12O3/c17-15-12-8-4-5-9-14(12)19-16(18)13(15)10-11-6-2-1-3-7-11/h1-9,17H,10H2"
SMILES=O=c1oc2ccccc2c(O)c1Cc1ccccc1
SPECTRUMID=CCMSLIB00010104331
51.488998 2950.0 
51.821529 2624.0 
57.425411 2406.0 
71.32605 2711.0 
79.054558 11065.0 
84.804787 2659.0 
91.054337 6553.0 
95.049278 34124.0 
96.04232 2450.0 
96.083679 2515.0 
97.45649 2601.0 
98.984154 5127.0 
107.04911 153448.0 
118.663254 3936.0 
121.028473 27751.0 
136.226837 2552.0 
147.043335 3379.0 
175.03894 3816977.0 
175.640961 3412.0 
180.006348 2889.0 
193.04982 5665.0 
209.542252 3373.0 
216.065353 6631.0 
235.094299 3597.0 
253.085663 1903328.0 
END IONS

BEGIN IONS
NAME="(2S,1R,4R,5R)-4-methoxy-7,7-dimethyl-3,6,8-trioxabicyclo[3.3.0]octane-2-carbox ylic acid CollisionEnergy:205060" M+formate
PRECURSOR_MZ=263.077
INCHI="InChI=1S/C9H14O6/c1-9(2)14-4-5(7(10)11)13-8(12-3)6(4)15-9/h4-6,8H,1-3H3,(H,10,11)/t4-,5+,6-,8-/m1/s1"
SMILES=COC1OC(C(=O)O)C2OC(C)(C)OC12
SPECTRUMID=CCMSLIB00010124698
52.085548 2166.0 
55.563499 2270.0 
60.548801 2471.0 
61.41037 2026.0 
90.553703 1800.0 
92.397781 2441.0 
92.928993 2151.0 
100.925957 2370.0 
118.67247 2258.0 
123.847549 2081.0 
130.747055 2460.0 
136.237381 2415.0 
157.998322 2369.0 
158.694992 2040.0 
163.664093 2047.0 
201.177063 2096.0 
217.072433 3200.0 
END IONS

BEGIN IONS
NAME="8-{[(1E)-2-(3-nitrophenyl)-1-azavinyl]amino}-7-[(2-chlorophenyl)methyl]-3-meth yl-1,3,7-trihydropurine-2,6-dione CollisionEnergy:205060" M-H
PRECURSOR_MZ=452.088
INCHI="InChI=1S/C20H16ClN7O4/c1-26-17-16(18(29)24-20(26)30)27(11-13-6-2-3-8-15(13)21)19(23-17)25-22-10-12-5-4-7-14(9-12)28(31)32/h2-10H,11H2,1H3,(H,23,25)(H,24,29,30)/b22-10+"
SMILES=Cn1c(=O)nc(O)c2c1nc(NN=Cc1cccc([N+](=O)[O-])c1)n2Cc1ccccc1Cl
SPECTRUMID=CCMSLIB00010125123
66.009308 57893.0 
79.017357 11869.0 
90.594383 2814.0 
90.601273 2474.0 
92.3862 2879.0 
93.020592 131284.0 
94.004593 28233.0 
107.036377 43064.0 
118.030243 20422.0 
121.015663 290458.0 
122.023499 140893.0 
136.038879 30486.0 
136.752808 2647.0 
142.041443 16344.0 
148.002945 15454.0 
151.025757 3625.0 
161.035934 11479.0 
162.03067 12640.0 
162.043777 4521.0 
164.021408 44555.0 
178.036514 6480.0 
179.044891 168734.0 
187.026352 11487.0 
189.040466 2948.0 
192.052414 2881.0 
205.048004 97060.0 
209.350739 2924.0 
246.044296 5950.0 
255.05162 31895.0 
256.047974 6266.0 
267.076508 12838.0 
268.034851 34199.0 
268.085114 11742.0 
274.025391 3428.0 
279.064575 3363.0 
282.063812 10174.0 
283.059113 41052.0 
284.069031 3938.0 
298.057831 56451.0 
299.062317 2867.0 
300.061279 4185.0 
303.23172 3615.0 
304.060303 3704.0 
311.04126 13432.0 
313.068237 4021.0 
326.064331 219303.0 
327.072296 211097.0 
373.105682 2932.0 
452.088135 381582.0 
END IONS

BEGIN IONS
NAME=Glycyrrhetinic acid CollisionEnergy:102040 2M-2H+Na
PRECURSOR_MZ=961.654
INCHI="InChI=1S/C30H46O4/c1-25(2)21-8-11-30(7)23(28(21,5)10-9-22(25)32)20(31)16-18-19-17-27(4,24(33)34)13-12-26(19,3)14-15-29(18,30)6/h16,19,21-23,32H,8-15,17H2,1-7H3,(H,33,34)/t19-,21-,22-,23+,26+,27-,28-,29+,30+/m0/s1"
SMILES=C[C@]12CC[C@](C[C@H]1C3=CC(=O)[C@@H]4[C@]5(CC[C@@H](C([C@@H]5CC[C@]4([C@@]3(CC2)C)C)(C)C)O)C)(C)C(=O)O
SPECTRUMID=CCMSLIB00010102402
104.351418 11132.046875 
108.262878 6918.702148 
207.823944 7416.463379 
355.263489 13986.170898 
425.342926 236343.09375 
469.332153 2713292.25 
470.336884 82482.710938 
796.190796 9382.185547 
961.654602 4460323.5 
962.654358 202143.34375 
END IONS

BEGIN IONS
NAME=2-[(4-fluorophenyl)carbonylamino]acetic acid CollisionEnergy:205060 M-H
PRECURSOR_MZ=196.042
INCHI="InChI=1S/C9H8FNO3/c10-7-3-1-6(2-4-7)9(14)11-5-8(12)13/h1-4H,5H2,(H,11,14)(H,12,13)"
SMILES=O=C(O)CNC(=O)c1ccc(F)cc1
SPECTRUMID=CCMSLIB00010122382
55.978851 1854.0 
73.725342 1837.0 
95.030327 131698.0 
118.387367 2266.0 
139.020157 15990.0 
143.193146 2051.0 
152.051819 58762.0 
152.06514 4080.0 
158.003052 2456.0 
160.845154 2405.0 
196.041733 64435.0 
END IONS

BEGIN IONS
NAME=4'-Methoxy-8-methylflavone CollisionEnergy:205060 M+H
PRECURSOR_MZ=267.102
INCHI="InChI=1S/C17H14O3/c1-11-4-3-5-14-15(18)10-16(20-17(11)14)12-6-8-13(19-2)9-7-12/h3-10H,1-2H3"
SMILES=COc1ccc(-c2cc(=O)c3cccc(C)c3o2)cc1
SPECTRUMID=CCMSLIB00010115323
52.25906 4200.0 
61.042801 11083.0 
61.977242 4894.0 
64.854919 6389.0 
65.039513 29060.0 
67.018257 40169.0 
68.881752 4002.0 
68.99749 37402.0 
79.054512 205405.0 
83.013283 5210.0 
84.960457 24402.0 
85.333771 4131.0 
87.260567 5070.0 
89.03965 19663.0 
90.047043 4027.0 
90.782928 4019.0 
91.054352 322162.0 
95.049873 7743.0 
99.97718 4661.0 
103.054314 35936.0 
105.070084 39745.0 
107.049103 290130.0 
109.064873 114197.0 
109.07296 6168.0 
115.054764 30014.0 
118.041893 25425.0 
121.064507 5438.0 
125.059189 6388.0 
128.061996 43554.0 
131.05011 8749.0 
132.05719 5055.0 
133.064789 817946.0 
135.044006 632613.0 
136.190521 5096.0 
141.070557 33545.0 
144.020218 10822.0 
145.064606 7273.0 
152.062195 7960.0 
153.054947 77463.0 
153.070023 23137.0 
154.078598 9388.0 
155.085617 54993.0 
156.093979 36410.0 
159.044052 618109.0 
161.058914 4150.0 
165.069962 86878.0 
166.07843 9853.0 
167.085739 20198.0 
168.057419 21519.0 
168.093536 20447.0 
178.077103 65648.0 
179.085632 129848.0 
180.093216 58147.0 
181.06456 82134.0 
182.072617 25303.0 
183.080566 29512.0 
189.071365 5382.0 
190.077789 26015.0 
191.086472 26785.0 
192.092941 28086.0 
193.065948 45528.0 
195.080414 61909.0 
196.05249 23582.0 
196.088257 142674.0 
197.095642 7560.0 
203.000885 43492.0 
206.072144 32713.0 
207.079987 55466.0 
208.05368 6638.0 
208.088303 135147.0 
209.060379 47920.0 
211.076462 36223.0 
211.111633 107894.0 
221.011688 104672.0 
221.097946 5643.0 
223.075363 50410.0 
223.214798 10641.0 
224.083069 11610924.0 
224.954941 18126.0 
225.091721 9270.0 
227.069077 5689.0 
234.068268 6152.0 
237.054367 5652.0 
239.021561 8883.0 
239.069748 45715.0 
239.106155 82275.0 
251.041092 8941.0 
251.070282 21905.0 
252.043365 525214.0 
252.077682 7054504.0 
265.084442 16673.0 
265.970184 37226.0 
266.092834 24850.0 
267.101013 25227274.0 
268.23526 30608.0 
END IONS

BEGIN IONS
NAME=Betulin CollisionEnergy:102040 M+H-H2O
PRECURSOR_MZ=425.378
INCHI="InChI=1S/C30H50O2/c1-19(2)20-10-15-30(18-31)17-16-28(6)21(25(20)30)8-9-23-27(5)13-12-24(32)26(3,4)22(27)11-14-29(23,28)7/h20-25,31-32H,1,8-18H2,2-7H3/t20-,21+,22-,23+,24-,25+,27-,28+,29+,30+/m0/s1"
SMILES=C=C(C)C1CCC2(CO)CCC3(C)C(CCC4C5(C)CCC(O)C(C)(C)C5CCC43C)C12
SPECTRUMID=CCMSLIB00010113159
55.05468 14047.0 
55.863831 2926.0 
57.070259 37787.0 
67.054604 41783.0 
69.066261 4513.0 
69.070198 81872.0 
71.085747 12127.0 
73.95549 3858.0 
79.054428 22610.0 
81.070068 279561.0 
83.08567 71177.0 
85.183083 3158.0 
91.053993 12563.0 
93.069923 64873.0 
95.085533 456055.0 
97.101112 42024.0 
105.069794 46532.0 
107.085342 110755.0 
109.101089 214366.0 
111.079987 4842.0 
111.116623 16632.0 
117.069389 6627.0 
119.085442 72190.0 
121.10096 118273.0 
123.116653 175552.0 
125.132172 20255.0 
131.085266 30746.0 
133.100967 86776.0 
135.116562 143954.0 
137.13237 392534.0 
143.085632 17330.0 
145.101135 74117.0 
147.116623 85182.0 
149.132416 124514.0 
151.147827 50288.0 
157.100952 15034.0 
159.116577 59403.0 
161.132156 90051.0 
163.147888 66903.0 
165.127243 5009.0 
165.162094 4048.0 
171.116486 31261.0 
173.131973 57714.0 
173.523773 3470.0 
175.147797 61971.0 
175.163071 4616.0 
177.127014 4883.0 
177.163223 69920.0 
179.14299 17588.0 
179.179535 50640.0 
185.132339 46863.0 
187.147842 67219.0 
189.163254 101765.0 
191.143082 5835.0 
191.17897 116490.0 
193.15799 6995.0 
193.194717 18082.0 
199.147293 28594.0 
201.163589 94951.0 
203.143097 4270.0 
203.179169 103591.0 
205.159698 25614.0 
205.194748 65501.0 
207.173996 30305.0 
213.162628 53694.0 
215.179077 88436.0 
217.194702 122127.0 
219.17395 68705.0 
219.210892 20204.0 
221.190659 7237.0 
227.179184 71707.0 
229.194839 65694.0 
231.173737 20905.0 
231.210266 21855.0 
233.188843 45653.0 
233.227554 3451.0 
241.194382 18049.0 
243.209946 16776.0 
245.189651 46410.0 
245.226074 18676.0 
247.205734 31185.0 
247.231232 3852.0 
255.210617 51211.0 
257.22525 59053.0 
259.207336 3618.0 
259.242218 6462.0 
261.219177 3190.0 
269.225494 58550.0 
271.241943 15184.0 
273.220673 32582.0 
273.251556 3868.0 
275.236664 43200.0 
283.241425 55444.0 
287.237061 26173.0 
287.268402 3510.0 
289.252258 4943.0 
297.256195 12569.0 
299.275421 3572.0 
301.249908 26842.0 
311.273285 3650.0 
337.285736 6062.0 
341.282959 4418.0 
351.303619 16960.0 
365.19165 20577.0 
365.320068 4289.0 
367.331604 6676.0 
369.317902 3902.0 
395.368103 22203.0 
397.382782 21991.0 
407.366241 342702.0 
425.213776 310152.0 
425.376709 1603733.0 
END IONS

BEGIN IONS
NAME="N-(2,3-dimethylphenyl)-2-[9-(4-methylphenyl)-6-oxohydropurin-8-ylthio]acetamid e CollisionEnergy:102040" 2M-H
PRECURSOR_MZ=837.276
INCHI="InChI=1S/C22H21N5O2S/c1-13-7-9-16(10-8-13)27-20-19(21(29)24-12-23-20)26-22(27)30-11-18(28)25-17-6-4-5-14(2)15(17)3/h4-10,12H,11H2,1-3H3,(H,25,28)(H,23,24,29)"
SMILES=Cc1ccc(-n2c(SCC(O)=Nc3cccc(C)c3C)nc3c(O)ncnc32)cc1
SPECTRUMID=CCMSLIB00010109702
59.091518 3512.0 
60.545971 3670.0 
66.751534 4317.0 
70.65403 4077.0 
75.016052 3739.0 
152.110214 3800.0 
155.061356 22876.0 
158.061905 6776.0 
225.078217 103036.0 
256.04126 34458.0 
257.050293 17959.0 
269.049957 4886.0 
270.778076 3594.0 
290.102051 3262.0 
306.658051 3403.0 
381.084686 3612.0 
418.134399 304556.0 
440.115997 15853.0 
650.735229 3969.0 
END IONS

BEGIN IONS
NAME=3-acetyl-5-hydroxy-1-(2-hydroxyethyl)-2-methylindole CollisionEnergy:205060 M+formate
PRECURSOR_MZ=278.103
INCHI="InChI=1S/C13H15NO3/c1-8-13(9(2)16)11-7-10(17)3-4-12(11)14(8)5-6-15/h3-4,7,15,17H,5-6H2,1-2H3"
SMILES=CC(=O)c1c(C)n(CCO)c2ccc(O)cc12
SPECTRUMID=CCMSLIB00010119024
62.56213 1901.0 
66.143799 2023.0 
69.705948 2015.0 
73.970047 2449.0 
104.308372 2708.0 
117.076889 2076.0 
118.635918 2175.0 
136.24176 2589.0 
138.205307 2006.0 
177.772247 2202.0 
185.448471 2147.0 
187.064087 11824.0 
208.866028 7644.0 
232.098389 3502.0 
END IONS

BEGIN IONS
NAME=3-(3-chlorophenyl)-7-methoxychromen-2-one CollisionEnergy:205060 M+Na
PRECURSOR_MZ=309.029
INCHI="InChI=1S/C16H11ClO3/c1-19-13-6-5-11-8-14(16(18)20-15(11)9-13)10-3-2-4-12(17)7-10/h2-9H,1H3"
SMILES=COc1ccc2cc(-c3cccc(Cl)c3)c(=O)oc2c1
SPECTRUMID=CCMSLIB00010121376
66.723824 2196.0 
76.379982 2064.0 
89.502693 2114.0 
104.281059 3363.0 
116.682251 1924.0 
308.990234 3728.0 
309.029022 11312.0 
309.132355 4704.0 
324.900452 2366.0 
331.113403 2258.0 
END IONS

BEGIN IONS
NAME=(2-chloro-5-nitrophenyl)-N-[2-(2-methylindol-3-yl)ethyl]carboxamide CollisionEnergy:102040 M-H
PRECURSOR_MZ=356.081
INCHI="InChI=1S/C18H16ClN3O3/c1-11-13(14-4-2-3-5-17(14)21-11)8-9-20-18(23)15-10-12(22(24)25)6-7-16(15)19/h2-7,10,21H,8-9H2,1H3,(H,20,23)"
SMILES=Cc1[nH]c2ccccc2c1CCN=C(O)c1cc([N+](=O)[O-])ccc1Cl
SPECTRUMID=CCMSLIB00010110768
54.476299 2218.0 
62.879879 3310.0 
63.033901 2243.0 
68.550949 2586.0 
82.403084 3456.0 
84.99041 13279.0 
100.647926 2175.0 
104.438148 2616.0 
152.977737 3941.0 
155.360016 2447.0 
155.985519 218691.0 
173.914444 2533.0 
198.991211 10109.0 
199.087402 295745.0 
199.975266 19871.0 
208.902969 5373.0 
233.721527 2473.0 
237.393936 2353.0 
265.518982 2617.0 
271.36731 2478.0 
292.252808 2262.0 
297.254089 2860.0 
307.017792 2621.0 
320.104584 31322.0 
355.983215 13979.0 
356.080902 209392.0 
END IONS

BEGIN IONS
NAME="(3,4-dimethoxyphenyl)-N-(3,5-dimethylphenyl)carboxamide CollisionEnergy:102040" M+H
PRECURSOR_MZ=286.144
INCHI="InChI=1S/C17H19NO3/c1-11-7-12(2)9-14(8-11)18-17(19)13-5-6-15(20-3)16(10-13)21-4/h5-10H,1-4H3,(H,18,19)"
SMILES=COc1ccc(C(O)=Nc2cc(C)cc(C)c2)cc1OC
SPECTRUMID=CCMSLIB00010105291
55.40723 2911.0 
62.24279 2925.0 
65.765137 3065.0 
79.054451 15678.0 
92.371857 4097.0 
96.819267 2814.0 
103.966667 3180.0 
105.069962 3854.0 
107.049133 27338.0 
109.028069 5349.0 
109.89727 2816.0 
111.008232 3157.0 
115.405258 3440.0 
120.081047 37078.0 
122.036011 3814.0 
123.080338 23420.0 
124.051857 315502.0 
126.030968 4584.0 
139.075302 522642.0 
139.377457 2645.0 
148.075623 174002.0 
150.40979 2869.0 
155.069839 11681.0 
155.373581 2963.0 
165.054565 2473433.0 
166.058136 3703.0 
177.048889 3112.0 
185.151062 3426.0 
262.928284 6336.0 
271.119507 4525.0 
280.936127 5068.0 
286.143402 3775576.0 
END IONS

BEGIN IONS
NAME=fMet CollisionEnergy:102040 M-H
PRECURSOR_MZ=176.039
INCHI="InChI=1S/C6H11NO3S/c1-11-3-2-5(6(9)10)7-4-8/h4-5H,2-3H2,1H3,(H,7,8)(H,9,10)/t5-/m1/s1"
SMILES=CSCCC(N=CO)C(=O)O
SPECTRUMID=CCMSLIB00010111971
57.03429 95468.0 
60.533371 60579.0 
60.974781 68504.0 
70.029442 384280.0 
73.095833 67786.0 
82.029739 93321.0 
84.04538 3510434.0 
84.663521 59862.0 
92.373703 88790.0 
95.722656 60751.0 
98.024773 10616451.0 
128.035324 11281737.0 
128.746552 61112.0 
132.048996 450567.0 
162.278595 61777.0 
171.050461 57496.0 
176.038574 7268993.0 
END IONS

BEGIN IONS
NAME="N-(2,5-dimethylphenyl)-2-[6-hydroxy-2-(3,4,5-trimethoxyphenyl)-3-azabicyclo[4. 4.0]dec-3-yl]acetamide CollisionEnergy:205060" M+Na
PRECURSOR_MZ=505.267
INCHI="InChI=1S/C28H38N2O5/c1-18-9-10-19(2)22(14-18)29-25(31)17-30-13-12-28(32)11-7-6-8-21(28)26(30)20-15-23(33-3)27(35-5)24(16-20)34-4/h9-10,14-16,21,26,32H,6-8,11-13,17H2,1-5H3,(H,29,31)"
SMILES=COc1cc(C2C3CCCCC3(O)CCN2CC(O)=Nc2cc(C)ccc2C)cc(OC)c1OC
SPECTRUMID=CCMSLIB00010118634
53.201408 2519.0 
60.167252 2832.0 
68.525818 2763.0 
73.968559 3061.0 
123.237602 2862.0 
137.224091 2881.0 
189.051804 5794.0 
213.099548 3668.0 
270.752991 2863.0 
292.079803 2715.0 
323.013428 3084.0 
487.257538 6611.0 
505.266602 3189002.0 
END IONS

BEGIN IONS
NAME="cyclopentyl 4-(3-bromo-4-hydroxy-5-methoxyphenyl)-2,7,7-trimethyl-5-oxo-1,4,6, 7,8-pentahydroquinoline-3-carboxylate CollisionEnergy:102040" M-H
PRECURSOR_MZ=502.123
INCHI="InChI=1S/C25H30BrNO5/c1-13-20(24(30)32-15-7-5-6-8-15)21(14-9-16(26)23(29)19(10-14)31-4)22-17(27-13)11-25(2,3)12-18(22)28/h9-10,15,21,27,29H,5-8,11-12H2,1-4H3"
SMILES=COc1cc(C2C(C(=O)OC3CCCC3)=C(C)NC3=C2C(=O)CC(C)(C)C3)cc(Br)c1O
SPECTRUMID=CCMSLIB00010109115
52.463112 3250.0 
53.251251 3014.0 
56.187191 3244.0 
63.156422 2798.0 
70.137711 2901.0 
75.917267 3415.0 
78.918571 1044900.0 
88.40715 2873.0 
104.309731 4000.0 
112.987457 3314.0 
170.097382 3783.0 
172.076324 4248.0 
185.932129 1237792.0 
188.107864 88837.0 
190.087555 5418.0 
200.955597 353035.0 
206.118301 4454.0 
214.088135 4198.0 
216.066498 17535.0 
218.877808 3735.0 
231.090073 22013.0 
232.097168 32140.0 
263.080109 4813.0 
297.901245 5245.0 
300.160339 355455.0 
321.099976 7052.0 
365.887695 6516.0 
386.005035 20632.0 
416.051208 31152.0 
433.884186 3797.0 
487.09375 3670.0 
502.123749 4205523.0 
512.968384 3515.0 
524.811279 3792.0 
END IONS

BEGIN IONS
NAME="2-(4-methylphenyl)-2-oxoethyl 3-[(3,4-dimethoxyphenyl)carbonylamino]benzoate CollisionEnergy:102040" M-H
PRECURSOR_MZ=432.145
INCHI="InChI=1S/C25H23NO6/c1-16-7-9-17(10-8-16)21(27)15-32-25(29)19-5-4-6-20(13-19)26-24(28)18-11-12-22(30-2)23(14-18)31-3/h4-14H,15H2,1-3H3,(H,26,28)"
SMILES=COc1ccc(C(O)=Nc2cccc(C(=O)OCC(=O)c3ccc(C)cc3)c2)cc1OC
SPECTRUMID=CCMSLIB00010110184
52.341702 2743.0 
73.953339 3182.0 
84.842758 2842.0 
93.034889 3636.0 
104.286369 3489.0 
105.022034 15209.0 
107.013611 14277.0 
119.05011 5303.0 
122.024727 24001.0 
129.396774 2674.0 
135.044357 2860.0 
136.209732 3818.0 
152.596832 2662.0 
154.789322 2866.0 
162.019852 3545.0 
167.423859 2591.0 
185.39653 3528.0 
196.077179 34068.0 
200.730316 2623.0 
211.062561 3341.0 
212.070938 3607.0 
225.044388 5166.0 
226.05159 25854.0 
226.087326 27718.0 
227.058884 3699.0 
240.067032 72988.0 
241.074738 76729.0 
254.080093 4413.0 
256.065552 8561.0 
256.097717 122149.0 
268.060822 3398.0 
269.068878 5683.0 
284.058411 7449.0 
284.093292 27526.0 
285.063812 24527.0 
287.079346 34217.0 
297.597748 3094.0 
300.087646 130167.0 
358.109772 4091.0 
374.102936 14742.0 
386.104156 11836.0 
388.118225 11282.0 
389.129791 22473.0 
401.090027 19073.0 
402.091156 74586.0 
404.150391 327998.0 
416.11496 52793.0 
417.122437 18557.0 
421.118164 5562.0 
432.145416 1641575.0 
END IONS

BEGIN IONS
NAME=rottlerin CollisionEnergy:205060 M-H
PRECURSOR_MZ=515.171
INCHI="InChI=1S/C30H28O8/c1-15-24(33)19(27(36)22(16(2)31)25(15)34)14-20-26(35)18-12-13-30(3,4)38-29(18)23(28(20)37)21(32)11-10-17-8-6-5-7-9-17/h5-13,33-37H,14H2,1-4H3/b11-10+"
SMILES=CC(=O)c1c(O)c(C)c(O)c(Cc2c(O)c3c(c(C(=O)C=Cc4ccccc4)c2O)OC(C)(C)C=C3)c1O
SPECTRUMID=CCMSLIB00010123884
76.829147 2581.0 
79.869682 2274.0 
83.013542 5886.0 
92.375366 3566.0 
95.050247 4959.0 
104.282707 3139.0 
107.050087 3923.0 
111.049026 2692.0 
123.044823 4274.0 
129.071518 3208.0 
131.049698 3056.0 
136.20282 3143.0 
137.060577 76049.0 
139.039841 15625.0 
149.06073 12957.0 
151.039627 30170.0 
165.054291 3970.0 
171.044968 42839.0 
173.060242 10599.0 
177.019485 5879.0 
181.05043 219725.0 
185.263153 2663.0 
193.050308 163605.0 
210.457596 5418.0 
217.050049 18385.0 
229.050049 21241.0 
277.122467 10887.0 
321.11322 177592.0 
333.11322 82912.0 
333.157623 2857.0 
515.171143 117558.0 
END IONS

BEGIN IONS
NAME="N-(2,4-difluorophenyl)-2-[2-oxo-4-(N-propylcarbamoyl)hydroquinolyl]acetamide CollisionEnergy:102040" M+Na
PRECURSOR_MZ=422.129
INCHI="InChI=1S/C21H19F2N3O3/c1-2-9-24-21(29)15-11-20(28)26(18-6-4-3-5-14(15)18)12-19(27)25-17-8-7-13(22)10-16(17)23/h3-8,10-11H,2,9,12H2,1H3,(H,24,29)(H,25,27)"
SMILES=CCCN=C(O)c1cc(=O)n(CC(O)=Nc2ccc(F)cc2F)c2ccccc12
SPECTRUMID=CCMSLIB00010111664
65.772507 3317.0 
89.071533 2718.0 
136.203979 3982.0 
157.958282 3686.0 
158.06044 3445.0 
162.172806 3639.0 
193.422577 2966.0 
210.593201 4708.0 
243.113419 4724.0 
271.108704 5928.0 
279.876465 2940.0 
382.137695 4438.0 
404.120087 22042.0 
422.127777 5639106.0 
440.132874 4956.0 
444.111694 6237.0 
END IONS

BEGIN IONS
NAME=N-{2-[2-methyl-5-(trifluoromethoxy)indol-3-yl]ethyl}(2-oxochromen-3-yl)carboxa mide CollisionEnergy:102040 M+H
PRECURSOR_MZ=431.121
INCHI="InChI=1S/C22H17F3N2O4/c1-12-15(16-11-14(31-22(23,24)25)6-7-18(16)27-12)8-9-26-20(28)17-10-13-4-2-3-5-19(13)30-21(17)29/h2-7,10-11,27H,8-9H2,1H3,(H,26,28)"
SMILES=Cc1[nH]c2ccc(OC(F)(F)F)cc2c1CCN=C(O)c1cc2ccccc2oc1=O
SPECTRUMID=CCMSLIB00010108309
61.533669 3784.0 
75.252998 3507.0 
90.976471 12553.0 
104.326736 3465.0 
109.50499 3301.0 
114.48365 3422.0 
129.069672 22825.0 
132.08136 5271.0 
156.081039 42925.0 
157.088791 21738.0 
158.964035 4302.0 
161.06427 6663.0 
173.026474 5346.0 
174.090881 38758.0 
176.086807 32708.0 
190.049728 51141.0 
191.033859 124803.0 
214.046875 14479.0 
216.064987 81409.0 
226.950974 14508.0 
227.055161 122065.0 
237.581619 3943.0 
240.065018 6118.0 
241.070038 15055.0 
241.107712 4831.0 
242.078506 9223596.0 
243.055664 7065.0 
345.123474 86741.0 
413.104004 6848.0 
431.12085 3075983.0 
END IONS

BEGIN IONS
NAME=indole-3-acetyl-aspartic acid CollisionEnergy:205060 M+K
PRECURSOR_MZ=329.053
INCHI="InChI=1S/C14H14N2O5/c17-12(16-11(14(20)21)6-13(18)19)5-8-7-15-10-4-2-1-3-9(8)10/h1-4,7,11,15H,5-6H2,(H,16,17)(H,18,19)(H,20,21)/t11-/m0/s1"
SMILES=C1=CC=C2C(=C1)C(=CN2)CC(=O)N[C@@H](CC(=O)O)C(=O)O
SPECTRUMID=CCMSLIB00010102139
56.965061 17758.255859 
59.173122 2928.92627 
66.143044 3230.343262 
72.959763 4599.637207 
96.048065 2917.987061 
98.98407 25655.367188 
100.716316 2942.273682 
109.991379 28776.082031 
128.001801 41411.867188 
130.065308 7540.252441 
141.77272 3443.563965 
146.012222 10106.785156 
192.074722 4033.469238 
204.031937 3461.254395 
214.046692 6652.474609 
220.027405 4953.438965 
230.048721 3345.196289 
231.041733 4774.568359 
250.039444 4607.992188 
257.059784 5395.52832 
259.037109 6729.033691 
267.042358 11660.470703 
285.053131 47828.835938 
329.070251 28726.609375 
347.050537 14275.787109 
END IONS

BEGIN IONS
NAME="methyl 1,2,5,8,15,19,19-heptamethyl-13,18-dioxopentacyclo[12.8.0.0<2,11>.0<5,1 0>.0<15,20>]docos-11-ene-8-carboxylate CollisionEnergy:205060" M+H
PRECURSOR_MZ=483.347
INCHI="InChI=1S/C31H46O4/c1-26(2)22-9-12-31(7)24(29(22,5)11-10-23(26)33)21(32)17-19-20-18-28(4,25(34)35-8)14-13-27(20,3)15-16-30(19,31)6/h17,20,22,24H,9-16,18H2,1-8H3"
SMILES=COC(=O)C1(C)CCC2(C)CCC3(C)C(=CC(=O)C4C5(C)CCC(=O)C(C)(C)C5CCC43C)C2C1
SPECTRUMID=CCMSLIB00010116777
55.018421 104558.0 
55.054729 542620.0 
57.033859 56491.0 
57.070358 285902.0 
59.049702 223139.0 
65.039177 142982.0 
67.054649 1461417.0 
69.033913 784913.0 
69.070267 1074819.0 
71.04969 192923.0 
71.085991 24743.0 
77.039032 25350.0 
79.054543 1425798.0 
81.033829 62463.0 
81.070183 4032009.0 
83.049393 2110398.0 
83.085869 592567.0 
85.065048 218168.0 
91.054337 1118136.0 
91.624153 25670.0 
93.070007 3667868.0 
95.049294 745928.0 
95.085648 7495274.0 
97.064934 614750.0 
97.101181 321496.0 
99.080429 177884.0 
101.754112 26104.0 
103.054443 90014.0 
105.069901 3211229.0 
107.049263 255069.0 
107.085518 5824457.0 
109.06485 887571.0 
109.101196 2863434.0 
111.080437 602118.0 
115.625397 26592.0 
117.069687 257143.0 
118.641617 27915.0 
119.085548 6137190.0 
121.064827 835268.0 
121.101181 8025153.0 
123.080383 1350619.0 
123.116707 1264691.0 
125.096336 404767.0 
127.110878 23280.0 
128.062653 27429.0 
129.069672 135784.0 
130.07782 59926.0 
131.085495 1254459.0 
133.064545 120472.0 
133.101166 4388936.0 
135.080414 1469143.0 
135.11673 3251162.0 
137.095993 742069.0 
137.132523 158751.0 
139.111572 318016.0 
142.077652 54644.0 
143.085327 508716.0 
144.093262 53514.0 
145.065353 52296.0 
145.101135 2359516.0 
146.108688 55108.0 
147.080612 398588.0 
147.116745 2777375.0 
149.096069 6959467.0 
149.132309 932417.0 
151.11145 517379.0 
151.148087 102738.0 
153.126648 31687.0 
155.08577 130554.0 
155.107269 39406.0 
156.093491 118411.0 
157.101044 1185630.0 
158.109497 151660.0 
159.080719 218287.0 
159.116684 1783993.0 
160.124664 97915.0 
161.096252 797505.0 
161.132339 1639674.0 
163.111633 1331946.0 
163.147736 773208.0 
165.091049 37180.0 
165.127563 368504.0 
167.0849 37699.0 
169.101288 426739.0 
170.108948 61269.0 
171.116745 1203336.0 
172.088318 27351.0 
172.124832 107104.0 
173.096649 415151.0 
173.13237 2710470.0 
174.141205 36980.0 
175.111816 600153.0 
175.14801 2837365.0 
177.127396 818062.0 
177.16362 589244.0 
179.143448 43483.0 
181.101578 54377.0 
181.122528 55217.0 
182.109085 59138.0 
183.117035 399291.0 
184.124847 178467.0 
185.096115 104248.0 
185.132309 601720.0 
187.112366 240721.0 
187.147919 1563047.0 
189.129028 492722.0 
189.163605 4582699.0 
191.142517 382509.0 
193.158722 148617.0 
195.116714 123904.0 
196.124557 59452.0 
197.132446 789377.0 
198.140976 42344.0 
199.11412 48192.0 
199.148087 1232349.0 
200.119537 40382.0 
201.12854 280568.0 
201.163254 408803.0 
203.142899 339525.0 
203.179276 58681.0 
205.158554 828513.0 
206.111282 24550.0 
207.174042 369708.0 
209.132507 141886.0 
210.140778 37994.0 
211.148071 543898.0 
212.15593 52901.0 
213.128723 77504.0 
213.163589 560984.0 
215.14299 1383269.0 
215.177643 204213.0 
217.158539 1173939.0 
217.194427 48474.0 
219.136917 95802.0 
223.148346 143356.0 
225.163925 253253.0 
227.14299 121221.0 
227.178909 558504.0 
229.158524 335663.0 
229.194977 245088.0 
231.174713 116686.0 
233.153656 842474.0 
235.169861 98278.0 
238.172272 48049.0 
239.142059 43688.0 
239.177948 255689.0 
241.157944 41043.0 
241.194824 137047.0 
243.174576 115770.0 
243.210709 187345.0 
245.155563 41795.0 
245.190262 221036.0 
249.184799 305470.0 
251.177933 58641.0 
253.19455 600247.0 
254.202988 27276.0 
255.175079 109121.0 
255.208694 42853.0 
257.189178 218497.0 
259.168976 56619.0 
259.205627 102340.0 
265.195953 53693.0 
266.722839 27179.0 
267.211365 173764.0 
271.205383 668963.0 
273.185577 58230.0 
275.165588 103037.0 
275.20047 91616.0 
277.179993 144985.0 
279.212036 32661.0 
281.188629 31750.0 
283.205872 39861.0 
285.219788 26607.0 
287.202423 43932.0 
289.178711 43361.0 
293.229004 46817.0 
294.398926 25958.0 
297.221375 38329.0 
299.201233 55933.0 
301.181946 39600.0 
301.215515 205855.0 
313.216339 123578.0 
319.242126 36666.0 
330.37619 26480.0 
331.225891 388984.0 
345.248749 33701.0 
371.25708 118151.0 
387.304718 38641.0 
405.313995 340547.0 
423.324799 1066029.0 
425.304169 42144.0 
465.335693 834482.0 
468.323578 36841.0 
483.346466 53640380.0 
END IONS

BEGIN IONS
NAME="7,3',4'-Trihydroxyflavone CollisionEnergy:102040" 2M-H
PRECURSOR_MZ=539.098
INCHI="InChI=1S/C15H10O5/c16-9-2-3-10-12(18)7-14(20-15(10)6-9)8-1-4-11(17)13(19)5-8/h1-7,16-17,19H"
SMILES=O=c1cc(-c2ccc(O)c(O)c2)oc2cc(O)ccc12
SPECTRUMID=CCMSLIB00010108891
50.28067 2593.0 
68.824463 2813.0 
70.352562 2774.0 
74.45369 2529.0 
75.09668 2892.0 
82.421021 2889.0 
101.44191 3020.0 
133.029434 22535.0 
135.009003 6594.0 
136.251556 4846.0 
158.022064 4406.0 
225.054459 2991.0 
269.045868 815557.0 
322.230988 3133.0 
329.052887 2758.0 
383.24469 3070.0 
433.672943 2977.0 
END IONS

BEGIN IONS
NAME=MLS002702107 CollisionEnergy:205060 M+H
PRECURSOR_MZ=544.181
INCHI="InChI=1S/C27H29NO11/c1-10-22(31)13(28)6-17(38-10)39-15-8-27(36,16(30)9-29)7-12-19(15)26(35)21-20(24(12)33)23(32)11-4-3-5-14(37-2)18(11)25(21)34/h3-5,10,13,15,17,22,29,31,33,35-36H,6-9,28H2,1-2H3/t10?,13?,15-,17?,22?,27-/m0/s1"
SMILES=COc1cccc2c1C(=O)c1c(O)c3c(c(O)c1C2=O)CC(O)(C(=O)CO)CC3OC1CC(N)C(O)C(C)O1
SPECTRUMID=CCMSLIB00010125175
56.21352 2777.0 
58.06562 52389.0 
60.044861 41458.0 
63.089569 2745.0 
67.054626 13556.0 
68.049919 11699.0 
69.033852 73406.0 
70.399963 2943.0 
71.049637 19117.0 
72.044739 122099.0 
73.947212 2784.0 
84.081123 13020.0 
86.060219 262370.0 
87.167107 2770.0 
88.184433 2887.0 
91.054642 3003.0 
95.049202 22085.0 
105.03392 4279.0 
111.71434 3704.0 
112.075706 25983.0 
113.059662 48213.0 
121.064484 30095.0 
130.086212 208738.0 
131.049255 7345.0 
135.0439 40679.0 
145.028412 19053.0 
148.096725 35727.0 
171.672226 2781.0 
217.050095 6101.0 
222.881973 3111.0 
247.07547 18676.0 
259.073883 6676.0 
261.055328 3960.0 
262.063324 3648.0 
275.070343 17447.0 
277.086365 4007.0 
278.057434 6370.0 
287.069946 33567.0 
289.047729 3027.0 
290.057465 25702.0 
293.080872 17912.0 
300.043427 2916.0 
302.055908 4913.0 
303.065552 12733.0 
305.080658 13482.0 
306.051727 168757.0 
306.091949 5815.0 
307.059113 6258.0 
308.065674 3243.0 
315.065765 14275.0 
318.052704 10735.0 
319.057953 4038.0 
321.075165 259026.0 
323.095886 4251.0 
329.043549 12208.0 
333.074921 30334.0 
336.062012 6959.0 
337.070831 4308.0 
346.0466 359475.0 
361.070129 186407.0 
379.080383 259040.0 
397.090973 134193.0 
544.180176 4696.0 
END IONS

BEGIN IONS
NAME="3-[(3,4-diethoxyphenyl)carbonylamino]-3-(4-chlorophenyl)propanoic acid CollisionEnergy:102040" M+H
PRECURSOR_MZ=392.126
INCHI="InChI=1S/C20H22ClNO5/c1-3-26-17-10-7-14(11-18(17)27-4-2)20(25)22-16(12-19(23)24)13-5-8-15(21)9-6-13/h5-11,16H,3-4,12H2,1-2H3,(H,22,25)(H,23,24)"
SMILES=CCOc1ccc(C(O)=NC(CC(=O)O)c2ccc(Cl)cc2)cc1OCC
SPECTRUMID=CCMSLIB00010109283
51.157291 2833.0 
81.369843 3731.0 
97.118332 3238.0 
101.367447 3297.0 
111.044006 34853.0 
121.064819 6184.0 
137.023376 272184.0 
139.075348 48873.0 
141.010284 56301.0 
149.023224 5317.0 
165.054611 1097940.0 
167.106659 38806.0 
182.035629 3379.0 
193.085876 5349908.0 
193.780914 4813.0 
210.112289 381421.0 
332.104645 11668.0 
374.113373 37340.0 
392.125397 314131.0 
END IONS

BEGIN IONS
NAME="2-phenylethyl 4-(3-ethoxy-4-hydroxyphenyl)-7-(4-methoxyphenyl)-2-methyl-5-oxo- 1,4,6,7,8-pentahydroquinoline-3-carboxylate CollisionEnergy:102040" M+H
PRECURSOR_MZ=554.254
INCHI="InChI=1S/C34H35NO6/c1-4-40-30-20-24(12-15-28(30)36)32-31(34(38)41-17-16-22-8-6-5-7-9-22)21(2)35-27-18-25(19-29(37)33(27)32)23-10-13-26(39-3)14-11-23/h5-15,20,25,32,35-36H,4,16-19H2,1-3H3"
SMILES=CCOc1cc(C2C(C(=O)OCCc3ccccc3)=C(C)NC3=C2C(=O)CC(c2ccc(OC)cc2)C3)ccc1O
SPECTRUMID=CCMSLIB00010109096
55.337059 3113.0 
76.736603 3038.0 
98.223557 3817.0 
104.296654 5841.0 
105.070023 42990.0 
109.064941 4914.0 
150.055466 27633.0 
160.03833 7236.0 
176.070618 19527.0 
178.04985 895196.0 
204.065414 88432.0 
219.813721 3625.0 
222.074585 6091.0 
242.631805 3552.0 
264.88739 4079.0 
266.99054 3656.0 
282.111908 89286.0 
286.710022 3710.0 
294.111389 14547.0 
312.122681 1671980.0 
373.203461 3585.0 
416.185333 5296018.0 
432.181152 6502.0 
448.108917 4804.0 
554.25354 30123.0 
END IONS

BEGIN IONS
NAME="8-{[2-(2-methoxyphenyl)-5-methyl(1,3-oxazol-4-yl)]methylthio}-2,9-dimethylhydr opurin-6-one CollisionEnergy:205060" M+NH4
PRECURSOR_MZ=415.155
INCHI="InChI=1S/C19H19N5O3S/c1-10-13(22-18(27-10)12-7-5-6-8-14(12)26-4)9-28-19-23-15-16(24(19)3)20-11(2)21-17(15)25/h5-8H,9H2,1-4H3,(H,20,21,25)"
SMILES=COc1ccccc1-c1nc(CSc2nc3c(O)nc(C)nc3n2C)c(C)o1
SPECTRUMID=CCMSLIB00010117233
56.049992 138261.0 
57.01395 4643.0 
57.05772 17964.0 
58.065632 38227.0 
68.049843 20216.0 
69.045036 5726.0 
70.065498 29778.0 
71.060699 18372.0 
71.073311 5253.0 
82.05278 5077.0 
82.065102 7996.0 
83.029358 40318.0 
83.060631 1450546.0 
84.037109 10720.0 
84.068466 138689.0 
85.076279 165434.0 
90.564217 4065.0 
91.054207 7232.0 
92.024979 4094.0 
97.044807 9562.0 
97.07608 335509.0 
99.091537 9500.0 
103.054482 7002.0 
107.02903 238623.0 
108.036911 66425.0 
116.990372 59662.0 
117.069527 41070.0 
118.485199 4807.0 
118.622704 4915.0 
118.639412 5315.0 
121.064537 5569.0 
122.998718 6545.0 
125.015221 8072.0 
129.069366 7063.0 
131.08577 32734.0 
133.064651 6482.0 
135.044098 27693.0 
136.046661 6602.0 
136.056137 8582.0 
136.088638 4978.0 
136.807587 4474.0 
140.026779 7972.0 
141.070557 6729.0 
142.563477 24832.0 
143.005829 17819492.0 
143.450775 26458.0 
144.05661 8386.0 
145.064407 18832.0 
145.100983 30085.0 
147.080429 4999.0 
148.055984 8712.0 
156.013443 7859.0 
159.080261 175797.0 
160.088409 4747.0 
161.060425 7010.0 
162.070129 9796.0 
164.087448 5521.0 
166.041 5929.0 
168.057022 9695.0 
169.088135 5768.0 
171.042328 6218.0 
171.080368 7353.0 
172.033051 9952.0 
173.058456 8529.0 
173.096588 96710.0 
174.091125 18343.0 
175.075119 25403.0 
177.115082 57878.0 
180.057922 6093.0 
184.031799 57990.0 
186.048004 259548.0 
186.066101 10477.0 
186.09198 5256.0 
187.076035 64745.0 
188.065292 6797.0 
188.083435 38683.0 
188.104919 31890.0 
189.092255 6430.0 
193.113083 61687.0 
200.070877 10208.0 
200.107635 9462.0 
201.090469 7977.0 
201.113159 6073.0 
202.087326 10227.0 
202.122467 170091.0 
207.067169 16949.0 
208.076508 9611.0 
210.090027 5804.0 
214.084595 7974.0 
216.101074 26864.0 
217.10994 34495.0 
219.082657 8003.0 
226.086487 9870.0 
227.074203 22285.0 
228.1017 48027.0 
229.110092 8870.0 
229.134338 5898.0 
230.117233 663245.0 
240.101334 17334.0 
242.116714 20822.0 
243.148895 6270.0 
254.114624 4468.0 
271.143494 260130.0 
272.15155 181142.0 
297.884918 4818.0 
301.078369 9619.0 
370.426117 4726.0 
395.152679 51407.0 
412.96933 5530.0 
415.157593 7584084.0 
417.366241 7435.0 
END IONS

BEGIN IONS
NAME=ethyl 4-[2-(9-methyl-6-oxohydropurin-8-ylthio)acetylamino]benzoate CollisionEnergy:205060 M+Na
PRECURSOR_MZ=410.089
INCHI="InChI=1S/C17H17N5O4S/c1-3-26-16(25)10-4-6-11(7-5-10)20-12(23)8-27-17-21-13-14(22(17)2)18-9-19-15(13)24/h4-7,9H,3,8H2,1-2H3,(H,20,23)(H,18,19,24)"
SMILES=CCOC(=O)c1ccc(NC(=O)CSc2nc3c(O)ncnc3n2C)cc1
SPECTRUMID=CCMSLIB00010123819
54.68903 2806.0 
62.74028 2425.0 
132.95787 3214.0 
135.292526 2630.0 
204.006866 29383.0 
245.009308 11124.0 
258.418427 2666.0 
337.062958 5130.0 
382.058441 32449.0 
410.088501 2280685.0 
411.985626 2688.0 
426.215546 2892.0 
END IONS

BEGIN IONS
NAME="9,10-dihydrojasmonic acid CollisionEnergy:102040" M+Na
PRECURSOR_MZ=235.13
INCHI="InChI=1S/C12H20O3/c1-2-3-4-5-10-9(8-12(14)15)6-7-11(10)13/h9-10H,2-8H2,1H3,(H,14,15)/t9-,10-/m1/s1"
SMILES=CCCCC[C@@H]1[C@H](CCC1=O)CC(=O)O
SPECTRUMID=CCMSLIB00010102357
54.602947 2734.705322 
57.070118 8514.637695 
66.831085 3246.684326 
89.163445 2994.234131 
91.887665 3050.272705 
94.240463 2782.102295 
97.845444 2995.877441 
104.338249 3168.346436 
104.347771 3234.390137 
136.283813 3175.51709 
179.106201 7417.09668 
235.129898 195693.125 
235.1689 67207.59375 
END IONS

BEGIN IONS
NAME=N-(2-ethylphenyl)-2-[9-(4-methylphenyl)-6-oxohydropurin-8-ylthio]acetamide CollisionEnergy:205060 M+H
PRECURSOR_MZ=420.149
INCHI="InChI=1S/C22H21N5O2S/c1-3-15-6-4-5-7-17(15)25-18(28)12-30-22-26-19-20(23-13-24-21(19)29)27(22)16-10-8-14(2)9-11-16/h4-11,13H,3,12H2,1-2H3,(H,25,28)(H,23,24,29)"
SMILES=CCc1ccccc1N=C(O)CSc1nc2c(O)ncnc2n1-c1ccc(C)cc1
SPECTRUMID=CCMSLIB00010123843
73.949966 3543.0 
80.330597 2951.0 
82.39254 4619.0 
130.065018 34602.0 
144.081009 6921.0 
145.076126 5365.0 
148.075455 3528.0 
157.076126 12747.0 
158.060196 12619.0 
159.0681 4120.0 
160.076309 3139.0 
162.036942 116349.0 
164.053055 14691.0 
169.076065 3626.0 
172.086899 37539.0 
175.032776 17548.0 
184.086624 12413.0 
185.094666 5553.0 
189.047867 107940.0 
189.065613 5068.0 
190.031937 137751.0 
193.042923 54720.0 
198.066101 5481.0 
202.043198 24450.0 
209.08194 3070.0 
211.073547 5840.0 
212.081772 374493.0 
213.089401 46006.0 
216.059174 73711.0 
217.042679 12534.0 
230.011719 7674.0 
230.038116 237272.0 
237.077209 12943.0 
238.084503 39462.0 
239.093033 4068.0 
244.053741 1334614.0 
253.054596 13562.0 
257.048889 98440.0 
262.064545 44785.0 
271.064545 804341.0 
285.08075 3462.0 
299.059479 1629130.0 
313.074677 51787.0 
388.443665 2918.0 
420.149475 30778.0 
END IONS

BEGIN IONS
NAME=protirelin CollisionEnergy:102040 M-H
PRECURSOR_MZ=361.163
INCHI="InChI=1S/C16H22N6O4/c17-14(24)12-2-1-5-22(12)16(26)11(6-9-7-18-8-19-9)21-15(25)10-3-4-13(23)20-10/h7-8,10-12H,1-6H2,(H2,17,24)(H,18,19)(H,20,23)(H,21,25)/t10-,11-,12-/m0/s1"
SMILES=N=C(O)[C@@H]1CCCN1C(=O)[C@H](Cc1cnc[nH]1)N=C(O)[C@@H]1CCC(O)=N1
SPECTRUMID=CCMSLIB00010126126
50.602699 24857.199219 
58.0294 416944.0 
66.763603 44701.199219 
67.0298 716343.0 
82.029602 170478.0 
82.423401 37863.800781 
84.008797 32032.400391 
84.166801 31437.199219 
89.201797 31945.400391 
92.408096 32453.0 
93.045799 114564.0 
96.0093 40261.101562 
97.305603 32095.900391 
104.316002 31357.599609 
107.049004 48593.601562 
108.056999 1332920.0 
109.041 44208.898438 
113.071999 396887.0 
118.412003 27393.199219 
118.692001 28282.800781 
119.932999 30644.300781 
123.056999 54926.199219 
124.040001 360005.0 
127.051003 622088.0 
132.057007 1828870.0 
135.056 298604.0 
139.050003 52589.898438 
144.056 42448.601562 
152.082993 31327.800781 
153.067001 140852.0 
160.087997 121578.0 
167.046005 2980640.0 
167.966995 27605.699219 
178.059998 29084.400391 
179.046005 362677.0 
186.069 32023.5 
189.113998 194202.0 
190.098999 62092.101562 
192.076996 32836.898438 
195.404999 32407.5 
201.076996 38218.101562 
203.093994 8416120.0 
204.078003 203635.0 
209.315002 98442.203125 
215.093994 36217.0 
219.089005 309835.0 
233.104004 565039.0 
247.084 5715370.0 
263.11499 1325660.0 
264.101013 53935.699219 
265.092987 57783.199219 
281.127014 45699.300781 
318.158997 35188.199219 
343.106995 40043.398438 
343.152008 901025.0 
361.162994 5405580.0 
END IONS

BEGIN IONS
NAME=L-methionine CollisionEnergy:102040 M+H
PRECURSOR_MZ=150.058
INCHI="InChI=1S/C5H11NO2S/c1-9-3-2-4(6)5(7)8/h4H,2-3,6H2,1H3,(H,7,8)/t4-/m0/s1"
SMILES=CSCC[C@H](N)C(=O)O
SPECTRUMID=CCMSLIB00010102924
55.2229 1825.459961 
56.050301 118148.0 
56.334499 1925.819946 
61.011398 40629.199219 
61.391701 2088.030029 
64.039001 2105.350098 
73.963402 2388.5 
74.024399 4818.109863 
74.060699 8396.290039 
84.044998 2170.590088 
85.0289 4172.839844 
87.026901 12576.299805 
92.385597 2167.949951 
102.056 37143.800781 
104.053001 139446.0 
104.255997 1870.089966 
133.020996 3828.090088 
133.031998 91818.5 
135.104004 10673.200195 
150.026993 10732.200195 
150.057999 17766.5 
150.076004 8227.410156 
150.113998 3440.659912 
150.128006 32543.400391 
END IONS

BEGIN IONS
NAME=syrosingopine CollisionEnergy:205060 M-H
PRECURSOR_MZ=665.272
INCHI="InChI=1S/C35H42N2O11/c1-7-46-35(40)48-31-26(42-3)12-18(13-27(31)43-4)33(38)47-28-14-19-17-37-11-10-22-21-9-8-20(41-2)15-24(21)36-30(22)25(37)16-23(19)29(32(28)44-5)34(39)45-6/h8-9,12-13,15,19,23,25,28-29,32,36H,7,10-11,14,16-17H2,1-6H3/t19-,23+,25-,28-,29+,32+/m1/s1"
SMILES=CCOC(=O)Oc1c(OC)cc(C(=O)OC2CC3CN4CCc5c([nH]c6cc(OC)ccc56)C4CC3C(C(=O)OC)C2OC)cc1OC
SPECTRUMID=CCMSLIB00010122250
51.859589 2942.0 
60.754379 2801.0 
63.189289 3714.0 
65.002708 24022.0 
67.018463 6577.0 
68.997643 7021.0 
70.915268 2986.0 
73.965523 3502.0 
77.002861 3827.0 
79.018677 4501.0 
81.034187 7243.0 
83.013542 3843.0 
89.024239 290624.0 
92.389198 3407.0 
92.397057 3209.0 
93.034523 7808.0 
95.013702 23775.0 
95.049217 3847.0 
104.303093 4440.0 
104.998192 6086.0 
111.008362 4698.0 
120.99308 6518.0 
121.029694 36775.0 
123.008774 87829.0 
123.044601 3261.0 
123.810493 3289.0 
124.015297 5705.0 
124.988022 4244.0 
125.024231 3496.0 
127.003548 4878.0 
136.987839 16027.0 
137.02417 27713.0 
138.031296 5212.0 
139.003677 32132.0 
139.039612 11801.0 
141.018707 4540.0 
151.039978 4172.0 
153.019333 27412.0 
153.055679 140084.0 
155.035446 5160.0 
166.998398 15446.0 
167.034332 5723.0 
168.006241 6539.0 
169.013794 6248.0 
170.284744 3390.0 
183.029236 5990.0 
184.063782 4598.0 
195.029846 81816.0 
197.043808 3478.0 
197.072464 3638.0 
198.079178 15112.0 
200.096298 3851.0 
209.008881 14530.0 
211.025299 27055.0 
235.087509 3312.0 
236.094299 4256.0 
239.0186 3556.0 
240.028091 3543.0 
249.103271 12768.0 
255.052979 11664.0 
266.278961 3502.0 
269.066986 47215.0 
279.737793 3197.0 
303.445496 4901.0 
316.120758 4128.0 
348.150208 4354.0 
363.171143 4391.0 
380.173706 21196.0 
395.198425 5231.0 
511.189941 3905.0 
555.179199 6034.0 
575.243164 20773.0 
592.241882 7259.0 
593.251648 88401.0 
606.259583 3893.0 
621.280701 38427.0 
633.242554 4275.0 
650.249512 56267.0 
665.272583 998470.0 
END IONS

BEGIN IONS
NAME="[(2,4,5-trimethoxyphenyl)methylene]methane-1,1-dicarbonitrile CollisionEnergy:205060" M-e
PRECURSOR_MZ=244.084
INCHI="InChI=1S/C13H12N2O3/c1-16-11-6-13(18-3)12(17-2)5-10(11)4-9(7-14)8-15/h4-6H,1-3H3"
SMILES=COc1cc(OC)c(OC)cc1C=C(C#N)C#N
SPECTRUMID=CCMSLIB00010125801
50.243359 2338.0 
56.965279 19867.0 
57.070461 5955.0 
62.060551 4934.0 
68.99762 2773.0 
71.122322 2287.0 
74.303612 2435.0 
82.397751 2330.0 
89.038986 3023.0 
91.054581 4821.0 
92.376747 3613.0 
104.049088 3203.0 
104.284363 2961.0 
113.256203 2537.0 
114.033997 3702.0 
116.049606 23965.0 
117.021072 3022.0 
118.065323 5814.0 
123.044228 4614.0 
127.0168 3777.0 
128.03714 9934.0 
128.049332 12921.0 
130.052719 20278.0 
131.036423 3533.0 
131.060394 2925.0 
132.0448 11180.0 
133.039642 3423.0 
136.021698 9938.0 
136.184525 2490.0 
137.960922 2468.0 
140.018234 3730.0 
141.044632 32405.0 
142.052704 17456.0 
143.060059 19948.0 
144.043655 6012.0 
145.010513 6382.0 
145.075958 3399.0 
146.060059 35523.0 
147.043182 3279.0 
152.522308 28481.0 
154.015457 48955.0 
155.060959 2773.0 
157.970047 2924.0 
158.047455 327895.0 
159.031479 10092.0 
159.055298 19452.0 
160.039841 29266.0 
161.527176 125835.0 
162.042404 2701.0 
163.02034 19683.0 
164.029556 12019.0 
165.524002 10817.0 
169.039154 50353.0 
170.532578 51950.0 
171.055191 104276.0 
171.541412 20798.0 
172.039536 5175.0 
173.034348 29433.0 
173.070877 193937.0 
174.055161 15893.0 
178.043747 41644.0 
179.538528 2834.0 
180.546844 60962.0 
182.040558 5992.0 
183.050888 11360.0 
184.024902 2590.0 
184.543472 2873.0 
186.042282 88821.0 
187.050095 19000.0 
189.552139 84862.0 
192.054718 25413.0 
198.042084 57005.0 
198.558014 15475.0 
199.048813 3194.0 
201.065765 666993.0 
202.051636 3947.0 
203.563446 3571.0 
212.567856 4467.0 
214.036575 24293.0 
229.060654 544967.0 
230.068176 12671.0 
244.084137 810882.0 
244.263535 46211.0 
275.768188 2545.0 
308.459015 2793.0 
END IONS

BEGIN IONS
NAME=methyl 2-{2-[9-(4-methylphenyl)-6-oxohydropurin-8-ylthio]acetylamino}benzoate CollisionEnergy:205060 M-H
PRECURSOR_MZ=448.108
INCHI="InChI=1S/C22H19N5O4S/c1-13-7-9-14(10-8-13)27-19-18(20(29)24-12-23-19)26-22(27)32-11-17(28)25-16-6-4-3-5-15(16)21(30)31-2/h3-10,12H,11H2,1-2H3,(H,25,28)(H,23,24,29)"
SMILES=COC(=O)c1ccccc1N=C(O)CSc1nc2c(O)ncnc2n1-c1ccc(C)cc1
SPECTRUMID=CCMSLIB00010124571
51.843109 2838.0 
57.975151 137524.0 
60.787651 3499.0 
65.014076 164111.0 
65.9981 89448.0 
66.008926 3076.0 
66.537933 2990.0 
66.738586 3268.0 
68.013634 12980.0 
70.218819 2880.0 
90.985779 355454.0 
92.025383 83997.0 
92.05043 1152947.0 
93.009033 3786.0 
96.986214 4124.0 
104.275223 2973.0 
116.779846 3375.0 
123.027802 4585.0 
123.997253 3107.0 
131.037064 6045.0 
131.06105 4683.0 
135.030518 4555.0 
135.624817 3256.0 
136.040359 1715072.0 
146.024078 4286.0 
147.030685 7570.0 
149.007065 4333.0 
155.061539 889125.0 
156.056793 23052.0 
164.017776 19262.0 
182.073059 36317.0 
186.067078 5870.0 
187.033417 27101.0 
188.034058 4989.0 
189.042938 5234.0 
194.027725 6172.0 
196.052307 7168.0 
197.059769 76593.0 
198.067612 24429.0 
208.007416 13039.0 
210.051102 2933.0 
213.052856 3337.0 
213.078079 5770.0 
222.0233 35005.0 
223.062775 50952.0 
225.078339 402484.0 
228.023407 27986.0 
236.07196 21691.0 
237.07811 6556.0 
239.09404 13480.0 
240.064804 5804.0 
240.089111 16458.0 
241.073151 4007.0 
255.034805 285020.0 
255.083374 8511.0 
256.042603 523321.0 
257.050476 124409.0 
264.062317 4020.0 
266.067322 4190.0 
269.051697 25366.0 
271.06601 383244.0 
297.044464 36523.0 
305.027252 3128.0 
309.441132 3495.0 
311.060883 6099.0 
314.105438 18484.0 
315.112762 5264.0 
342.098877 27203.0 
374.124908 29021.0 
416.082367 6678.0 
448.108704 191231.0 
END IONS

BEGIN IONS
NAME=succinic acid CollisionEnergy:102040 M-H
PRECURSOR_MZ=117.019
INCHI="InChI=1S/C4H6O4/c5-3(6)1-2-4(7)8/h1-2H2,(H,5,6)(H,7,8)"
SMILES=O=C(O)CCC(=O)O
SPECTRUMID=CCMSLIB00010114261
56.877769 10226.0 
60.54755 10636.0 
70.004494 11851.0 
73.029167 3676882.0 
82.412262 14214.0 
99.008591 330506.0 
99.925652 264767.0 
104.304451 16143.0 
116.928337 1390016.0 
117.01915 690244.0 
125.493668 12167.0 
127.226707 10782.0 
134.955963 10853.0 
136.233612 12876.0 
152.787842 11200.0 
158.000595 13448.0 
188.876785 14810.0 
229.07843 11190.0 
254.111908 12038.0 
END IONS

BEGIN IONS
NAME="(2E)-1-[1-(4-methoxyphenyl)(1,2,3,4-tetrahydrobeta-carbolin-2-yl)]-3-phenylpro p-2-en-1-one CollisionEnergy:205060" M-H
PRECURSOR_MZ=407.176
INCHI="InChI=1S/C27H24N2O2/c1-31-21-14-12-20(13-15-21)27-26-23(22-9-5-6-10-24(22)28-26)17-18-29(27)25(30)16-11-19-7-3-2-4-8-19/h2-16,27-28H,17-18H2,1H3/b16-11+"
SMILES=COc1ccc(C2c3[nH]c4ccccc4c3CCN2C(=O)C=Cc2ccccc2)cc1
SPECTRUMID=CCMSLIB00010122861
67.86573 2948.0 
68.486961 3338.0 
73.983047 3838.0 
75.43161 3107.0 
93.034508 14354.0 
95.897087 3594.0 
104.327171 3678.0 
104.715927 3781.0 
118.029297 6301.0 
140.049728 4835.0 
146.060928 18994.0 
167.061722 47682.0 
168.045547 6452.0 
181.65976 2945.0 
183.056595 24479.0 
198.755005 3092.0 
204.080673 28738.0 
208.303268 17266.0 
218.061432 24092.0 
231.068954 87734.0 
232.076828 4342731.0 
233.084595 1935926.0 
234.092545 6660.0 
243.092224 8036.0 
244.096481 17875.0 
245.083603 6244.0 
248.108139 1399125.0 
259.087524 35527.0 
260.096039 21774.0 
261.103424 54888.0 
275.118439 39056.0 
276.124969 3320.0 
285.102997 12577.0 
286.111694 30357.0 
299.118988 11730.0 
342.981689 5598.0 
385.313599 3319.0 
407.176605 2230082.0 
END IONS

BEGIN IONS
NAME="1-(2H-benzo[3,4-d]1,3-dioxolan-5-yl)-3-[(4-iodophenyl)amino]-3-phenylpropan-1- one CollisionEnergy:102040" M+formate
PRECURSOR_MZ=516.031
INCHI="InChI=1S/C22H18INO3/c23-17-7-9-18(10-8-17)24-19(15-4-2-1-3-5-15)13-20(25)16-6-11-21-22(12-16)27-14-26-21/h1-12,19,24H,13-14H2"
SMILES=O=C(CC(Nc1ccc(I)cc1)c1ccccc1)c1ccc2c(c1)OCO2
SPECTRUMID=CCMSLIB00010104823
54.333599 2293.0 
65.933998 2335.0 
66.351891 2354.0 
75.626411 2328.0 
86.037453 2839.0 
126.90519 13407.0 
134.378128 2423.0 
157.616455 3026.0 
174.955902 2893.0 
181.413193 2845.0 
217.947098 33300.0 
473.933746 2689.0 
543.804688 2866.0 
END IONS

BEGIN IONS
NAME="2',3',5'-Tri-O-benzoyluridine CollisionEnergy:205060" 2M-H
PRECURSOR_MZ=1111.29
INCHI="InChI=1S/C30H24N2O9/c33-23-16-17-32(30(37)31-23)26-25(41-29(36)21-14-8-3-9-15-21)24(40-28(35)20-12-6-2-7-13-20)22(39-26)18-38-27(34)19-10-4-1-5-11-19/h1-17,22,24-26H,18H2,(H,31,33,37)"
SMILES=O=C(OCC1OC(n2ccc(O)nc2=O)C(OC(=O)c2ccccc2)C1OC(=O)c1ccccc1)c1ccccc1
SPECTRUMID=CCMSLIB00010122802
93.034561 6589.0 
97.068863 5231.0 
121.029648 1103210.0 
121.923683 4692.0 
136.209244 5065.0 
137.853836 4401.0 
173.347687 5296.0 
208.055725 22856.0 
225.98497 5224.0 
261.618683 5998.0 
327.65332 5481.0 
427.51535 4883.0 
804.524353 5550.0 
1009.356995 5256.0 
END IONS

BEGIN IONS
NAME="{2-[(3,5-dimethoxyphenyl)carbonylamino]phenyl}-N-(2-chlorophenyl)carboxamide CollisionEnergy:205060" M+H
PRECURSOR_MZ=411.111
INCHI="InChI=1S/C22H19ClN2O4/c1-28-15-11-14(12-16(13-15)29-2)21(26)24-19-9-5-3-7-17(19)22(27)25-20-10-6-4-8-18(20)23/h3-13H,1-2H3,(H,24,26)(H,25,27)"
SMILES=COc1cc(OC)cc(C(O)=Nc2ccccc2C(O)=Nc2ccccc2Cl)c1
SPECTRUMID=CCMSLIB00010121782
53.039291 9648.0 
58.3638 2687.0 
59.12978 2568.0 
61.313671 2529.0 
79.054398 10723.0 
79.699837 2856.0 
83.815247 3061.0 
87.386337 2357.0 
90.034012 29604.0 
92.38427 4205.0 
94.041283 5569.0 
100.575684 2537.0 
109.064636 14919.0 
122.036293 75532.0 
125.059517 16553.0 
146.023605 436281.0 
155.07019 259340.0 
159.338547 2962.0 
164.0336 5932.0 
164.926193 2546.0 
165.054565 544930.0 
227.055405 3507.0 
242.079086 36330.0 
259.349213 2499.0 
269.067047 5777.0 
284.091461 785961.0 
303.18811 4536.0 
393.142456 5359.0 
END IONS

BEGIN IONS
NAME=ST057234 CollisionEnergy:205060 M-H
PRECURSOR_MZ=337.145
INCHI="InChI=1S/C21H22O4/c1-14(2)5-4-6-15(3)9-11-24-21-16-7-8-20(22)25-19(16)13-18-17(21)10-12-23-18/h5,7-10,12-13H,4,6,11H2,1-3H3/b15-9-"
SMILES=CC(C)=CCCC(C)=CCOc1c2ccoc2cc2oc(=O)ccc12
SPECTRUMID=CCMSLIB00010120289
60.540161 2388.0 
61.21666 2442.0 
65.476509 2774.0 
68.026497 2274.0 
68.621178 2244.0 
104.292892 2979.0 
132.77475 2333.0 
153.927704 2285.0 
172.886322 12624.0 
188.623077 2797.0 
189.019547 12433.0 
200.881805 8262.0 
201.019363 15322.0 
209.061066 15994.0 
210.069412 30676.0 
211.039307 12162.0 
214.027008 12472.0 
216.017883 2652.0 
223.075699 18727.0 
225.055603 31127.0 
226.063126 4961.0 
227.035614 10022.0 
239.071106 10237.0 
246.017334 9591.0 
251.034088 4300.0 
253.051285 47370.0 
254.058472 26746.0 
265.050812 3559.0 
267.066284 79545.0 
268.866821 3716.0 
281.081512 15025.0 
337.144562 383599.0 
END IONS

BEGIN IONS
NAME=(2R)-2-amino-3-(phenylmethylthio)propanoic acid CollisionEnergy:102040 M+Na
PRECURSOR_MZ=234.056
INCHI="InChI=1S/C10H13NO2S/c11-9(10(12)13)7-14-6-8-4-2-1-3-5-8/h1-5,9H,6-7,11H2,(H,12,13)/t9-/m0/s1"
SMILES=NC(CSCc1ccccc1)C(=O)O
SPECTRUMID=CCMSLIB00010105104
55.167709 2627.0 
68.135948 2192.0 
76.655144 2334.0 
82.411957 2482.0 
91.054489 3073.0 
92.393044 2865.0 
104.128891 2165.0 
107.16938 2152.0 
142.226151 2190.0 
164.402908 2063.0 
189.034286 12739.0 
210.950623 4412.0 
217.029449 51491.0 
234.055634 59390.0 
END IONS

BEGIN IONS
NAME=ST056305 CollisionEnergy:205060 M+H
PRECURSOR_MZ=295.181
INCHI="InChI=1S/C19H22N2O/c1-2-13-12-21-10-8-14(13)11-18(21)19(22)16-7-9-20-17-6-4-3-5-15(16)17/h2-7,9,13-14,18-19,22H,1,8,10-12H2/t13-,14?,18+,19?/m0/s1"
SMILES=C=CC1CN2CCC1CC2C(O)c1ccnc2ccccc12
SPECTRUMID=CCMSLIB00010117650
51.023441 5333.0 
53.039131 9083.0 
55.05468 62576.0 
56.042419 3279.0 
56.049961 50558.0 
57.057831 4181.0 
58.065529 36616.0 
65.039001 60027.0 
66.006943 3593.0 
66.046753 5717.0 
67.042091 20999.0 
67.054604 319874.0 
67.287376 3242.0 
68.049896 64229.0 
69.05764 42117.0 
69.070236 16120.0 
70.065498 86190.0 
71.487717 3696.0 
77.039162 4500.0 
79.054497 997252.0 
80.049713 184474.0 
80.054977 4633.0 
80.061974 3860.0 
81.058037 30423.0 
81.070137 1537878.0 
82.065353 318032.0 
83.073174 7479.0 
84.080887 43484.0 
86.060013 4456.0 
91.054382 127224.0 
92.239342 3528.0 
92.38134 5126.0 
93.057419 22156.0 
93.069977 110643.0 
94.065231 113574.0 
94.07827 4665.0 
95.049149 8525.0 
95.073082 74031.0 
95.085709 85543.0 
96.080818 136794.0 
102.767113 3500.0 
103.053978 3785.0 
104.287003 4954.0 
105.044937 3533.0 
105.069847 113309.0 
106.065086 46812.0 
107.072777 20026.0 
107.085297 73441.0 
108.080673 217464.0 
108.093201 6415.0 
109.064636 15197.0 
109.088516 21600.0 
109.101143 14341.0 
110.096397 149415.0 
115.054153 25709.0 
117.069748 22684.0 
118.06485 7586.0 
119.072899 7204.0 
119.086021 5790.0 
120.080566 48591.0 
121.088303 7092.0 
122.096367 113009.0 
124.112099 68363.0 
125.310829 3855.0 
128.049423 56858.0 
130.065063 903147.0 
131.084518 3806.0 
132.080658 96523.0 
133.052017 21606.0 
134.096329 265713.0 
135.104324 57629.0 
136.111984 107922.0 
138.127457 40977.0 
142.065063 430069.0 
143.072845 231593.0 
144.080704 215819.0 
144.093567 5441.0 
146.059418 7870.0 
146.096252 14929.0 
148.111893 15760.0 
154.064941 332731.0 
155.072723 56846.0 
156.044174 55481.0 
156.080658 518357.0 
157.088791 8480.0 
158.059677 47975.0 
159.067673 79709.0 
160.075714 6757.0 
166.065033 86627.0 
166.122589 134031.0 
167.072723 172695.0 
168.080643 570582.0 
169.075714 90276.0 
169.089539 18065.0 
170.060318 14068.0 
170.096176 56098.0 
171.06662 4678.0 
171.091385 44409.0 
172.075394 140957.0 
174.088242 3983.0 
180.080658 242532.0 
180.098618 8878.0 
181.073898 57620.0 
181.089249 20704.0 
182.062576 3885.0 
182.082687 14938.0 
182.097733 58982.0 
183.065933 3834.0 
183.091324 77059.0 
184.075607 116305.0 
184.112091 5115.0 
185.083084 14931.0 
185.105576 4226.0 
186.091446 8674.0 
191.072556 7249.0 
192.080841 45126.0 
193.088562 43787.0 
194.096481 133079.0 
195.089661 37933.0 
196.075943 5859.0 
196.111984 103807.0 
197.106888 111373.0 
204.08075 47220.0 
205.08876 38778.0 
206.096558 93561.0 
207.087402 5863.0 
207.105164 21999.0 
208.1129 57333.0 
209.106461 47936.0 
210.092178 5078.0 
210.127396 25016.0 
212.107132 8251.0 
214.122849 8737.0 
217.08812 7974.0 
218.095825 57734.0 
219.10611 49925.0 
220.112793 49492.0 
221.106354 76755.0 
222.111145 67425.0 
223.122665 121385.0 
224.14328 27910.0 
225.11908 3786.0 
231.102905 7894.0 
232.112793 34950.0 
233.120316 15643.0 
234.127655 167014.0 
235.122055 174686.0 
236.130615 40603.0 
238.158188 7686.0 
246.128159 31919.0 
247.121155 26212.0 
248.143555 88225.0 
249.137695 30412.0 
250.156052 5804.0 
252.136902 35641.0 
265.169342 5385.0 
266.153168 18747.0 
267.186035 8187.0 
275.153107 14405.0 
277.169434 943866.0 
295.179962 9080778.0 
318.871948 4221.0 
END IONS

BEGIN IONS
NAME=Lambdamycin CollisionEnergy:205060 M-H
PRECURSOR_MZ=639.172
INCHI="InChI=1S/C32H32O14/c1-10-8-9-15-18-16(10)29(38)45-26-17-13(23(35)20(19(18)26)30(39)43-15)6-5-7-14(17)44-32-28(24(36)21(33)11(2)42-32)46-31-25(37)27(40-4)22(34)12(3)41-31/h5-9,11-12,21-22,24-25,27-28,31-37H,1-4H3/t11-,12-,21+,22+,24+,25-,27+,28-,31-,32+/m1/s1"
SMILES=COC1C(O)C(C)OC(OC2C(Oc3cccc4c(O)c5c(=O)oc6ccc(C)c7c(=O)oc(c34)c5c67)OC(C)C(O)C2O)C1O
SPECTRUMID=CCMSLIB00010124884
53.32782 3327.0 
65.315224 3470.0 
67.076874 3351.0 
83.418419 2976.0 
104.291641 3910.0 
157.981613 4004.0 
210.115601 3607.0 
210.13443 5406.0 
248.047211 13852.0 
251.036102 4508.0 
252.042374 36367.0 
260.047485 6970.0 
264.042542 19123.0 
276.043213 32987.0 
279.029541 12751.0 
279.062866 3980.0 
280.036438 24943.0 
288.042847 60605.0 
289.049744 48001.0 
294.053131 148449.0 
304.037567 301147.0 
308.032471 6118.0 
332.032532 1799077.0 
333.039764 66267.0 
357.040131 19201.0 
364.022003 14987.0 
639.172302 1300630.0 
END IONS

BEGIN IONS
NAME=(2S)-2-[(tert-butoxy)carbonylamino]-3-[benzyloxycarbonyl]propanoic acid CollisionEnergy:102040 M+Na
PRECURSOR_MZ=346.126
INCHI="InChI=1S/C16H21NO6/c1-16(2,3)23-15(21)17-12(14(19)20)9-13(18)22-10-11-7-5-4-6-8-11/h4-8,12H,9-10H2,1-3H3,(H,17,21)(H,19,20)/t12-/m0/s1"
SMILES=CC(C)(C)OC(O)=NC(CC(=O)OCc1ccccc1)C(=O)O
SPECTRUMID=CCMSLIB00010110667
57.144859 2997.0 
72.785378 2882.0 
73.948769 3241.0 
77.735336 2787.0 
91.054718 11459.0 
118.650711 2866.0 
131.046707 13035.0 
138.016327 4566.0 
189.1633 3251.0 
191.273636 2880.0 
194.664078 3009.0 
201.052292 13108.0 
210.561539 4443.0 
228.626602 2451.0 
229.046326 13962.0 
246.014542 10362.0 
246.073303 1686935.0 
290.062958 2013035.0 
346.125336 830135.0 
END IONS

BEGIN IONS
NAME=sorbic acid CollisionEnergy:102040 M+H-H2O
PRECURSOR_MZ=95.0491
INCHI="InChI=1S/C6H8O2/c1-2-3-4-5-6(7)8/h2-5H,1H3,(H,7,8)/b3-2+,5-4+"
SMILES=CC=CC=CC(=O)O
SPECTRUMID=CCMSLIB00010114225
53.002819 25935.0 
55.018509 22028.0 
55.055012 3797.0 
56.153881 2562.0 
65.039253 516985.0 
67.054893 1562608.0 
69.817177 2384.0 
72.028503 2749.0 
79.819794 2234.0 
95.049583 112465.0 
95.068398 5249.0 
95.085907 20239.0 
104.292427 3839.0 
123.780273 2959.0 
136.220062 2961.0 
END IONS

BEGIN IONS
NAME="5-{[(3-chloro-2-methylphenyl)amino]azamethylene}-1-(2-hydroxyethyl)-4-methyl-2 ,6-dioxohydropyridine-3-carbonitrile CollisionEnergy:205060" M+H
PRECURSOR_MZ=347.091
INCHI="InChI=1S/C16H15ClN4O3/c1-9-11(8-18)15(23)21(6-7-22)16(24)14(9)20-19-13-5-3-4-12(17)10(13)2/h3-5,19,22H,6-7H2,1-2H3/b20-14-"
SMILES=CC1=C(C#N)C(=O)N(CCO)C(=O)C1=NNc1cccc(Cl)c1C
SPECTRUMID=CCMSLIB00010119002
62.060421 17593.0 
63.02343 5869.0 
64.018608 3765.0 
65.038933 58983.0 
66.034203 18198.0 
66.046753 5207.0 
67.018082 14570.0 
70.02903 30886.0 
72.044601 9386.0 
73.96357 4310.0 
77.038979 5905.0 
78.034119 31761.0 
79.029312 4652.0 
79.054367 9825.0 
80.049568 23980.0 
82.028847 9217.0 
89.038673 100700.0 
90.034073 7179.0 
90.046387 5644.0 
90.055122 4173.0 
92.013161 4901.0 
92.049507 16427.0 
93.044777 57394.0 
93.057259 22656.0 
94.041229 7137.0 
95.049004 5946.0 
96.044243 6308.0 
98.999397 29907.0 
103.029213 32171.0 
104.049347 69509.0 
104.300667 4994.0 
105.044548 23680.0 
105.057091 31641.0 
106.028862 16803.0 
106.065063 1622039.0 
107.023758 4921.0 
107.060127 8101.0 
107.072983 4332.0 
108.044441 7460.0 
109.039093 4414.0 
111.055298 9185.0 
113.015297 56203.0 
117.046249 7563.0 
117.057114 234576.0 
118.028313 7027.0 
118.052406 6371.0 
119.023849 162540.0 
119.060532 38159.0 
120.045067 4820.0 
120.055321 19650.0 
121.039307 22724.0 
122.035599 6286.0 
123.043999 5464.0 
123.054512 5002.0 
124.007027 16896.0 
125.015167 969982.0 
126.010262 5277.0 
128.026108 64464.0 
131.073532 5402.0 
132.044525 7590.0 
133.039597 48473.0 
133.075714 5928.0 
134.023468 20349.0 
134.070892 21191.0 
135.055054 182052.0 
136.050583 38990.0 
137.034729 16474.0 
140.001678 54237.0 
140.026093 1575457.0 
141.033829 8244721.0 
143.026672 33085.0 
145.313431 4277.0 
146.071167 7540.0 
147.05545 41661.0 
148.050278 7032.0 
148.063095 14898.0 
149.034393 91402.0 
149.070435 7735.0 
150.029755 15810.0 
150.066025 15300.0 
151.050034 33271.0 
152.026077 26072.0 
153.021286 122480.0 
155.070786 6130.0 
157.998901 4436.0 
158.012894 29411.0 
159.018509 73257.0 
159.054749 5297.0 
160.051575 4565.0 
161.03447 16508.0 
161.057251 6655.0 
162.06601 727152.0 
163.031845 4061.0 
163.049545 19545.0 
164.025314 5623.0 
164.045059 25626.0 
165.054199 25140.0 
166.041946 6924.0 
166.064621 7779.0 
167.045776 28615.0 
167.072433 23089.0 
168.021347 16871.0 
168.068161 5772.0 
174.06604 25728.0 
175.049576 23808.0 
176.04483 199064.0 
177.065689 63069.0 
178.061035 88507.0 
179.059128 8977.0 
180.068039 24597.0 
181.051376 7580.0 
188.026352 9394.0 
189.066971 31949.0 
190.060806 787540.0 
191.041656 18539.0 
191.067322 8917.0 
194.070953 27160.0 
195.078796 21933.0 
202.045578 17811.0 
202.060699 425744.0 
203.03746 39141.0 
204.021774 4630.0 
207.076904 4712.0 
208.064743 10854.0 
208.086609 26659.0 
213.021454 84579.0 
215.037247 46529.0 
220.07019 5550.0 
221.082184 5016.0 
222.065582 19765.0 
222.089523 27217.0 
223.073624 37662.0 
224.0811 5681.0 
230.047729 83919.0 
231.029984 32241.0 
235.047318 4791.0 
237.111237 4517.0 
239.091919 7401.0 
240.031616 23082.0 
241.015671 50013.0 
243.031891 35283.0 
249.085098 4337.0 
250.083008 4701.0 
251.092819 15282.0 
256.053253 4699.0 
257.057465 25587.0 
258.04248 172184.0 
259.02597 6839.0 
266.08429 5668.0 
266.115814 8785.0 
267.087128 139238.0 
268.025177 6683.0 
268.095215 8461.0 
276.051941 17412.0 
277.084625 22791.0 
278.08667 6274.0 
279.091583 3919.0 
284.058197 6563.0 
284.090363 23372.0 
285.056152 41970.0 
286.036774 105146.0 
293.102112 58518.0 
294.109344 8731.0 
301.083862 22093.0 
303.066284 12790.0 
304.045105 14108.0 
311.069458 24992.0 
311.112396 183771.0 
312.052734 143697.0 
312.119934 21042.0 
313.055176 7560.0 
314.05545 49164.0 
329.079254 3058921.0 
330.132721 17636.0 
332.066223 55515.0 
347.089813 3387390.0 
END IONS

BEGIN IONS
NAME=Ethyl vanillate CollisionEnergy:205060 M+Na
PRECURSOR_MZ=219.063
INCHI="InChI=1S/C10H12O4/c1-3-14-10(12)7-4-5-8(11)9(6-7)13-2/h4-6,11H,3H2,1-2H3"
SMILES=CCOC(=O)c1ccc(O)c(OC)c1
SPECTRUMID=CCMSLIB00010117707
51.023609 3390.0 
53.039089 5585.0 
55.018291 24824.0 
56.96529 4870.0 
68.993301 3749.0 
68.997398 70100.0 
75.7854 3009.0 
77.162117 3093.0 
79.05439 192666.0 
79.138809 2663.0 
81.033257 2928.0 
81.070007 72679.0 
82.777527 3426.0 
91.054199 57655.0 
92.430382 2851.0 
93.069809 101917.0 
95.04921 7317.0 
99.981621 3367.0 
103.054001 189906.0 
105.06971 1007288.0 
107.049133 25318.0 
108.100067 3345.0 
115.053909 87937.0 
118.721367 4019.0 
120.044228 6316.0 
121.064522 571081.0 
122.645149 3010.0 
127.831306 2753.0 
131.048492 38468.0 
132.05722 12201.0 
133.064453 152575.0 
135.043243 5892.0 
136.28656 3245.0 
149.059372 96346.0 
158.637665 3830.0 
176.439484 4499.0 
177.054214 9545858.0 
193.830734 3198.0 
219.064651 529596.0 
END IONS

BEGIN IONS
NAME=trans-Aconitic acid CollisionEnergy:102040 M-H
PRECURSOR_MZ=173.009
INCHI="InChI=1S/C6H6O6/c7-4(8)1-3(6(11)12)2-5(9)10/h1H,2H2,(H,7,8)(H,9,10)(H,11,12)/b3-1+"
SMILES=O=C(O)C=C(CC(=O)O)C(=O)O
SPECTRUMID=CCMSLIB00010114644
59.74572 1996.0 
61.496769 2022.0 
63.08992 2126.0 
63.903011 2200.0 
64.693932 2137.0 
66.906883 2340.0 
72.992729 8572.0 
75.311691 2033.0 
78.954483 2314.0 
82.422867 3097.0 
83.013771 4265.0 
85.029327 505548.0 
91.010643 2424.0 
99.009064 3192.0 
101.024651 3367.0 
105.019012 3244.0 
111.008667 262751.0 
129.019135 69855.0 
141.001556 2158.0 
142.908752 2654.0 
154.947083 149980.0 
154.998199 50429.0 
161.314819 2295.0 
172.941879 5052.0 
172.957306 31063.0 
173.008881 31713.0 
281.136475 2423.0 
END IONS

BEGIN IONS
NAME=lipoamide CollisionEnergy:102040 M+H
PRECURSOR_MZ=206.067
INCHI="InChI=1S/C8H15NOS2/c9-8(10)4-2-1-3-7-5-6-11-12-7/h7H,1-6H2,(H2,9,10)"
SMILES=N=C(O)CCCCC1CCSS1
SPECTRUMID=CCMSLIB00010112637
50.761921 44594.0 
51.24868 39463.0 
72.809013 39057.0 
73.933968 45548.0 
78.043297 42097.0 
81.070297 193607.0 
93.070183 47894.0 
95.085793 192094.0 
98.097031 51667.0 
101.042313 2907623.0 
104.983147 415676.0 
105.07016 84376.0 
115.057457 48222.0 
118.626556 48793.0 
123.080383 345886.0 
127.057716 849736.0 
136.177383 41498.0 
137.041763 106281.0 
138.049011 63925.0 
140.10675 202253.0 
155.051895 192162.0 
161.045166 6113036.0 
171.029663 1394544.0 
178.943741 49702.0 
189.040024 8212420.0 
197.727066 41491.0 
206.066132 181403.0 
END IONS

BEGIN IONS
NAME=N-(3-ethylphenyl)-2-(9-methyl-6-oxohydropurin-8-ylthio)acetamide CollisionEnergy:205060 M+H
PRECURSOR_MZ=344.118
INCHI="InChI=1S/C16H17N5O2S/c1-3-10-5-4-6-11(7-10)19-12(22)8-24-16-20-13-14(21(16)2)17-9-18-15(13)23/h4-7,9H,3,8H2,1-2H3,(H,19,22)(H,17,18,23)"
SMILES=CCc1cccc(N=C(O)CSc2nc3c(O)ncnc3n2C)c1
SPECTRUMID=CCMSLIB00010122634
50.74091 2465.0 
57.045181 3926.0 
57.164478 2282.0 
59.139408 2357.0 
79.054482 10533.0 
84.960022 4823.0 
84.985809 11181.0 
90.749947 3216.0 
92.380493 3475.0 
97.467712 2510.0 
106.065163 58612.0 
108.055496 4443.0 
113.306183 2581.0 
119.073189 3627.0 
130.065109 14454.0 
132.080841 3781.0 
133.051636 13284.0 
134.060089 27614.0 
134.096283 42165.0 
137.045898 31605.0 
139.991745 6276.0 
145.088287 21366.0 
149.045929 43887.0 
150.053635 49804.0 
150.995941 11878.0 
151.061539 129318.0 
153.022812 3617.0 
160.075958 13953.0 
161.046082 5203.0 
162.053726 26823.0 
163.061325 50481.0 
168.022415 33257.0 
181.017899 430752.0 
183.033478 3152.0 
195.033585 1134871.0 
213.043961 14914.0 
222.044724 4629.0 
223.028442 1327118.0 
236.060577 12893.0 
306.041229 2474.0 
326.105621 3208.0 
344.117981 29794.0 
END IONS

BEGIN IONS
NAME="4-(2H-benzo[3,4-d]1,3-dioxolan-5-ylmethylene)-3-(3,4-dimethylphenyl)isoxazol-5 -one CollisionEnergy:102040" M-e
PRECURSOR_MZ=321.1
INCHI="InChI=1S/C19H15NO4/c1-11-3-5-14(7-12(11)2)18-15(19(21)24-20-18)8-13-4-6-16-17(9-13)23-10-22-16/h3-9H,10H2,1-2H3/b15-8-"
SMILES=Cc1ccc(C2=NOC(=O)C2=Cc2ccc3c(c2)OCO3)cc1C
SPECTRUMID=CCMSLIB00010107019
58.265339 2182.0 
63.210388 2605.0 
66.735573 2727.0 
71.472023 2256.0 
92.366364 2563.0 
105.06987 5499.0 
127.499481 2240.0 
133.064743 1302147.0 
184.889374 16905.0 
212.393906 2511.0 
234.504013 2454.0 
252.874832 3237.0 
257.418762 3108.0 
274.852661 4899.0 
290.118561 2681.0 
321.098938 345998.0 
321.166992 10963.0 
321.239807 4361.0 
322.106689 14910.0 
473.056793 2653.0 
END IONS

BEGIN IONS
NAME=N-ethyl-2-(6-oxo-9-phenylhydropurin-8-ylthio)-N-phenylacetamide CollisionEnergy:205060 M-H
PRECURSOR_MZ=404.119
INCHI="InChI=1S/C21H19N5O2S/c1-2-25(15-9-5-3-6-10-15)17(27)13-29-21-24-18-19(22-14-23-20(18)28)26(21)16-11-7-4-8-12-16/h3-12,14H,2,13H2,1H3,(H,22,23,28)"
SMILES=CCN(C(=O)CSc1nc2c(O)ncnc2n1-c1ccccc1)c1ccccc1
SPECTRUMID=CCMSLIB00010118919
50.831749 2694.0 
57.975189 202267.0 
65.014076 181654.0 
65.998154 97965.0 
68.013733 21023.0 
69.009003 3102.0 
81.577103 3046.0 
92.025253 127942.0 
93.009422 18064.0 
98.878441 2964.0 
104.291191 3935.0 
117.046143 3139.0 
135.031219 3563.0 
136.21315 3626.0 
141.045929 1188433.0 
142.040939 47312.0 
168.056717 25898.0 
179.003754 4354.0 
180.057022 11566.0 
183.043854 184262.0 
183.062622 6206.0 
183.601486 3095.0 
184.051392 70100.0 
199.280884 3261.0 
209.046631 14501.0 
211.062698 761510.0 
212.028671 5307.0 
214.008011 91392.0 
222.054932 107034.0 
223.062912 18804.0 
227.058899 3416.0 
241.019058 993130.0 
242.026917 1333000.0 
250.049667 41657.0 
255.003983 6077.0 
255.034698 240079.0 
283.029663 726794.0 
333.082428 12053.0 
361.11264 13017.0 
404.118652 239207.0 
END IONS

BEGIN IONS
NAME="(3,5-dimethoxyphenyl)methan-1-ol CollisionEnergy:205060" M+H
PRECURSOR_MZ=169.086
INCHI="InChI=1S/C9H12O3/c1-11-8-3-7(6-10)4-9(5-8)12-2/h3-5,10H,6H2,1-2H3"
SMILES=COc1cc(CO)cc(OC)c1
SPECTRUMID=CCMSLIB00010122835
50.01556 2650.0 
51.023449 5995.0 
53.03907 68372.0 
54.587509 2790.0 
55.018341 10493.0 
55.054729 2809.0 
65.038979 12731.0 
67.054527 29065.0 
70.701653 2607.0 
72.937538 5044.0 
78.046707 16709.0 
79.054497 29695.0 
80.062332 4258.0 
81.033669 11359.0 
81.07003 16240.0 
84.959793 13908.0 
86.95591 52794.0 
86.964157 28732.0 
91.054367 415400.0 
92.062103 4174.0 
93.069939 48436.0 
94.041206 3705.0 
95.049316 53216.0 
95.085426 12428.0 
97.153847 2863.0 
100.184212 3172.0 
103.054108 4054.0 
104.966568 3801.0 
104.974113 3423.0 
105.044617 5191.0 
106.041328 10693.0 
107.049248 6033.0 
108.056892 94076.0 
109.028069 4208.0 
109.064697 42807.0 
113.963364 18258.0 
118.65107 4350.0 
119.049843 4210.0 
121.028427 3632.0 
121.064751 324481.0 
123.080223 52874.0 
124.051888 212435.0 
124.060066 2995.0 
125.06002 24366.0 
128.950592 4446.0 
131.973969 12521.0 
136.051758 47625.0 
139.075317 346115.0 
140.078949 13696.0 
148.976669 4267.0 
151.075302 3919707.0 
169.085999 45747.0 
192.102081 6404.0 
220.625061 2582.0 
227.74321 2621.0 
232.49678 3032.0 
END IONS

BEGIN IONS
NAME=ST056305 CollisionEnergy:205060 M+2H]
PRECURSOR_MZ=148.094
INCHI="InChI=1S/C19H22N2O/c1-2-13-12-21-10-8-14(13)11-18(21)19(22)16-7-9-20-17-6-4-3-5-15(16)17/h2-7,9,13-14,18-19,22H,1,8,10-12H2/t13-,14?,18+,19?/m0/s1"
SMILES=C=CC1CN2CCC1CC2C(O)c1ccnc2ccccc12
SPECTRUMID=CCMSLIB00010117649
51.023861 3569.0 
53.002579 4970.0 
53.03936 5274.0 
53.99823 4078.0 
55.05471 344948.0 
56.04995 101459.0 
56.05801 17138.0 
57.057781 20062.0 
60.53846 4927.0 
65.038986 148012.0 
66.046577 3844.0 
67.054619 3578781.0 
67.81562 3212.0 
68.04985 182867.0 
68.057907 96166.0 
69.053429 6562.0 
69.057602 101332.0 
69.070236 114607.0 
70.029289 4011.0 
70.065399 42592.0 
71.085617 4138.0 
79.054497 280731.0 
80.049744 754119.0 
81.052887 15965.0 
81.057793 161603.0 
81.070122 898791.0 
82.065361 859343.0 
82.073067 29132.0 
83.068832 13852.0 
83.07325 142075.0 
83.085487 5951.0 
84.080948 79252.0 
86.049553 15092.0 
91.041817 6680.0 
91.054367 64141.0 
92.049606 139090.0 
92.551247 7360.0 
93.057457 19883.0 
93.069908 54903.0 
94.047081 93848.0 
94.065201 262232.0 
94.076851 27779.0 
95.049637 3968.0 
95.066353 5913.0 
95.073174 179134.0 
95.085518 239954.0 
96.080849 205038.0 
96.087837 9034.0 
98.049507 55845.0 
98.096413 227765.0 
100.046913 874778.0 
100.548607 62682.0 
101.05471 998540.0 
101.556686 57023.0 
104.266693 3723.0 
105.057297 61537.0 
105.069443 30766.0 
106.065018 8880.0 
107.054413 41748.0 
107.085388 89242.0 
108.080704 491209.0 
108.093773 14102.0 
109.087936 20232.0 
109.10112 467650.0 
110.060173 5165.0 
110.096611 5441.0 
110.10466 18170.0 
111.05751 27665.0 
113.054588 17654.0 
114.062576 13548.0 
115.054138 16897.0 
117.057152 4772.0 
118.064789 37252.0 
120.062607 167965.0 
120.564453 7492.0 
121.07032 81594.0 
122.096336 259445.0 
123.100533 7596.0 
127.062302 4715.0 
127.070824 58475.0 
127.572197 4522.0 
128.049088 4184.0 
129.057709 8053.0 
130.065079 1940812.0 
131.068481 90439.0 
132.080627 110143.0 
133.052094 328479.0 
134.055954 20101.0 
136.11203 366356.0 
137.120117 73908.0 
142.065414 30312.0 
143.073013 37790.0 
144.080994 32980.0 
146.060104 14625.0 
148.09375 1773292.0 
148.595367 230496.0 
154.065796 31451.0 
154.077026 4010.0 
156.080673 22942.0 
157.052231 32538.0 
157.075729 13414.0 
158.060028 1579655.0 
158.082001 202479.0 
159.06778 3398031.0 
159.091614 2650971.0 
160.074951 826781.0 
160.09436 134330.0 
161.04747 47315.0 
161.078812 54457.0 
168.066849 5521.0 
168.080872 14970.0 
168.606857 4411.0 
169.076263 19536.0 
170.059921 4960.0 
170.080719 4646.0 
171.091507 21011.0 
172.075058 36473.0 
183.091736 24484.0 
184.075729 7073.0 
184.097 5540.0 
185.070679 44321.0 
185.107834 5342.0 
186.091095 23771.0 
187.086365 1845811.0 
188.089813 139761.0 
197.069794 4472.0 
199.086105 34046.0 
201.101974 108526.0 
210.205978 5515.0 
212.12883 4825.0 
213.101395 13706.0 
226.1465 16396.0 
236.782547 3991.0 
241.133255 22286.0 
249.058167 3675.0 
253.132248 5568.0 
255.148148 57413.0 
256.151062 5794.0 
266.153503 6027.0 
END IONS

BEGIN IONS
NAME="N-((1E)-2-indol-3-yl-1-azavinyl)-3-[(3,5-dioxo(2H,4H-1,2,4-triazin-6-yl))amino ]propanamide CollisionEnergy:102040" M+Na
PRECURSOR_MZ=364.113
INCHI="InChI=1S/C15H15N7O3/c23-12(5-6-16-13-14(24)19-15(25)22-21-13)20-18-8-9-7-17-11-4-2-1-3-10(9)11/h1-4,7-8,17H,5-6H2,(H,16,21)(H,20,23)(H2,19,22,24,25)/b18-8+"
SMILES=OC(CCNc1nnc(O)nc1O)=NN=Cc1c[nH]c2ccccc12
SPECTRUMID=CCMSLIB00010111374
97.077583 2686.0 
205.032242 3963.0 
212.071335 3652.0 
219.416641 2497.0 
236.078842 20298.0 
244.577438 2755.0 
274.607361 2608.0 
361.774841 2903.0 
364.112488 1733730.0 
END IONS

BEGIN IONS
NAME=N-(4-fluorophenyl)(2-iminochromen-3-yl)carboxamide CollisionEnergy:102040 M+H
PRECURSOR_MZ=283.088
INCHI="InChI=1S/C16H11FN2O2/c17-11-5-7-12(8-6-11)19-16(20)13-9-10-3-1-2-4-14(10)21-15(13)18/h1-9,18H,(H,19,20)"
SMILES=N=c1oc2ccccc2cc1C(=O)Nc1ccc(F)cc1
SPECTRUMID=CCMSLIB00010104517
63.10099 3440.0 
65.098663 3407.0 
75.45871 3995.0 
82.976227 4094.0 
89.039047 3583.0 
115.543243 3859.0 
116.049316 24378.0 
128.049271 136467.0 
144.043732 7608.0 
145.051956 4085.0 
146.060135 28409.0 
172.039108 3940199.0 
189.373657 5576.0 
190.049622 5793297.0 
192.05452 6269.0 
213.066483 35707.0 
265.076752 2669679.0 
266.059814 15778.0 
281.859894 20576.0 
282.081055 7830.0 
283.08725 13166955.0 
284.322601 20823.0 
295.946899 4210.0 
END IONS

BEGIN IONS
NAME="7-hydroxy-3-(4-hydroxyphenyl)-8-[3,4,5-trihydroxy-6-(hydroxymethyl)(2H-3,4,5,6 -tetrahydropyran-2-yl)]chromen-4-one CollisionEnergy:205060" M+H
PRECURSOR_MZ=417.118
INCHI="InChI=1S/C21H20O9/c22-7-14-17(26)18(27)19(28)21(30-14)15-13(24)6-5-11-16(25)12(8-29-20(11)15)9-1-3-10(23)4-2-9/h1-6,8,14,17-19,21-24,26-28H,7H2"
SMILES=O=c1c(-c2ccc(O)cc2)coc2c(C3OC(CO)C(O)C(O)C3O)c(O)ccc12
SPECTRUMID=CCMSLIB00010121808
55.018219 3943.0 
55.268051 3414.0 
57.033859 5409.0 
61.02903 4280.0 
63.600471 3331.0 
67.728477 3445.0 
78.507874 3503.0 
79.054298 4685.0 
79.736443 3414.0 
81.033173 3682.0 
82.394028 4318.0 
83.013161 3182.0 
85.028549 7403.0 
91.054283 22950.0 
94.041206 6036.0 
95.012459 4049.0 
99.556068 3300.0 
105.033241 15237.0 
107.042572 3718.0 
107.049217 73708.0 
119.049057 37792.0 
121.028236 43738.0 
123.043823 13566.0 
129.069214 16073.0 
131.048859 21713.0 
133.028381 20225.0 
134.035995 4018.0 
135.043991 28927.0 
141.069229 5252.0 
145.028534 37445.0 
145.06543 6092.0 
146.036453 7352.0 
147.043945 24611.0 
149.0233 34380.0 
151.038925 15147.0 
152.061539 5380.0 
153.069717 6807.0 
155.085358 8341.0 
157.064835 34536.0 
161.02298 37516.0 
161.059021 3914.0 
163.038712 18848.0 
165.069931 32183.0 
166.078278 3642.0 
167.033463 20355.0 
167.04805 5006.0 
167.08548 32009.0 
170.035614 18397.0 
171.043686 8225.0 
173.059494 5831.0 
175.038467 16330.0 
177.069534 21189.0 
179.033798 52303.0 
179.085052 5164.0 
181.064468 17093.0 
182.073257 4986.0 
183.080261 19292.0 
185.059525 6212.0 
185.095459 5177.0 
189.054092 5678.0 
190.076614 4722.0 
191.084869 6586.0 
194.072021 22159.0 
195.045197 23721.0 
195.080246 82588.0 
197.059357 13279.0 
198.067108 7429.0 
199.037903 4727.0 
203.033859 4225.0 
205.06427 5405.0 
207.080139 8287.0 
208.088547 6557.0 
209.095703 14633.0 
210.067841 8527.0 
211.075516 27562.0 
212.082916 4138.0 
213.055145 4622.0 
213.089798 30812.0 
215.085541 15186.0 
218.071915 5331.0 
219.079651 13770.0 
221.060303 17093.0 
222.066284 6906.0 
223.075241 116674.0 
223.112061 7672.0 
225.054749 13567.0 
225.090912 29497.0 
226.061935 28795.0 
231.078918 3909.0 
233.095505 7386.0 
235.075531 13993.0 
236.082764 22569.0 
237.090958 36103.0 
239.06987 359788.0 
240.077759 293576.0 
241.08548 70329.0 
247.075562 14221.0 
249.05423 5996.0 
250.062225 7545.0 
251.074005 33884.0 
251.105484 50839.0 
252.077789 28962.0 
253.086197 21733.0 
254.057068 4550.0 
255.064835 28828.0 
256.338165 3802.0 
261.090454 13192.0 
263.070648 32987.0 
264.077454 6263.0 
265.085266 22210.0 
267.064789 1852136.0 
268.072571 1162008.0 
269.080139 86912.0 
270.051239 4316.0 
277.087891 3917.0 
279.064941 281492.0 
279.099854 18447.0 
281.080292 446519.0 
283.061768 4038.0 
289.085388 34416.0 
291.065094 18254.0 
292.072479 78891.0 
293.080627 116360.0 
295.059143 35454.0 
295.095917 22334.0 
296.06897 5891.0 
297.075287 1791112.0 
297.89386 4226.0 
300.063354 14248.0 
305.080536 24157.0 
306.089294 7153.0 
307.059998 43275.0 
307.095764 414038.0 
308.067444 5766.0 
309.075287 77241.0 
311.090973 30900.0 
317.079254 5310.0 
321.075073 290410.0 
323.091095 15685.0 
325.069885 4379.0 
327.086273 42169.0 
333.074249 22250.0 
335.090729 79109.0 
339.087341 15364.0 
345.075958 6893.0 
351.085602 281078.0 
363.085968 139124.0 
381.096191 368015.0 
399.106842 750388.0 
417.117218 2025537.0 
END IONS

BEGIN IONS
NAME=3-Hydroxybenzoic acid CollisionEnergy:205060 M-H
PRECURSOR_MZ=137.024
INCHI="InChI=1S/C7H6O3/c8-6-3-1-2-5(4-6)7(9)10/h1-4,8H,(H,9,10)"
SMILES=O=C(O)c1cccc(O)c1
SPECTRUMID=CCMSLIB00010123483
58.99947 34746.0 
65.03923 45892.0 
66.740356 36851.0 
78.087624 28715.0 
89.313522 33415.0 
93.034607 8928827.0 
108.022003 66222.0 
109.029518 120377.0 
137.024506 1125982.0 
END IONS

BEGIN IONS
NAME=2-(9-methyl-6-oxohydropurin-8-ylthio)-N-[3-(trifluoromethyl)phenyl]acetamide CollisionEnergy:205060 2M-H
PRECURSOR_MZ=765.125
INCHI="InChI=1S/C15H12F3N5O2S/c1-23-12-11(13(25)20-7-19-12)22-14(23)26-6-10(24)21-9-4-2-3-8(5-9)15(16,17)18/h2-5,7H,6H2,1H3,(H,21,24)(H,19,20,25)"
SMILES=Cn1c(SCC(O)=Nc2cccc(C(F)(F)F)c2)nc2c(O)ncnc21
SPECTRUMID=CCMSLIB00010120843
57.975109 12205.0 
66.760208 4420.0 
79.029793 7981.0 
79.0345 3065.0 
82.418953 3431.0 
92.400513 4353.0 
98.878021 3450.0 
104.311256 4084.0 
106.040733 3589.0 
110.557877 3008.0 
118.682732 4518.0 
134.023239 4986.0 
138.013016 35253.0 
147.031738 4449.0 
149.04718 90767.0 
151.141846 3691.0 
152.028427 21696.0 
160.037628 4377.0 
165.041641 6895.0 
168.52153 3295.0 
179.003235 44148.0 
180.011261 218229.0 
181.019058 249704.0 
193.01889 16186.0 
195.034454 32131.0 
199.025101 58927.0 
204.009491 17622.0 
204.517639 3392.0 
208.071793 14194.0 
211.997742 5362.0 
221.014526 13809.0 
232.004532 28317.0 
242.78537 3689.0 
265.070587 6740.0 
308.077209 73196.0 
339.877899 3729.0 
382.059235 601385.0 
448.421814 3577.0 
455.875793 3472.0 
523.059814 4825.0 
741.694336 3659.0 
END IONS

BEGIN IONS
NAME="(2Z)-2-(acetylamino)-N-(2,5-dimethylphenyl)-3-phenylprop-2-enamide CollisionEnergy:102040" M+Na
PRECURSOR_MZ=331.142
INCHI="InChI=1S/C19H20N2O2/c1-13-9-10-14(2)17(11-13)21-19(23)18(20-15(3)22)12-16-7-5-4-6-8-16/h4-12H,1-3H3,(H,20,22)(H,21,23)/b18-12-"
SMILES=CC(O)=NC(=Cc1ccccc1)C(O)=Nc1cc(C)ccc1C
SPECTRUMID=CCMSLIB00010108991
53.080761 2516.0 
55.225761 2548.0 
59.501839 2842.0 
59.505348 2750.0 
66.747528 3028.0 
92.382347 3091.0 
92.87635 3324.0 
94.186752 2913.0 
98.984009 10831.0 
129.487335 2890.0 
132.080978 4585.0 
146.096161 11263.0 
157.988983 3104.0 
165.091644 3778.0 
165.418503 2578.0 
176.989746 3156.0 
210.051834 12008.0 
249.137726 3204.0 
290.137299 3695.0 
308.062286 6631.0 
313.130341 39695.0 
331.140869 5254653.0 
333.009674 3103.0 
334.022278 2657.0 
349.151947 4267.0 
END IONS

BEGIN IONS
NAME=6-bromo-3-{1-[(4-methylphenyl)carbonyl]-5-phenyl(2-pyrazolin-3-yl)}-4-phenylhy droquinolin-2-one CollisionEnergy:102040 M-H
PRECURSOR_MZ=560.098
INCHI="InChI=1S/C32H24BrN3O2/c1-20-12-14-23(15-13-20)32(38)36-28(21-8-4-2-5-9-21)19-27(35-36)30-29(22-10-6-3-7-11-22)25-18-24(33)16-17-26(25)34-31(30)37/h2-18,28H,19H2,1H3,(H,34,37)"
SMILES=Cc1ccc(C(=O)N2N=C(c3c(O)nc4ccc(Br)cc4c3-c3ccccc3)CC2c2ccccc2)cc1
SPECTRUMID=CCMSLIB00010112878
66.782463 3272.0 
73.587753 3000.0 
78.91861 556116.0 
80.170479 3230.0 
82.449448 2670.0 
83.63736 2930.0 
84.990372 7065.0 
91.147522 3714.0 
106.527046 3239.0 
116.067627 2800.0 
134.061188 290409.0 
179.784668 3013.0 
209.097458 61399.0 
212.819901 3004.0 
280.960266 3454.0 
297.987152 34728.0 
322.982178 48801.0 
332.991943 12432.0 
351.104309 3361.0 
355.959442 3483.0 
398.019409 5519.0 
413.042297 16777.0 
423.032837 4855.0 
424.046234 41179.0 
425.028412 23465.0 
455.976837 4968.0 
475.989929 3177.0 
542.088135 40940.0 
560.097839 2062459.0 
END IONS

BEGIN IONS
NAME=(3-{[2-(4-chlorophenyl)quinazolin-4-yl]amino}propyl)diethylamine CollisionEnergy:102040 M+H
PRECURSOR_MZ=369.184
INCHI="InChI=1S/C21H25ClN4/c1-3-26(4-2)15-7-14-23-21-18-8-5-6-9-19(18)24-20(25-21)16-10-12-17(22)13-11-16/h5-6,8-13H,3-4,7,14-15H2,1-2H3,(H,23,24,25)"
SMILES=CCN(CC)CCCN=c1nc(-c2ccc(Cl)cc2)[nH]c2ccccc12
SPECTRUMID=CCMSLIB00010103612
56.05003 11294.0 
58.065601 60552.0 
66.738007 5360.0 
72.081093 72611.0 
82.402527 9869.0 
82.40699 6111.0 
86.096619 1844991.0 
100.112083 211705.0 
101.12719 4890.0 
104.277443 6067.0 
112.088463 6865.0 
112.112007 2482197.0 
114.127693 3844639.0 
129.138336 102896.0 
239.035782 107455.0 
239.058563 5680.0 
241.052185 2664676.0 
255.055405 12785.0 
267.055145 12305.0 
268.063019 1230316.0 
269.081512 35552.0 
270.078094 23177.0 
282.079102 12303.0 
296.094391 13274043.0 
297.412567 7774.0 
298.110687 19436.0 
337.944794 7122.0 
367.314148 6450.0 
367.363098 21814.0 
369.183411 28387258.0 
371.018005 22863.0 
371.069458 6632.0 
END IONS

BEGIN IONS
NAME="1-[(4-fluorophenyl)methyl]-3-hydroxy-3-[2-oxo-2-(3,4,5-trimethoxyphenyl)ethyl] indolin-2-one CollisionEnergy:205060" M+formate
PRECURSOR_MZ=510.157
INCHI="InChI=1S/C26H24FNO6/c1-32-22-12-17(13-23(33-2)24(22)34-3)21(29)14-26(31)19-6-4-5-7-20(19)28(25(26)30)15-16-8-10-18(27)11-9-16/h4-13,31H,14-15H2,1-3H3"
SMILES=COc1cc(C(=O)CC2(O)C(=O)N(Cc3ccc(F)cc3)c3ccccc32)cc(OC)c1OC
SPECTRUMID=CCMSLIB00010120321
52.270569 2910.0 
82.424232 3270.0 
91.930267 2881.0 
92.406433 3996.0 
105.407944 2281.0 
124.530144 2599.0 
136.252884 3282.0 
188.067123 3171.0 
208.590439 13314.0 
209.082672 3398.0 
210.072342 24915.0 
252.082687 24043.0 
392.166748 13095.0 
404.814484 2834.0 
420.162292 25620.0 
446.139648 17260.0 
END IONS

BEGIN IONS
NAME=2-octyltridecanedioic acid CollisionEnergy:102040 M+H
PRECURSOR_MZ=357.3
INCHI="InChI=1S/C21H40O4/c1-2-3-4-5-10-13-16-19(21(24)25)17-14-11-8-6-7-9-12-15-18-20(22)23/h19H,2-18H2,1H3,(H,22,23)(H,24,25)"
SMILES=CCCCCCCCC(CCCCCCCCCCC(=O)O)C(=O)O
SPECTRUMID=CCMSLIB00010107306
55.780659 2149.0 
57.070271 11336.0 
57.96529 2120.0 
63.38549 2237.0 
69.070137 4737.0 
71.086014 5696.0 
78.18364 2302.0 
81.070137 2879.0 
83.085793 8883.0 
85.101151 5588.0 
90.798599 2065.0 
90.976639 3088.0 
95.085342 3965.0 
97.06443 2649.0 
97.101028 2505.0 
121.100754 2347.0 
143.106628 3390.0 
149.131805 2901.0 
175.072571 2670.0 
185.151184 2255.0 
205.312317 2955.0 
213.184616 3131.0 
215.684921 2174.0 
220.93251 2505.0 
241.211731 2803.0 
275.273468 9275.0 
288.921478 3117.0 
293.284119 21055.0 
311.294373 28694.0 
321.276672 14190.0 
339.272156 2903.0 
340.996796 2737.0 
357.12558 46113.0 
357.298553 8732.0 
357.350464 3685.0 
END IONS

BEGIN IONS
NAME=2-(4-hydroxyquinazolin-2-ylthio)-1-(2-methylpiperidyl)ethan-1-one CollisionEnergy:205060 M+Na
PRECURSOR_MZ=340.109
INCHI="InChI=1S/C16H19N3O2S/c1-11-6-4-5-9-19(11)14(20)10-22-16-17-13-8-3-2-7-12(13)15(21)18-16/h2-3,7-8,11H,4-6,9-10H2,1H3,(H,17,18,21)"
SMILES=CC1CCCCN1C(=O)CSc1nc(O)c2ccccc2n1
SPECTRUMID=CCMSLIB00010116821
59.569309 2533.0 
65.224243 2292.0 
66.727623 2248.0 
73.934288 2494.0 
77.795502 2308.0 
100.913902 2649.0 
105.069817 4644.0 
132.044983 3015.0 
194.061142 15439.0 
196.076218 5281.0 
200.643677 2638.0 
211.723724 2753.0 
219.021851 4472.0 
241.003815 645471.0 
282.032104 5544.0 
340.108398 3133386.0 
341.730804 3228.0 
END IONS

BEGIN IONS
NAME="methyl 2-amino-4-(2,6-dichlorophenyl)-6-(hydroxymethyl)-8-oxo-4H-pyrano[3,2-b] pyran-3-carboxylate CollisionEnergy:205060" M+Na
PRECURSOR_MZ=420.001
INCHI="InChI=1S/C17H13Cl2NO6/c1-24-17(23)13-12(11-8(18)3-2-4-9(11)19)15-14(26-16(13)20)10(22)5-7(6-21)25-15/h2-5,12,21H,6,20H2,1H3"
SMILES=COC(=O)C1=C(N)Oc2c(oc(CO)cc2=O)C1c1c(Cl)cccc1Cl
SPECTRUMID=CCMSLIB00010123366
64.875389 2306.0 
76.364418 2552.0 
89.26577 2626.0 
118.663742 2635.0 
135.371429 2730.0 
217.440079 2216.0 
263.010651 2654.0 
268.542053 2142.0 
320.968475 2998.0 
387.974854 165851.0 
420.001007 133502.0 
END IONS

BEGIN IONS
NAME=AC1MNXER CollisionEnergy:102040 M+Na
PRECURSOR_MZ=267.06
INCHI="InChI=1S/C7H17O7P/c1-3-12-7(13-4-2)6(8)5-14-15(9,10)11/h6-8H,3-5H2,1-2H3,(H2,9,10,11)"
SMILES=CCOC(OCC)C(O)COP(=O)(O)O
SPECTRUMID=CCMSLIB00010102985
73.028999 17752.300781 
73.968903 8423.400391 
98.984497 9727.969727 
101.059998 14163.0 
107.384003 8237.740234 
118.678001 8074.220215 
120.966003 240600.0 
123.042 1349730.0 
136.238998 9550.019531 
141.052002 38398.601562 
148.998001 61574.398438 
174.977005 137689.0 
184.889008 10801.799805 
184.979996 9565.780273 
221.018005 1223090.0 
267.059998 100354.0 
END IONS

BEGIN IONS
NAME=Hippuric acid CollisionEnergy:102040 M+H
PRECURSOR_MZ=180.066
INCHI="InChI=1S/C9H9NO3/c11-8(12)6-10-9(13)7-4-2-1-3-5-7/h1-5H,6H2,(H,10,13)(H,11,12)"
SMILES=O=C(O)CN=C(O)c1ccccc1
SPECTRUMID=CCMSLIB00010108564
50.015678 5774.0 
51.023651 13507.0 
52.291512 2894.0 
53.039162 15642.0 
61.01112 136743.0 
77.038551 30630.0 
81.033836 16137.0 
95.0494 44982.0 
97.007446 4613.0 
100.024452 4385.0 
101.949783 4347.0 
104.024857 2847.0 
104.755783 3645.0 
105.033562 11282042.0 
105.313187 3887.0 
118.500687 3323.0 
121.188164 2758.0 
134.059937 34881.0 
135.954498 3511.0 
139.000458 38140.0 
151.950562 3654.0 
156.973694 13681.0 
157.011078 642068.0 
162.054977 23366.0 
174.98494 159667.0 
175.055878 3720.0 
180.027527 16274.0 
180.065384 88404.0 
198.00148 12678.0 
END IONS

BEGIN IONS
NAME="6-amino-1-phenyl-1,3-dihydropyrimidine-2,4-dione CollisionEnergy:205060" M-H
PRECURSOR_MZ=202.062
INCHI="InChI=1S/C10H9N3O2/c11-8-6-9(14)12-10(15)13(8)7-4-2-1-3-5-7/h1-6H,11H2,(H,12,14,15)"
SMILES=Nc1cc(O)nc(=O)n1-c1ccccc1
SPECTRUMID=CCMSLIB00010123391
52.19957 1883.0 
60.533691 1903.0 
83.025009 13928.0 
111.219803 2033.0 
111.284073 1892.0 
118.656059 2376.0 
119.544548 2012.0 
130.702423 2067.0 
131.726974 1939.0 
216.102829 2270.0 
END IONS

BEGIN IONS
NAME="2H-benzo[3,4-d]1,3-dioxolen-5-yl-N-[3-(4,4,5,5-tetramethyl(1,3-dioxolan-2-yl)) phenyl]carboxamide CollisionEnergy:102040" M+H
PRECURSOR_MZ=370.165
INCHI="InChI=1S/C21H23NO5/c1-20(2)21(3,4)27-19(26-20)14-6-5-7-15(10-14)22-18(23)13-8-9-16-17(11-13)25-12-24-16/h5-11,19H,12H2,1-4H3,(H,22,23)"
SMILES=CC1(C)OC(c2cccc(N=C(O)c3ccc4c(c3)OCO4)c2)OC1(C)C
SPECTRUMID=CCMSLIB00010109584
51.23452 2366.0 
55.054779 2499.0 
55.109261 2265.0 
57.56506 2677.0 
83.085716 22065.0 
95.049042 14385.0 
101.09594 29937.0 
104.284286 3392.0 
118.057091 2589.0 
120.044327 4870.0 
123.043953 30919.0 
140.231628 2229.0 
144.966812 2302.0 
148.039185 26227.0 
149.0233 183692.0 
211.287033 3369.0 
262.162354 2530.0 
270.075806 652001.0 
334.319702 2385.0 
342.00592 3544.0 
343.200562 2446.0 
370.157959 4184.0 
END IONS

BEGIN IONS
NAME=N-[2-(2-methylindol-3-yl)ethyl](6-oxo(3-hydropyridyl))carboxamide CollisionEnergy:102040 M-H
PRECURSOR_MZ=294.125
INCHI="InChI=1S/C17H17N3O2/c1-11-13(14-4-2-3-5-15(14)20-11)8-9-18-17(22)12-6-7-16(21)19-10-12/h2-7,10,20H,8-9H2,1H3,(H,18,22)(H,19,21)"
SMILES=Cc1[nH]c2ccccc2c1CCN=C(O)c1ccc(O)nc1
SPECTRUMID=CCMSLIB00010107967
65.268784 2256.0 
84.498848 2160.0 
94.029793 185947.0 
101.818489 2771.0 
104.324242 2516.0 
135.019745 3426.0 
137.035751 551747.0 
149.03566 10055.0 
173.108566 131327.0 
202.99968 2517.0 
211.39563 3490.0 
294.125244 2261276.0 
END IONS

BEGIN IONS
NAME=Myricitrin CollisionEnergy:102040 M+Na
PRECURSOR_MZ=487.085
INCHI="InChI=1S/C21H20O12/c1-6-14(26)17(29)18(30)21(31-6)33-20-16(28)13-9(23)4-8(22)5-12(13)32-19(20)7-2-10(24)15(27)11(25)3-7/h2-6,14,17-18,21-27,29-30H,1H3/t6-,14-,17+,18+,21-/m0/s1"
SMILES=CC1OC(Oc2c(-c3cc(O)c(O)c(O)c3)oc3cc(O)cc(O)c3c2=O)C(O)C(O)C1O
SPECTRUMID=CCMSLIB00010112394
51.782532 3112.0 
65.209213 3088.0 
66.744926 3375.0 
71.04921 12162.0 
72.383499 2985.0 
80.610283 2870.0 
81.336349 2958.0 
85.028847 24426.0 
92.379356 3916.0 
104.286568 3116.0 
136.209457 3399.0 
169.047043 163993.0 
170.089066 2993.0 
210.4487 6339.0 
231.32016 3873.0 
244.783249 3837.0 
340.018311 13188.0 
341.026337 976847.0 
359.036621 12677.0 
370.481964 3760.0 
382.055054 4825.0 
405.910309 3082.0 
413.046448 3486.0 
487.084351 2800456.0 
END IONS

BEGIN IONS
NAME=AC1ODT5K CollisionEnergy:102040 M-H
PRECURSOR_MZ=357.207
INCHI="InChI=1S/C22H30O4/c1-14(2)22(25)12-11-21(4)10-9-15(3)13-18(19(21)22)26-20(24)16-5-7-17(23)8-6-16/h5-9,14,18-19,23,25H,10-13H2,1-4H3/t18-,19-,21-,22+/m0/s1"
SMILES=CC1=CCC2(C)CCC(O)(C(C)C)C2C(OC(=O)c2ccc(O)cc2)C1
SPECTRUMID=CCMSLIB00010107067
56.066601 2116.0 
73.967613 2772.0 
93.034317 65701.0 
95.013527 2204.0 
114.483932 2103.0 
134.9021 2152.0 
136.016022 36642.0 
136.232025 2780.0 
137.023972 179555.0 
149.09697 3367.0 
181.660507 2795.0 
219.176392 18348.0 
231.218582 2654.0 
267.027588 2638.0 
357.206909 648799.0 
END IONS

BEGIN IONS
NAME="N-[2-(5-methoxy-2-methylindol-3-yl)ethyl](3,4,5-trimethoxyphenyl)carboxamide CollisionEnergy:205060" M+H
PRECURSOR_MZ=399.191
INCHI="InChI=1S/C22H26N2O5/c1-13-16(17-12-15(26-2)6-7-18(17)24-13)8-9-23-22(25)14-10-19(27-3)21(29-5)20(11-14)28-4/h6-7,10-12,24H,8-9H2,1-5H3,(H,23,25)"
SMILES=COc1ccc2[nH]c(C)c(CCN=C(O)c3cc(OC)c(OC)c(OC)c3)c2c1
SPECTRUMID=CCMSLIB00010119765
50.01548 3470.0 
51.02354 7435.0 
51.846691 3105.0 
53.03904 34559.0 
55.018219 7398.0 
55.054649 5688.0 
57.033878 4758.0 
61.888191 3379.0 
65.038986 73866.0 
65.871941 3388.0 
66.046761 30814.0 
67.018227 13421.0 
67.054764 30843.0 
68.026016 8310.0 
68.997383 6025.0 
69.033852 22444.0 
71.012848 4176.0 
71.049393 14876.0 
73.946533 3848.0 
75.04451 37995.0 
77.039124 17660.0 
78.046692 22839.0 
79.054512 473063.0 
81.033737 290861.0 
81.070107 235557.0 
81.075546 8439.0 
82.041458 8122.0 
83.013206 6983.0 
83.049461 19368.0 
85.028526 16508.0 
91.054283 42671.0 
92.025787 15270.0 
93.033768 37861.0 
94.035133 4922.0 
94.041412 71344.0 
95.049332 92255.0 
96.020782 4068.0 
96.057053 216085.0 
97.028122 6180.0 
97.064697 4389.0 
99.04422 8437.0 
105.033577 8937.0 
105.044678 8339.0 
106.041183 4641.0 
107.01252 5495.0 
107.049217 42368.0 
108.057022 78149.0 
109.02813 58759.0 
109.064758 346103.0 
111.043991 5321.0 
111.080437 111271.0 
113.023087 68305.0 
113.059563 82609.0 
121.028557 52259.0 
121.064636 8929.0 
122.036186 286872.0 
123.044197 26774.0 
124.051857 478126.0 
125.023148 5368.0 
125.059692 18061.0 
127.039093 8448.0 
128.046829 119688.0 
129.069565 6073.0 
130.06517 15102.0 
131.073212 5138.0 
132.056183 6870.0 
132.080795 5247.0 
135.044296 16615.0 
137.023239 108626.0 
137.05983 4297.0 
138.067825 6249.0 
139.075287 770541.0 
141.018326 119021.0 
141.05513 8397.0 
143.071548 53121.0 
144.081039 39958.0 
145.088486 103755.0 
147.067963 5894.0 
147.080399 8192.0 
151.038895 113507.0 
152.046692 1048915.0 
154.062439 14223.0 
155.034317 6056.0 
156.041611 230273.0 
156.080872 33818.0 
157.088516 143411.0 
158.059921 75627.0 
158.096024 52061.0 
160.075287 7579.0 
161.097046 7131.0 
162.091095 4357.0 
165.054489 7423.0 
166.025665 6573.0 
167.034851 6023.0 
167.069458 12428.0 
170.056976 7998.0 
171.065842 5146.0 
171.079895 12128.0 
172.075211 42952.0 
173.08342 829137.0 
174.090103 6685.0 
180.041138 8850.0 
184.036774 83324.0 
185.081314 54107.0 
186.0914 7884.0 
187.099579 33124.0 
188.106842 3175968.0 
195.065079 6952352.0 
196.068695 4386.0 
197.070389 5533.0 
199.061005 5079.0 
204.975998 4068.0 
231.113403 42575.0 
238.106598 26912.0 
364.15033 4882.0 
382.164703 109400.0 
399.19101 346629.0 
END IONS

BEGIN IONS
NAME="ethyl 4-((1S,2S,7S,11S,16S,5R,9R,10R,14R,15R)-5,9,16-trihydroxy-2,15-dimethylt etracyclo[8.7.0.0<2,7>.0<11,15>]heptadec-14-yl)pentanoate CollisionEnergy:205060" M+Na
PRECURSOR_MZ=459.308
INCHI="InChI=1S/C26H44O5/c1-5-31-23(30)9-6-15(2)18-7-8-19-24-20(14-22(29)26(18,19)4)25(3)11-10-17(27)12-16(25)13-21(24)28/h15-22,24,27-29H,5-14H2,1-4H3/t15-,16+,17-,18-,19+,20+,21-,22+,24+,25+,26-/m1/s1"
SMILES=CCOC(=O)CCC(C)C1CCC2C3C(O)CC4CC(O)CCC4(C)C3CC(O)C12C
SPECTRUMID=CCMSLIB00010124921
65.038857 84721.0 
68.964127 58823.0 
72.807693 57632.0 
77.009277 62247.0 
79.054367 61206.0 
91.054321 8762524.0 
92.0495 624324.0 
92.373138 68915.0 
93.057381 1348275.0 
94.368782 53104.0 
102.046211 287637.0 
103.0541 247077.0 
107.049057 1066087.0 
107.057037 76448.0 
107.060638 123713.0 
108.067749 69090.0 
108.080399 96038.0 
109.076233 87111.0 
115.053902 338540.0 
116.049622 245602.0 
117.057159 391674.0 
117.069687 354425.0 
118.644302 62303.0 
119.060417 1216686.0 
119.085403 1048372.0 
123.998497 67503.0 
125.015099 2831002.0 
125.025482 99819.0 
128.061996 299359.0 
129.044189 91494.0 
129.069595 673537.0 
130.065094 2942845.0 
130.076157 137889.0 
131.048935 1355517.0 
131.060211 489876.0 
132.05687 215335.0 
132.068024 746533.0 
132.080505 792149.0 
133.075882 10345437.0 
137.015091 2872970.0 
139.029892 56753.0 
140.049011 107390.0 
142.052734 79257.0 
142.065247 79092.0 
143.04866 293450.0 
143.060532 77356.0 
145.064484 2190598.0 
145.075836 327176.0 
147.080215 1465946.0 
149.014618 432127.0 
149.107208 25614784.0 
151.030869 289747.0 
154.704651 63360.0 
155.060562 92422.0 
156.068268 620731.0 
157.075958 42704468.0 
157.965973 53595.0 
158.083572 586130.0 
159.055588 128103.0 
159.091553 769707.0 
160.074265 184237.0 
163.030334 230274.0 
165.010025 13967625.0 
166.065063 266847.0 
167.073212 74479.0 
169.076981 69960.0 
170.083664 326628.0 
171.04364 4067485.0 
171.059235 148242.0 
171.079544 276257.0 
172.099762 79105.0 
173.059937 69401.0 
174.078873 236710.0 
175.086411 336442.0 
177.065109 118731.0 
182.083572 235159.0 
183.091522 5561515.0 
184.064178 71628.0 
184.423019 78751.0 
185.070724 74674920.0 
187.086212 67223.0 
194.060455 88295.0 
197.070831 117229.0 
198.078491 1105179.0 
199.075272 256178.0 
208.088287 362091.0 
209.107468 81978.0 
211.086258 7885558.0 
219.0914 90721.0 
232.086304 89028.0 
237.100769 401537.0 
241.04039 119283.0 
243.057236 523472.0 
245.106812 281612.0 
246.114761 78498.0 
255.067291 1067552.0 
258.103149 100567.0 
259.122253 89740.0 
261.103333 97916.0 
266.068878 61865.0 
267.056366 2419592.0 
269.074677 280923.0 
270.117523 201776.0 
273.101685 71536.0 
279.069183 98694.0 
279.114227 72220.0 
281.083496 1611056.0 
287.115845 581705.0 
288.124756 604356.0 
291.059814 124993.0 
295.098907 295401.0 
297.079163 1073528.0 
305.083344 1819912.0 
306.067047 91582.0 
308.073273 131622.0 
309.067322 2004523.0 
309.104675 103621.0 
311.082825 5127796.0 
321.560211 78717.0 
321.601654 254067.0 
322.087738 215320.0 
323.093872 238048848.0 
324.096375 137033.0 
324.598419 231817.0 
325.110504 277269.0 
353.140961 96886.0 
365.14151 374976.0 
399.125275 356765.0 
417.07132 94900.0 
417.135864 3674837.0 
459.182587 21092866.0 
459.300018 5040776.0 
END IONS

BEGIN IONS
NAME=methyl 1-methylbeta-carboline-3-carboxylate CollisionEnergy:102040 M+Na
PRECURSOR_MZ=263.079
INCHI="InChI=1S/C14H12N2O2/c1-8-13-10(7-12(15-8)14(17)18-2)9-5-3-4-6-11(9)16-13/h3-7,16H,1-2H3"
SMILES=COC(=O)c1cc2c([nH]c3ccccc32)c(C)n1
SPECTRUMID=CCMSLIB00010103515
56.400612 2169.0 
63.803711 2754.0 
66.750282 2011.0 
68.770813 2526.0 
73.96064 2376.0 
90.947594 3183.0 
91.054749 2995.0 
116.04953 9302.0 
131.094406 2603.0 
131.962402 3220.0 
133.075668 3164.0 
141.001068 2426.0 
141.96933 2445.0 
145.142517 2561.0 
146.059982 5828.0 
149.059631 29635.0 
151.026047 9761.0 
152.046356 4840.0 
153.017944 4757.0 
157.991516 3251.0 
163.08667 18037.0 
224.949173 4034.0 
233.015533 5385.0 
242.020554 60220.0 
242.521545 45168.0 
251.025848 67186.0 
251.527023 46470.0 
262.534332 29805.0 
263.078705 2299252.0 
304.104034 16431.0 
320.956024 18896.0 
321.956909 3503.0 
333.01825 3293.0 
END IONS

BEGIN IONS
NAME=daidzein CollisionEnergy:102040 M-H
PRECURSOR_MZ=253.051
INCHI="InChI=1S/C15H10O4/c16-10-3-1-9(2-4-10)13-8-19-14-7-11(17)5-6-12(14)15(13)18/h1-8,16-17H"
SMILES=O=c1c(-c2ccc(O)cc2)coc2cc(O)ccc12
SPECTRUMID=CCMSLIB00010107327
53.179581 2796.0 
60.351841 3241.0 
67.374252 3539.0 
70.010551 2861.0 
79.231583 3320.0 
91.018837 12324.0 
92.372963 4234.0 
102.274757 3243.0 
116.928459 5174.0 
118.113663 3277.0 
126.327606 3427.0 
132.022507 6234.0 
133.029495 23258.0 
135.009262 33788.0 
136.199234 4053.0 
169.065308 7134.0 
180.056335 4180.0 
181.065308 6363.0 
195.045319 7236.0 
196.052643 15525.0 
197.061615 34647.0 
208.053024 22996.0 
209.060928 90138.0 
211.039444 7162.0 
216.923203 5430.0 
223.039536 16601.0 
224.04718 78756.0 
225.055557 66234.0 
234.932526 5229.0 
251.997726 24127.0 
252.043335 38066.0 
253.050827 17075264.0 
254.109512 24451.0 
END IONS

BEGIN IONS
NAME="1-(3,4-dimethoxyphenyl)-3-[(4-chlorophenyl)sulfonyl]propan-1-one CollisionEnergy:205060" M+Na
PRECURSOR_MZ=391.038
INCHI="InChI=1S/C17H17ClO5S/c1-22-16-8-3-12(11-17(16)23-2)15(19)9-10-24(20,21)14-6-4-13(18)5-7-14/h3-8,11H,9-10H2,1-2H3"
SMILES=COc1ccc(C(=O)CCS(=O)(=O)c2ccc(Cl)cc2)cc1OC
SPECTRUMID=CCMSLIB00010121530
67.125648 2518.0 
71.086166 2571.0 
73.093063 2197.0 
75.553482 2497.0 
88.960167 2379.0 
95.127037 2461.0 
104.298187 3001.0 
118.666222 2826.0 
136.221634 3173.0 
141.86142 2721.0 
146.080353 2463.0 
149.023361 17712.0 
177.816635 2259.0 
196.06076 3920.0 
215.068085 3703.0 
224.091705 13051.0 
257.101166 3685.0 
349.314636 2600.0 
361.110291 3882.0 
373.92569 2480.0 
391.037231 629404.0 
391.154388 32501.0 
END IONS

BEGIN IONS
NAME="N-{2-[4-(N,N-diethylcarbamoyl)-2-methoxyphenoxy]ethyl}acetamide CollisionEnergy:205060" M+Na
PRECURSOR_MZ=331.163
INCHI="InChI=1S/C16H24N2O4/c1-5-18(6-2)16(20)13-7-8-14(15(11-13)21-4)22-10-9-17-12(3)19/h7-8,11H,5-6,9-10H2,1-4H3,(H,17,19)"
SMILES=CCN(CC)C(=O)c1ccc(OCCN=C(C)O)c(OC)c1
SPECTRUMID=CCMSLIB00010115359
73.947227 2639.0 
84.959518 3472.0 
86.09639 19065.0 
98.983841 15134.0 
109.593964 2630.0 
155.908417 2881.0 
173.020523 4464.0 
228.062531 3892.0 
246.109467 21076.0 
331.161957 3343662.0 
END IONS

BEGIN IONS
NAME="methyl 2-[(3,4-diethoxyphenyl)methylene]-3-oxobenzo[b]furan-5-carboxylate CollisionEnergy:205060" M+H
PRECURSOR_MZ=369.133
INCHI="InChI=1S/C21H20O6/c1-4-25-17-8-6-13(10-18(17)26-5-2)11-19-20(22)15-12-14(21(23)24-3)7-9-16(15)27-19/h6-12H,4-5H2,1-3H3/b19-11+"
SMILES=CCOc1ccc(C=C2Oc3ccc(C(=O)OC)cc3C2=O)cc1OCC
SPECTRUMID=CCMSLIB00010117959
53.03896 5718.0 
65.03904 4713.0 
67.054527 14672.0 
79.054657 6660.0 
81.033684 5291.0 
82.405457 3527.0 
87.519569 2638.0 
89.038612 6732.0 
91.054497 22850.0 
94.217453 3281.0 
95.049217 31726.0 
95.085632 3519.0 
103.054123 7253.0 
104.29377 3563.0 
104.647591 2808.0 
105.033333 30132.0 
105.070038 4245.0 
107.049187 23570.0 
109.027946 4341.0 
110.036079 13788.0 
115.054008 13441.0 
116.061546 3525.0 
117.069527 13433.0 
118.040916 3192.0 
119.013206 22372.0 
119.049019 5208.0 
121.028442 28216.0 
123.043999 160949.0 
128.06192 3073.0 
129.069992 4457.0 
131.048935 17076.0 
133.065002 3597.0 
134.036407 36454.0 
135.044235 31320.0 
136.015182 25764.0 
136.084198 3440.0 
137.02301 13620.0 
141.06955 5849.0 
142.077316 3600.0 
143.048615 3653.0 
144.056717 6823.0 
145.064346 13035.0 
147.044022 5049.0 
151.038727 38878.0 
151.075165 39340.0 
152.061768 28912.0 
153.070572 10902.0 
155.048676 4102.0 
159.043304 3505.0 
161.023209 48658.0 
161.059677 6086.0 
163.038651 5316.0 
165.018311 85169.0 
165.055176 5430.0 
165.069778 28790.0 
167.085754 28907.0 
168.056915 4290.0 
169.064667 17078.0 
170.072739 4627.0 
178.077026 15246.0 
179.033783 498282.0 
180.056961 19309.0 
181.064377 19613.0 
182.072083 4629.0 
183.043915 5194.0 
184.051788 6076.0 
189.054642 17600.0 
191.033783 6614.0 
192.0569 15599.0 
193.065445 4123.0 
195.080551 41364.0 
196.051483 6413.0 
197.059555 47684.0 
198.067383 17630.0 
201.055054 13887.0 
203.069931 67765.0 
205.047287 3680.0 
205.067291 3455.0 
207.044037 6067.0 
207.080032 4561.0 
208.051453 23487.0 
208.087036 4450.0 
209.060791 7325.0 
211.039627 3802.0 
211.075592 12472.0 
212.046677 6501.0 
213.090591 12661.0 
217.049683 4603.0 
219.064941 43887.0 
221.058945 3490.0 
223.075638 28303.0 
224.046082 4814.0 
225.054443 53477.0 
226.062775 33001.0 
229.049332 3709.0 
229.085663 4653.0 
232.073181 16134.0 
235.036606 22274.0 
235.058777 3709.0 
236.04628 28162.0 
236.080338 3479.0 
237.054596 16220.0 
239.069916 108933.0 
240.040817 5757.0 
242.057266 15091.0 
243.037125 4790.0 
243.064499 46555.0 
249.03801 3708.0 
251.069641 19122.0 
252.041962 4494.0 
253.0495 65261.0 
254.056793 7184.0 
255.064423 37524.0 
256.072662 11911.0 
257.080444 106155.0 
263.034515 11144.0 
263.067596 4770.0 
265.049591 6654.0 
266.057678 30833.0 
267.064941 427707.0 
268.035889 6795.0 
269.079773 4773.0 
270.052826 5363.0 
279.06369 13437.0 
281.04422 79968.0 
281.078217 6919.0 
283.059723 52469.0 
284.030945 32703.0 
284.067383 22617.0 
285.042084 4249.0 
285.075775 16454.0 
286.046448 13275.0 
291.065796 4774.0 
294.051361 4273.0 
295.059967 357711.0 
295.095215 23871.0 
297.075134 22245.0 
305.0802 14797.0 
308.065247 3870.0 
311.012817 4850.0 
311.054474 227162.0 
312.062439 56510.0 
313.070129 277393.0 
321.075012 28580.0 
323.091278 23996.0 
325.070587 19192.0 
339.086182 14814.0 
340.093964 43522.0 
341.101471 280232.0 
369.132782 1741853.0 
END IONS

BEGIN IONS
NAME="ethyl 3-indol-3-yl-2-{[(4-methoxy-3-(1,2,3,4-tetraazolyl)phenyl)sulfonyl]amino }propanoate CollisionEnergy:205060" M+Na
PRECURSOR_MZ=493.126
INCHI="InChI=1S/C21H22N6O5S/c1-3-32-21(28)18(10-14-12-22-17-7-5-4-6-16(14)17)24-33(29,30)15-8-9-20(31-2)19(11-15)27-13-23-25-26-27/h4-9,11-13,18,22,24H,3,10H2,1-2H3"
SMILES=CCOC(=O)C(Cc1c[nH]c2ccccc12)NS(=O)(=O)c1ccc(OC)c(-n2cnnn2)c1
SPECTRUMID=CCMSLIB00010121432
56.877071 2539.0 
70.205627 2729.0 
81.7668 2999.0 
82.39286 2478.0 
104.279846 3191.0 
130.064941 5797.0 
171.052292 3676.0 
186.03801 2714.0 
210.033188 4743.0 
235.01506 11051.0 
250.026016 5745.0 
255.111038 3691.0 
334.046417 37420.0 
391.084106 23520.0 
437.088715 20225.0 
465.119568 1516325.0 
493.124573 4697.0 
506.144165 6541.0 
END IONS

BEGIN IONS
NAME=L-leucine CollisionEnergy:102040 M+H
PRECURSOR_MZ=132.102
INCHI="InChI=1S/C6H13NO2/c1-4(2)3-5(7)6(8)9/h4-5H,3,7H2,1-2H3,(H,8,9)/t5-/m0/s1"
SMILES=CC(C)C[C@H](N)C(=O)O
SPECTRUMID=CCMSLIB00010102900
57.432098 1977.589966 
59.301601 1859.849976 
64.149803 2032.650024 
69.070999 2715.790039 
86.097099 1513960.0 
90.903603 18676.599609 
103.953003 2261.439941 
114.734001 2515.800049 
118.665001 2590.370117 
126.331001 2075.379883 
132.102005 25575.199219 
END IONS

BEGIN IONS
NAME=2H-chromen-3-yl-N-(4-ethylphenyl)carboxamide CollisionEnergy:205060 M+Na
PRECURSOR_MZ=302.115
INCHI="InChI=1S/C18H17NO2/c1-2-13-7-9-16(10-8-13)19-18(20)15-11-14-5-3-4-6-17(14)21-12-15/h3-11H,2,12H2,1H3,(H,19,20)"
SMILES=CCc1ccc(NC(=O)C2=Cc3ccccc3OC2)cc1
SPECTRUMID=CCMSLIB00010118144
55.163971 2417.0 
70.048363 2248.0 
83.61132 2095.0 
289.99472 2419.0 
302.114563 98038.0 
END IONS

BEGIN IONS
NAME="Prunin, Naringenin-7-O-glucoside CollisionEnergy:102040" M-H
PRECURSOR_MZ=433.114
INCHI="InChI=1S/C21H22O10/c22-8-16-18(26)19(27)20(28)21(31-16)29-11-5-12(24)17-13(25)7-14(30-15(17)6-11)9-1-3-10(23)4-2-9/h1-6,14,16,18-24,26-28H,7-8H2/t14-,16?,18+,19+,20-,21?/m0/s1"
SMILES=O=C1CC(c2ccc(O)cc2)Oc2cc(OC3OC(CO)C(O)C(O)C3O)cc(O)c21
SPECTRUMID=CCMSLIB00010111931
54.640839 3349.0 
63.02367 14759.0 
65.002937 34540.0 
68.38028 3144.0 
73.92881 3294.0 
79.794533 3938.0 
83.013741 35993.0 
88.755463 3673.0 
92.371902 4309.0 
93.034554 280412.0 
104.277992 5979.0 
107.013977 136958.0 
119.05027 691681.0 
121.029694 6312.0 
125.024368 45352.0 
137.024841 7397.0 
142.106461 3979.0 
145.030197 17648.0 
149.023941 6463.0 
151.00386 2034514.0 
164.01178 8403.0 
165.019699 82357.0 
169.014221 36311.0 
175.003815 115558.0 
177.019531 245050.0 
179.034698 4949.0 
185.060898 5959.0 
193.014359 71519.0 
196.001617 14980.0 
205.014847 16304.0 
210.387009 5891.0 
219.03006 6548.0 
227.070114 36790.0 
229.051361 4605.0 
253.051056 13968.0 
268.66684 4380.0 
269.893829 5241.0 
270.054199 5269.0 
271.061554 12051925.0 
272.239471 7387.0 
285.078461 5977.0 
295.06134 190530.0 
313.072479 194191.0 
325.072449 20400.0 
343.081757 4143.0 
373.094147 6955.0 
415.102722 6772.0 
433.113983 897377.0 
END IONS

BEGIN IONS
NAME=2-amino-7-hydroxy-4-[3-(trifluoromethyl)phenyl]-4H-chromene-3-carbonitrile CollisionEnergy:102040 M-H
PRECURSOR_MZ=331.07
INCHI="InChI=1S/C17H11F3N2O2/c18-17(19,20)10-3-1-2-9(6-10)15-12-5-4-11(23)7-14(12)24-16(22)13(15)8-21/h1-7,15,23H,22H2"
SMILES=N#CC1=C(N)Oc2cc(O)ccc2C1c1cccc(C(F)(F)F)c1
SPECTRUMID=CCMSLIB00010107324
52.416012 2543.0 
55.159569 2167.0 
77.556038 2159.0 
85.140266 2324.0 
91.604813 2260.0 
92.383347 2790.0 
114.63501 2202.0 
118.661102 2589.0 
119.395737 2220.0 
136.212112 2518.0 
180.989456 16398.0 
194.924423 4770.0 
252.814316 2351.0 
277.04892 2529.0 
290.04248 29691.0 
290.988922 3209.0 
291.051147 82412.0 
304.05899 53349.0 
310.978516 10501.0 
314.043915 5222.0 
315.051605 18038.0 
330.841431 3002.0 
330.980103 141695.0 
331.070038 537108.0 
332.593048 2648.0 
353.926178 2498.0 
END IONS

BEGIN IONS
NAME="7-hydroxy-6-methoxy-8-[3,4,5-trihydroxy-6-(hydroxymethyl)(2H-3,4,5,6-tetrahydr opyran-2-yl)oxy]chromen-2-one CollisionEnergy:102040" M-H
PRECURSOR_MZ=369.083
INCHI="InChI=1S/C16H18O10/c1-23-7-4-6-2-3-9(18)25-14(6)15(11(7)20)26-16-13(22)12(21)10(19)8(5-17)24-16/h2-4,8,10,12-13,16-17,19-22H,5H2,1H3"
SMILES=COc1cc2ccc(=O)oc2c(OC2OC(CO)C(O)C(O)C2O)c1O
SPECTRUMID=CCMSLIB00010110435
68.9412 2824.0 
163.003433 6662.0 
190.027405 3656.0 
190.978806 6520.0 
190.998566 234922.0 
192.00647 658382.0 
193.014343 7076.0 
205.013931 13713.0 
205.998917 5399.0 
206.022064 375524.0 
207.029877 1866867.0 
232.915024 3727.0 
267.004578 3088.0 
354.058502 48841.0 
369.082764 3105045.0 
END IONS

BEGIN IONS
NAME=2-methoxyethyl 5-hydroxy-2-methyl-1-(3-methylphenyl)benzo[g]indole-3-carboxyla te CollisionEnergy:205060 M+H
PRECURSOR_MZ=390.17
INCHI="InChI=1S/C24H23NO4/c1-15-7-6-8-17(13-15)25-16(2)22(24(27)29-12-11-28-3)20-14-21(26)18-9-4-5-10-19(18)23(20)25/h4-10,13-14,26H,11-12H2,1-3H3"
SMILES=COCCOC(=O)c1c(C)n(-c2cccc(C)c2)c2c1cc(O)c1ccccc12
SPECTRUMID=CCMSLIB00010120873
59.04961 2639.0 
63.01265 2427.0 
76.949661 2986.0 
92.38578 3575.0 
104.292999 3084.0 
106.347397 2492.0 
110.092361 2863.0 
136.224548 3175.0 
144.711212 2384.0 
154.038742 2430.0 
177.434799 2831.0 
194.05954 4684.0 
218.096481 4744.0 
223.061752 10454.0 
228.078354 2965.0 
242.094696 19389.0 
243.10347 35287.0 
245.095627 4229.0 
246.091019 61017.0 
253.087891 10691.0 
254.096344 26769.0 
256.077728 8291.0 
256.108185 3806.0 
257.11673 9932.0 
258.127258 51326.0 
267.103302 6220.0 
268.111023 61672.0 
269.11972 20809.0 
270.09082 129706.0 
271.098358 228634.0 
284.105927 26112.0 
285.113495 47255.0 
285.628876 2768.0 
286.12207 196889.0 
287.125305 5367.0 
297.116608 3148.0 
298.084625 9713.0 
299.093353 520954.0 
313.107666 5587.0 
314.11673 2134048.0 
315.119049 3505.0 
358.142578 5582.0 
390.164734 19168.0 
END IONS

BEGIN IONS
NAME="N-(2,6-dimethylphenyl){4-[(4-hydroxy-6-propylpyrimidin-2-ylthio)methyl]phenyl} carboxamide CollisionEnergy:205060" 2M-H
PRECURSOR_MZ=813.326
INCHI="InChI=1S/C23H25N3O2S/c1-4-6-19-13-20(27)25-23(24-19)29-14-17-9-11-18(12-10-17)22(28)26-21-15(2)7-5-8-16(21)3/h5,7-13H,4,6,14H2,1-3H3,(H,26,28)(H,24,25,27)"
SMILES=CCCc1cc(O)nc(SCc2ccc(C(=O)Nc3c(C)cccc3C)cc2)n1
SPECTRUMID=CCMSLIB00010116281
57.975159 328920.0 
92.385803 4780.0 
108.144531 3696.0 
118.65818 4095.0 
120.081848 9189.0 
135.056274 16411.0 
137.006531 69986.0 
137.072006 123138.0 
140.005051 16222.0 
140.022308 3456.0 
146.061005 20920.0 
168.036209 37388.0 
169.044113 113823.0 
171.994553 30958.0 
181.0448 17332.0 
182.0513 6147.0 
182.069397 5296.0 
208.124939 15870.0 
225.103378 149935.0 
227.079117 21128.0 
228.054413 14842.0 
240.086517 18583.0 
250.070084 14454.0 
263.120056 4330.0 
268.079346 51883.0 
270.096802 21597.0 
294.084167 15060.0 
303.218323 4464.0 
303.251099 4541.0 
363.153839 6129.0 
372.171661 409410.0 
406.159515 1280386.0 
419.526642 4308.0 
611.440125 4393.0 
651.783264 3932.0 
691.222595 4445.0 
END IONS

BEGIN IONS
NAME="methylethyl 2-amino-4-(4-chlorophenyl)-6-(hydroxymethyl)-8-oxo-4H-pyrano[3,2-b ]pyran-3-carboxylate CollisionEnergy:205060" M+Na
PRECURSOR_MZ=414.071
INCHI="InChI=1S/C19H18ClNO6/c1-9(2)25-19(24)15-14(10-3-5-11(20)6-4-10)17-16(27-18(15)21)13(23)7-12(8-22)26-17/h3-7,9,14,22H,8,21H2,1-2H3"
SMILES=CC(C)OC(=O)C1=C(N)Oc2c(oc(CO)cc2=O)C1c1ccc(Cl)cc1
SPECTRUMID=CCMSLIB00010121682
63.905281 2208.0 
70.914772 2164.0 
81.957947 2343.0 
235.014267 4603.0 
262.980316 4776.0 
263.010345 101373.0 
264.015717 15880.0 
265.006256 89021.0 
266.015472 11107.0 
267.023285 5228.0 
296.988556 3469.0 
301.99115 3576.0 
354.011505 26071.0 
356.403625 2727.0 
367.989319 57461.0 
369.013458 8255.0 
414.027924 58098.0 
414.072662 60856.0 
455.093994 5435.0 
END IONS

BEGIN IONS
NAME="2-(acetylamino)-N-{[N-(2,6-dimethylphenyl)carbamoyl]cyclohexyl}-N-(2-indol-3-y lethyl)acetamide CollisionEnergy:102040" M+formate
PRECURSOR_MZ=533.277
INCHI="InChI=1S/C29H36N4O3/c1-20-10-9-11-21(2)27(20)32-28(36)29(15-7-4-8-16-29)33(26(35)19-30-22(3)34)17-14-23-18-31-25-13-6-5-12-24(23)25/h5-6,9-13,18,31H,4,7-8,14-17,19H2,1-3H3,(H,30,34)(H,32,36)"
SMILES=CC(O)=NCC(=O)N(CCc1c[nH]c2ccccc12)C1(C(O)=Nc2c(C)cccc2C)CCCCC1
SPECTRUMID=CCMSLIB00010111441
57.395611 2980.0 
62.93972 2771.0 
65.190697 2797.0 
71.595543 2458.0 
81.065727 2677.0 
84.030403 3028.0 
98.024719 5919.0 
105.083603 2940.0 
112.985222 3497.0 
120.081642 15765.0 
159.092911 47943.0 
162.092117 25414.0 
179.118591 3473.0 
181.097855 20083.0 
192.930267 3737.0 
212.721115 3991.0 
212.739624 2784.0 
223.108032 5849.0 
245.16539 67859.0 
302.187622 3792.0 
324.171448 81802.0 
327.119537 3141.0 
328.90329 3560.0 
344.199005 45395.0 
366.183594 58626.0 
388.239044 151533.0 
445.261017 61913.0 
487.271332 355811.0 
END IONS

BEGIN IONS
NAME=Vinburnine CollisionEnergy:102040 M+H
PRECURSOR_MZ=295.181
INCHI="InChI=1S/C19H22N2O/c1-2-19-9-5-10-20-11-8-14-13-6-3-4-7-15(13)21(16(22)12-19)17(14)18(19)20/h3-4,6-7,18H,2,5,8-12H2,1H3/t18-,19+/m1/s1"
SMILES=CCC12CCCN3CCc4c(n(c5ccccc45)C(=O)C1)C32
SPECTRUMID=CCMSLIB00010105100
56.05003 25752.0 
58.06554 24227.0 
68.049889 9734.0 
70.065437 648509.0 
72.081123 20402.0 
72.814552 5216.0 
82.065269 23465.0 
83.049232 6786.0 
83.073067 84656.0 
84.080917 721300.0 
95.085709 10758.0 
96.080757 10033.0 
98.096237 39448.0 
105.070221 4494.0 
107.085426 20120.0 
108.080994 9266.0 
110.05883 5289.0 
110.09623 6893.0 
110.590042 4584.0 
119.085587 9739.0 
121.101562 5059.0 
122.060226 19465.0 
122.096031 46935.0 
123.079803 6897.0 
124.075569 119807.0 
130.065186 8478.0 
132.080276 76028.0 
133.064468 34591.0 
135.080353 9536.0 
136.112122 8964.0 
138.09108 35071.0 
144.080673 323150.0 
146.0961 34444.0 
147.079742 8029.0 
150.091049 158807.0 
152.106812 317120.0 
156.07962 7804.0 
158.059723 9248.0 
158.096771 36027.0 
164.107254 23731.0 
167.073517 9846.0 
168.080505 20431.0 
170.060699 11078.0 
170.096085 8566.0 
171.091797 6053.0 
172.075134 9309.0 
172.111115 40302.0 
180.081955 19271.0 
181.088837 9667.0 
182.097565 10996.0 
184.076797 48844.0 
184.111923 33181.0 
194.096024 8227.0 
196.074615 75673.0 
196.110718 10229.0 
197.082733 126686.0 
198.09285 36283.0 
198.128464 38148.0 
208.112366 36714.0 
209.083755 7504.0 
210.090546 54369.0 
210.126755 48285.0 
211.099091 10759.0 
212.105865 81712.0 
212.361923 5232.0 
222.091446 15416.0 
222.128387 67782.0 
223.10083 49957.0 
224.106583 92316.0 
224.131363 104041.0 
225.114349 119375.0 
225.136383 6257.0 
226.122192 619597.0 
228.139603 9656.0 
235.098572 40127.0 
236.106842 23866.0 
236.143234 132976.0 
236.166763 7607.0 
237.115021 97188.0 
237.136856 6582.0 
238.122162 2003963.0 
238.156342 79502.0 
240.138382 21804.0 
246.127762 9086.0 
248.140411 9446.0 
249.114395 107705.0 
250.123413 21680.0 
250.158875 48476.0 
252.137512 547580.0 
253.169266 854059.0 
263.128235 8227.0 
264.137604 552333.0 
266.153717 1761516.0 
267.186279 17681.0 
268.167358 9167.0 
277.170593 23976.0 
278.153259 267608.0 
280.155457 6582.0 
293.861572 11386.0 
294.172699 8798.0 
295.179779 34309836.0 
296.507294 19141.0 
END IONS

BEGIN IONS
NAME=oligomycin A CollisionEnergy:102040 M+formate
PRECURSOR_MZ=835.521
INCHI="InChI=1S/C45H74O11/c1-12-34-17-15-13-14-16-27(4)42(51)44(11,53)43(52)32(9)40(50)31(8)39(49)30(7)38(48)26(3)18-21-37(47)54-41-29(6)35(20-19-34)55-45(33(41)10)23-22-25(2)36(56-45)24-28(5)46/h13-15,17-18,21,25-36,38,40-42,46,48,50-51,53H,12,16,19-20,22-24H2,1-11H3/b14-13+,17-15+,21-18+/t25-,26-,27+,28+,29+,30-,31-,32-,33-,34-,35-,36-,38+,40+,41+,42-,44+,45-/m1/s1"
SMILES=CCC1C=CC=CCC(C)C(O)C(C)(O)C(=O)C(C)C(O)C(C)C(=O)C(C)C(O)C(C)C=CC(=O)OC2C(C)C(CC1)OC1(CCC(C)C(CC(C)O)O1)C2C
SPECTRUMID=CCMSLIB00010112929
61.748711 3846.0 
64.926697 2870.0 
71.013344 25664.0 
78.005539 3926.0 
81.034332 15019.0 
82.397163 3871.0 
92.378693 4667.0 
93.514442 3339.0 
93.596733 4019.0 
94.071068 3033.0 
109.029533 14835.0 
113.061043 23004.0 
127.428818 3397.0 
129.055649 7997.0 
135.082245 3567.0 
136.170807 2929.0 
150.224228 3669.0 
195.10318 5472.0 
243.125092 11512.0 
270.43811 4018.0 
380.322876 3707.0 
401.957367 3507.0 
545.385071 6151.0 
573.38092 93078.0 
626.41626 4069.0 
641.443176 3888.0 
687.448914 4951.0 
835.515503 4441.0 
END IONS

BEGIN IONS
NAME=[2-oxo-3-(phenylcarbonylamino)(4-hydroquinolyl)]-N-benzamide CollisionEnergy:205060 M+Na
PRECURSOR_MZ=406.116
INCHI="InChI=1S/C23H17N3O3/c27-21(15-9-3-1-4-10-15)26-20-19(22(28)24-16-11-5-2-6-12-16)17-13-7-8-14-18(17)25-23(20)29/h1-14H,(H,24,28)(H,25,29)(H,26,27)"
SMILES=OC(=Nc1c(O)nc2ccccc2c1C(O)=Nc1ccccc1)c1ccccc1
SPECTRUMID=CCMSLIB00010122852
70.089127 2506.0 
96.91391 2404.0 
105.033371 36268.0 
118.649483 2566.0 
129.671616 2389.0 
141.872009 2484.0 
152.15863 2639.0 
166.026443 20149.0 
180.080063 21412.0 
269.067322 23059.0 
272.15213 2565.0 
285.063782 11910.0 
313.05777 425440.0 
354.086975 3920.0 
388.105133 10373.0 
406.115631 537667.0 
END IONS

BEGIN IONS
NAME=(2R)-2-amino-3-cyclohexylpropanoic acid CollisionEnergy:205060 M+Na
PRECURSOR_MZ=194.115
INCHI="InChI=1S/C9H17NO2/c10-8(9(11)12)6-7-4-2-1-3-5-7/h7-8H,1-6,10H2,(H,11,12)/t8-/m1/s1"
SMILES=NC(CC1CCCCC1)C(=O)O
SPECTRUMID=CCMSLIB00010118858
55.934959 4640.0 
56.965038 2038.0 
57.13821 2172.0 
59.860809 1889.0 
72.93734 2577.0 
73.750061 2033.0 
73.961777 2096.0 
79.054642 8437.0 
82.933777 3111.0 
87.741241 2180.0 
104.297783 2142.0 
105.07019 18030.0 
119.07225 2388.0 
121.064507 11930.0 
130.06485 3681.0 
131.072983 11728.0 
133.064804 12466.0 
134.072449 9854.0 
135.043991 10370.0 
135.08075 4259.0 
141.969818 3584.0 
146.072372 14017.0 
147.067474 32288.0 
148.075287 10475.0 
148.391205 2130.0 
149.059235 3119.0 
150.067215 41236.0 
151.075012 10267.0 
162.090958 33825.0 
163.098511 14871.0 
164.070343 2213.0 
165.090775 160419.0 
170.973206 2620.0 
177.090454 33600.0 
179.093872 14103.0 
194.117264 128576.0 
END IONS

BEGIN IONS
NAME="(3,4-dimethoxyphenyl)-N-[4-({4-[(3,4-dimethoxyphenyl)carbonylamino]cyclohexyl} methyl)cyclohexyl]carboxamide CollisionEnergy:205060" M+2H]
PRECURSOR_MZ=270.159
INCHI="InChI=1S/C31H42N2O6/c1-36-26-15-9-22(18-28(26)38-3)30(34)32-24-11-5-20(6-12-24)17-21-7-13-25(14-8-21)33-31(35)23-10-16-27(37-2)29(19-23)39-4/h9-10,15-16,18-21,24-25H,5-8,11-14,17H2,1-4H3,(H,32,34)(H,33,35)"
SMILES=COc1ccc(C(O)=NC2CCC(CC3CCC(N=C(O)c4ccc(OC)c(OC)c4)CC3)CC2)cc1OC
SPECTRUMID=CCMSLIB00010120244
53.039211 4431.0 
55.05468 40782.0 
57.070358 13752.0 
57.182289 2893.0 
65.038933 7799.0 
66.046761 4475.0 
67.054619 153470.0 
68.025917 4367.0 
69.070183 42607.0 
74.096893 4063.0 
77.039001 3664.0 
79.054512 198403.0 
81.033577 41808.0 
81.070137 296296.0 
82.393051 3787.0 
83.085747 56366.0 
91.05426 15326.0 
93.069939 103543.0 
94.041367 43782.0 
95.049232 39329.0 
95.085587 322787.0 
96.056992 50077.0 
98.035896 4822.0 
107.049057 278547.0 
107.085503 57878.0 
108.056976 121492.0 
109.028374 445475.0 
109.065033 67448.0 
109.100929 33547.0 
110.031464 14050.0 
111.044456 3891.0 
121.101082 54341.0 
122.03569 26544.0 
123.043266 16731.0 
124.051842 5218502.0 
125.054573 123052.0 
126.030693 15233.0 
135.116714 28848.0 
138.067261 4801.0 
138.091705 4000.0 
139.075256 4172920.0 
140.078568 125506.0 
141.055344 3907.0 
148.039383 4822.0 
151.039124 17597.0 
151.591187 6046.0 
155.069733 26325.0 
158.598984 6433.0 
164.070374 72044.0 
165.054489 1315483.0 
166.057465 41114.0 
167.05719 29175.0 
180.10022 3720.0 
182.080948 483157.0 
183.084305 13760.0 
207.806641 6819.0 
207.829102 8555.0 
220.167328 4497.0 
248.127548 17157.0 
262.143646 18611.0 
262.64743 20643.0 
270.158905 2831190.0 
270.660492 385786.0 
276.160522 5714.0 
304.190033 5937.0 
316.190247 6595.0 
358.23642 130593.0 
359.238678 4033.0 
375.263306 29158.0 
401.242737 1081216.0 
402.246063 94996.0 
402.299774 6498.0 
END IONS

BEGIN IONS
NAME="N-(2-fluorophenyl)-2-[2-oxo-4-(2-1,2,3,4-tetrahydroisoquinolylcarbonyl)hydroqu inolyl]acetamide CollisionEnergy:102040" M+H
PRECURSOR_MZ=456.172
INCHI="InChI=1S/C27H22FN3O3/c28-22-10-4-5-11-23(22)29-25(32)17-31-24-12-6-3-9-20(24)21(15-26(31)33)27(34)30-14-13-18-7-1-2-8-19(18)16-30/h1-12,15H,13-14,16-17H2,(H,29,32)"
SMILES=O=C(c1cc(=O)n(CC(O)=Nc2ccccc2F)c2ccccc12)N1CCc2ccccc2C1
SPECTRUMID=CCMSLIB00010114188
56.199749 2896.0 
57.281368 3164.0 
59.711639 2936.0 
60.290871 3178.0 
79.058746 3085.0 
81.030907 2978.0 
92.374474 3390.0 
104.281319 4307.0 
117.069939 5181.0 
130.064972 56502.0 
132.080704 733094.0 
133.051727 5151.0 
146.06015 3851.0 
146.096237 94977.0 
156.044617 6743.0 
158.059921 278985.0 
160.075546 61320.0 
186.054749 293206.0 
199.049942 7481.0 
212.056931 4202.0 
271.121887 6461.0 
273.138428 24775.0 
289.133179 65582.0 
305.127808 264287.0 
317.127869 843447.0 
345.122803 3864653.0 
358.152466 33649.0 
456.170624 270039.0 
END IONS

BEGIN IONS
NAME=abscisic acid CollisionEnergy:205060 M-H2O+H
PRECURSOR_MZ=247.132
INCHI="InChI=1S/C15H20O4/c1-10(7-13(17)18)5-6-15(19)11(2)8-12(16)9-14(15,3)4/h5-8,19H,9H2,1-4H3,(H,17,18)/b6-5+,10-7-/t15-/m1/s1"
SMILES=CC1=CC(=O)CC([C@]1(/C=C/C(=C\C(=O)O)/C)O)(C)C
SPECTRUMID=CCMSLIB00010102265
52.789623 3454.283203 
53.038879 13569.672852 
55.0182 5975.895996 
55.054493 18655.943359 
56.702602 3843.408447 
59.049252 5178.01123 
59.263153 3885.982666 
60.072006 4392.66748 
64.403687 3794.919189 
65.038704 26573.71875 
67.054398 29451.800781 
68.585663 4345.983398 
68.996941 5664.52002 
69.033592 106039.851562 
69.070038 8913.052734 
72.584587 3968.460693 
79.054298 51737.195312 
81.069847 38765.445312 
83.049156 117443.046875 
83.392555 4222.955566 
91.054237 87095.539062 
93.033699 20102.433594 
93.039062 4097.458496 
93.069954 64318.265625 
95.04911 25652.701172 
95.085419 10441.474609 
97.028694 28060.076172 
97.064728 6536.149414 
103.054375 7797.968262 
105.069916 63733.027344 
107.04937 17184.128906 
107.085472 80491.320312 
109.028526 27705.314453 
109.064835 38517.070312 
109.101204 10781.088867 
111.04393 19057.947266 
111.08036 7210.349121 
115.053841 23661.076172 
116.061676 5837.148438 
117.069778 83617.523438 
119.085587 86594.367188 
121.028496 16389.060547 
121.064583 61140.0 
121.101219 29324.253906 
122.072723 5822.911621 
123.080498 15864.453125 
128.062195 22368.636719 
128.422989 4445.054688 
129.069824 38710.792969 
130.077835 11768.039062 
131.08548 92941.710938 
132.056534 26436.277344 
133.064789 10295.370117 
133.10112 38755.113281 
135.080353 144488.46875 
135.11673 7270.350098 
137.059937 15149.611328 
137.096039 16035.371094 
139.039062 8402.707031 
141.069748 15173.919922 
142.07782 18698.863281 
143.085876 56175.195312 
144.093353 57771.578125 
145.064865 84229.984375 
145.101044 54542.496094 
146.072632 10587.738281 
147.080505 26605.394531 
148.051849 5345.633789 
149.059357 5005.017578 
149.096207 100363.875 
150.103897 15314.939453 
151.076248 5913.428711 
151.111465 17517.207031 
153.069824 15327.352539 
153.090591 8585.064453 
154.077637 5838.769531 
155.085312 36797.324219 
156.093094 8456.719727 
157.064713 9065.541992 
157.100723 20328.625 
158.072205 18609.775391 
158.108978 61040.027344 
159.080429 66559.429688 
159.102524 8466.586914 
159.11673 139980.4375 
160.088303 42831.546875 
161.096298 23880.664062 
163.075287 75234.367188 
163.111771 10980.12207 
165.091095 8739.25 
167.085556 7935.55957 
168.093323 36890.242188 
169.100601 25769.087891 
170.108963 20869.939453 
171.080368 53446.621094 
172.088287 140208.8125 
173.059631 9985.637695 
173.095947 132868.96875 
173.132324 116123.34375 
175.075302 5513.213867 
178.076736 5414.145996 
181.064636 16608.191406 
183.116959 47438.941406 
185.095947 10914.764648 
185.133118 9410.027344 
186.103836 132026.484375 
187.111649 407338.34375 
189.091019 13212.18457 
191.070206 223276.46875 
191.141815 4891.203613 
193.100388 6352.541504 
195.080231 7810.458984 
196.08815 38783.476562 
199.075256 14683.810547 
201.127213 201120.90625 
203.143219 6097.86377 
205.121582 22743.189453 
210.650375 4449.997559 
211.111694 41231.546875 
214.097198 21071.597656 
219.137558 30455.248047 
229.121506 279193.40625 
247.13176 553245.875 
END IONS

BEGIN IONS
NAME=ST077127 CollisionEnergy:205060 2M-H
PRECURSOR_MZ=863.204
INCHI="InChI=1S/C21H20O10/c22-6-8-4-10-14(11(24)5-8)18(27)15-9(16(10)25)2-1-3-12(15)30-21-20(29)19(28)17(26)13(7-23)31-21/h1-5,13,17,19-24,26,28-29H,6-7H2"
SMILES=O=C1c2cc(CO)cc(O)c2C(=O)c2c(OC3OC(CO)C(O)C(O)C3O)cccc21
SPECTRUMID=CCMSLIB00010124349
85.929359 3431.0 
95.084618 3576.0 
101.024544 6509.0 
104.910431 4312.0 
113.024597 7072.0 
165.040527 7201.0 
183.045197 4717.0 
209.059967 4103.0 
209.692062 9095.0 
211.039612 6033.0 
223.04071 16919.0 
225.055389 9335.0 
237.054596 5285.0 
239.034744 23090.0 
240.042816 249075.0 
241.050034 21982.0 
247.041641 4495.0 
253.050095 24309.0 
254.058578 14759.0 
255.066742 20179.0 
265.050598 56663.0 
268.037079 16354.0 
269.045685 1041429.0 
282.052979 26446.0 
283.061768 22813.0 
293.045471 92756.0 
293.881622 4159.0 
311.056091 66262.0 
431.096863 8605.0 
539.920837 4306.0 
846.976746 3821.0 
859.613525 3836.0 
END IONS

BEGIN IONS
NAME=Isovitexin CollisionEnergy:102040 M+H
PRECURSOR_MZ=433.113
INCHI="InChI=1S/C21H20O10/c22-7-14-17(26)19(28)20(29)21(31-14)16-11(25)6-13-15(18(16)27)10(24)5-12(30-13)8-1-3-9(23)4-2-8/h1-6,14,17,19-23,25-29H,7H2/t14-,17-,19+,20-,21+/m1/s1"
SMILES=O=c1cc(-c2ccc(O)cc2)oc2cc(O)c(C3OC(CO)C(O)C(O)C3O)c(O)c12
SPECTRUMID=CCMSLIB00010111878
55.71542 3129.0 
57.03371 3641.0 
60.167679 3436.0 
72.944153 3312.0 
73.947723 4926.0 
81.033447 4416.0 
83.496483 4261.0 
85.028389 23023.0 
92.372871 5169.0 
97.028374 5116.0 
103.038353 14722.0 
105.107933 3416.0 
109.028297 8246.0 
121.028084 17933.0 
143.535522 3208.0 
145.028763 4842.0 
157.961807 4130.0 
165.019241 6299.0 
237.872971 3443.0 
243.0289 6063.0 
261.037689 5692.0 
267.06488 50437.0 
270.051849 27909.0 
271.059387 125216.0 
281.080475 63331.0 
283.059601 1945336.0 
284.066589 30892.0 
291.064545 4540.0 
295.023834 7125.0 
295.06012 151583.0 
295.095642 26067.0 
297.040955 10689.0 
297.075287 36003.0 
305.080505 24346.0 
307.058777 32711.0 
308.06662 16369.0 
309.039124 35747.0 
309.074799 371216.0 
311.054779 19698.0 
313.069885 2024143.0 
321.075317 40920.0 
323.09082 371473.0 
323.13678 4305.0 
325.068878 14971.0 
333.074768 80129.0 
335.053558 17965.0 
337.069855 1184947.0 
349.069672 319334.0 
351.085785 71704.0 
361.069946 256189.0 
367.080505 943509.0 
379.080536 609071.0 
379.137146 9382.0 
397.091125 767635.0 
415.101532 1136846.0 
433.112091 2599418.0 
END IONS

BEGIN IONS
NAME=N-Acetyl-DL-alanine CollisionEnergy:205060 M+H
PRECURSOR_MZ=132.066
INCHI="InChI=1S/C5H9NO3/c1-3(5(8)9)6-4(2)7/h3H,1-2H3,(H,6,7)(H,8,9)"
SMILES=CC(O)=NC(C)C(=O)O
SPECTRUMID=CCMSLIB00010125454
54.205559 1885.0 
55.934761 2028.0 
66.470917 2085.0 
68.147652 2088.0 
71.929604 8078.0 
72.937302 8975.0 
73.949661 2163.0 
74.849083 2048.0 
78.997398 2345.0 
80.993294 8517.0 
86.060181 37041.0 
90.055107 519228.0 
90.903343 52025.0 
90.940613 2566.0 
97.007423 7515.0 
99.00338 38281.0 
103.88665 2311.0 
107.949852 2437.0 
108.913628 4929.0 
114.055023 2986.0 
116.899399 2157.0 
122.019112 56713.0 
124.667084 2062.0 
125.961372 2756.0 
131.929871 4017.0 
132.066055 2565.0 
136.204758 2414.0 
149.940781 3647.0 
150.014023 4574.0 
157.962341 2132.0 
176.578735 1989.0 
184.167816 2354.0 
263.897003 1882.0 
END IONS

BEGIN IONS
NAME=acacetin CollisionEnergy:102040 2M-H
PRECURSOR_MZ=567.13
INCHI="InChI=1S/C16H12O5/c1-20-11-4-2-9(3-5-11)14-8-13(19)16-12(18)6-10(17)7-15(16)21-14/h2-8,17-18H,1H3"
SMILES=COc1ccc(-c2cc(=O)c3c(O)cc(O)cc3o2)cc1
SPECTRUMID=CCMSLIB00010107714
58.842781 2387.0 
66.631332 2390.0 
82.282028 2516.0 
86.873817 2777.0 
92.398582 2965.0 
95.490967 2727.0 
114.017517 2576.0 
118.681183 2531.0 
209.344177 11981.0 
268.037842 16820.0 
283.060944 75712.0 
303.430267 3348.0 
457.544037 3009.0 
497.590729 2713.0 
END IONS

BEGIN IONS
NAME=BETAMETHASONE DIPROPIONATE CollisionEnergy:205060 M+K
PRECURSOR_MZ=543.216
INCHI="InChI=1S/C28H37FO7/c1-6-23(33)35-15-22(32)28(36-24(34)7-2)16(3)12-20-19-9-8-17-13-18(30)10-11-25(17,4)27(19,29)21(31)14-26(20,28)5/h10-11,13,16,19-21,31H,6-9,12,14-15H2,1-5H3/t16-,19-,20-,21-,25-,26-,27-,28-/m0/s1"
SMILES=CCC(=O)OCC(=O)C1(OC(=O)CC)C(C)CC2C3CCC4=CC(=O)C=CC4(C)C3(F)C(O)CC21C
SPECTRUMID=CCMSLIB00010124898
54.571381 3100.0 
57.033932 5916.0 
104.310318 3025.0 
105.514732 3394.0 
117.632278 2967.0 
129.890671 3211.0 
246.169632 3775.0 
303.135345 20992.0 
415.186737 12309.0 
418.17276 13723.0 
423.162933 3082.0 
433.197937 2079844.0 
451.207611 27460.0 
469.174591 55375.0 
474.221497 32231.0 
507.234741 1017151.0 
543.211426 645082.0 
548.261169 13004.0 
END IONS

BEGIN IONS
NAME="1-{2-[(4-fluorophenyl)methyl](1,2,3,4-tetrahydrobeta-carbolinyl)}-4-methoxyben zene CollisionEnergy:205060" M-e
PRECURSOR_MZ=386.179
INCHI="InChI=1S/C25H23FN2O/c1-29-20-12-8-18(9-13-20)25-24-22(21-4-2-3-5-23(21)27-24)14-15-28(25)16-17-6-10-19(26)11-7-17/h2-13,25,27H,14-16H2,1H3"
SMILES=COc1ccc(C2c3[nH]c4ccccc4c3CCN2Cc2ccc(F)cc2)cc1
SPECTRUMID=CCMSLIB00010115326
75.124763 2406.0 
81.858307 2487.0 
82.436142 3055.0 
83.029457 18732.0 
83.859123 2482.0 
84.032722 2774.0 
85.220497 2232.0 
106.065071 2902.0 
109.044777 904730.0 
110.048088 339455.0 
110.056969 6515.0 
130.064941 10156.0 
131.066757 2950.0 
135.060349 18554.0 
136.064194 13682.0 
140.810074 3019.0 
143.072723 16153.0 
144.076645 9544.0 
156.081223 9427.0 
157.084167 3218.0 
218.093323 3660.0 
219.099457 2999.0 
220.096298 11373.0 
232.098495 4156.0 
233.078903 3181.0 
233.102966 17195.0 
237.092438 6257.0 
238.098587 6188.0 
239.094681 12140.0 
245.107239 4374.0 
246.111115 6166.0 
248.10524 5408.0 
249.110184 11927.0 
252.118668 30842.0 
253.121155 72891.0 
254.080688 2910.0 
260.094482 10939.0 
261.098785 20915.0 
268.0961 3200.0 
275.117706 70742.0 
276.120972 164447.0 
277.128845 22604.0 
280.096466 11171.0 
308.089691 5497.0 
308.127228 3016.0 
323.114746 10188.0 
328.118744 3166.0 
340.117706 4515.0 
354.132019 13236.0 
356.111847 19260.0 
370.132416 12670.0 
386.173248 1014967.0 
401.792847 3693.0 
689.396973 3242.0 
END IONS

BEGIN IONS
NAME="N-[5-(2-methylpropyl)-4-oxo(1,3-dioxan-5-yl)]benzamide CollisionEnergy:205060" M+H
PRECURSOR_MZ=278.139
INCHI="InChI=1S/C15H19NO4/c1-11(2)8-15(9-19-10-20-14(15)18)16-13(17)12-6-4-3-5-7-12/h3-7,11H,8-10H2,1-2H3,(H,16,17)"
SMILES=CC(C)CC1(N=C(O)c2ccccc2)COCOC1=O
SPECTRUMID=CCMSLIB00010119929
50.015701 11994.0 
51.023312 32998.0 
53.039101 158649.0 
53.042179 6055.0 
55.018391 6969.0 
55.05471 2907.0 
55.934872 4870.0 
56.049919 4057.0 
57.034019 6449.0 
58.06562 13651.0 
68.050056 6969.0 
69.033791 6430.0 
69.070129 32083.0 
70.065407 4968.0 
71.049583 6095.0 
71.085991 7354.0 
72.044746 371224.0 
73.028671 14845.0 
75.720551 3026.0 
77.038719 42428.0 
77.320976 3695.0 
79.054573 44355.0 
81.033768 46005.0 
81.070137 142672.0 
82.404861 3090.0 
83.085991 10883.0 
89.03833 2932.0 
91.054466 13087.0 
93.069908 5363.0 
95.049217 169506.0 
97.06469 42498.0 
98.096283 32764.0 
99.080437 4727.0 
99.953712 3115.0 
100.039436 47971.0 
100.112122 104716.0 
104.049423 53904.0 
105.033493 6272686.0 
109.065147 5000.0 
110.096397 26465.0 
111.08065 3820.0 
112.112129 46712.0 
118.06498 17352.0 
122.049637 4841.0 
122.059914 243811.0 
128.106873 451383.0 
129.090927 145344.0 
136.215652 3641.0 
136.226227 3277.0 
138.090836 4551.0 
145.100983 3928.0 
146.059982 17665.0 
156.101746 89000.0 
157.985748 3426.0 
159.445328 3061.0 
160.075867 12427.0 
174.128128 16241.0 
202.122421 149219.0 
204.066345 4255.0 
211.484406 3715.0 
213.922775 5055.0 
220.133194 85253.0 
222.075851 284004.0 
232.13266 63101.0 
245.344742 2972.0 
248.127853 131678.0 
248.157181 5876.0 
249.111206 4624.0 
250.143143 68973.0 
260.127502 14097.0 
278.138153 196415.0 
END IONS

BEGIN IONS
NAME="3-({5-[(3-carboxypropanoyloxy)methyl]-1,2,14,18,18-pentamethyl-8-(1-methylviny l)pentacyclo[11.8.0.0<2,10>.0<5,9>.0<14,19>]henicos-17-yl}oxycarbonyl)propanoi c acid CollisionEnergy:205060" M-H
PRECURSOR_MZ=641.406
INCHI="InChI=1S/C38H58O8/c1-23(2)24-14-19-38(22-45-31(43)12-10-29(39)40)21-20-36(6)25(33(24)38)8-9-27-35(5)17-16-28(46-32(44)13-11-30(41)42)34(3,4)26(35)15-18-37(27,36)7/h24-28,33H,1,8-22H2,2-7H3,(H,39,40)(H,41,42)"
SMILES=C=C(C)C1CCC2(COC(=O)CCC(=O)O)CCC3(C)C(CCC4C5(C)CCC(OC(=O)CCC(=O)O)C(C)(C)C5CCC43C)C12
SPECTRUMID=CCMSLIB00010125206
55.018379 64468.0 
66.760513 3706.0 
71.013512 102983.0 
73.974136 3894.0 
82.41861 3523.0 
92.401787 3973.0 
98.93988 5158.0 
99.008781 2676963.0 
104.31636 3844.0 
118.68232 4246.0 
136.245117 4916.0 
201.519211 3410.0 
208.597153 13399.0 
257.93634 3465.0 
268.771332 3411.0 
541.390076 203698.0 
598.40741 4055.0 
641.406677 83497.0 
END IONS

BEGIN IONS
NAME=CARBAZOLE CollisionEnergy:102040 M+H
PRECURSOR_MZ=168.081
INCHI="InChI=1S/C12H9N/c1-3-7-11-9(5-1)10-6-2-4-8-12(10)13-11/h1-8,13H"
SMILES=c1ccc2c(c1)[nH]c1ccccc12
SPECTRUMID=CCMSLIB00010114459
67.935226 2840.0 
71.481644 2360.0 
75.156464 2650.0 
84.959892 352036.0 
85.963303 79027.0 
88.968422 3067.0 
92.368652 3081.0 
102.970047 50233.0 
103.973457 16194.0 
113.963982 2865.0 
120.980743 9715.0 
122.968781 3110.0 
125.98613 16173.0 
126.955353 20559.0 
126.964493 3888.0 
126.989616 10046.0 
128.950806 10343.0 
139.054382 3225.0 
140.950882 14597.0 
143.997116 12713.0 
144.965164 27777.0 
145.000473 10541.0 
146.961243 3607.0 
148.977036 3062.0 
167.0728 31157.0 
167.516846 3349.0 
168.08075 3703055.0 
176.453384 2790.0 
190.647598 2631.0 
214.003876 2822.0 
232.160812 2302.0 
249.236954 2805.0 
END IONS

BEGIN IONS
NAME=Reserpiline CollisionEnergy:102040 M+H
PRECURSOR_MZ=383.197
INCHI="InChI=1S/C22H26N2O4/c1-12-17-10-24-7-6-15-14-5-4-13(26-2)8-19(14)23-21(15)20(24)9-16(17)18(11-28-12)22(25)27-3/h4-5,8,11-12,16-17,20,23H,6-7,9-10H2,1-3H3/t12?,16-,17?,20-/m0/s1"
SMILES=COC(=O)C1=COC(C)C2CN3CCc4c([nH]c5cc(OC)ccc45)C3CC12
SPECTRUMID=CCMSLIB00010104351
52.884529 3532.0 
55.943069 3661.0 
56.049969 75383.0 
62.121189 5607.0 
68.04998 7448.0 
70.065613 8045.0 
77.039291 3582.0 
80.035851 3939.0 
80.049667 4084.0 
84.080971 33722.0 
88.969643 3986.0 
91.053963 5020.0 
92.361214 4427.0 
95.049263 9640.0 
108.080544 64212.0 
111.215347 4161.0 
113.092796 4122.0 
119.884933 4058.0 
123.044289 5727.0 
124.039291 30743.0 
130.065292 6699.0 
131.072815 33394.0 
133.065109 5238.0 
136.07399 4514.0 
136.187927 5876.0 
142.065109 10666.0 
143.072952 73458.0 
144.080505 48132.0 
146.09697 5033.0 
147.068924 4248.0 
147.080688 36878.0 
147.658325 4430.0 
148.075775 17150.0 
150.091431 4162.0 
153.054382 21953.0 
155.070648 5838.0 
159.067642 216991.0 
160.075928 57776.0 
161.083054 4758.0 
162.076157 5753.0 
162.091095 158049.0 
167.070038 43669.0 
173.083969 19564.0 
173.499252 6641.0 
174.091248 9230044.0 
174.686844 7643.0 
178.086136 301188.0 
179.070709 6361.0 
186.091187 68724.0 
187.100021 8259.0 
188.107132 70583.0 
190.086044 302437.0 
197.083023 5065.0 
198.090652 6667.0 
199.098969 23951.0 
200.106628 123063.0 
201.102676 6936.0 
204.101486 8186.0 
208.096329 102459.0 
210.093369 16363.0 
210.112167 463140.0 
212.107254 71384.0 
215.116959 10434.0 
222.112198 2168570.0 
229.132858 110104.0 
237.111938 6503.0 
238.120865 4901.0 
252.138977 66393.0 
253.135803 7123.0 
264.137573 22899.0 
266.152008 6836.0 
281.163147 75527.0 
282.111938 16052.0 
283.179321 5925.0 
294.149017 9441.0 
306.148254 5102.0 
307.143738 22359.0 
322.142914 20358.0 
323.177246 15888.0 
334.141266 8343.0 
351.16922 145588.0 
354.168335 22927.0 
365.187531 7209.0 
366.170563 17358.0 
368.170593 7167.0 
381.269928 18754.0 
382.188934 5052.0 
383.195862 14275071.0 
385.136292 19172.0 
END IONS

BEGIN IONS
NAME="N-{4-[(1-methylimidazol-2-yl)carbonyl]phenyl}(3,4,5-trimethoxyphenyl)carboxami de CollisionEnergy:205060" M+H
PRECURSOR_MZ=396.155
INCHI="InChI=1S/C21H21N3O5/c1-24-10-9-22-20(24)18(25)13-5-7-15(8-6-13)23-21(26)14-11-16(27-2)19(29-4)17(12-14)28-3/h5-12H,1-4H3,(H,23,26)"
SMILES=COc1cc(C(=O)Nc2ccc(C(=O)c3nccn3C)cc2)cc(OC)c1OC
SPECTRUMID=CCMSLIB00010115125
52.018799 143619.0 
53.039169 547454.0 
53.218578 148782.0 
54.034279 2211790.0 
55.018509 233510.0 
60.94566 110038.0 
63.484631 120140.0 
65.038902 930986.0 
66.034233 672190.0 
67.018303 208151.0 
67.054573 212767.0 
68.013451 745394.0 
69.033997 281214.0 
71.049393 127732.0 
72.058617 136762.0 
75.044403 292380.0 
77.03933 176452.0 
78.046661 504269.0 
79.049202 177873.0 
79.054527 5537077.0 
81.033707 2497882.0 
81.045059 2333304.0 
81.070213 2810496.0 
82.029068 2321314.0 
82.041718 282220.0 
83.049217 499119.0 
83.060638 5991395.0 
85.028862 166839.0 
91.054489 496484.0 
93.033577 580766.0 
94.041527 716004.0 
95.049217 1114839.0 
96.056992 1818770.0 
97.028419 164995.0 
97.076439 263412.0 
98.03624 172160.0 
104.270576 147048.0 
105.033302 257896.0 
106.064919 235192.0 
107.04911 650372.0 
108.056839 778258.0 
109.028648 609227.0 
109.039619 3207767.0 
109.064842 4758493.0 
110.034637 120207.0 
111.044243 247314.0 
111.08049 1692298.0 
113.023201 1442952.0 
113.059288 920942.0 
120.04435 869020.0 
121.028389 3975855.0 
122.036102 3247934.0 
123.044197 299492.0 
124.041649 198369.0 
124.051918 5975045.0 
125.06002 227443.0 
127.050201 132471400.0 
128.046722 2959313.0 
129.054291 255793.0 
135.043915 1635728.0 
136.192917 127974.0 
137.023315 942144.0 
138.067627 816174.0 
139.039459 1459807.0 
139.075378 12154722.0 
141.018295 2670544.0 
141.054306 174071.0 
143.070557 1067390.0 
146.023636 763923.0 
151.039795 973090.0 
152.046707 13449390.0 
154.02594 118296.0 
154.062454 6235607.0 
155.033859 185520.0 
156.041565 4540686.0 
157.076324 513296.0 
163.039047 2069524.0 
166.024872 159223.0 
167.07074 588017.0 
169.085968 780226.0 
170.057327 163996.0 
171.065659 236971.0 
172.087143 648530.0 
178.049728 291234.0 
179.034241 481059.0 
180.041809 574725.0 
180.081161 1197604.0 
181.049377 3789148.0 
181.08876 716140.0 
184.036591 1966457.0 
184.086304 284542.0 
185.082428 1303386.0 
187.086548 642420.0 
194.081299 207847.0 
195.06517 191924208.0 
196.07605 306520.0 
200.081802 2121696.0 
201.089935 263155.0 
203.082947 201504.0 
208.075699 200666.0 
209.082977 926119.0 
212.071793 133917.0 
224.070419 11367530.0 
226.086273 894139.0 
228.076233 798463.0 
236.070145 1235413.0 
237.076874 931087.0 
240.065063 5270547.0 
254.080704 2983317.0 
255.08783 300811.0 
270.112061 38878072.0 
273.049896 901800.0 
303.097656 859038.0 
314.101532 4946960.0 
334.119293 169485.0 
352.165497 763284.0 
366.106323 147747.0 
376.987335 147329.0 
378.142822 304273.0 
380.123901 253766.0 
381.131927 514176.0 
396.154907 202238208.0 
END IONS

BEGIN IONS
NAME=4-CHLOROCINNAMIC ACID CollisionEnergy:205060 M+H
PRECURSOR_MZ=183.021
INCHI="InChI=1S/C9H7ClO2/c10-8-4-1-7(2-5-8)3-6-9(11)12/h1-6H,(H,11,12)/b6-3+"
SMILES=O=C(O)C=Cc1ccc(Cl)cc1
SPECTRUMID=CCMSLIB00010124380
53.039059 2084.0 
55.934818 3680.0 
56.942711 75340.0 
72.937447 158850.0 
74.952553 2439.0 
77.039146 2225.0 
88.931999 4165.0 
89.940063 4509.0 
90.947731 73288.0 
98.984039 3993.0 
99.94767 4622.0 
102.046341 70514.0 
104.33136 2663.0 
106.942482 11712.0 
107.949829 5075.0 
108.958099 10541.0 
110.622353 1970.0 
113.014961 3044.0 
113.605927 2490.0 
113.963638 171419.0 
118.942787 3676.0 
118.967613 2236.0 
122.079018 2351.0 
123.079811 2653.0 
124.952766 3877.0 
125.960487 9678.0 
130.96608 13200.0 
131.281281 2427.0 
131.974182 59615.0 
137.015152 218058.0 
141.958664 40425.0 
148.976868 24376.0 
154.990067 19555.0 
159.968872 45742.0 
165.010086 310158.0 
171.991974 2836.0 
182.985046 12146.0 
183.020218 13092.0 
183.09111 2569.0 
183.233047 2455.0 
END IONS

BEGIN IONS
NAME="3,7,3'-Trimethoxyflavone CollisionEnergy:205060" M+Na
PRECURSOR_MZ=335.089
INCHI="InChI=1S/C18H16O5/c1-20-12-6-4-5-11(9-12)17-18(22-3)16(19)14-8-7-13(21-2)10-15(14)23-17/h4-10H,1-3H3"
SMILES=COc1cccc(-c2oc3cc(OC)ccc3c(=O)c2OC)c1
SPECTRUMID=CCMSLIB00010114966
79.919487 25368.0 
97.159927 25804.0 
103.244888 26105.0 
127.495483 23225.0 
209.522461 39313.0 
209.541428 29652.0 
320.065002 869601.0 
335.088593 27343838.0 
353.098785 304929.0 
END IONS

BEGIN IONS
NAME="2-amino-15-[(4-chlorophenyl)methyl]-5,16-dioxospiro[4H-pyrano[3,2-c]chromene-4 ,3'-indoline]-3-carbonitrile CollisionEnergy:205060" M+H
PRECURSOR_MZ=482.09
INCHI="InChI=1S/C27H16ClN3O4/c28-16-11-9-15(10-12-16)14-31-20-7-3-2-6-18(20)27(26(31)33)19(13-29)24(30)35-23-17-5-1-4-8-21(17)34-25(32)22(23)27/h1-12H,14,30H2"
SMILES=N#CC1=C(N)Oc2c(c(=O)oc3ccccc23)C12C(=O)N(Cc1ccc(Cl)cc1)c1ccccc12
SPECTRUMID=CCMSLIB00010122792
63.023338 7683.0 
65.03907 4849.0 
70.896202 3381.0 
72.240059 3441.0 
72.98436 5494.0 
89.038727 194535.0 
89.326668 2968.0 
90.04644 35409.0 
98.993149 5318.0 
98.999687 80601.0 
112.590813 3017.0 
121.028778 53281.0 
124.653816 5474.0 
125.015297 5852207.0 
125.378326 6586.0 
130.064362 3614.0 
166.041885 4274.0 
194.071487 4179.0 
217.148026 3414.0 
222.066269 56766.0 
238.059921 4688.0 
238.68013 3670.0 
239.045273 13626.0 
241.076599 4949.0 
247.313095 3242.0 
248.044495 34679.0 
266.054871 4673.0 
276.065552 4298.0 
296.081055 7522.0 
298.098541 4426.0 
299.0802 6618.0 
300.067291 5155.0 
314.093018 4546.0 
324.077148 4543.0 
325.058533 4954.0 
327.06369 16863.0 
334.074493 16737.0 
340.077026 3163.0 
341.078735 7847.0 
342.087494 107426.0 
360.051605 14153.0 
370.081665 19933.0 
378.063293 49739.0 
388.072876 17867.0 
412.08316 17235.0 
436.081299 4607.0 
454.09494 935986.0 
482.090668 53771.0 
END IONS

BEGIN IONS
NAME=ethyl 2-(4-{[3-oxo-3-(2-oxochromen-3-yl)propyl]amino}phenyl)acetate CollisionEnergy:102040 M+H
PRECURSOR_MZ=380.149
INCHI="InChI=1S/C22H21NO5/c1-2-27-21(25)13-15-7-9-17(10-8-15)23-12-11-19(24)18-14-16-5-3-4-6-20(16)28-22(18)26/h3-10,14,23H,2,11-13H2,1H3"
SMILES=CCOC(=O)Cc1ccc(NCCC(=O)c2cc3ccccc3oc2=O)cc1
SPECTRUMID=CCMSLIB00010106406
82.41153 2806.0 
90.977432 2403.0 
109.17218 2596.0 
110.834808 2503.0 
115.17086 2419.0 
115.493973 2829.0 
118.67569 3017.0 
119.073463 4213.0 
147.043671 9812.0 
164.070526 129379.0 
171.043732 3420.0 
172.006729 2990.0 
189.054199 58182.0 
191.033752 4343.0 
192.101715 1414683.0 
201.054581 16952.0 
288.101593 80075.0 
362.138489 72213.0 
380.149811 52294.0 
380.201874 5844.0 
395.348541 2608.0 
END IONS

BEGIN IONS
NAME=Rauwolscine CollisionEnergy:205060 M+Cl
PRECURSOR_MZ=389.164
INCHI="InChI=1S/C21H26N2O3/c1-26-21(25)19-15-10-17-20-14(13-4-2-3-5-16(13)22-20)8-9-23(17)11-12(15)6-7-18(19)24/h2-5,12,15,17-19,22,24H,6-11H2,1H3/t12-,15+,17+,18+,19+/m1/s1"
SMILES=COC(=O)C1C(O)CCC2CN3CCc4c([nH]c5ccccc45)C3CC21
SPECTRUMID=CCMSLIB00010116460
64.851067 2222.0 
85.389214 2144.0 
92.390541 2956.0 
110.290733 2460.0 
136.224594 2833.0 
146.961365 3518.0 
351.649048 2143.0 
352.871796 3868.0 
END IONS

BEGIN IONS
NAME=actinomycin D CollisionEnergy:102040 M-H
PRECURSOR_MZ=1253.62
INCHI="InChI=1S/C62H86N12O16/c1-27(2)42-59(84)73-23-17-19-36(73)57(82)69(13)25-38(75)71(15)48(29(5)6)61(86)88-33(11)44(55(80)65-42)67-53(78)35-22-21-31(9)51-46(35)64-47-40(41(63)50(77)32(10)52(47)90-51)54(79)68-45-34(12)89-62(87)49(30(7)8)72(16)39(76)26-70(14)58(83)37-20-18-24-74(37)60(85)43(28(3)4)66-56(45)81/h21-22,27-30,33-34,36-37,42-45,48-49H,17-20,23-26,63H2,1-16H3,(H,65,80)(H,66,81)(H,67,78)(H,68,79)"
SMILES=Cc1c2oc3c(C)ccc(C(O)=NC4C(O)=NC(C(C)C)C(=O)N5CCCC5C(=O)N(C)CC(=O)N(C)C(C(C)C)C(=O)OC4C)c3nc-2c(C(O)=NC2C(O)=NC(C(C)C)C(=O)N3CCCC3C(=O)N(C)CC(=O)N(C)C(C(C)C)C(=O)OC2C)c(N)c1=O
SPECTRUMID=CCMSLIB00010114021
92.390007 8035.0 
92.821243 6427.0 
104.295937 7642.0 
130.087173 72926.0 
136.220642 6618.0 
139.0504 8046.0 
164.071075 11150.0 
167.08226 12462.0 
181.097031 8009.0 
195.113358 70399.0 
207.076645 8647.0 
211.540787 9567.0 
266.150879 11983.0 
279.113953 28530.0 
280.166412 68297.0 
321.112518 7752.0 
322.11853 30061.0 
332.1604 30407.0 
336.09668 10063.0 
346.107422 13143.0 
347.114044 58536.0 
361.223938 9448.0 
364.120148 8763.0 
365.125458 32926.0 
375.163666 10021.0 
376.131226 15454.0 
379.235107 14948.0 
387.145966 65851.0 
405.15509 14330.0 
423.225922 67596.0 
431.135345 56166.0 
486.214508 65113.0 
502.215912 13588.0 
503.21463 7784.0 
506.261444 116546.0 
544.258301 13696.0 
572.248352 62095.0 
698.294006 103132.0 
702.356079 9323.0 
716.30719 10710.0 
746.352356 318114.0 
769.374817 7236.0 
785.397095 27327.0 
812.361755 40448.0 
827.373596 11780.0 
828.386292 76353.0 
829.390564 606443.0 
1122.529541 90860.0 
1140.537842 12120.0 
1224.580444 66288.0 
1253.62085 3579072.0 
END IONS

BEGIN IONS
NAME="N-(3-hydroxypropyl)-N'-(3-hydroxypropyl)ethane-1,2-diamide CollisionEnergy:102040" M+formate
PRECURSOR_MZ=249.109
INCHI="InChI=1S/C8H16N2O4/c11-5-1-3-9-7(13)8(14)10-4-2-6-12/h11-12H,1-6H2,(H,9,13)(H,10,14)"
SMILES=O=C(NCCCO)C(=O)NCCCO
SPECTRUMID=CCMSLIB00010114135
57.023392 2042.0 
65.805023 2085.0 
68.995293 4324.0 
73.964249 2708.0 
82.060318 1995.0 
82.409103 2319.0 
85.176117 2222.0 
92.386299 2168.0 
104.301971 2584.0 
107.236977 2164.0 
112.985619 105464.0 
152.369553 2101.0 
152.977707 11053.0 
154.973846 45823.0 
203.10405 36884.0 
248.960754 2263.0 
342.9375 2082.0 
END IONS

BEGIN IONS
NAME=N-cyclopentyl-2-{4-[(6-ethoxy-2-oxochromen-4-yl)methyl]piperazinyl}acetamide CollisionEnergy:205060 M+formate
PRECURSOR_MZ=458.23
INCHI="InChI=1S/C23H31N3O4/c1-2-29-19-7-8-21-20(14-19)17(13-23(28)30-21)15-25-9-11-26(12-10-25)16-22(27)24-18-5-3-4-6-18/h7-8,13-14,18H,2-6,9-12,15-16H2,1H3,(H,24,27)"
SMILES=CCOc1ccc2oc(=O)cc(CN3CCN(CC(O)=NC4CCCC4)CC3)c2c1
SPECTRUMID=CCMSLIB00010117316
60.70232 2751.0 
136.250717 3063.0 
139.285461 2326.0 
172.641357 2550.0 
183.373016 2478.0 
338.69577 2607.0 
412.224915 2453.0 
460.181976 2600.0 
END IONS

BEGIN IONS
NAME="8-{[(3-chloro-4-imidazolylphenyl)amino]sulfonyl}-4,6-dimethylhydroquinolin-2-o ne CollisionEnergy:205060" 2M-H
PRECURSOR_MZ=855.135
INCHI="InChI=1S/C20H17ClN4O3S/c1-12-7-15-13(2)9-19(26)23-20(15)18(8-12)29(27,28)24-14-3-4-17(16(21)10-14)25-6-5-22-11-25/h3-11,24H,1-2H3,(H,23,26)"
SMILES=Cc1cc(S(=O)(=O)Nc2ccc(-n3ccnc3)c(Cl)c2)c2nc(O)cc(C)c2c1
SPECTRUMID=CCMSLIB00010117334
77.309288 3153.0 
118.687737 3630.0 
132.04541 6414.0 
158.007889 3471.0 
184.397568 3006.0 
220.69902 3290.0 
357.152832 3374.0 
427.064209 61181.0 
479.357788 4458.0 
586.339722 4345.0 
638.181824 4142.0 
END IONS

BEGIN IONS
NAME=chrysin CollisionEnergy:205060 2M-H
PRECURSOR_MZ=507.109
INCHI="InChI=1S/C15H10O4/c16-10-6-11(17)15-12(18)8-13(19-14(15)7-10)9-4-2-1-3-5-9/h1-8,16-17H"
SMILES=O=c1cc(-c2ccccc2)oc2cc(O)cc(O)c12
SPECTRUMID=CCMSLIB00010117216
57.279461 2474.0 
58.393101 2343.0 
60.552101 3173.0 
64.859306 3202.0 
66.711441 2467.0 
66.760483 2414.0 
73.971916 3520.0 
75.784622 3172.0 
87.811203 2832.0 
104.310661 2585.0 
144.120361 2478.0 
253.050171 29140.0 
269.569916 3128.0 
333.68869 2589.0 
339.996521 2626.0 
453.109192 3583.0 
534.294189 2791.0 
END IONS

BEGIN IONS
NAME="2-amino-4-(3-hydroxyphenyl)-5-oxo-6-hydro-4H-pyrano[3,2-c]quinoline-3-carbonit rile CollisionEnergy:205060" M+H
PRECURSOR_MZ=332.103
INCHI="InChI=1S/C19H13N3O3/c20-9-13-15(10-4-3-5-11(23)8-10)16-17(25-18(13)21)12-6-1-2-7-14(12)22-19(16)24/h1-8,15,23H,21H2,(H,22,24)"
SMILES=N#CC1=C(N)Oc2c(c(O)nc3ccccc23)C1c1cccc(O)c1
SPECTRUMID=CCMSLIB00010122375
53.919411 4208.0 
60.54512 3780.0 
63.913239 3794.0 
65.038841 6993.0 
66.750877 3377.0 
71.734489 3378.0 
83.400879 3130.0 
92.04966 31463.0 
92.388077 3816.0 
93.603569 3188.0 
116.049637 5248.0 
119.023552 24379.0 
120.044258 626922.0 
140.049286 101038.0 
143.060364 5255.0 
144.044708 8332.0 
145.038895 3649.0 
146.023438 98200.0 
146.058975 5376.0 
147.044052 6085.0 
155.060043 43648.0 
156.044052 37697.0 
162.05481 21464.0 
162.225815 3967.0 
163.015198 3631.0 
165.04451 156596.0 
167.060257 184617.0 
170.071106 4725.0 
171.055099 16969.0 
182.070633 19012.0 
183.054916 127994.0 
185.070969 45022.0 
186.054276 55985.0 
187.049988 4841.0 
192.055389 92723.0 
193.039612 79602.0 
195.054932 201892.0 
196.037476 7688.0 
210.065598 123582.0 
211.049774 328334.0 
213.065201 16834.0 
220.050354 763575.0 
221.034119 84604.0 
235.085892 7024.0 
237.052841 4043.0 
237.11293 5772.0 
238.060669 10768445.0 
239.014648 8845.0 
239.044464 33745.0 
248.071136 7413.0 
259.08432 5473.0 
263.080048 14166.0 
264.063568 4043.0 
266.081116 5492.0 
269.070251 5324.0 
283.011414 4100.0 
287.079987 26172.0 
288.064087 27359.0 
292.083923 29161.0 
297.064331 5627.0 
298.664825 3621.0 
305.091553 110755.0 
314.092102 6463.0 
315.075653 38185.0 
332.102112 1335415.0 
END IONS

BEGIN IONS
NAME=AC1MJ3VH CollisionEnergy:102040 M-H
PRECURSOR_MZ=526.172
INCHI="InChI=1S/C27H29NO10/c1-10-22(30)14(28)7-17(37-10)38-16-9-27(35,11(2)29)8-13-19(16)26(34)21-20(24(13)32)23(31)12-5-4-6-15(36-3)18(12)25(21)33/h4-6,10,14,16-17,22,30,32,34-35H,7-9,28H2,1-3H3/t10?,14?,16-,17?,22?,27-/m0/s1"
SMILES=COc1cccc2c1C(=O)c1c(O)c3c(c(O)c1C2=O)CC(O)(C(C)=O)CC3OC1CC(N)C(O)C(C)O1
SPECTRUMID=CCMSLIB00010113576
50.537991 2707.0 
53.205059 2723.0 
56.370399 2554.0 
58.786179 2804.0 
59.01355 5911.0 
93.780792 3460.0 
101.496857 3607.0 
108.13382 2872.0 
129.501587 3126.0 
136.212997 3999.0 
160.839172 3516.0 
278.755493 3160.0 
291.067047 6412.0 
292.037903 19854.0 
293.046661 30989.0 
294.054352 17238.0 
304.038696 6074.0 
305.047546 3792.0 
307.061707 17212.0 
308.033783 3591.0 
308.069763 20073.0 
309.077789 33402.0 
318.054535 26568.0 
319.06134 48055.0 
320.033478 3664.0 
320.071259 4518.0 
321.040497 258406.0 
322.049225 27461.0 
333.07608 11964.0 
335.055847 135105.0 
336.064362 192831.0 
337.072021 71616.0 
343.060333 5498.0 
346.047974 38691.0 
349.032684 21009.0 
351.087036 13569.0 
361.072083 127940.0 
363.051056 26049.0 
364.057678 53296.0 
378.074951 12877.0 
379.08252 1244945.0 
381.059448 3519.0 
396.086304 24925.0 
451.823242 3442.0 
526.171997 749162.0 
END IONS

BEGIN IONS
NAME="5-[(4-hydroxy-3,5-dimethoxyphenyl)methylene]-3-phenyl-2-(phenylazamethylene)-1 ,3-thiazolidin-4-one CollisionEnergy:205060" M+H
PRECURSOR_MZ=433.122
INCHI="InChI=1S/C24H20N2O4S/c1-29-19-13-16(14-20(30-2)22(19)27)15-21-23(28)26(18-11-7-4-8-12-18)24(31-21)25-17-9-5-3-6-10-17/h3-15,27H,1-2H3/b21-15-,25-24-"
SMILES=COc1cc(C=C2SC(=Nc3ccccc3)N(c3ccccc3)C2=O)cc(OC)c1O
SPECTRUMID=CCMSLIB00010115927
50.990261 3517.0 
52.82082 3595.0 
53.039051 22823.0 
58.11293 3543.0 
63.84948 3290.0 
65.038879 84006.0 
66.533569 3184.0 
68.376846 3634.0 
71.877609 2908.0 
78.046623 4239.0 
79.054482 6682.0 
89.038673 4542.0 
91.054253 5455.0 
92.04953 799404.0 
93.057541 5427.0 
95.049263 5766.0 
97.010521 3353.0 
102.30188 3419.0 
104.050484 4210.0 
106.449768 3250.0 
107.049019 130676.0 
107.057381 6748.0 
109.010551 40922.0 
117.044861 32036.0 
117.053001 3412.0 
117.056534 2964.0 
118.04113 3819.0 
120.044197 33217.0 
120.619942 3088.0 
121.01078 20056.0 
123.026154 103947.0 
133.010895 13641.0 
133.075684 6930.0 
135.044525 3275.0 
135.997665 63289.0 
136.021927 4645.0 
137.005188 7117.0 
146.036514 3311.0 
149.00531 36617.0 
150.013412 7954.0 
151.021042 683291.0 
154.008408 5456.0 
155.673233 3393.0 
161.004135 7587.0 
161.016953 19063.0 
163.038925 20278.0 
163.992462 12874.0 
166.007477 4657.0 
167.015884 7875.0 
167.069946 27371.0 
168.024078 25889.0 
168.080627 31791.0 
177.000275 110189.0 
177.017258 6676.0 
178.008133 11501.0 
178.062271 158758.0 
179.015884 381901.0 
180.023865 16072.0 
180.995377 25657.0 
189.000244 14983.0 
191.987518 16783.0 
194.083786 7307.0 
195.012024 22761.0 
195.091461 1685041.0 
196.018585 130936.0 
196.075485 5517.0 
205.050705 5508.0 
207.01088 201514.0 
209.026749 11318.0 
209.081009 3443.0 
209.998627 4718.0 
211.041992 137579.0 
221.996948 4050.0 
223.005936 5402.0 
224.053284 3745.0 
226.031235 5300.0 
227.03949 12827.0 
236.069092 4169.0 
237.021362 48720.0 
238.031326 5489.0 
239.036819 21591.0 
252.047073 7246.0 
255.03476 20235.0 
274.056641 3574.0 
298.050568 7177.0 
323.363434 3685.0 
375.083954 4741.0 
389.095917 4218.0 
417.088409 38040.0 
418.097626 5680.0 
433.120789 2421467.0 
END IONS

BEGIN IONS
NAME="(14S,16S,1R,2R,13R)-3-(adamantanylcarbonyl)-17,19-dioxa-4-azapentacyclo[14.2.1 .0<2,14>.0<4,13>.0<5,10>]nonadeca-5(10),6,8,11-tetraen-15-one CollisionEnergy:102040" M+H
PRECURSOR_MZ=432.217
INCHI="InChI=1S/C27H29NO4/c29-24-21-19-6-5-17-3-1-2-4-18(17)28(19)23(22(21)20-13-31-26(24)32-20)25(30)27-10-14-7-15(11-27)9-16(8-14)12-27/h1-6,14-16,19-23,26H,7-13H2/t14?,15?,16?,19-,20?,21-,22-,23?,26?,27?/m1/s1"
SMILES=O=C1C2OCC(O2)C2C1C1C=Cc3ccccc3N1C2C(=O)C12CC3CC(CC(C3)C1)C2
SPECTRUMID=CCMSLIB00010114703
56.59903 2405.0 
56.847099 2334.0 
75.600403 2732.0 
88.946327 2692.0 
92.379547 2649.0 
104.291451 3184.0 
131.327866 2579.0 
135.116531 131443.0 
149.106613 2588.0 
153.635544 2928.0 
163.959335 2203.0 
203.930176 2529.0 
216.521378 2816.0 
223.062912 13045.0 
224.070175 221492.0 
227.058212 2946.0 
233.153244 4262.0 
238.085831 94846.0 
254.080688 157646.0 
404.22348 9849.0 
432.215881 574621.0 
442.599609 3177.0 
END IONS

BEGIN IONS
NAME="4-(2H-benzo[d]1,3-dioxolan-5-ylmethylene)-6,7-dimethoxy-1H-benzo[c]pyran-3-one CollisionEnergy:102040" M+H-H2O
PRECURSOR_MZ=323.091
INCHI="InChI=1S/C19H16O6/c1-21-16-7-12-9-23-19(20)14(13(12)8-17(16)22-2)5-11-3-4-15-18(6-11)25-10-24-15/h3-8H,9-10H2,1-2H3/b14-5-"
SMILES=COc1cc2c(cc1OC)C(=Cc1ccc3c(c1)OCO3)C(=O)OC2
SPECTRUMID=CCMSLIB00010112152
54.4058 2706.0 
68.952713 2804.0 
71.244186 2455.0 
94.554207 2859.0 
114.361473 3373.0 
118.652924 3297.0 
145.031219 2973.0 
149.05957 43424.0 
163.032486 14572.0 
179.085724 6693.0 
193.083649 11423.0 
194.072556 11947.0 
205.064468 47753.0 
206.072449 46653.0 
207.044189 5037.0 
207.080368 5391.0 
208.088028 3376.0 
209.095795 55882.0 
209.116821 4433.0 
222.067337 67054.0 
223.074371 4247.0 
224.08168 3878.0 
233.058655 13751.0 
234.067261 31013.0 
235.038788 21687.0 
235.075058 41636.0 
236.082993 5190.0 
237.090714 637557.0 
239.106476 5174.0 
249.054474 13707.0 
250.06221 39505.0 
251.070404 27394.0 
252.077957 50302.0 
253.085312 4425.0 
262.061218 5546.0 
263.069672 38835.0 
264.077484 33067.0 
265.049744 127494.0 
265.085602 361860.0 
267.102325 36698.0 
277.049438 73710.0 
277.084717 11041.0 
278.05722 13038.0 
279.065338 14927.0 
280.072784 398512.0 
294.087433 4551.0 
295.096161 897445.0 
307.059265 74234.0 
308.067413 142870.0 
323.091064 1840366.0 
326.50943 2856.0 
336.122498 78775.0 
344.539246 3868.0 
END IONS

BEGIN IONS
NAME=luteolin CollisionEnergy:102040 2M-H
PRECURSOR_MZ=571.088
INCHI="InChI=1S/C15H10O6/c16-8-4-11(19)15-12(20)6-13(21-14(15)5-8)7-1-2-9(17)10(18)3-7/h1-6,16-19H"
SMILES=O=c1cc(-c2ccc(O)c(O)c2)oc2cc(O)cc(O)c12
SPECTRUMID=CCMSLIB00010106602
50.65704 3066.0 
65.314339 2744.0 
73.957603 4332.0 
112.504807 3238.0 
133.029648 15005.0 
135.755875 3050.0 
149.024857 3061.0 
151.003494 14222.0 
174.955978 5104.0 
175.039459 6443.0 
199.04007 5596.0 
217.05159 7039.0 
241.049667 3818.0 
285.040833 2265017.0 
434.872375 3170.0 
502.856445 4334.0 
END IONS

BEGIN IONS
NAME=Prostaglandin E2 CollisionEnergy:102040 M+Na
PRECURSOR_MZ=375.214
INCHI="InChI=1S/C20H32O5/c1-2-3-6-9-15(21)12-13-17-16(18(22)14-19(17)23)10-7-4-5-8-11-20(24)25/h4,7,12-13,15-17,19,21,23H,2-3,5-6,8-11,14H2,1H3,(H,24,25)/b7-4-,13-12+/t15-,16+,17+,19+/m0/s1"
SMILES=CCCCCC(O)C=CC1C(O)CC(=O)C1CC=CCCCC(=O)O
SPECTRUMID=CCMSLIB00010110093
82.351593 3303.0 
86.186172 3447.0 
89.847527 3185.0 
117.339592 3380.0 
119.715019 3101.0 
129.98616 3107.0 
145.867798 3021.0 
151.835709 3010.0 
209.942413 5616.0 
230.128601 3566.0 
270.242798 32652.0 
321.174988 5270.0 
354.193817 15574.0 
354.697327 17844.0 
357.203308 176683.0 
375.213867 9478900.0 
391.179932 5119.0 
END IONS

BEGIN IONS
NAME="3-[2-(3,4-dimethoxyphenyl)-2-oxoethyl]-1-methyl-1,3-dihydroquinazoline-2,4-dio ne CollisionEnergy:102040" M+H
PRECURSOR_MZ=355.129
INCHI="InChI=1S/C19H18N2O5/c1-20-14-7-5-4-6-13(14)18(23)21(19(20)24)11-15(22)12-8-9-16(25-2)17(10-12)26-3/h4-10H,11H2,1-3H3"
SMILES=COc1ccc(C(=O)Cn2c(=O)c3ccccc3n(C)c2=O)cc1OC
SPECTRUMID=CCMSLIB00010108022
56.014 15119.0 
86.90226 3603.0 
92.381538 4050.0 
92.388184 3980.0 
104.050171 7565.0 
115.835197 3909.0 
129.942993 3109.0 
132.044189 95892.0 
134.059952 18607.0 
145.075714 6165.0 
146.023758 6886.0 
150.055176 7351.0 
151.075256 21371.0 
159.054947 177614.0 
161.070786 134094.0 
161.085037 6842.0 
165.054382 40161.0 
166.057922 4041.0 
176.45755 4562.0 
177.065598 5318600.0 
177.677582 5173.0 
188.394699 4476.0 
189.065506 4440757.0 
189.741837 4666.0 
207.076126 3044319.0 
209.077911 3792.0 
216.235336 6119.0 
217.060425 6064572.0 
230.092087 24715.0 
266.970856 3861.0 
308.900574 7926.0 
337.117371 22365.0 
355.12793 3667428.0 
END IONS

BEGIN IONS
NAME="3',4'-Dimethoxyflavanone CollisionEnergy:102040" M+H
PRECURSOR_MZ=285.112
INCHI="InChI=1S/C17H16O4/c1-19-15-8-7-11(9-17(15)20-2)16-10-13(18)12-5-3-4-6-14(12)21-16/h3-9,16H,10H2,1-2H3"
SMILES=COc1ccc(C2CC(=O)c3ccccc3O2)cc1OC
SPECTRUMID=CCMSLIB00010106071
59.37698 2843.0 
65.038811 34433.0 
77.328346 3486.0 
79.004646 3209.0 
81.3423 3312.0 
91.054237 18006.0 
93.033699 32557.0 
95.049156 161323.0 
97.458427 3293.0 
103.054367 5557.0 
104.254433 3164.0 
105.069946 7756.0 
107.049133 40739.0 
111.043709 4672.0 
118.616043 4193.0 
119.049248 38312.0 
121.028381 2941101.0 
124.051422 27591.0 
133.064331 13625.0 
136.051361 3902.0 
136.161652 4350.0 
137.059601 47109.0 
139.03891 42438.0 
139.074966 49430.0 
146.038055 3597.0 
147.043991 1401346.0 
148.052368 25362.0 
149.059631 4228.0 
150.067886 5257.0 
151.075165 50713.0 
151.790756 3735.0 
152.079117 5017.0 
157.640274 3272.0 
157.924286 4313.0 
160.05159 14674.0 
161.059296 17928.0 
163.075165 144737.0 
165.054703 7681.0 
165.091156 86787.0 
167.070068 15765.0 
176.046478 37369.0 
179.085373 5483.0 
183.08049 7938.0 
191.07016 1623246.0 
194.883911 3726.0 
195.079178 4772.0 
205.064819 5899.0 
207.080688 6460.0 
208.088318 49826.0 
209.060791 3700.0 
211.075562 6877.0 
221.057983 7169.0 
223.074677 14924.0 
224.083038 37270.0 
225.090393 14746.0 
226.096756 6957.0 
227.072098 4995.0 
235.074799 28303.0 
236.082611 92353.0 
239.070648 13295.0 
239.106247 134095.0 
240.232376 13170.0 
241.086014 6024.0 
242.093445 4121.0 
243.101181 24384.0 
251.068726 13382.0 
252.076981 27668.0 
253.087112 32728.0 
254.093628 37033.0 
255.064484 61282.0 
257.117065 21567.0 
267.101166 364085.0 
269.081818 4401.0 
270.088257 388459.0 
284.102173 4030.0 
285.111786 8050943.0 
286.365265 3195.0 
END IONS

BEGIN IONS
NAME="3,4,5-trimethoxyphenyl 2,2,4-trimethyl(1,2-dihydroquinolyl) ketone CollisionEnergy:205060" 2M+H
PRECURSOR_MZ=735.364
INCHI="InChI=1S/C22H25NO4/c1-14-13-22(2,3)23(17-10-8-7-9-16(14)17)21(24)15-11-18(25-4)20(27-6)19(12-15)26-5/h7-13H,1-6H3"
SMILES=COc1cc(C(=O)N2c3ccccc3C(C)=CC2(C)C)cc(OC)c1OC
SPECTRUMID=CCMSLIB00010116556
53.00256 3026.0 
53.039051 21861.0 
60.537868 3938.0 
65.039001 5312.0 
66.742302 3400.0 
67.054802 4509.0 
68.997589 3771.0 
69.033813 5319.0 
73.740433 3799.0 
75.031143 3617.0 
75.044296 3551.0 
79.054649 63742.0 
81.033997 40095.0 
81.070084 34611.0 
82.396477 5351.0 
90.238373 3453.0 
92.374527 4814.0 
93.033699 3872.0 
94.041328 7179.0 
95.049103 8601.0 
96.057114 32537.0 
104.280548 4021.0 
107.049454 3316.0 
108.056961 6406.0 
109.028229 6656.0 
109.065109 52681.0 
111.080307 14296.0 
113.023018 6199.0 
113.059914 6488.0 
121.027946 5101.0 
122.036217 38731.0 
124.051933 69998.0 
128.046753 18358.0 
136.211823 4138.0 
137.023651 14574.0 
139.075424 121726.0 
141.01799 17304.0 
151.039413 12905.0 
152.033295 6892.0 
152.046814 160137.0 
156.04213 41482.0 
167.070023 4052.0 
184.036484 7395.0 
185.08078 15147.0 
188.459671 3586.0 
195.065323 1808606.0 
266.08075 3987.0 
282.07666 3678.0 
312.123077 48665.0 
368.185516 116654.0 
455.762421 3741.0 
654.59552 3966.0 
751.63147 3835.0 
END IONS

BEGIN IONS
NAME=HARMANE CollisionEnergy:102040 M-e
PRECURSOR_MZ=182.084
INCHI="InChI=1S/C12H10N2/c1-8-12-10(6-7-13-8)9-4-2-3-5-11(9)14-12/h2-7,14H,1H3"
SMILES=Cc1nccc2c1[nH]c1ccccc12
SPECTRUMID=CCMSLIB00010103763
60.543812 2122.0 
60.653179 2164.0 
65.781593 2289.0 
70.509018 2049.0 
74.68277 2054.0 
75.025169 2233.0 
92.386177 2254.0 
96.971367 2403.0 
112.967209 3017.0 
127.037361 2397.0 
140.950363 4281.0 
158.971054 11733.0 
174.572968 2749.0 
176.98056 152775.0 
181.57988 4090.0 
182.083847 1028309.0 
182.190475 12011.0 
182.58548 159437.0 
183.091599 141753.0 
194.990479 31948.0 
199.995911 32722.0 
209.917999 2224.0 
277.84552 2320.0 
285.979401 2792.0 
END IONS

BEGIN IONS
NAME=N-(3-chlorophenyl)-2-(9-methyl-6-oxohydropurin-8-ylthio)butanamide CollisionEnergy:205060 2M-H
PRECURSOR_MZ=753.135
INCHI="InChI=1S/C16H16ClN5O2S/c1-3-11(14(23)20-10-6-4-5-9(17)7-10)25-16-21-12-13(22(16)2)18-8-19-15(12)24/h4-8,11H,3H2,1-2H3,(H,20,23)(H,18,19,24)"
SMILES=CCC(Sc1nc2c(O)ncnc2n1C)C(O)=Nc1cccc(Cl)c1
SPECTRUMID=CCMSLIB00010121504
57.225929 3270.0 
57.975361 6064.0 
66.745567 3702.0 
73.955994 3451.0 
79.030121 3766.0 
82.401154 3109.0 
85.259666 3244.0 
92.381554 4464.0 
98.060928 3331.0 
104.289452 4329.0 
115.986076 3474.0 
122.369423 3923.0 
134.022766 3424.0 
136.214386 4016.0 
138.013458 14118.0 
147.030457 4362.0 
149.046768 54061.0 
177.258026 3871.0 
179.003586 40588.0 
180.01123 169176.0 
181.019196 109920.0 
181.037445 4473.0 
208.038559 14230.0 
219.808304 3520.0 
223.066513 7674.0 
226.009109 27745.0 
240.457825 3246.0 
274.05011 28956.0 
340.686218 3183.0 
376.064209 179262.0 
END IONS

BEGIN IONS
NAME=theophylline CollisionEnergy:102040 M+H
PRECURSOR_MZ=181.072
INCHI="InChI=1S/C7H8N4O2/c1-10-5-4(8-3-9-5)6(12)11(2)7(10)13/h3H,1-2H3,(H,8,9)"
SMILES=Cn1c(=O)c2nc[nH]c2n(C)c1=O
SPECTRUMID=CCMSLIB00010108279
69.045357 901210.0 
76.189743 155187.0 
89.887817 147721.0 
96.056023 2158313.0 
112.927872 186076.0 
124.050713 37751856.0 
137.08223 687555.0 
142.060944 1405142.0 
181.071976 178505440.0 
END IONS

BEGIN IONS
NAME=N-(3-chloro-4-fluorophenyl)-2-(6-oxo-9-phenylhydropurin-8-ylthio)acetamide CollisionEnergy:205060 2M-H
PRECURSOR_MZ=857.085
INCHI="InChI=1S/C19H13ClFN5O2S/c20-13-8-11(6-7-14(13)21)24-15(27)9-29-19-25-16-17(22-10-23-18(16)28)26(19)12-4-2-1-3-5-12/h1-8,10H,9H2,(H,24,27)(H,22,23,28)"
SMILES=OC(CSc1nc2c(O)ncnc2n1-c1ccccc1)=Nc1ccc(F)c(Cl)c1
SPECTRUMID=CCMSLIB00010123450
65.014328 7065.0 
73.605461 2962.0 
81.681648 3517.0 
85.930977 3404.0 
86.26339 3518.0 
89.627617 3674.0 
92.025192 4876.0 
114.685188 3164.0 
120.324669 3304.0 
136.213531 4405.0 
141.046173 60004.0 
155.714142 3552.0 
160.605453 3399.0 
173.019409 3810.0 
179.992111 5006.0 
182.988861 19598.0 
187.97374 6085.0 
199.125946 3428.0 
202.801102 3460.0 
211.062042 29649.0 
215.969238 20566.0 
241.018158 17435.0 
242.027405 24541.0 
243.034454 36937.0 
257.048615 4456.0 
309.94751 3594.0 
354.055573 14643.0 
428.039001 153540.0 
END IONS

BEGIN IONS
NAME=6-chloro-7-methyl-2-(4-methylphenyl)chromen-4-one CollisionEnergy:102040 M+Na
PRECURSOR_MZ=307.05
INCHI="InChI=1S/C17H13ClO2/c1-10-3-5-12(6-4-10)16-9-15(19)13-8-14(18)11(2)7-17(13)20-16/h3-9H,1-2H3"
SMILES=Cc1ccc(-c2cc(=O)c3cc(Cl)c(C)cc3o2)cc1
SPECTRUMID=CCMSLIB00010103972
53.59457 2847.0 
61.727139 2693.0 
82.389893 3328.0 
88.936417 3008.0 
90.9767 5916.0 
92.36541 4487.0 
103.968674 3014.0 
118.640343 4339.0 
120.080727 12762.0 
121.088638 57849.0 
134.096481 123526.0 
145.088684 35004.0 
147.104218 79074.0 
149.059479 4227.0 
158.072266 15179.0 
158.096054 26762.0 
186.066742 13598.0 
192.294159 3202.0 
199.095703 2867.0 
203.086441 3106.0 
218.486893 3134.0 
235.110764 11536.0 
245.09671 3875.0 
248.143661 3400.0 
255.115143 3175.0 
262.096741 4467.0 
263.106293 227505.0 
264.136658 25244.0 
267.384369 2980.0 
272.857422 2775.0 
275.1297 4487.0 
276.138184 15610.0 
278.153931 41308.0 
279.161133 79305.0 
288.136169 4513.0 
289.145599 4883.0 
290.119293 6622.0 
290.153625 30480.0 
291.124817 11854.0 
292.132385 71887.0 
306.148407 1344232.0 
307.049255 930274.0 
307.156067 4095560.0 
325.060547 41409.0 
348.074707 49100.0 
387.028259 4058.0 
391.294525 3104.0 
393.599915 3332.0 
END IONS

BEGIN IONS
NAME=6-(Methylthio)purine CollisionEnergy:205060 M-H
PRECURSOR_MZ=165.024
INCHI="InChI=1S/C6H6N4S/c1-11-6-4-5(8-2-7-4)9-3-10-6/h2-3H,1H3,(H,7,8,9,10)"
SMILES=CSc1ncnc2[nH]cnc12
SPECTRUMID=CCMSLIB00010115337
59.796188 161937.0 
60.574451 186471.0 
87.793968 179772.0 
88.458778 185458.0 
117.020782 1699057.0 
119.027679 361494.0 
119.036377 7297803.0 
122.989906 407363.0 
132.043976 960810.0 
147.393188 202948.0 
150.000626 100479544.0 
165.024109 91070344.0 
END IONS

BEGIN IONS
NAME=2-Hydroxycinnamic acid CollisionEnergy:205060 M-H
PRECURSOR_MZ=163.04
INCHI="InChI=1S/C9H8O3/c10-8-4-2-1-3-7(8)5-6-9(11)12/h1-6,10H,(H,11,12)/b6-5+"
SMILES=O=C(O)C=Cc1ccccc1O
SPECTRUMID=CCMSLIB00010119354
51.587479 164191.0 
60.53318 189874.0 
66.73764 203404.0 
69.404846 169710.0 
71.622749 200934.0 
91.05545 1510919.0 
93.03476 1837018.0 
104.278412 208688.0 
117.034828 4311934.0 
118.643929 272445.0 
119.0504 162433776.0 
120.054199 328051.0 
129.631653 152880.0 
136.198181 201166.0 
163.040497 3992786.0 
176.355392 168837.0 
END IONS

BEGIN IONS
NAME="2-methyl-1,2,3,4-tetrahydropyridino[4,3-b]indole CollisionEnergy:205060" M+H
PRECURSOR_MZ=187.123
INCHI="InChI=1S/C12H14N2/c1-14-7-6-12-10(8-14)9-4-2-3-5-11(9)13-12/h2-5,13H,6-8H2,1H3"
SMILES=CN1CCc2[nH]c3ccccc3c2C1
SPECTRUMID=CCMSLIB00010115916
54.014938 2538.0 
55.934971 44112.0 
59.377491 2305.0 
61.011089 4440.0 
63.08939 2546.0 
66.744537 2560.0 
71.929497 2869.0 
72.937607 16647.0 
73.953888 4150.0 
74.691177 2592.0 
83.085777 14134.0 
88.021843 56521.0 
89.940239 5201.0 
90.948036 25128.0 
104.285454 3566.0 
105.934677 19696.0 
107.949867 3495.0 
113.963516 6497.0 
115.054024 4901.0 
116.951599 22917.0 
117.069717 5153.0 
117.959137 12453.0 
118.559052 3081.0 
118.942543 15546.0 
118.967278 29659.0 
123.945229 5554.0 
126.019661 2560.0 
128.950775 17273.0 
130.06485 6101.0 
134.961365 5370.0 
135.945404 7017.0 
136.214615 5029.0 
136.95369 4558.0 
143.072693 26327.0 
143.634384 5411.0 
144.080887 8314604.0 
144.529587 5393.0 
145.796478 2994.0 
146.961288 11582.0 
153.955276 2840.0 
158.096481 167083.0 
159.006653 19057.0 
163.940918 20992.0 
163.96489 4361.0 
166.27182 2953.0 
181.949799 14480.0 
187.001053 5458.0 
187.123047 325818.0 
215.403015 3014.0 
255.189911 2859.0 
268.769348 2642.0 
307.508514 3038.0 
END IONS

BEGIN IONS
NAME=CHLOROGENIC ACID CollisionEnergy:102040 M-H
PRECURSOR_MZ=353.088
INCHI="InChI=1S/C16H18O9/c17-9-3-1-8(5-10(9)18)2-4-13(20)25-12-7-16(24,15(22)23)6-11(19)14(12)21/h1-5,11-12,14,17-19,21,24H,6-7H2,(H,22,23)/b4-2+/t11-,12-,14-,16+/m1/s1"
SMILES=O=C(C=Cc1ccc(O)c(O)c1)OC1CC(O)(C(=O)O)CC(O)C1O
SPECTRUMID=CCMSLIB00010113654
82.418533 2947.0 
85.029114 2996.0 
89.471474 2461.0 
93.772408 2313.0 
102.948639 9807.0 
104.309776 2391.0 
104.77919 2385.0 
118.943939 3034.0 
128.189987 2669.0 
136.239899 2655.0 
146.938828 21307.0 
158.011383 2574.0 
161.0242 15491.0 
179.035141 10292.0 
190.92836 23885.0 
191.056213 1321130.0 
203.550049 2379.0 
203.901642 2505.0 
212.879501 4399.0 
262.860779 2573.0 
280.869293 9884.0 
353.088379 161689.0 
618.046021 2446.0 
END IONS

BEGIN IONS
NAME="1,4-dimethylhydroquinolin-2-one CollisionEnergy:102040" M+H
PRECURSOR_MZ=174.091
INCHI="InChI=1S/C11H11NO/c1-8-7-11(13)12(2)10-6-4-3-5-9(8)10/h3-7H,1-2H3"
SMILES=Cc1cc(=O)n(C)c2ccccc12
SPECTRUMID=CCMSLIB00010103713
52.69141 2811.0 
53.051769 2531.0 
72.081078 17316.0 
82.405312 3414.0 
89.73111 2935.0 
89.939781 3437.0 
92.38369 2648.0 
93.81572 2984.0 
98.702744 2555.0 
127.781464 3143.0 
127.79277 3142.0 
129.138214 6819.0 
130.065552 12751.0 
130.966705 21356.0 
131.072739 4552.0 
132.080673 20580.0 
132.931717 3433.0 
146.096741 19874.0 
148.977356 36492.0 
149.940948 3748.0 
150.014099 4482.0 
150.941513 2883.0 
150.973297 6398.0 
151.017075 6257.0 
156.080719 4697.0 
157.982269 3315.0 
159.067596 20409.0 
173.498871 11767.0 
174.09137 8188176.0 
174.68718 14558.0 
END IONS

BEGIN IONS
NAME=morin CollisionEnergy:102040 M-H
PRECURSOR_MZ=301.035
INCHI="InChI=1S/C15H10O7/c16-6-1-2-8(9(18)3-6)15-14(21)13(20)12-10(19)4-7(17)5-11(12)22-15/h1-5,16-19,21H"
SMILES=O=c1c(O)c(-c2ccc(O)cc2O)oc2cc(O)cc(O)c12
SPECTRUMID=CCMSLIB00010111491
50.26086 5823.0 
57.034081 69160.0 
63.02354 98087.0 
65.002853 281687.0 
81.0345 45388.0 
82.413177 6811.0 
83.013634 544825.0 
95.014198 11519.0 
102.882103 5553.0 
107.013817 932473.0 
108.99324 25114.0 
109.029289 78603.0 
109.20742 5219.0 
119.013718 6684.0 
120.379478 6688.0 
121.029488 11967.0 
123.008919 6105.0 
123.045013 22786.0 
124.01651 6780.0 
125.024406 2762761.0 
135.008728 23729.0 
135.045471 8898.0 
145.029205 47776.0 
147.008789 410107.0 
147.045258 38674.0 
148.016602 332912.0 
149.024429 1301608.0 
151.003708 3951790.0 
153.019745 27214.0 
157.06601 13131.0 
159.045273 184278.0 
161.024277 13214.0 
161.061996 10605.0 
163.003845 727087.0 
164.011551 37321.0 
164.927139 22762.0 
165.019577 7048.0 
169.014236 113296.0 
171.045151 23144.0 
173.024445 84606.0 
175.003693 160656.0 
176.011597 37565.0 
177.055893 12157.0 
183.045425 27970.0 
185.061234 70494.0 
187.040039 227252.0 
189.05545 42010.0 
190.998596 10429.0 
191.035217 25534.0 
192.006927 58145.0 
193.013748 12322.0 
195.044983 21629.0 
201.055649 124189.0 
203.036057 42657.0 
205.0504 34267.0 
211.040176 100805.0 
213.05545 54271.0 
213.19101 6961.0 
214.027664 11008.0 
215.035156 101890.0 
227.035278 28079.0 
229.050537 592429.0 
231.027283 18680.0 
232.924454 9788.0 
233.045334 61347.0 
239.035141 102435.0 
240.043533 27829.0 
245.045151 59809.0 
255.030136 34005.0 
256.03595 6795.0 
257.045868 249181.0 
272.0336 69977.0 
273.040527 415577.0 
283.024872 303588.0 
283.06015 8831.0 
284.033569 7955.0 
301.035339 21212422.0 
END IONS

BEGIN IONS
NAME=(-)-Erythromycin hydrate CollisionEnergy:205060 M+Na
PRECURSOR_MZ=756.45
INCHI="InChI=1S/C37H67NO13/c1-14-25-37(10,45)30(41)20(4)27(39)18(2)16-35(8,44)32(51-34-28(40)24(38(11)12)15-19(3)47-34)21(5)29(22(6)33(43)49-25)50-26-17-36(9,46-13)31(42)23(7)48-26/h18-26,28-32,34,40-42,44-45H,14-17H2,1-13H3/t18-,19-,20+,21?,22-,23-,24+,25-,26-,28-,29+,30-,31-,32-,34+,35-,36+,37-/m0/s1"
SMILES=CCC1OC(=O)C(C)C(OC2CC(C)(OC)C(O)C(C)O2)C(C)C(OC2OC(C)CC(N(C)C)C2O)C(C)(O)CC(C)C(=O)C(C)C(O)C1(C)O
SPECTRUMID=CCMSLIB00010124809
55.05471 14407.0 
57.05785 14439.0 
58.065689 5323.0 
59.049511 26017.0 
70.065422 9103.0 
71.013367 4762.0 
72.081108 306982.0 
73.052589 8411.0 
81.07003 8433.0 
83.010521 69913.0 
83.049347 213163.0 
84.080811 16719.0 
87.044289 50899.0 
88.075851 81380.0 
92.374687 4119.0 
98.0597 6012.0 
98.096413 238109.0 
100.075592 20083.0 
108.054512 5316.0 
113.059837 25737.0 
114.091248 8482.0 
116.070541 177462.0 
116.106941 146559.0 
120.078293 39050.0 
125.020927 14334.0 
135.041779 4010.0 
137.057297 16417.0 
138.089127 20972.0 
155.069458 4134.0 
158.117416 96236.0 
165.08873 16416.0 
177.088425 4845.0 
195.098846 8564.0 
207.135544 18897.0 
217.119461 3891.0 
223.094406 5903.0 
235.130234 44597.0 
239.089249 25683.0 
247.166031 19814.0 
253.140869 7969.0 
265.176636 20783.0 
275.16684 4299.0 
279.120728 4672.0 
291.156036 32570.0 
293.172394 8182.0 
297.028534 3612.0 
297.130615 22107.0 
303.193359 5091.0 
309.166534 111268.0 
327.178589 42917.0 
337.163391 5834.0 
338.731903 3766.0 
351.1745 4704.0 
355.17099 4115.0 
361.236694 5628.0 
365.194336 5315.0 
369.188995 6999.0 
383.204041 5724.0 
392.239777 18397.0 
404.278259 16400.0 
405.225311 20282.0 
410.247375 29153.0 
422.286987 73476.0 
423.233978 35059.0 
441.245575 33491.0 
466.276825 18895.0 
484.288971 16505.0 
580.345459 14458.0 
598.355469 90576.0 
738.438049 36010.0 
756.449402 3247813.0 
END IONS

BEGIN IONS
NAME="1-{3-[(2-cyclohexylphenoxy)methyl]-4-methoxyphenyl}-1,2,3,4-tetrahydrobeta-car boline-3-carboxylic acid CollisionEnergy:205060" M+formate
PRECURSOR_MZ=555.25
INCHI="InChI=1S/C32H34N2O4/c1-37-28-16-15-21(17-22(28)19-38-29-14-8-6-11-23(29)20-9-3-2-4-10-20)30-31-25(18-27(34-30)32(35)36)24-12-5-7-13-26(24)33-31/h5-8,11-17,20,27,30,33-34H,2-4,9-10,18-19H2,1H3,(H,35,36)"
SMILES=COc1ccc(C2NC(C(=O)O)Cc3c2[nH]c2ccccc32)cc1COc1ccccc1C1CCCCC1
SPECTRUMID=CCMSLIB00010124863
50.4785 2692.0 
51.016842 2474.0 
66.739777 3871.0 
69.83017 2512.0 
73.951302 3155.0 
75.316902 2587.0 
78.195923 2445.0 
82.445122 2752.0 
109.014343 2641.0 
116.050797 12482.0 
118.649673 3512.0 
152.617401 2469.0 
175.113144 6061.0 
209.043747 3550.0 
209.062759 4746.0 
264.398987 2835.0 
306.679749 2626.0 
444.396667 2822.0 
509.245667 11152.0 
584.945801 2815.0 
END IONS

BEGIN IONS
NAME=N-(2-fluorophenyl)-2-[4-(morpholin-4-ylcarbonyl)-2-oxohydroquinolyl]acetamide CollisionEnergy:102040 M+Na
PRECURSOR_MZ=432.133
INCHI="InChI=1S/C22H20FN3O4/c23-17-6-2-3-7-18(17)24-20(27)14-26-19-8-4-1-5-15(19)16(13-21(26)28)22(29)25-9-11-30-12-10-25/h1-8,13H,9-12,14H2,(H,24,27)"
SMILES=O=C(c1cc(=O)n(CC(O)=Nc2ccccc2F)c2ccccc12)N1CCOCC1
SPECTRUMID=CCMSLIB00010113688
92.385208 3566.0 
106.383171 3603.0 
152.794922 3228.0 
259.106842 4954.0 
271.107452 43684.0 
272.107971 5938.0 
290.122559 3007.0 
299.102936 6233.0 
347.083405 25699.0 
365.102173 4445.0 
374.149231 16677.0 
375.150787 5721.0 
408.27475 3271.0 
411.132812 118532.0 
411.634705 135923.0 
412.136383 25079.0 
414.121704 17342.0 
420.139313 83147.0 
420.639801 91381.0 
421.144745 22025.0 
431.647797 39914.0 
432.132629 6590654.0 
434.473572 4296.0 
450.140106 13169.0 
454.112152 4155.0 
473.156219 19852.0 
END IONS

BEGIN IONS
NAME=3-Cyano-7-hydroxycoumarin CollisionEnergy:205060 2M-H
PRECURSOR_MZ=373.047
INCHI="InChI=1S/C10H5NO3/c11-5-7-3-6-1-2-8(12)4-9(6)14-10(7)13/h1-4,12H"
SMILES=N#Cc1cc2ccc(O)cc2oc1=O
SPECTRUMID=CCMSLIB00010117458
79.119591 2289.0 
92.396767 2964.0 
101.467613 2322.0 
104.307762 2503.0 
118.679161 2328.0 
118.96637 2775.0 
146.961563 37043.0 
158.02536 5233.0 
174.955994 17382.0 
186.019592 203866.0 
241.804245 2458.0 
304.914642 23445.0 
END IONS

BEGIN IONS
NAME=N-(4-methylphenyl)-2-[9-(4-methylphenyl)-6-oxohydropurin-8-ylthio]acetamide CollisionEnergy:102040 M+H
PRECURSOR_MZ=406.133
INCHI="InChI=1S/C21H19N5O2S/c1-13-3-7-15(8-4-13)24-17(27)11-29-21-25-18-19(22-12-23-20(18)28)26(21)16-9-5-14(2)6-10-16/h3-10,12H,11H2,1-2H3,(H,24,27)(H,22,23,28)"
SMILES=Cc1ccc(NC(=O)CSc2nc3c(O)ncnc3n2-c2ccc(C)cc2)cc1
SPECTRUMID=CCMSLIB00010110808
57.7784 2976.0 
60.53307 3518.0 
82.389671 3490.0 
82.394638 3168.0 
92.370689 3731.0 
100.593491 3023.0 
102.156036 2880.0 
115.346024 2772.0 
196.417297 2882.0 
212.0811 38460.0 
213.089478 19790.0 
230.038345 39919.0 
244.053528 360849.0 
257.048309 96378.0 
262.064423 24709.0 
271.064301 1173175.0 
297.727448 3359.0 
299.059235 4251902.0 
343.501984 3265.0 
382.781921 3093.0 
388.123169 5763.0 
406.132477 431694.0 
END IONS

BEGIN IONS
NAME="4-[(2E)-3-(2,3,4-trimethoxyphenyl)prop-2-enoyl]phenyl thiophene-2-carboxylate CollisionEnergy:205060" M+H
PRECURSOR_MZ=425.105
INCHI="InChI=1S/C23H20O6S/c1-26-19-13-9-16(21(27-2)22(19)28-3)8-12-18(24)15-6-10-17(11-7-15)29-23(25)20-5-4-14-30-20/h4-14H,1-3H3/b12-8+"
SMILES=COc1ccc(C=CC(=O)c2ccc(OC(=O)c3cccs3)cc2)c(OC)c1OC
SPECTRUMID=CCMSLIB00010115533
55.652222 3332.0 
57.987659 6761.0 
71.185287 3366.0 
72.335579 3261.0 
82.99527 19253.0 
90.976677 5216.0 
94.032822 3305.0 
98.989937 72150.0 
107.04937 4928.0 
110.686417 4270.0 
110.989906 8196491.0 
121.028183 7976.0 
129.000351 15567.0 
129.070358 5216.0 
134.035568 6102.0 
135.043671 5263.0 
138.108887 3625.0 
147.045227 3978.0 
151.03952 4450.0 
152.047562 4725.0 
154.062134 13929.0 
162.066498 4066.0 
163.038651 38280.0 
165.017899 40482.0 
167.070236 27460.0 
169.085739 93037.0 
173.042603 4715.0 
177.054367 13811.0 
178.063248 7385.0 
191.033722 77453.0 
193.217087 3473.0 
195.064835 90643.0 
206.057831 31641.0 
210.892807 4389.0 
217.030807 26434.0 
221.080673 129064.0 
231.010788 531530.0 
257.026306 400096.0 
271.096039 13598.0 
293.966583 3750.0 
383.093933 572389.0 
393.077881 7451.0 
425.104553 1273379.0 
END IONS

BEGIN IONS
NAME="3-[3-(2-chlorophenyl)-1-oxo(2,3,4-trihydro-5H,10H,11H-benzo[b]benzo[2,1-f]1,4- diazepin-11-yl)]-6-methylchromen-4-one CollisionEnergy:205060" M+Na
PRECURSOR_MZ=505.129
INCHI="InChI=1S/C29H23ClN2O3/c1-16-10-11-26-19(12-16)29(34)20(15-35-26)28-27-24(31-22-8-4-5-9-23(22)32-28)13-17(14-25(27)33)18-6-2-3-7-21(18)30/h2-12,15,17,28,31-32H,13-14H2,1H3"
SMILES=Cc1ccc2occ(C3Nc4ccccc4NC4=C3C(=O)CC(c3ccccc3Cl)C4)c(=O)c2c1
SPECTRUMID=CCMSLIB00010116976
61.137661 2678.0 
71.635551 2878.0 
80.657494 3075.0 
87.370773 3387.0 
100.842918 2756.0 
107.271103 2878.0 
136.205978 3068.0 
185.070114 4116.0 
210.934372 2971.0 
245.978745 2983.0 
337.01889 2887.0 
373.059418 43540.0 
505.12793 2842626.0 
END IONS

BEGIN IONS
NAME=T9EAH8NHTC CollisionEnergy:205060 M+H-H2O
PRECURSOR_MZ=181.05
INCHI="InChI=1S/C9H10O5/c1-14-7-4-5(2-3-6(7)10)8(11)9(12)13/h2-4,8,10-11H,1H3,(H,12,13)/t8-/m0/s1"
SMILES=COc1cc(C(O)C(=O)O)ccc1O
SPECTRUMID=CCMSLIB00010125622
53.2071 6056.0 
65.039284 587385.0 
67.054909 26967.0 
70.942436 10387.0 
71.396584 5965.0 
77.039284 39425.0 
82.042053 27015.0 
85.028816 12534.0 
93.034012 649193.0 
97.065239 157749.0 
104.271118 6944.0 
105.03389 128934.0 
110.036461 95405.0 
111.044403 727866.0 
121.028709 178582.0 
125.059883 691972.0 
138.031204 41077.0 
139.039078 10078.0 
149.023376 1741007.0 
153.054611 786996.0 
167.033417 11308.0 
181.049454 839967.0 
END IONS

BEGIN IONS
NAME="2',3'-Dimethoxy-3-hydroxyflavone CollisionEnergy:205060" M+Na
PRECURSOR_MZ=321.073
INCHI="InChI=1S/C17H14O5/c1-20-13-9-5-7-11(16(13)21-2)17-15(19)14(18)10-6-3-4-8-12(10)22-17/h3-9,19H,1-2H3"
SMILES=COc1cccc(-c2oc3ccccc3c(=O)c2O)c1OC
SPECTRUMID=CCMSLIB00010117004
58.836071 2557.0 
75.522614 2112.0 
92.391777 3671.0 
184.52063 2484.0 
209.23114 2208.0 
306.050385 4529.0 
321.072845 1306200.0 
339.082092 3464.0 
END IONS

BEGIN IONS
NAME="3-(6-oxo-7,11-diazatricyclo[7.3.1.0<2,7>]trideca-2,4-dien-11-yl)propanisothioc yanate CollisionEnergy:205060" M+Na
PRECURSOR_MZ=312.114
INCHI="InChI=1S/C15H19N3OS/c19-15-4-1-3-14-13-7-12(9-18(14)15)8-17(10-13)6-2-5-16-11-20/h1,3-4,12-13H,2,5-10H2"
SMILES=O=c1cccc2n1CC1CC2CN(CCCN=C=S)C1
SPECTRUMID=CCMSLIB00010120151
73.7379 3132.0 
74.02581 2575.0 
84.95961 4606.0 
92.367882 3356.0 
140.085907 2966.0 
157.956757 2956.0 
171.242767 3172.0 
213.099686 245279.0 
228.112717 13421.0 
238.094894 82894.0 
240.109467 26380.0 
256.143433 53092.0 
260.930817 5231.0 
288.92688 18096.0 
295.034058 3413.0 
312.113556 5699085.0 
END IONS

BEGIN IONS
NAME=Isoreserpine CollisionEnergy:102040 M+Cl
PRECURSOR_MZ=643.243
INCHI="InChI=1S/C33H40N2O9/c1-38-19-7-8-20-21-9-10-35-16-18-13-27(44-32(36)17-11-25(39-2)30(41-4)26(12-17)40-3)31(42-5)28(33(37)43-6)22(18)15-24(35)29(21)34-23(20)14-19/h7-8,11-12,14,18,22,24,27-28,31,34H,9-10,13,15-16H2,1-6H3/t18-,22+,24+,27-,28+,31+/m1/s1"
SMILES=COC(=O)C1C2CC3c4[nH]c5cc(OC)ccc5c4CCN3CC2CC(OC(=O)c2cc(OC)c(OC)c(OC)c2)C1OC
SPECTRUMID=CCMSLIB00010108903
51.42337 2718.0 
53.162239 2723.0 
64.597839 2999.0 
66.75209 3656.0 
104.30407 3132.0 
115.588867 2439.0 
118.956398 2618.0 
121.85537 3716.0 
124.279991 2633.0 
146.32692 2793.0 
159.17131 2649.0 
188.122726 2572.0 
191.727264 2755.0 
194.057755 3150.0 
203.119324 2800.0 
221.586899 3420.0 
234.388809 2687.0 
417.491241 3088.0 
463.289795 2792.0 
596.995483 3189.0 
643.243347 74851.0 
END IONS

BEGIN IONS
NAME="5,7,2'-Trihydroxyflavone CollisionEnergy:205060" 2M-H
PRECURSOR_MZ=539.098
INCHI="InChI=1S/C15H10O5/c16-8-5-11(18)15-12(19)7-13(20-14(15)6-8)9-3-1-2-4-10(9)17/h1-7,16-18H"
SMILES=O=c1cc(-c2ccccc2O)oc2cc(O)cc(O)c12
SPECTRUMID=CCMSLIB00010116113
54.329262 2905.0 
63.02396 2478.0 
65.002876 25622.0 
66.74437 2865.0 
77.119682 2512.0 
83.013908 10169.0 
92.377548 3070.0 
104.286827 3462.0 
107.013863 38425.0 
117.035004 4513.0 
118.656647 3418.0 
136.214493 3592.0 
142.89743 2688.0 
147.266525 2491.0 
151.003494 88528.0 
157.06575 3339.0 
165.488342 2650.0 
168.248978 2814.0 
175.985535 2476.0 
183.046371 4469.0 
185.024612 3112.0 
201.056778 6049.0 
208.83075 10917.0 
225.056671 14778.0 
269.045746 189554.0 
356.325348 2760.0 
368.729462 3113.0 
468.241638 3366.0 
END IONS

BEGIN IONS
NAME=3-(4-bromophenyl)-4-methylchromen-2-one CollisionEnergy:205060 M+Na
PRECURSOR_MZ=336.983
INCHI="InChI=1S/C16H11BrO2/c1-10-13-4-2-3-5-14(13)19-16(18)15(10)11-6-8-12(17)9-7-11/h2-9H,1H3"
SMILES=Cc1c(-c2ccc(Br)cc2)c(=O)oc2ccccc12
SPECTRUMID=CCMSLIB00010120366
57.437119 2024.0 
64.977867 4404.0 
80.948212 4137.0 
104.274017 2531.0 
108.374496 2116.0 
283.238831 2547.0 
336.983002 39318.0 
END IONS

BEGIN IONS
NAME=DL-ISOLEUCINE CollisionEnergy:102040 M+H
PRECURSOR_MZ=132.102
INCHI="InChI=1S/C6H13NO2/c1-3-4(2)5(7)6(8)9/h4-5H,3,7H2,1-2H3,(H,8,9)"
SMILES=CCC(C)C(N)C(=O)O
SPECTRUMID=CCMSLIB00010126548
57.058102 3679.879883 
58.065899 9595.530273 
67.055 2234.840088 
69.070602 329810.0 
86.097099 2461680.0 
90.903999 12353.299805 
92.395103 2578.26001 
104.305 2764.26001 
132.091995 3150.600098 
132.102005 29113.199219 
END IONS

BEGIN IONS
NAME=N-(3-fluorophenyl)-2-[9-(4-methylphenyl)-6-oxohydropurin-8-ylthio]acetamide CollisionEnergy:205060 M+H
PRECURSOR_MZ=410.108
INCHI="InChI=1S/C20H16FN5O2S/c1-12-5-7-15(8-6-12)26-18-17(19(28)23-11-22-18)25-20(26)29-10-16(27)24-14-4-2-3-13(21)9-14/h2-9,11H,10H2,1H3,(H,24,27)(H,22,23,28)"
SMILES=Cc1ccc(-n2c(SCC(O)=Nc3cccc(F)c3)nc3c(O)ncnc32)cc1
SPECTRUMID=CCMSLIB00010124790
60.25473 2416.0 
77.907898 2744.0 
82.383713 3287.0 
102.92688 3239.0 
105.52076 2876.0 
118.065109 3110.0 
124.055496 5509.0 
130.064789 19770.0 
135.883408 3268.0 
145.075546 4694.0 
148.075592 2728.0 
150.036667 5803.0 
157.075623 11532.0 
158.060226 6873.0 
159.066895 4243.0 
162.03688 117600.0 
164.05246 14337.0 
169.075012 6681.0 
172.086395 37638.0 
174.037781 3909.0 
175.032349 6969.0 
184.086777 12714.0 
185.093262 2845.0 
189.047653 96777.0 
190.031799 113019.0 
193.042786 55990.0 
198.066345 5810.0 
202.042953 23284.0 
205.479874 3039.0 
206.190964 2634.0 
211.074158 4359.0 
212.081375 367003.0 
213.088638 29802.0 
216.058823 72141.0 
217.042496 6053.0 
228.057434 3409.0 
230.011444 5892.0 
230.037781 183126.0 
237.076538 4679.0 
238.083939 36819.0 
244.053268 1024869.0 
248.023956 2932.0 
253.053589 6998.0 
256.041809 4933.0 
257.04834 76453.0 
262.063354 31642.0 
271.038269 9578.0 
271.064026 506194.0 
299.058899 1332819.0 
365.422333 3023.0 
387.034576 3434.0 
410.107208 18298.0 
END IONS

BEGIN IONS
NAME="N-{4-[N-benzylcarbamoyl]phenyl}(3,4,5-trimethoxyphenyl)carboxamide CollisionEnergy:205060" M+formate
PRECURSOR_MZ=465.167
INCHI="InChI=1S/C24H24N2O5/c1-29-20-13-18(14-21(30-2)22(20)31-3)24(28)26-19-11-9-17(10-12-19)23(27)25-15-16-7-5-4-6-8-16/h4-14H,15H2,1-3H3,(H,25,27)(H,26,28)"
SMILES=COc1cc(C(=O)Nc2ccc(C(=O)NCc3ccccc3)cc2)cc(OC)c1OC
SPECTRUMID=CCMSLIB00010119739
50.606239 2180.0 
53.10807 2219.0 
57.306831 2458.0 
90.933868 2609.0 
100.770241 2652.0 
112.14637 2728.0 
120.009171 4455.0 
149.046631 2504.0 
194.044373 2524.0 
251.083588 5354.0 
251.801437 2658.0 
317.0961 2928.0 
345.087952 10017.0 
374.091339 3606.0 
389.113861 22406.0 
419.161407 78188.0 
END IONS

BEGIN IONS
NAME="3-Hydroxy-3',4'-Dimethoxyflavone CollisionEnergy:102040" M+H
PRECURSOR_MZ=299.091
INCHI="InChI=1S/C17H14O5/c1-20-13-8-7-10(9-14(13)21-2)17-16(19)15(18)11-5-3-4-6-12(11)22-17/h3-9,19H,1-2H3"
SMILES=COc1ccc(-c2oc3ccccc3c(=O)c2O)cc1OC
SPECTRUMID=CCMSLIB00010104215
53.96841 3179.0 
60.385029 2757.0 
82.387451 3780.0 
92.371429 2691.0 
105.0336 35647.0 
107.049294 48701.0 
113.180817 2805.0 
113.211182 3243.0 
121.028442 81168.0 
133.029068 20751.0 
137.059875 153008.0 
138.067459 34405.0 
149.023438 7058.0 
162.030441 22576.0 
163.03804 5939.0 
165.054504 33318.0 
177.018509 14727.0 
210.067734 5090.0 
211.075134 7314.0 
237.05455 23619.0 
238.061981 45234.0 
239.069962 60161.0 
240.078125 5294.0 
241.049805 3799.0 
243.102066 24890.0 
249.053391 4424.0 
253.049316 6073.0 
255.064896 116785.0 
256.072845 15713.0 
263.985687 3385.0 
265.049194 33570.0 
266.057281 121740.0 
266.942871 3180.0 
267.065399 86264.0 
268.072266 26049.0 
269.04483 31924.0 
270.051788 21572.0 
270.08667 6778.0 
283.059906 445668.0 
284.030762 3576.0 
284.067474 201339.0 
299.091003 6324054.0 
300.426941 3989.0 
301.056549 3991.0 
END IONS

BEGIN IONS
NAME=Diacetoxyscirpenol CollisionEnergy:102040 M+Na
PRECURSOR_MZ=389.157
INCHI="InChI=1S/C19H26O7/c1-10-5-6-18(8-23-11(2)20)13(7-10)26-16-14(22)15(25-12(3)21)17(18,4)19(16)9-24-19/h7,13-16,22H,5-6,8-9H2,1-4H3/t13-,14-,15-,16-,17-,18-,19-/m1/s1"
SMILES=CC(=O)OCC12CCC(C)=CC1OC1C(O)C(OC(C)=O)C2(C)C12CO2
SPECTRUMID=CCMSLIB00010108420
58.035561 3160.0 
60.539188 2967.0 
66.105438 3049.0 
72.278687 3251.0 
84.037949 3447.0 
100.88102 3062.0 
105.267082 3359.0 
130.052307 3657.0 
146.228058 3229.0 
172.602814 3224.0 
185.404343 2919.0 
212.65715 3945.0 
247.133621 12351.0 
329.13504 3661.0 
389.156555 9185023.0 
END IONS

BEGIN IONS
NAME=D-Pyroglutamic acid CollisionEnergy:102040 M-H
PRECURSOR_MZ=128.035
INCHI="InChI=1S/C5H7NO3/c7-4-2-1-3(6-4)5(8)9/h3H,1-2H2,(H,6,7)(H,8,9)/t3-/m1/s1"
SMILES=O=C(O)[C@H]1CCC(O)=N1
SPECTRUMID=CCMSLIB00010126277
53.2477 91564.5 
73.974297 101211.0 
82.029602 468371.0 
82.423599 106279.0 
92.401703 93955.203125 
104.315002 95808.296875 
114.313004 86285.398438 
118.690002 101263.0 
128.035004 9778300.0 
END IONS

BEGIN IONS
NAME="2-{2-[(2E)-3-(3,4,5-trimethoxyphenyl)-1,2-diazabut-2-enylidene]-4-oxo-1,3-thia zolidin-5-yl}acetic acid CollisionEnergy:205060" M+H
PRECURSOR_MZ=382.107
INCHI="InChI=1S/C16H19N3O6S/c1-8(9-5-10(23-2)14(25-4)11(6-9)24-3)18-19-16-17-15(22)12(26-16)7-13(20)21/h5-6,12H,7H2,1-4H3,(H,20,21)(H,17,19,22)/b18-8+"
SMILES=COc1cc(C(C)=NN=C2N=C(O)C(CC(=O)O)S2)cc(OC)c1OC
SPECTRUMID=CCMSLIB00010121076
50.015659 24815.0 
51.023449 33130.0 
53.038952 58273.0 
55.01841 26558.0 
55.05471 11791.0 
57.03392 7150.0 
57.987598 8405.0 
58.99543 322867.0 
59.049568 7421.0 
59.990582 9529.0 
65.038933 215255.0 
66.046783 95964.0 
67.018143 7090.0 
67.054604 107122.0 
68.026077 25013.0 
68.062363 7998.0 
68.997437 36865.0 
69.008438 6276.0 
69.033882 50858.0 
70.028816 11904.0 
71.013191 20852.0 
71.049507 28270.0 
74.006187 248223.0 
74.990211 97082.0 
75.001282 54040.0 
75.044182 55701.0 
77.038818 37336.0 
78.046654 91025.0 
79.054459 1141600.0 
80.013557 7961.0 
80.062431 8874.0 
81.033699 978506.0 
81.070091 500472.0 
82.041328 44817.0 
83.012962 9570.0 
83.049583 40053.0 
84.974609 10615.0 
85.028526 38239.0 
86.990059 73690.0 
90.03373 5491.0 
91.054367 95756.0 
92.025787 60783.0 
92.062347 22540.0 
93.033531 76554.0 
93.069977 23473.0 
94.041298 229967.0 
94.064774 6003.0 
95.049133 275329.0 
96.056961 572437.0 
97.028549 8399.0 
97.064934 22215.0 
98.023697 47356.0 
99.007843 6411.0 
99.044037 27818.0 
100.021362 8294.0 
101.016647 90453.0 
102.000763 325949.0 
102.984703 359681.0 
102.995872 89668.0 
105.033363 38735.0 
105.044838 33408.0 
105.069931 7421.0 
105.630913 5699.0 
106.041283 68589.0 
107.012703 43849.0 
107.04908 98040.0 
108.05677 247862.0 
109.02829 213297.0 
109.064743 644178.0 
110.036034 24556.0 
110.072884 8919.0 
111.043983 51807.0 
111.08033 131796.0 
113.023163 49319.0 
113.059517 122936.0 
116.027473 40282.0 
118.065269 22179.0 
119.049393 7582.0 
120.080963 24873.0 
121.028236 197660.0 
121.064911 34101.0 
122.036102 656580.0 
123.04393 90585.0 
124.051773 1024164.0 
125.023262 7171.0 
125.05957 73808.0 
126.996361 45741.0 
127.03878 10490.0 
128.04657 100614.0 
129.011444 65322.0 
130.980011 6474.0 
132.044525 34082.0 
132.081421 5611.0 
133.028671 6613.0 
133.064651 9464.0 
133.088287 40282.0 
134.059906 40270.0 
134.070618 5889.0 
134.096375 37235.0 
135.043381 39559.0 
136.039459 12221.0 
136.051361 11400.0 
136.076248 10858.0 
137.023163 427575.0 
137.059448 66204.0 
138.066696 35659.0 
139.075211 1078373.0 
141.018082 117660.0 
141.054871 12381.0 
142.044128 10860.0 
143.07045 29211.0 
145.006454 249474.0 
146.060806 5869.0 
147.044586 11895.0 
148.039352 25233.0 
148.05188 145932.0 
148.075394 185577.0 
149.05957 25828.0 
150.055206 19219.0 
150.09166 22702.0 
151.038788 463550.0 
151.062073 21702.0 
152.046616 1959366.0 
153.05452 34911.0 
154.0625 32985.0 
154.991562 8730.0 
155.033661 9312.0 
156.041473 207965.0 
157.006439 95949.0 
160.038132 5841.0 
162.054626 126017.0 
162.067337 15384.0 
162.091019 200773.0 
162.105637 9356.0 
163.039017 23862.0 
164.070282 201956.0 
164.084869 11328.0 
165.054947 42655.0 
165.078247 30142.0 
166.049789 27054.0 
166.062775 19996.0 
166.086044 32189.0 
167.070572 23768.0 
168.022476 52138.0 
168.036819 6535.0 
170.057846 9013.0 
171.065262 8106.0 
174.054977 24356.0 
175.017014 12115.0 
175.063034 19320.0 
176.070236 90606.0 
177.053848 11169.0 
177.079315 7848.0 
178.03186 6506.0 
178.049286 164770.0 
178.065674 8577.0 
178.086014 254523.0 
180.065231 21439.0 
180.08017 6239.0 
180.102051 32201.0 
181.058594 6965.0 
181.085785 344592.0 
184.03627 80986.0 
185.079895 59436.0 
192.064392 43894.0 
193.072144 39298.0 
193.089798 62507.0 
194.080948 561465.0 
195.087372 70345.0 
207.076385 26196.0 
208.096527 3595095.0 
209.051788 5751.0 
209.10463 187060.0 
210.112122 25991.0 
214.027664 422040.0 
220.107788 5481.0 
234.087067 6554.0 
244.070068 5496.0 
250.118317 53928.0 
267.079834 9061.0 
322.08905 7053.0 
336.100616 26667.0 
364.095276 208011.0 
364.147736 6651.0 
367.078888 5527.0 
382.105865 8216564.0 
END IONS

BEGIN IONS
NAME=L-histidinol CollisionEnergy:102040 M+Na
PRECURSOR_MZ=164.079
INCHI="InChI=1S/C6H11N3O/c7-5(3-10)1-6-2-8-4-9-6/h2,4-5,10H,1,3,7H2,(H,8,9)/t5-/m0/s1"
SMILES=N[C@H](CO)Cc1cnc[nH]1
SPECTRUMID=CCMSLIB00010126551
60.023899 9116.650391 
61.988602 9255.889648 
82.417702 9267.049805 
110.213997 9845.209961 
164.078995 1455940.0 
END IONS

BEGIN IONS
NAME=N-Acetyl-D-tryptophan CollisionEnergy:102040 M-H
PRECURSOR_MZ=245.093
INCHI="InChI=1S/C13H14N2O3/c1-8(16)15-12(13(17)18)6-9-7-14-11-5-3-2-4-10(9)11/h2-5,7,12,14H,6H2,1H3,(H,15,16)(H,17,18)/t12-/m1/s1"
SMILES=CC(O)=N[C@H](Cc1c[nH]c2ccccc12)C(=O)O
SPECTRUMID=CCMSLIB00010102814
51.140598 414130.0 
58.0294 3186500.0 
65.742699 394404.0 
67.439796 387158.0 
69.057098 413780.0 
70.0261 481222.0 
70.029701 7712440.0 
74.024597 26381300.0 
82.421799 679107.0 
87.788101 387119.0 
98.024902 4529910.0 
101.972 423786.0 
104.315002 422502.0 
116.036003 18246700.0 
116.050003 5176350.0 
142.067001 655251.0 
159.093002 754942.0 
172.615997 422154.0 
183.093002 426328.0 
201.104996 4572090.0 
203.082993 49040800.0 
209.337997 425214.0 
211.261993 610238.0 
211.281006 926457.0 
245.093994 51925500.0 
END IONS

BEGIN IONS
NAME=4-Methoxycinnamic acid CollisionEnergy:205060 M+H-H2O
PRECURSOR_MZ=161.06
INCHI="InChI=1S/C10H10O3/c1-13-9-5-2-8(3-6-9)4-7-10(11)12/h2-7H,1H3,(H,11,12)/b7-4+"
SMILES=COc1ccc(C=CC(=O)O)cc1
SPECTRUMID=CCMSLIB00010121627
50.015862 6238.0 
50.459728 2784.0 
51.023499 12428.0 
53.03915 21271.0 
55.01844 12475.0 
55.935108 3029.0 
56.96524 14593.0 
63.023899 4157.0 
65.038986 22195.0 
65.666321 2748.0 
66.04689 191682.0 
67.831413 3275.0 
68.026199 21966.0 
73.879517 3943.0 
73.943642 3323.0 
75.31926 3282.0 
77.038689 22090.0 
78.931129 4812.0 
79.054604 965734.0 
81.033813 19745.0 
82.850021 2922.0 
84.959862 13271.0 
87.00177 5602.0 
88.000153 4124.0 
89.039078 17517.0 
90.04657 101879.0 
91.054497 62933.0 
92.02581 21296.0 
93.033661 3666.0 
94.041748 24460.0 
95.049217 51157.0 
102.04628 43455.0 
103.054291 926100.0 
104.062202 4345.0 
105.04493 21576.0 
105.069962 523610.0 
107.049316 20574.0 
108.9963 4173.0 
109.491379 19458.0 
109.992638 3094.0 
110.489929 6331.0 
115.054314 37486.0 
116.062309 3268.0 
117.003021 13077.0 
117.034203 3998.0 
117.502876 3375.0 
118.041397 1467830.0 
121.028648 7600.0 
122.036171 7081.0 
131.049316 20517.0 
132.057114 20887.0 
132.668793 4330.0 
133.064957 5308467.0 
146.036011 26099.0 
161.059875 3518494.0 
171.182861 3007.0 
END IONS

BEGIN IONS
NAME=N-(2-methylphenyl)-2-[2-oxo-4-(N-propylcarbamoyl)hydroquinolyl]acetamide CollisionEnergy:205060 M+H
PRECURSOR_MZ=378.181
INCHI="InChI=1S/C22H23N3O3/c1-3-12-23-22(28)17-13-21(27)25(19-11-7-5-9-16(17)19)14-20(26)24-18-10-6-4-8-15(18)2/h4-11,13H,3,12,14H2,1-2H3,(H,23,28)(H,24,26)"
SMILES=CCCN=C(O)c1cc(=O)n(CC(O)=Nc2ccccc2C)c2ccccc12
SPECTRUMID=CCMSLIB00010125233
65.497322 2653.0 
69.975479 2777.0 
70.065407 3983.0 
78.308746 2228.0 
86.060112 10968.0 
118.990143 2889.0 
128.049332 72592.0 
130.065063 237344.0 
133.052002 12437.0 
142.261398 2712.0 
144.044388 24722.0 
146.059967 112339.0 
155.060287 3139.0 
156.043991 14069.0 
157.075897 13759.0 
158.05983 117955.0 
162.628693 2203.0 
173.070847 17737.0 
174.054825 3145.0 
186.054962 15117.0 
201.065857 20995.0 
208.267105 2848.0 
215.117554 11649.0 
231.112366 205162.0 
243.112473 166072.0 
260.891846 3127.0 
271.107178 567955.0 
284.138794 10510.0 
378.154388 9637.0 
END IONS

BEGIN IONS
NAME=3-ethyl-4-hydroxy-1-benzylhydroquinolin-2-one CollisionEnergy:102040 M+Na
PRECURSOR_MZ=302.115
INCHI="InChI=1S/C18H17NO2/c1-2-14-17(20)15-10-6-7-11-16(15)19(18(14)21)12-13-8-4-3-5-9-13/h3-11,20H,2,12H2,1H3"
SMILES=CCc1c(O)c2ccccc2n(Cc2ccccc2)c1=O
SPECTRUMID=CCMSLIB00010104181
60.526348 2500.0 
61.040272 2215.0 
92.359383 2673.0 
95.423973 2534.0 
117.591583 2508.0 
118.818138 2467.0 
204.161331 2345.0 
228.498703 2735.0 
237.910812 2786.0 
302.114899 1983087.0 
320.125427 4601.0 
END IONS

BEGIN IONS
NAME="5,7-dimethyl-4-{[3-methyl-4-(3-methylphenyl)piperazinyl]methyl}chromen-2-one CollisionEnergy:205060" M+H
PRECURSOR_MZ=377.222
INCHI="InChI=1S/C24H28N2O2/c1-16-6-5-7-21(11-16)26-9-8-25(14-19(26)4)15-20-13-23(27)28-22-12-17(2)10-18(3)24(20)22/h5-7,10-13,19H,8-9,14-15H2,1-4H3"
SMILES=Cc1cccc(N2CCN(Cc3cc(=O)oc4cc(C)cc(C)c34)CC2C)c1
SPECTRUMID=CCMSLIB00010115735
56.049881 18224.0 
56.78878 2758.0 
57.0578 23225.0 
58.065632 6605.0 
70.065529 24517.0 
74.718117 2574.0 
82.065323 2976.0 
84.080948 10943.0 
91.054337 37891.0 
93.069489 4398.0 
95.54364 3008.0 
105.06958 28478.0 
106.064781 3713.0 
106.077606 6820.0 
107.072853 3893.0 
109.065033 3859.0 
115.054222 6487.0 
117.069679 16759.0 
118.065048 57793.0 
119.072861 148618.0 
119.08326 5318.0 
120.080673 74613.0 
121.088516 7009.0 
128.061813 4426.0 
129.070129 5697.0 
130.07724 6489.0 
130.320633 2807.0 
131.074387 3674.0 
131.085587 32784.0 
132.08078 60303.0 
133.08844 32770.0 
133.101089 12777.0 
134.096329 471925.0 
136.20491 2851.0 
143.085251 17166.0 
144.080536 4772.0 
145.087555 3041.0 
146.074112 3695.0 
146.096375 143148.0 
147.079865 11057.0 
147.092056 4260.0 
147.103882 38542.0 
148.111954 1016917.0 
155.08606 3250.0 
158.09581 3719.0 
159.080093 133022.0 
159.103607 4462.0 
160.111771 26691.0 
161.095337 64379.0 
161.107651 8131.0 
173.107376 29843.0 
174.067535 5825.0 
174.114471 6417.0 
175.075256 73966.0 
175.122803 177545.0 
175.427994 3259.0 
187.07515 17026.0 
187.123047 80471.0 
188.109818 5833.0 
188.130478 168912.0 
189.090439 18299.0 
189.138382 15603.0 
190.146057 65735.0 
201.138367 5491.0 
202.122345 4692.0 
202.147552 2982.0 
203.153473 3803.0 
230.117203 3536.0 
244.132736 4753.0 
270.146088 4756.0 
282.664612 3099.0 
349.226837 4240.0 
355.698364 2655.0 
377.221741 1385116.0 
END IONS

BEGIN IONS
NAME="4-[(3,5-dimethoxyphenyl)carbonyl]piperazinyl 2-methoxyphenyl ketone CollisionEnergy:102040" M+H
PRECURSOR_MZ=385.176
INCHI="InChI=1S/C21H24N2O5/c1-26-16-12-15(13-17(14-16)27-2)20(24)22-8-10-23(11-9-22)21(25)18-6-4-5-7-19(18)28-3/h4-7,12-14H,8-11H2,1-3H3"
SMILES=COc1cc(OC)cc(C(=O)N2CCN(C(=O)c3ccccc3OC)CC2)c1
SPECTRUMID=CCMSLIB00010105602
50.472542 3516.0 
51.02356 3559.0 
51.713699 3045.0 
52.95343 3259.0 
53.039181 5963.0 
54.455791 3511.0 
73.273987 2694.0 
73.748993 2793.0 
74.429649 2929.0 
77.039131 4936.0 
79.054497 23485.0 
82.038673 3378.0 
87.184708 3293.0 
92.026047 13947.0 
92.390244 2761.0 
95.049316 5050.0 
102.141609 2971.0 
104.298851 3093.0 
107.04908 4854.0 
108.482727 3609.0 
111.936897 3156.0 
120.020203 5479.0 
122.035896 12579.0 
134.639648 3168.0 
135.044113 5610121.0 
155.070282 90500.0 
165.054703 624659.0 
180.170288 3254.0 
299.092773 16644.0 
381.475311 3153.0 
385.17569 1496817.0 
END IONS

BEGIN IONS
NAME=pantothenic acid CollisionEnergy:102040 M-H
PRECURSOR_MZ=218.103
INCHI="InChI=1S/C9H17NO5/c1-9(2,5-11)7(14)8(15)10-4-3-6(12)13/h7,11,14H,3-5H2,1-2H3,(H,10,15)(H,12,13)/t7-/m0/s1"
SMILES=CC(C)(CO)C(O)C(O)=NCCC(=O)O
SPECTRUMID=CCMSLIB00010112113
59.013409 67705.0 
62.749538 55592.0 
65.306923 48639.0 
71.013458 1931290.0 
71.04985 677249.0 
73.948669 65805.0 
82.390343 46277.0 
88.040154 22571678.0 
99.044907 308762.0 
116.03521 81554.0 
116.071358 123307.0 
119.020958 52768.0 
122.936333 59324.0 
124.29248 51434.0 
129.055435 111429.0 
146.081955 10208107.0 
210.116104 101239.0 
218.103149 10559195.0 
END IONS

BEGIN IONS
NAME=e-64 CollisionEnergy:102040 M+Cl
PRECURSOR_MZ=392.171
INCHI="InChI=1S/C15H27N5O5/c1-8(2)7-9(20-13(22)10-11(25-10)14(23)24)12(21)18-5-3-4-6-19-15(16)17/h8-11H,3-7H2,1-2H3,(H,18,21)(H,20,22)(H,23,24)(H4,16,17,19)/t9-,10-,11-/m0/s1"
SMILES=CC(C)CC(N=C(O)C1OC1C(=O)O)C(O)=NCCCCNC(=N)N
SPECTRUMID=CCMSLIB00010114563
55.165329 2008.0 
57.81715 2306.0 
71.62075 2249.0 
73.959457 3363.0 
80.582481 2141.0 
82.404251 3148.0 
87.008598 15149.0 
92.383667 2247.0 
92.974854 2735.0 
103.911903 2436.0 
112.087753 2491.0 
155.082565 5174.0 
174.013519 2691.0 
184.836105 2721.0 
185.165909 10068.0 
200.777786 2284.0 
208.309372 5875.0 
226.155945 5647.0 
226.193161 19953.0 
227.187775 2906.0 
251.153061 3516.0 
266.530121 2791.0 
268.17865 17446.0 
268.21524 14070.0 
294.19339 13143.0 
312.204041 78391.0 
320.171936 12680.0 
328.205231 2957.0 
338.184326 18137.0 
356.153412 2939.0 
356.194 137569.0 
392.170959 244112.0 
END IONS

BEGIN IONS
NAME=CCG-208508 CollisionEnergy:205060 M-H
PRECURSOR_MZ=463.088
INCHI="InChI=1S/C21H20O12/c22-6-12(27)19-16(29)17(30)21(32-19)33-20-15(28)14-11(26)4-8(23)5-13(14)31-18(20)7-1-2-9(24)10(25)3-7/h1-5,12,16-17,19,21-27,29-30H,6H2/t12-,16-,17-,19?,21+/m1/s1"
SMILES=O=c1c(OC2OC(C(O)CO)C(O)C2O)c(-c2ccc(O)c(O)c2)oc2cc(O)cc(O)c12
SPECTRUMID=CCMSLIB00010124472
66.748177 2607.0 
73.960663 3141.0 
82.329292 2324.0 
104.295937 2741.0 
107.013351 5033.0 
108.021507 3516.0 
109.226097 2326.0 
151.003876 28437.0 
163.004456 3839.0 
170.977005 2715.0 
178.998352 4017.0 
208.531479 11355.0 
226.02771 2997.0 
227.034561 5097.0 
243.029633 37661.0 
245.042923 3612.0 
254.021271 4583.0 
255.029846 97940.0 
271.024658 222456.0 
272.031494 3065.0 
299.019775 3174.0 
300.027435 127957.0 
301.03479 61315.0 
370.395416 2937.0 
399.803986 2486.0 
408.480682 2671.0 
463.088257 185586.0 
END IONS

BEGIN IONS
NAME="methyl 3,4,5-trimethoxy-2-(methoxycarbonylamino)benzoate CollisionEnergy:205060" M+Na
PRECURSOR_MZ=322.09
INCHI="InChI=1S/C13H17NO7/c1-17-8-6-7(12(15)20-4)9(14-13(16)21-5)11(19-3)10(8)18-2/h6H,1-5H3,(H,14,16)"
SMILES=COC(=O)c1cc(OC)c(OC)c(OC)c1N=C(O)OC
SPECTRUMID=CCMSLIB00010116534
50.97044 2175.0 
82.506027 2242.0 
92.607262 2206.0 
105.033386 2519.0 
105.908363 2246.0 
118.598633 2089.0 
118.66024 2987.0 
177.435226 2346.0 
181.685638 2178.0 
209.256042 4873.0 
209.276672 3719.0 
290.063171 30592.0 
322.089081 669865.0 
END IONS

BEGIN IONS
NAME=quercetin CollisionEnergy:102040 M-H
PRECURSOR_MZ=301.035
INCHI="InChI=1S/C15H10O7/c16-7-4-10(19)12-11(5-7)22-15(14(21)13(12)20)6-1-2-8(17)9(18)3-6/h1-5,16-19,21H"
SMILES=O=c1c(O)c(-c2ccc(O)c(O)c2)oc2cc(O)cc(O)c12
SPECTRUMID=CCMSLIB00010107128
60.013802 3383.0 
60.696899 3136.0 
63.02364 58849.0 
65.002876 126819.0 
65.046783 3507.0 
66.747337 3179.0 
73.960373 4546.0 
83.013748 125498.0 
93.034721 25651.0 
107.013878 497180.0 
108.992996 8127.0 
109.02964 29689.0 
109.686943 3258.0 
111.008537 7037.0 
121.029488 668239.0 
125.024529 38012.0 
135.009033 8681.0 
135.764664 3072.0 
136.223114 3900.0 
137.024551 8479.0 
139.040146 16531.0 
147.008713 4574.0 
147.045395 8912.0 
147.074066 3367.0 
148.0168 3966.0 
149.024414 92210.0 
151.003601 3432338.0 
152.011307 7813.0 
159.045853 7264.0 
161.024475 24631.0 
163.003754 62664.0 
163.040268 28792.0 
164.012207 28851.0 
164.927658 15409.0 
165.018967 21403.0 
169.014236 121850.0 
171.044266 5695.0 
175.003326 4588.0 
175.040604 20598.0 
178.998611 1674240.0 
183.044434 4372.0 
185.061554 15267.0 
187.0392 33963.0 
189.018951 6698.0 
189.055573 6352.0 
192.005814 29373.0 
193.013916 81202.0 
193.602661 4028.0 
196.001694 5203.0 
201.055847 26143.0 
203.034851 17535.0 
205.051697 35121.0 
211.040329 31647.0 
213.056015 6612.0 
214.027771 5547.0 
215.035126 6165.0 
217.049942 5512.0 
227.034775 23387.0 
228.042313 4612.0 
229.0504 101945.0 
231.030243 20979.0 
232.925369 8048.0 
233.047592 5825.0 
239.034576 15224.0 
240.042648 5962.0 
243.031235 7166.0 
245.045349 86525.0 
255.029221 30872.0 
256.036469 8303.0 
257.045959 76624.0 
259.023376 4659.0 
273.040466 262365.0 
284.032776 14604.0 
299.02121 34584.0 
299.670929 16344.0 
300.02713 15409.0 
301.035217 13353377.0 
302.407257 16859.0 
END IONS

BEGIN IONS
NAME="5-acetyl-2-(3,4-dimethoxyphenyl)-1-hydroxy-4-methylimidazole CollisionEnergy:205060" M-H
PRECURSOR_MZ=275.104
INCHI="InChI=1S/C14H16N2O4/c1-8-13(9(2)17)16(18)14(15-8)10-5-6-11(19-3)12(7-10)20-4/h5-7,18H,1-4H3"
SMILES=COc1ccc(-c2nc(C)c(C(C)=O)n2O)cc1OC
SPECTRUMID=CCMSLIB00010115212
53.851879 9614.0 
59.0135 12409.0 
60.47982 8377.0 
60.87883 10378.0 
63.18771 8474.0 
67.018608 117915.0 
68.014023 54225.0 
68.997917 13948.0 
73.969994 11233.0 
83.014076 16351.0 
92.014191 62914.0 
92.397667 14378.0 
93.034576 15617.0 
94.029747 148857.0 
95.013763 85082.0 
104.05088 72296.0 
104.30793 13790.0 
105.022049 57512.0 
107.013969 48414.0 
108.021729 13165.0 
109.041061 11764.0 
111.00885 119689.0 
116.050613 10999.0 
118.030167 46286.0 
118.678352 13896.0 
119.051689 16865.0 
119.061432 136390.0 
120.009399 24071.0 
121.029404 51017.0 
122.024658 58716.0 
123.008789 386259.0 
123.019142 30023.0 
123.045143 218508.0 
125.024147 19195.0 
130.06308 10819.0 
131.038269 8990.0 
131.061188 142904.0 
132.03447 12063.0 
132.045425 74266.0 
133.016922 134046.0 
133.029526 87095.0 
134.024689 96451.0 
135.008804 39764.0 
137.035934 9665.0 
138.032074 53981.0 
138.043365 120437.0 
139.05162 39943.0 
146.024872 51686.0 
146.048309 39426.0 
147.05629 1826974.0 
148.040176 315576.0 
148.052979 19764.0 
149.072113 9943.0 
158.061188 22331.0 
159.033768 77768.0 
159.056198 563198.0 
160.027252 39731.0 
160.040527 82595.0 
160.062607 9617.0 
161.01178 517526.0 
161.036209 23048.0 
161.071976 872593.0 
162.019547 889647.0 
163.051437 23500.0 
165.331207 9738.0 
166.014313 18512.0 
172.064377 17653.0 
173.071701 197479.0 
174.042099 262101.0 
174.056793 82253.0 
175.051193 3883635.0 
176.035187 1418277.0 
177.018433 10670.0 
177.04306 64480.0 
177.067215 15193.0 
179.070618 20988.0 
185.071716 46294.0 
185.135529 9783.0 
187.050858 86730.0 
188.059006 53376.0 
189.066895 4406657.0 
190.05101 52093.0 
191.05899 50407.0 
194.009613 22475.0 
199.051437 52341.0 
200.059174 370651.0 
201.066742 995964.0 
202.037079 648773.0 
202.074097 28390.0 
203.046127 465709.0 
203.080078 13198.0 
204.030167 408144.0 
206.03273 67386.0 
213.066559 113876.0 
214.07518 12749.0 
215.046539 14829.0 
215.082413 265569.0 
216.051483 20107.0 
216.089386 16718.0 
217.061707 10578710.0 
218.068146 81969.0 
219.054688 80422.0 
224.055374 114186.0 
225.066803 105439.0 
227.046478 55912.0 
228.05394 863046.0 
229.06163 47308.0 
230.070572 13009.0 
231.07663 120197.0 
233.093307 56005.0 
241.06189 66637.0 
243.077057 376049.0 
245.056625 7966793.0 
248.093246 45768.0 
259.072083 153704.0 
260.015533 39477.0 
260.027679 18145.0 
260.080048 5857374.0 
275.103699 17021100.0 
END IONS

BEGIN IONS
NAME="methyl 2-[(3,4-dichlorophenyl)carbonylamino]acetate CollisionEnergy:102040" M-H
PRECURSOR_MZ=259.989
INCHI="InChI=1S/C10H9Cl2NO3/c1-16-9(14)5-13-10(15)6-2-3-7(11)8(12)4-6/h2-4H,5H2,1H3,(H,13,15)"
SMILES=COC(=O)CN=C(O)c1ccc(Cl)c(Cl)c1
SPECTRUMID=CCMSLIB00010109466
50.422352 2139.0 
61.987942 2631.0 
71.812843 2579.0 
76.427383 2210.0 
81.499451 2275.0 
85.504402 2221.0 
91.849861 2545.0 
104.184441 2247.0 
114.019508 32682.0 
144.96138 20116.0 
152.923721 2612.0 
154.006897 17491.0 
163.951538 2717.0 
163.991302 3742.0 
169.913208 2757.0 
183.972702 306927.0 
191.945847 14713.0 
199.967941 23943.0 
227.962646 1269130.0 
259.988586 300685.0 
260.013458 4252.0 
END IONS

BEGIN IONS
NAME="N-[5-(2-methylpropyl)-4-oxo(1,3-dioxan-5-yl)]benzamide CollisionEnergy:102040" M+Na
PRECURSOR_MZ=300.121
INCHI="InChI=1S/C15H19NO4/c1-11(2)8-15(9-19-10-20-14(15)18)16-13(17)12-6-4-3-5-7-12/h3-7,11H,8-10H2,1-2H3,(H,16,17)"
SMILES=CC(C)CC1(N=C(O)c2ccccc2)COCOC1=O
SPECTRUMID=CCMSLIB00010108590
64.015846 5626.0 
65.144112 2884.0 
66.753326 3314.0 
80.769829 3044.0 
82.411072 3510.0 
105.033539 3585.0 
126.031082 5530.0 
128.106689 12424.0 
138.957687 2575.0 
144.100555 2915.0 
145.025803 212669.0 
148.073349 3548.0 
148.583893 2788.0 
150.089035 13471.0 
156.041351 11797.0 
167.068039 26711.0 
177.124084 2896.0 
209.374298 2740.0 
210.446243 4505.0 
211.281311 3115.0 
226.119095 5564.0 
240.098526 64576.0 
256.130157 13425.0 
270.109558 244902.0 
272.124908 53773.0 
276.333649 3007.0 
298.768982 6154.0 
299.630829 10474.0 
300.120117 6309086.0 
301.481873 4720.0 
318.13092 24431.0 
322.773132 3070.0 
END IONS

BEGIN IONS
NAME="1-methyl-2,6-dioxo-1,3-dihydropyrimidine-4-carboxylic acid CollisionEnergy:102040" 2M-H
PRECURSOR_MZ=339.058
INCHI="InChI=1S/C6H6N2O4/c1-8-4(9)2-3(5(10)11)7-6(8)12/h2H,1H3,(H,7,12)(H,10,11)"
SMILES=Cn1c(O)nc(C(=O)O)cc1=O
SPECTRUMID=CCMSLIB00010113139
61.44112 2451.0 
62.183239 2106.0 
62.223259 2425.0 
106.940773 2113.0 
125.03566 44711.0 
139.929031 3598.0 
163.754395 2136.0 
169.025589 58020.0 
169.747849 2261.0 
179.520065 2151.0 
190.926559 2698.0 
242.955597 3994.0 
270.951141 9454.0 
END IONS

BEGIN IONS
NAME="2-amino-4-(5-methyl(2-furyl))-5-oxo-4H-pyrano[3,2-c]chromene-3-carbonitrile CollisionEnergy:205060" M+Na
PRECURSOR_MZ=343.069
INCHI="InChI=1S/C18H12N2O4/c1-9-6-7-13(22-9)14-11(8-19)17(20)24-16-10-4-2-3-5-12(10)23-18(21)15(14)16/h2-7,14H,20H2,1H3"
SMILES=Cc1ccc(C2C(C#N)=C(N)Oc3c2c(=O)oc2ccccc32)o1
SPECTRUMID=CCMSLIB00010122372
66.735367 2702.0 
71.935631 2294.0 
73.94339 2539.0 
83.837646 2099.0 
92.366409 2374.0 
95.905602 2551.0 
116.797737 2444.0 
123.01844 2258.0 
124.167587 2253.0 
311.355713 2969.0 
343.068451 119537.0 
END IONS

BEGIN IONS
NAME=(2Z)-2-benzoxazol-2-yl-1-(4-methylphenyl)-3-(4-prop-2-enyloxyphenyl)prop-2-en- 1-one CollisionEnergy:205060 M+Na
PRECURSOR_MZ=418.141
INCHI="InChI=1S/C26H21NO3/c1-3-16-29-21-14-10-19(11-15-21)17-22(25(28)20-12-8-18(2)9-13-20)26-27-23-6-4-5-7-24(23)30-26/h3-15,17H,1,16H2,2H3/b22-17+"
SMILES=C=CCOc1ccc(C=C(C(=O)c2ccc(C)cc2)c2nc3ccccc3o2)cc1
SPECTRUMID=CCMSLIB00010125864
56.407822 2366.0 
66.736938 2555.0 
72.664948 2255.0 
92.367683 3300.0 
126.400673 2266.0 
138.514481 3108.0 
152.788177 2643.0 
166.377762 2423.0 
376.10141 2473.0 
377.101288 31056.0 
418.140533 775136.0 
END IONS

BEGIN IONS
NAME="11-(4-chlorophenyl)-3,3-dimethyl-10-[(phenylamino)thioxomethyl]-2,3,4-trihydro -5H,11H-benzo[b]benzo[2,1-f]1,4-diazepin-1-one CollisionEnergy:205060" 2M-H
PRECURSOR_MZ=973.29
INCHI="InChI=1S/C28H26ClN3OS/c1-28(2)16-22-25(24(33)17-28)26(18-12-14-19(29)15-13-18)32(23-11-7-6-10-21(23)31-22)27(34)30-20-8-4-3-5-9-20/h3-15,26,31H,16-17H2,1-2H3,(H,30,34)"
SMILES=CC1(C)CC(=O)C2=C(C1)Nc1ccccc1N(C(S)=Nc1ccccc1)C2c1ccc(Cl)cc1
SPECTRUMID=CCMSLIB00010117803
73.358994 4178.0 
78.198433 4199.0 
82.415207 5745.0 
92.050323 91933.0 
92.868683 4204.0 
102.151863 4412.0 
104.306702 5462.0 
108.021652 10640.0 
117.045692 22246.0 
131.061554 95027.0 
145.040726 17627.0 
148.010162 22225.0 
149.017853 48266.0 
206.050278 7174.0 
206.072281 165641.0 
207.079727 44611.0 
208.08812 546899.0 
221.108459 21360.0 
235.074814 72903.0 
236.083435 5029.0 
239.120148 6916.0 
248.082245 48803.0 
253.045639 19897.0 
277.05426 26517.0 
279.346161 4630.0 
297.095184 7310.0 
298.134705 5930.0 
312.114502 473703.0 
313.097137 32376.0 
317.085419 18358.0 
330.056671 77141.0 
333.115692 53488.0 
344.073029 85623.0 
345.080261 300072.0 
351.127136 462023.0 
359.095612 10975.0 
393.08316 37692.0 
433.14389 31790.0 
436.123016 19001.0 
452.153931 1091804.0 
486.141602 617220.0 
496.850586 5709.0 
824.031006 4993.0 
END IONS

BEGIN IONS
NAME=UDP-GlcNAc CollisionEnergy:102040 M-H
PRECURSOR_MZ=606.074
INCHI="InChI=1S/C17H27N3O17P2/c1-6(22)18-10-13(26)11(24)7(4-21)35-16(10)36-39(31,32)37-38(29,30)33-5-8-12(25)14(27)15(34-8)20-3-2-9(23)19-17(20)28/h2-3,7-8,10-16,21,24-27H,4-5H2,1H3,(H,18,22)(H,29,30)(H,31,32)(H,19,23,28)/t7-,8-,10-,11-,12-,13-,14-,15-,16-/m1/s1"
SMILES=CC(O)=N[C@H]1[C@@H](OP(=O)(O)OP(=O)(O)OC[C@H]2O[C@@H](n3ccc(O)nc3=O)[C@H](O)[C@@H]2O)O[C@H](CO)[C@@H](O)[C@@H]1O
SPECTRUMID=CCMSLIB00010126319
64.102798 2649.699951 
73.974503 3323.139893 
74.997803 3375.02002 
78.958702 322460.0 
92.407303 2948.5 
96.969498 71056.5 
96.976402 4831.529785 
106.497002 3004.300049 
111.019997 48214.0 
118.688004 4549.970215 
158.925003 199289.0 
174.979996 18426.900391 
176.936005 62436.601562 
193.539993 3123.050049 
222.016998 3546.919922 
240.026993 4860.140137 
260.539001 3293.620117 
260.957001 18485.699219 
264.026001 4851.680176 
272.957001 108599.0 
280.020996 3136.280029 
282.037994 142078.0 
290.057007 3247.629883 
300.050995 22252.699219 
305.018005 19424.400391 
323.028992 35733.898438 
362.005005 53139.601562 
379.006989 3176.300049 
384.984009 146190.0 
402.994995 49185.199219 
606.073975 595955.0 
END IONS

BEGIN IONS
NAME=NORMETANEPHRINE CollisionEnergy:102040 M+H-H2O
PRECURSOR_MZ=166.086
INCHI="InChI=1S/C9H13NO3/c1-13-9-4-6(8(12)5-10)2-3-7(9)11/h2-4,8,11-12H,5,10H2,1H3"
SMILES=COc1cc(C(O)CN)ccc1O
SPECTRUMID=CCMSLIB00010102952
58.901001 763319.0 
66.7565 1097630.0 
73.967499 880569.0 
79.054802 10226000.0 
91.054703 6875960.0 
95.049599 3958380.0 
96.994904 1216200.0 
106.065002 82103000.0 
107.049004 4992940.0 
113.936996 774582.0 
121.065002 109599000.0 
123.043999 7940960.0 
124.052002 1537200.0 
133.052002 2948030.0 
134.059998 150550000.0 
135.067993 7576750.0 
137.059998 7726380.0 
148.076004 6532160.0 
149.059998 126433000.0 
151.063004 13099300.0 
166.085999 179680992.0 
END IONS

BEGIN IONS
NAME=6-Methylflavone CollisionEnergy:205060 M+Na
PRECURSOR_MZ=259.073
INCHI="InChI=1S/C16H12O2/c1-11-7-8-15-13(9-11)14(17)10-16(18-15)12-5-3-2-4-6-12/h2-10H,1H3"
SMILES=Cc1ccc2oc(-c3ccccc3)cc(=O)c2c1
SPECTRUMID=CCMSLIB00010115747
50.380402 1997.0 
51.987381 2282.0 
53.09164 2134.0 
73.937866 2053.0 
79.015831 1822.0 
118.750237 2023.0 
144.420914 2250.0 
188.282013 2253.0 
259.072571 233767.0 
277.082703 4331.0 
END IONS

BEGIN IONS
NAME="(3,4-dimethoxyphenyl)-N-[4-(4-methyl-1-oxo(2-hydrophthalazin-2-yl))phenyl]carb oxamide CollisionEnergy:205060" M+H
PRECURSOR_MZ=416.16
INCHI="InChI=1S/C24H21N3O4/c1-15-19-6-4-5-7-20(19)24(29)27(26-15)18-11-9-17(10-12-18)25-23(28)16-8-13-21(30-2)22(14-16)31-3/h4-14H,1-3H3,(H,25,28)"
SMILES=COc1ccc(C(=O)Nc2ccc(-n3nc(C)c4ccccc4c3=O)cc2)cc1OC
SPECTRUMID=CCMSLIB00010120304
50.015518 5738.0 
51.02346 20882.0 
53.039051 97238.0 
55.01828 22461.0 
55.054859 3958.0 
65.039017 55999.0 
66.046783 131248.0 
67.054428 19329.0 
68.025963 15659.0 
68.997421 59199.0 
69.033836 36967.0 
71.064613 3991.0 
73.941597 3810.0 
75.044342 4532.0 
77.03878 37859.0 
78.046593 8839.0 
79.018188 25351.0 
79.054497 451008.0 
80.049927 5330.0 
81.033791 44240.0 
81.070061 90117.0 
82.041389 28024.0 
83.049438 18576.0 
85.028526 8613.0 
89.792503 3643.0 
91.054413 34420.0 
92.025673 28758.0 
92.049301 4603.0 
94.041351 247119.0 
95.012947 19395.0 
95.049156 78184.0 
97.02829 15219.0 
98.036247 77310.0 
99.04393 3850.0 
103.05442 14588.0 
105.033386 52240.0 
105.044563 33618.0 
106.028259 6525.0 
106.052834 6379.0 
107.012947 18726.0 
107.035149 3580.0 
107.049004 70478.0 
107.060966 4701.0 
108.019562 4509.0 
108.056801 16224.0 
109.028397 220561.0 
109.064743 240470.0 
109.073151 8641.0 
110.035927 13573.0 
111.007683 62736.0 
111.043701 4957.0 
113.060043 17680.0 
116.04924 17741.0 
121.028442 55294.0 
122.036102 370493.0 
124.051826 759510.0 
125.059189 5350.0 
126.031021 187874.0 
130.028564 22177.0 
130.065155 15027.0 
133.02919 6411.0 
133.039581 28663.0 
134.047668 8050.0 
135.044022 14280.0 
137.0233 22338.0 
137.059723 26028.0 
139.075241 159165.0 
141.054276 60484.0 
143.06105 27986.0 
144.044083 19360.0 
145.0513 4831.0 
146.059937 128913.0 
149.023376 8718.0 
151.038864 200002.0 
151.050949 12521.0 
153.054276 5349.0 
154.026108 42985.0 
155.070129 309390.0 
163.038422 9046.0 
164.505844 4661.0 
165.054459 6451443.0 
165.604904 5617.0 
166.032516 5611.0 
166.060776 3931.0 
167.085861 4842.0 
177.070206 8689.0 
188.176376 3452.0 
193.089233 28080.0 
194.09668 5918.0 
204.080811 8264.0 
205.075668 5333.0 
206.083817 4815.0 
207.091171 14702.0 
219.079056 8453.0 
221.070557 5096.0 
223.084579 13256.0 
233.07048 6851.0 
233.095215 6702.0 
234.079697 8182.0 
234.102493 52091.0 
235.087463 26535.0 
236.081467 5327.0 
237.067383 5127.0 
247.579025 4102.0 
249.089981 4442.0 
250.097137 448154.0 
251.105682 25877.0 
260.081635 24954.0 
261.06543 121379.0 
262.059937 4402.0 
278.091797 485089.0 
372.133545 4598.0 
383.101929 21289.0 
398.150543 5151.0 
400.127533 36264.0 
401.136169 7525.0 
416.159729 4879867.0 
END IONS

BEGIN IONS
NAME=2-(9-ethyl-6-oxohydropurin-8-ylthio)-N-(2-ethylphenyl)acetamide CollisionEnergy:102040 M-H
PRECURSOR_MZ=356.119
INCHI="InChI=1S/C17H19N5O2S/c1-3-11-7-5-6-8-12(11)20-13(23)9-25-17-21-14-15(22(17)4-2)18-10-19-16(14)24/h5-8,10H,3-4,9H2,1-2H3,(H,20,23)(H,18,19,24)"
SMILES=CCc1ccccc1N=C(O)CSc1nc2c(O)ncnc2n1CC
SPECTRUMID=CCMSLIB00010110085
54.942551 2693.0 
57.975288 5223.0 
75.8479 3258.0 
82.398239 3070.0 
93.045776 15864.0 
96.534157 3191.0 
135.031387 129383.0 
145.076782 5988.0 
159.068405 5057.0 
163.062637 867473.0 
164.05365 3438.0 
166.044617 13225.0 
167.003586 2857.0 
179.00322 38943.0 
179.057831 63213.0 
192.048965 272563.0 
194.026855 860974.0 
195.034668 632562.0 
207.035278 36164.0 
209.050308 176252.0 
221.514389 3171.0 
235.029495 170265.0 
282.135803 104401.0 
285.117157 3374.0 
313.112885 19760.0 
334.608734 3485.0 
356.118958 1887744.0 
END IONS

BEGIN IONS
NAME="(3,4-dimethoxyphenyl)-N-[2-(4-methylphenoxy)ethyl]carboxamide CollisionEnergy:102040" M+Na
PRECURSOR_MZ=338.136
INCHI="InChI=1S/C18H21NO4/c1-13-4-7-15(8-5-13)23-11-10-19-18(20)14-6-9-16(21-2)17(12-14)22-3/h4-9,12H,10-11H2,1-3H3,(H,19,20)"
SMILES=COc1ccc(C(O)=NCCOc2ccc(C)cc2)cc1OC
SPECTRUMID=CCMSLIB00010106918
61.437481 2734.0 
62.14016 2233.0 
77.960892 2363.0 
92.372948 3116.0 
104.281212 3226.0 
118.141434 2579.0 
130.541779 2523.0 
140.431427 2632.0 
323.109833 3018.0 
336.534729 3291.0 
338.135773 3417646.0 
339.744934 3245.0 
END IONS

BEGIN IONS
NAME="methyl 4-(6-bromo-2-oxo-1,3,4-trihydrobenzo[h]quinolin-4-yl)benzoate CollisionEnergy:205060" M-H
PRECURSOR_MZ=408.024
INCHI="InChI=1S/C21H16BrNO3/c1-26-21(25)13-8-6-12(7-9-13)16-11-19(24)23-20-15-5-3-2-4-14(15)18(22)10-17(16)20/h2-10,16H,11H2,1H3,(H,23,24)"
SMILES=COC(=O)c1ccc(C2CC(O)=Nc3c2cc(Br)c2ccccc32)cc1
SPECTRUMID=CCMSLIB00010124056
78.918663 592753.0 
80.916817 4855.0 
85.819191 2286.0 
121.029358 3997.0 
136.503189 2440.0 
160.237 2646.0 
192.647278 2339.0 
217.21109 2598.0 
235.321075 2604.0 
271.972717 11816.0 
285.147369 2674.0 
328.097229 5514.0 
385.261444 2973.0 
408.024567 457267.0 
END IONS

BEGIN IONS
NAME=(2S)-2-amino-3-[benzyloxycarbonyl]propanoic acid CollisionEnergy:205060 M+Na
PRECURSOR_MZ=246.074
INCHI="InChI=1S/C11H13NO4/c12-9(11(14)15)6-10(13)16-7-8-4-2-1-3-5-8/h1-5,9H,6-7,12H2,(H,14,15)/t9-/m0/s1"
SMILES=NC(CC(=O)OCc1ccccc1)C(=O)O
SPECTRUMID=CCMSLIB00010117658
54.77882 1932.0 
66.670723 1805.0 
69.50161 1847.0 
73.932312 1930.0 
92.392693 3197.0 
97.224548 2089.0 
136.2285 3202.0 
211.943497 2270.0 
246.073364 187340.0 
END IONS

BEGIN IONS
NAME="N-{4-[(3,5-dimethoxyphenyl)carbonylamino]phenyl}acetamide CollisionEnergy:102040" M+H
PRECURSOR_MZ=315.134
INCHI="InChI=1S/C17H18N2O4/c1-11(20)18-13-4-6-14(7-5-13)19-17(21)12-8-15(22-2)10-16(9-12)23-3/h4-10H,1-3H3,(H,18,20)(H,19,21)"
SMILES=COc1cc(OC)cc(C(=O)Nc2ccc(N=C(C)O)cc2)c1
SPECTRUMID=CCMSLIB00010107587
53.038929 4830.0 
57.896858 3037.0 
60.59301 2950.0 
73.956871 3197.0 
73.961441 3014.0 
79.054291 6905.0 
88.641808 3837.0 
92.380409 4123.0 
107.060188 279001.0 
108.056717 3638.0 
109.064568 13945.0 
111.125481 3554.0 
122.035858 39276.0 
124.051743 311408.0 
125.059769 27702.0 
135.055099 130723.0 
137.059708 34069.0 
139.075119 788609.0 
147.500305 3241.0 
149.070694 170460.0 
151.038666 30638.0 
155.069946 426072.0 
163.037094 3374.0 
165.054382 2667673.0 
177.06546 560587.0 
209.676453 7356.0 
272.115204 5293.0 
273.122406 51018.0 
283.107361 53548.0 
297.122986 44386.0 
300.110596 18542.0 
315.133026 7702895.0 
END IONS

BEGIN IONS
NAME=ST077127 CollisionEnergy:102040 M-H
PRECURSOR_MZ=431.098
INCHI="InChI=1S/C21H20O10/c22-6-8-4-10-14(11(24)5-8)18(27)15-9(16(10)25)2-1-3-12(15)30-21-20(29)19(28)17(26)13(7-23)31-21/h1-5,13,17,19-24,26,28-29H,6-7H2"
SMILES=O=C1c2cc(CO)cc(O)c2C(=O)c2c(OC3OC(CO)C(O)C(O)C3O)cccc21
SPECTRUMID=CCMSLIB00010113025
57.21236 2643.0 
71.01358 14246.0 
75.00856 3430.0 
85.02916 4603.0 
89.024406 4021.0 
92.382843 3146.0 
101.024597 61135.0 
113.024483 38676.0 
161.04628 6866.0 
165.040848 31526.0 
175.025192 44328.0 
207.931564 5507.0 
207.954605 9659.0 
223.039841 3651.0 
225.055969 13227.0 
237.054825 4009.0 
240.015686 4817.0 
240.042953 145610.0 
241.051392 15884.0 
249.056259 5225.0 
253.051361 86640.0 
254.058868 50256.0 
255.066528 158275.0 
265.050934 203293.0 
267.039154 3970.0 
267.066193 33035.0 
268.038818 16528.0 
269.045959 3526918.0 
271.06189 7277.0 
277.049835 5291.0 
279.066345 12325.0 
281.047638 5867.0 
282.053497 122368.0 
282.088501 5010.0 
283.061554 129777.0 
293.045807 495893.0 
294.884888 3868.0 
305.046265 20783.0 
307.061493 3717.0 
311.056519 238176.0 
317.103851 3249.0 
323.056396 36309.0 
335.055969 18717.0 
341.063568 4078.0 
371.077179 7253.0 
431.098785 109576.0 
431.163971 5394.0 
447.288757 3821.0 
END IONS

BEGIN IONS
NAME=ANSERINE CollisionEnergy:102040 M+Na
PRECURSOR_MZ=263.111
INCHI="InChI=1S/C10H16N4O3/c1-14-6-12-5-7(14)4-8(10(16)17)13-9(15)2-3-11/h5-6,8H,2-4,11H2,1H3,(H,13,15)(H,16,17)/t8-/m0/s1"
SMILES=Cn1cncc1C[C@H](N=C(O)CCN)C(=O)O
SPECTRUMID=CCMSLIB00010103157
61.862301 3475.040039 
62.077 3662.820068 
66.758003 4042.26001 
74.546402 3920.580078 
103.625 3618.550049 
104.311996 4996.589844 
104.992996 4981.839844 
105.042999 6607.620117 
111.053001 4357.22998 
112.037003 4433.040039 
146.069 8593.299805 
168.050003 5150.680176 
175.046997 13707.799805 
191.089996 4599.240234 
192.074005 27768.699219 
219.121002 17744.800781 
246.085007 47991.101562 
263.110992 2075400.0 
END IONS

BEGIN IONS
NAME=rhapontin CollisionEnergy:102040 M+H
PRECURSOR_MZ=421.149
INCHI="InChI=1S/C21H24O9/c1-28-16-5-4-11(8-15(16)24)2-3-12-6-13(23)9-14(7-12)29-21-20(27)19(26)18(25)17(10-22)30-21/h2-9,17-27H,10H2,1H3/b3-2+/t17-,18-,19+,20-,21-/m1/s1"
SMILES=COc1ccc(C=Cc2cc(O)cc(OC3OC(CO)C(O)C(O)C3O)c2)cc1O
SPECTRUMID=CCMSLIB00010113627
51.641472 2454.0 
69.033661 6050.0 
72.023682 2675.0 
73.028503 4274.0 
81.034103 3723.0 
85.028603 43568.0 
92.385643 2777.0 
97.028122 13696.0 
103.039032 5513.0 
107.048714 10301.0 
109.028107 2732.0 
121.064629 2736.0 
123.04451 4311.0 
127.03849 9852.0 
131.049469 4253.0 
135.043961 27788.0 
137.05986 26150.0 
145.049973 18276.0 
147.043976 3213.0 
149.05986 20672.0 
150.067886 3874.0 
157.064957 3125.0 
159.044144 22347.0 
161.058792 4222.0 
173.060699 3177.0 
177.05336 2811.0 
181.065414 11106.0 
195.080048 5092.0 
197.058929 3844.0 
199.075073 29207.0 
201.054138 4754.0 
209.06015 3291.0 
223.07486 14674.0 
226.058502 4252.0 
227.070358 16643.0 
239.071396 2771.0 
241.085388 5202.0 
243.067078 3369.0 
251.069733 11441.0 
255.101532 3671.0 
258.088593 39456.0 
259.095398 487478.0 
266.995728 2964.0 
269.081238 10898.0 
271.095825 142944.0 
273.111328 2780.0 
283.095703 83520.0 
293.079315 3223.0 
295.094818 18798.0 
297.111786 4461.0 
301.105957 77023.0 
313.104187 2922.0 
321.111664 3809.0 
325.106354 68347.0 
337.107147 6159.0 
349.107971 15438.0 
355.117279 4757.0 
367.116547 28460.0 
384.495178 2988.0 
385.12677 32120.0 
403.138885 17483.0 
421.14798 146380.0 
421.204437 15555.0 
421.3302 3560.0 
END IONS

BEGIN IONS
NAME="8-{[2-(4-ethoxy-3-methoxyphenyl)-5-methyl(1,3-oxazol-4-yl)]methylthio}-9-methy lhydropurin-6-one CollisionEnergy:102040" M-H
PRECURSOR_MZ=426.124
INCHI="InChI=1S/C20H21N5O4S/c1-5-28-14-7-6-12(8-15(14)27-4)19-23-13(11(2)29-19)9-30-20-24-16-17(25(20)3)21-10-22-18(16)26/h6-8,10H,5,9H2,1-4H3,(H,21,22,26)"
SMILES=CCOc1ccc(-c2nc(CSc3nc4c(O)ncnc4n3C)c(C)o2)cc1OC
SPECTRUMID=CCMSLIB00010108321
81.10125 2418.0 
92.389297 3466.0 
136.224731 3387.0 
149.046341 38372.0 
179.003036 41790.0 
180.011002 1648030.0 
181.018906 116085.0 
209.295349 3673.0 
209.315094 4294.0 
228.160019 2821.0 
366.13681 3189.0 
426.124481 257984.0 
END IONS

BEGIN IONS
NAME=L-methionine CollisionEnergy:102040 M+H
PRECURSOR_MZ=150.058
INCHI="InChI=1S/C5H11NO2S/c1-9-3-2-4(6)5(7)8/h4H,2-3,6H2,1H3,(H,7,8)/t4-/m0/s1"
SMILES=CSCC[C@H](N)C(=O)O
SPECTRUMID=CCMSLIB00010126539
55.2229 1825.459961 
56.050301 118148.0 
56.334499 1925.819946 
61.011398 40629.199219 
61.391701 2088.030029 
64.039001 2105.350098 
73.963402 2388.5 
74.024399 4818.109863 
74.060699 8396.290039 
84.044998 2170.590088 
85.0289 4172.839844 
87.026901 12576.299805 
92.385597 2167.949951 
102.056 37143.800781 
104.053001 139446.0 
104.255997 1870.089966 
133.020996 3828.090088 
133.031998 91818.5 
135.104004 10673.200195 
150.026993 10732.200195 
150.057999 17766.5 
150.076004 8227.410156 
150.113998 3440.659912 
150.128006 32543.400391 
END IONS

BEGIN IONS
NAME="N-(2H-benzo[3,4-d]1,3-dioxolen-5-yl)-2-[4-(N,N-diethylcarbamoyl)-2-oxohydroqui nolyl]acetamide CollisionEnergy:205060" M+Na
PRECURSOR_MZ=444.153
INCHI="InChI=1S/C23H23N3O5/c1-3-25(4-2)23(29)17-12-22(28)26(18-8-6-5-7-16(17)18)13-21(27)24-15-9-10-19-20(11-15)31-14-30-19/h5-12H,3-4,13-14H2,1-2H3,(H,24,27)"
SMILES=CCN(CC)C(=O)c1cc(=O)n(CC(O)=Nc2ccc3c(c2)OCO3)c2ccccc12
SPECTRUMID=CCMSLIB00010125566
53.092838 2276.0 
55.799438 2419.0 
68.644211 2536.0 
73.958672 2422.0 
92.3853 2773.0 
104.294533 2728.0 
118.664192 3457.0 
123.086731 2495.0 
136.221558 2521.0 
157.937653 2457.0 
199.010971 2418.0 
213.158386 2539.0 
239.067719 2670.0 
444.152466 1400095.0 
END IONS

BEGIN IONS
NAME="methyl 4-(3-bromo-5-ethoxy-4-hydroxyphenyl)-7-(4-chlorophenyl)-2-methyl-5-oxo- 1,4,6,7,8-pentahydroquinoline-3-carboxylate CollisionEnergy:102040" M+H
PRECURSOR_MZ=546.068
INCHI="InChI=1S/C26H25BrClNO5/c1-4-34-21-12-16(9-18(27)25(21)31)23-22(26(32)33-3)13(2)29-19-10-15(11-20(30)24(19)23)14-5-7-17(28)8-6-14/h5-9,12,15,23,29,31H,4,10-11H2,1-3H3"
SMILES=CCOc1cc(C2C(C(=O)OC)=C(C)NC3=C2C(=O)CC(c2ccc(Cl)cc2)C3)cc(Br)c1O
SPECTRUMID=CCMSLIB00010113049
95.091469 3441.0 
99.855209 3540.0 
104.281662 4208.0 
112.010536 3469.0 
116.253143 3982.0 
118.649597 4519.0 
131.146942 3675.0 
137.844299 3687.0 
145.312103 3984.0 
149.046295 3582.0 
158.059479 3828.0 
160.039124 41100.0 
164.070618 49517.0 
186.055252 5968.0 
190.086761 18437.0 
192.065308 544714.0 
210.213074 4011.0 
218.081299 64944.0 
257.06192 5146.0 
270.068207 33283.0 
271.074738 32065.0 
298.0242 9042.0 
298.0625 239314.0 
312.078827 6440.0 
328.540314 18027.0 
330.088684 15019203.0 
331.650116 14888.0 
514.040222 74795.0 
546.066467 327627.0 
570.160828 4972.0 
1096.371216 4428.0 
END IONS

BEGIN IONS
NAME="2-{7-[(2-fluorophenyl)methyl]-1,3-dimethyl-2,6-dioxo(1,3,7-trihydropurin-8-ylt hio)}-N-[4-(trifluoromethoxy)phenyl]acetamide CollisionEnergy:102040" M-H
PRECURSOR_MZ=536.102
INCHI="InChI=1S/C23H19F4N5O4S/c1-30-19-18(20(34)31(2)22(30)35)32(11-13-5-3-4-6-16(13)24)21(29-19)37-12-17(33)28-14-7-9-15(10-8-14)36-23(25,26)27/h3-10H,11-12H2,1-2H3,(H,28,33)"
SMILES=Cn1c(=O)c2c(nc(SCC(=O)Nc3ccc(OC(F)(F)F)cc3)n2Cc2ccccc2F)n(C)c1=O
SPECTRUMID=CCMSLIB00010110417
54.42453 3486.0 
55.029518 3914.0 
57.975159 6895.0 
73.971893 3894.0 
83.024872 4399.0 
84.342934 3084.0 
84.984718 3994.0 
84.990479 112579.0 
92.398758 4008.0 
104.310959 4183.0 
137.022964 4201.0 
158.007675 13639.0 
162.00177 36122.0 
164.033157 7994.0 
179.057846 36817.0 
185.017197 25253.0 
192.994125 22637.0 
194.044495 58983.0 
197.048035 7317.0 
203.02829 86584.0 
209.015457 4699.0 
210.021545 144515.0 
211.030197 21343.0 
214.045212 4181.0 
215.020111 36277.0 
219.051422 3980.0 
220.005493 17933.0 
220.047379 38104.0 
223.029404 64806.0 
224.014038 7061.0 
224.037247 141145.0 
229.008423 4618.0 
242.039246 237008.0 
247.999832 280582.0 
252.064987 6617.0 
267.088531 92924.0 
276.059692 4724.0 
280.084045 41101.0 
282.099457 53545.0 
283.084167 7786.0 
284.037079 58117.0 
284.075928 5816.0 
287.094849 16737.0 
298.054199 19063.0 
299.06073 1840875.0 
303.089874 178998.0 
311.061279 28630.0 
313.076599 200582.0 
319.066986 1934199.0 
328.069824 86260.0 
333.082764 140420.0 
339.055237 15359.0 
346.080566 22323.0 
352.067169 41019.0 
353.073975 189039.0 
354.08252 79402.0 
357.097198 8228.0 
359.061127 59697.0 
372.059814 6079.0 
385.091614 154947.0 
442.113251 195764.0 
462.119629 1037761.0 
536.102417 1863543.0 
END IONS

BEGIN IONS
NAME=Betnovate CollisionEnergy:205060 M+H
PRECURSOR_MZ=477.265
INCHI="InChI=1S/C27H37FO6/c1-5-6-7-23(33)34-27(22(32)15-29)16(2)12-20-19-9-8-17-13-18(30)10-11-24(17,3)26(19,28)21(31)14-25(20,27)4/h10-11,13,16,19-21,29,31H,5-9,12,14-15H2,1-4H3/t16-,19-,20-,21-,24-,25-,26-,27-/m0/s1"
SMILES=CCCCC(=O)OC1(C(=O)CO)C(C)CC2C3CCC4=CC(=O)C=CC4(C)C3(F)C(O)CC21C
SPECTRUMID=CCMSLIB00010124522
53.039101 13812.0 
53.04314 3173.0 
55.01833 6027.0 
55.05468 7273.0 
57.070389 41624.0 
65.039032 13000.0 
67.054604 54715.0 
69.033882 12672.0 
69.070221 23690.0 
75.044243 5763.0 
79.054482 48223.0 
81.070152 27712.0 
81.996597 3099.0 
83.085609 7547.0 
85.064789 23332.0 
91.048317 4325.0 
91.054337 123105.0 
93.069977 91831.0 
95.049088 12557.0 
95.085541 111764.0 
97.064873 13636.0 
103.054176 7401.0 
103.07515 16942.0 
105.069893 114733.0 
107.049103 8030.0 
107.085449 146858.0 
108.643967 3591.0 
109.064659 15102.0 
109.101158 76654.0 
111.080063 5037.0 
113.697227 3226.0 
115.054047 22447.0 
115.075172 4671.0 
116.062424 4807.0 
117.069763 35905.0 
119.085449 165131.0 
119.095169 5480.0 
120.055733 3420.0 
121.064713 171045.0 
121.101189 75128.0 
123.035843 3532.0 
123.080353 98467.0 
125.059593 7884.0 
125.095917 17452.0 
128.061905 37833.0 
129.069672 25479.0 
130.077499 5002.0 
131.085449 64314.0 
132.056519 15496.0 
133.064468 6667.0 
133.101212 52537.0 
135.080383 135654.0 
137.09642 30151.0 
139.111023 3075.0 
141.069839 27824.0 
142.077438 18643.0 
143.085449 86951.0 
144.057098 17340.0 
145.064514 50986.0 
145.100677 43566.0 
146.072525 7074.0 
147.080322 352219.0 
149.095825 43776.0 
151.074982 5233.0 
151.111649 5717.0 
153.069702 5947.0 
153.091202 70828.0 
155.085052 22800.0 
156.093414 4386.0 
157.064972 12500.0 
157.100845 26271.0 
158.072678 39290.0 
159.080322 176281.0 
159.114258 4214.0 
160.087234 4536.0 
161.06015 7150.0 
161.096054 73373.0 
163.075546 7469.0 
165.069885 13228.0 
165.090729 3795.0 
167.084961 13488.0 
167.106522 51818.0 
169.064209 16026.0 
169.101303 7208.0 
170.072586 15558.0 
171.080276 240446.0 
171.116089 14139.0 
172.088455 3926.0 
173.095963 105094.0 
175.111206 6599.0 
177.09053 19622.0 
178.076965 13579.0 
179.086227 24384.0 
180.093109 6104.0 
181.065887 3866.0 
181.101089 6988.0 
182.071228 5778.0 
183.079849 27810.0 
184.088882 4161.0 
185.095978 157826.0 
185.444168 4528.0 
187.075165 85724.0 
187.111832 16959.0 
189.090515 6755.0 
190.077789 11282.0 
191.086121 13237.0 
192.093475 6025.0 
193.101379 25275.0 
194.072693 4341.0 
195.0802 30370.0 
195.116058 5738.0 
196.088074 18376.0 
197.095734 47755.0 
198.103714 12826.0 
199.076416 4347.0 
199.111771 23004.0 
201.088821 3501.0 
202.07663 5154.0 
203.085922 13100.0 
203.106354 11098.0 
204.09346 12621.0 
205.100357 18269.0 
207.079956 7428.0 
207.116699 16337.0 
208.087738 44817.0 
208.880432 12520.0 
209.096222 62978.0 
210.103119 21141.0 
211.076294 3586.0 
211.111893 37782.0 
213.090332 5623.0 
213.127136 26203.0 
215.085617 7579.0 
216.093796 5640.0 
217.100586 13283.0 
219.080444 18061.0 
219.117172 8109.0 
220.088318 7493.0 
221.095581 85228.0 
221.132065 6164.0 
222.103531 32703.0 
223.111649 89256.0 
224.119202 14704.0 
225.089539 4084.0 
225.126434 19873.0 
227.107635 4808.0 
229.102127 14507.0 
230.107834 17683.0 
231.080002 4882.0 
231.116608 16882.0 
232.088165 7267.0 
232.124496 4571.0 
233.095673 35703.0 
234.102707 29817.0 
235.111374 53559.0 
235.148895 6932.0 
236.11937 15278.0 
237.093552 3321.0 
237.126312 31825.0 
238.135406 5188.0 
239.106018 15255.0 
239.142441 13199.0 
243.11644 15883.0 
244.123566 7182.0 
245.095535 19328.0 
245.13237 12971.0 
246.102692 16916.0 
247.111053 46679.0 
248.119156 49140.0 
249.127335 59824.0 
250.133347 7024.0 
251.105469 3308.0 
251.141876 17328.0 
253.157211 6222.0 
259.110321 36025.0 
260.119019 18343.0 
261.126801 63342.0 
261.161316 13446.0 
262.13443 45989.0 
263.111572 9893.0 
263.142456 172230.0 
263.174561 7374.0 
264.150269 27495.0 
265.157867 7547.0 
267.173462 4544.0 
271.111023 21325.0 
272.118378 19248.0 
273.127716 6819.0 
273.161438 4210.0 
274.134125 15290.0 
275.109375 6556.0 
275.141541 36725.0 
276.151062 15628.0 
277.122589 14425.0 
277.157623 109428.0 
278.165405 62478.0 
279.173798 486499.0 
281.154419 6155.0 
281.188171 7220.0 
286.134888 18274.0 
289.123016 10228.0 
289.15802 43911.0 
290.130066 4758.0 
291.138733 8740.0 
291.173676 124364.0 
295.135162 7837.0 
295.169037 30274.0 
297.184204 15535.0 
301.158813 55592.0 
304.145508 4892.0 
307.169037 56074.0 
309.184906 45714.0 
311.165192 6067.0 
319.168762 171468.0 
325.179443 27600.0 
327.194885 6926.0 
337.179199 213442.0 
355.18988 167861.0 
END IONS

BEGIN IONS
NAME="N-(2,6-dimethylphenyl)-2-[2-oxo-4-(N-propylcarbamoyl)hydroquinolyl]acetamide CollisionEnergy:205060" M+Na
PRECURSOR_MZ=414.179
INCHI="InChI=1S/C23H25N3O3/c1-4-12-24-23(29)18-13-21(28)26(19-11-6-5-10-17(18)19)14-20(27)25-22-15(2)8-7-9-16(22)3/h5-11,13H,4,12,14H2,1-3H3,(H,24,29)(H,25,27)"
SMILES=CCCN=C(O)c1cc(=O)n(CC(O)=Nc2c(C)cccc2C)c2ccccc12
SPECTRUMID=CCMSLIB00010121698
55.153561 2840.0 
56.619911 3079.0 
104.27787 3674.0 
112.83139 2776.0 
130.065933 3868.0 
134.432358 3421.0 
157.957596 2952.0 
186.663956 2778.0 
198.091141 3595.0 
209.670853 2916.0 
231.113846 5125.0 
234.048416 3032.0 
238.53772 2874.0 
271.105316 3520.0 
293.089722 5274.0 
412.001129 5380.0 
414.178162 4433625.0 
END IONS

BEGIN IONS
NAME="{2-[(4-fluorophenyl)sulfonyl](3-1,2,3,4-tetrahydroisoquinolyl)}-N-(2-nitrophen yl)carboxamide CollisionEnergy:102040" M-H
PRECURSOR_MZ=454.088
INCHI="InChI=1S/C22H18FN3O5S/c23-17-9-11-18(12-10-17)32(30,31)25-14-16-6-2-1-5-15(16)13-21(25)22(27)24-19-7-3-4-8-20(19)26(28)29/h1-12,21H,13-14H2,(H,24,27)"
SMILES=O=[N+]([O-])c1ccccc1N=C(O)C1Cc2ccccc2CN1S(=O)(=O)c1ccc(F)cc1
SPECTRUMID=CCMSLIB00010109111
56.484459 2889.0 
60.73325 2830.0 
81.743294 2719.0 
93.034981 2606.0 
95.030342 240619.0 
99.111992 2867.0 
101.874367 3230.0 
111.025299 14687.0 
112.985962 5763.0 
137.035889 61768.0 
139.02002 13159.0 
158.992371 2073031.0 
208.517502 12213.0 
303.221802 3532.0 
454.088409 705864.0 
END IONS

BEGIN IONS
NAME="2-{3-methyl-8-[(4-methylphenyl)methylthio]-2,6-dioxo-1,3,7-trihydropurin-7-yl} acetamide CollisionEnergy:102040" M-H
PRECURSOR_MZ=358.098
INCHI="InChI=1S/C16H17N5O3S/c1-9-3-5-10(6-4-9)8-25-16-18-13-12(21(16)7-11(17)22)14(23)19-15(24)20(13)2/h3-6H,7-8H2,1-2H3,(H2,17,22)(H,19,23,24)"
SMILES=Cc1ccc(CSc2nc3c(c(O)nc(=O)n3C)n2CC(=N)O)cc1
SPECTRUMID=CCMSLIB00010111719
54.025459 2271.0 
57.97205 3118.0 
57.975159 73630.0 
75.930237 2549.0 
92.38723 4369.0 
101.94207 2983.0 
104.296883 2836.0 
132.719193 3189.0 
209.014038 292230.0 
210.021835 326029.0 
212.001755 11078.0 
220.047348 32516.0 
253.027756 968897.0 
261.994507 2548.0 
299.113831 2605.0 
315.092499 66080.0 
350.142029 2457.0 
358.098389 339538.0 
370.541412 2373.0 
END IONS

BEGIN IONS
NAME="2-(5-{[(1E)-2-(3-methoxyphenyl)-1-azaprop-1-enyl]amino}(4H-1,2,4-triazol-3-ylt hio))-1-(2H-benzo[3,4-d]1,3-dioxolan-5-yl)ethan-1-one CollisionEnergy:102040" M-H
PRECURSOR_MZ=424.108
INCHI="InChI=1S/C20H19N5O4S/c1-12(13-4-3-5-15(8-13)27-2)22-23-19-21-20(25-24-19)30-10-16(26)14-6-7-17-18(9-14)29-11-28-17/h3-9H,10-11H2,1-2H3,(H2,21,23,24,25)/b22-12+"
SMILES=COc1cccc(C(C)=NNc2nc(SCC(=O)c3ccc4c(c3)OCO4)n[nH]2)c1
SPECTRUMID=CCMSLIB00010105526
52.74625 2506.0 
53.756771 2074.0 
57.975231 208603.0 
62.113762 2176.0 
66.009407 5708.0 
71.170029 2330.0 
75.058693 2643.0 
104.316139 2461.0 
112.992912 106603.0 
153.837326 2703.0 
167.956375 2392.0 
195.012863 9921.0 
228.089172 12602.0 
230.104614 2940.0 
246.043839 4148.0 
261.069061 51720.0 
276.031952 43282.0 
291.055573 3117.0 
424.108826 135668.0 
END IONS

BEGIN IONS
NAME=2-Hydroxy-4-(methylthio)butyric acid CollisionEnergy:102040 M-H
PRECURSOR_MZ=149.028
INCHI="InChI=1S/C5H10O3S/c1-9-3-2-4(6)5(7)8/h4,6H,2-3H2,1H3,(H,7,8)"
SMILES=CSCCC(O)C(=O)O
SPECTRUMID=CCMSLIB00010126266
51.861599 325511.0 
56.647499 350956.0 
57.034 1437590.0 
60.974998 457608.0 
66.695198 358901.0 
68.207802 362069.0 
78.172997 353394.0 
81.445602 316466.0 
82.425301 379969.0 
92.408501 450026.0 
95.787804 310163.0 
100.530998 289790.0 
101.024002 4886890.0 
104.320999 399447.0 
121.206001 423883.0 
149.028 9959630.0 
END IONS

BEGIN IONS
NAME=Kinetin riboside CollisionEnergy:205060 M+formate
PRECURSOR_MZ=392.121
INCHI="InChI=1S/C15H17N5O5/c21-5-9-11(22)12(23)15(25-9)20-7-19-10-13(17-6-18-14(10)20)16-4-8-2-1-3-24-8/h1-3,6-7,9,11-12,15,21-23H,4-5H2,(H,16,17,18)/t9-,11-,12-,15-/m1/s1"
SMILES=OCC1OC(n2cnc3c(NCc4ccco4)ncnc32)C(O)C1O
SPECTRUMID=CCMSLIB00010117522
64.260727 2597.0 
92.025063 5527.0 
92.382179 3099.0 
99.86351 3414.0 
101.361816 3040.0 
104.288551 2571.0 
106.028511 28237.0 
107.036293 14078.0 
117.020653 11325.0 
132.031662 11626.0 
133.039291 523821.0 
134.04715 514037.0 
146.046997 5654.0 
152.398117 3038.0 
158.047363 6535.0 
160.062851 6683.0 
169.052094 5457.0 
170.047104 45541.0 
172.063049 4509.0 
173.034027 4263.0 
186.0784 41112.0 
187.062302 19341.0 
196.062592 164523.0 
199.048752 2969.0 
209.803299 5921.0 
210.90448 3326.0 
211.97908 2576.0 
214.073456 1811329.0 
221.939453 2869.0 
238.899414 2768.0 
240.051208 3457.0 
266.084564 2976.0 
346.115662 284602.0 
END IONS

BEGIN IONS
NAME=Dexpanthenol CollisionEnergy:102040 M-H
PRECURSOR_MZ=204.124
INCHI="InChI=1S/C9H19NO4/c1-9(2,6-12)7(13)8(14)10-4-3-5-11/h7,11-13H,3-6H2,1-2H3,(H,10,14)/t7-/m0/s1"
SMILES=CC(C)(CO)C(O)C(O)=NCCCO
SPECTRUMID=CCMSLIB00010111616
53.227871 2277.0 
57.266689 2487.0 
71.050056 321407.0 
72.045341 104107.0 
74.060997 204253.0 
83.870598 2588.0 
92.374046 3269.0 
99.04525 141274.0 
100.040733 16955.0 
100.860046 2467.0 
102.056168 781672.0 
104.277908 3286.0 
108.082039 2877.0 
113.488892 2321.0 
118.051239 12152.0 
126.092506 78449.0 
129.055725 72780.0 
130.050964 46784.0 
132.06665 5787.0 
146.082108 11468.0 
156.102966 48314.0 
157.957642 5028.0 
172.098083 13394.0 
174.114029 25351.0 
204.124191 2198617.0 
END IONS

BEGIN IONS
NAME="3,4-dimethoxyphenyl 4-(3-chlorophenyl)piperazinyl ketone CollisionEnergy:102040" M+H
PRECURSOR_MZ=361.131
INCHI="InChI=1S/C19H21ClN2O3/c1-24-17-7-6-14(12-18(17)25-2)19(23)22-10-8-21(9-11-22)16-5-3-4-15(20)13-16/h3-7,12-13H,8-11H2,1-2H3"
SMILES=COc1ccc(C(=O)N2CCN(c3cccc(Cl)c3)CC2)cc1OC
SPECTRUMID=CCMSLIB00010105891
54.470829 2572.0 
55.096981 2434.0 
58.570671 2201.0 
63.17371 2307.0 
79.054497 4018.0 
109.028084 3672.0 
126.030609 4966.0 
144.51178 2945.0 
155.069702 3674.0 
165.054596 2038379.0 
177.536728 2752.0 
232.281189 2490.0 
343.122833 4674.0 
352.991516 2638.0 
361.130066 181666.0 
361.19397 12413.0 
END IONS

BEGIN IONS
NAME=diosmin CollisionEnergy:102040 M-H
PRECURSOR_MZ=607.167
INCHI="InChI=1S/C28H32O15/c1-10-21(32)23(34)25(36)27(40-10)39-9-19-22(33)24(35)26(37)28(43-19)41-12-6-14(30)20-15(31)8-17(42-18(20)7-12)11-3-4-16(38-2)13(29)5-11/h3-8,10,19,21-30,32-37H,9H2,1-2H3/t10-,19+,21-,22+,23+,24-,25+,26+,27+,28+/m0/s1"
SMILES=COc1ccc(-c2cc(=O)c3c(O)cc(OC4OC(COC5OC(C)C(O)C(O)C5O)C(O)C(O)C4O)cc3o2)cc1O
SPECTRUMID=CCMSLIB00010113636
50.039139 3192.0 
50.503738 3339.0 
58.304089 3188.0 
60.12606 3865.0 
69.958099 3189.0 
78.546494 3585.0 
79.209122 3255.0 
122.680206 3170.0 
133.628326 4117.0 
136.654633 3741.0 
211.251709 4054.0 
284.032684 1500936.0 
291.649384 3481.0 
297.041107 4227.0 
299.056122 3993585.0 
341.065582 17256.0 
524.184998 3945.0 
552.819519 3409.0 
607.167236 2427239.0 
END IONS

BEGIN IONS
NAME="(3,4-dimethoxyphenyl)-N-[4-(3-{4-[(3,4-dimethoxyphenyl)carbonylamino]-2-methox yphenoxy}propoxy)-3-methoxyphenyl]carboxamide CollisionEnergy:102040" M+H
PRECURSOR_MZ=647.26
INCHI="InChI=1S/C35H38N2O10/c1-40-26-12-8-22(18-30(26)42-3)34(38)36-24-10-14-28(32(20-24)44-5)46-16-7-17-47-29-15-11-25(21-33(29)45-6)37-35(39)23-9-13-27(41-2)31(19-23)43-4/h8-15,18-21H,7,16-17H2,1-6H3,(H,36,38)(H,37,39)"
SMILES=COc1ccc(C(O)=Nc2ccc(OCCCOc3ccc(N=C(O)c4ccc(OC)c(OC)c4)cc3OC)c(OC)c2)cc1OC
SPECTRUMID=CCMSLIB00010113338
51.02359 7822.0 
52.144249 4523.0 
53.039139 10058.0 
65.039017 11669.0 
66.046707 28421.0 
68.997414 22210.0 
69.033821 8575.0 
77.039108 21279.0 
79.018417 22974.0 
79.054489 102613.0 
81.033333 5366.0 
81.069878 24591.0 
82.04155 10427.0 
92.025879 7139.0 
94.041451 56794.0 
95.048897 11497.0 
98.03614 27193.0 
104.323357 3869.0 
104.324867 3810.0 
105.033333 8535.0 
107.013123 6560.0 
107.049362 10938.0 
109.028526 52660.0 
109.064774 70278.0 
111.007401 21783.0 
119.905037 5167.0 
121.028999 19557.0 
122.036072 111728.0 
124.051758 31787.0 
126.031227 78604.0 
137.059418 7181.0 
139.075287 30964.0 
141.054443 26348.0 
149.060043 18669.0 
150.030685 8870.0 
154.025833 6693.0 
155.070251 162996.0 
164.070572 31370.0 
164.508728 7398.0 
165.054642 18402078.0 
166.061569 38277.0 
178.0495 10453.0 
178.086609 18773.0 
206.081848 19952.0 
286.106842 83330.0 
296.129578 32263.0 
297.13681 25461.0 
326.137329 10176.0 
344.148682 158101.0 
345.154114 25202.0 
465.202026 391978.0 
509.190796 62117.0 
629.248596 912133.0 
632.235718 26388.0 
647.259155 7371273.0 
673.511475 7175.0 
END IONS

BEGIN IONS
NAME="N-phenyl[(9,11,13-trimethyl-8,15-dioxatetracyclo[10.2.2.0<2,7>.0<9,14>]hexadec a-2(7),3,5-trien-12-yl)methoxy]carboxamide CollisionEnergy:205060" M-H
PRECURSOR_MZ=406.202
INCHI="InChI=1S/C25H29NO4/c1-16-13-24(3)21-17(2)25(16,15-29-23(27)26-18-9-5-4-6-10-18)14-28-22(21)19-11-7-8-12-20(19)30-24/h4-12,16-17,21-22H,13-15H2,1-3H3,(H,26,27)"
SMILES=CC1CC2(C)Oc3ccccc3C3OCC1(COC(O)=Nc1ccccc1)C(C)C32
SPECTRUMID=CCMSLIB00010122888
92.370728 3101.0 
93.034554 472540.0 
99.208 2430.0 
104.276718 2849.0 
104.844383 2569.0 
106.042542 2827.0 
107.050507 4367.0 
121.029694 1566423.0 
130.939713 3116.0 
239.143539 3371.0 
257.154022 6385.0 
287.165588 221551.0 
305.176361 39289.0 
331.155457 205158.0 
406.20343 38654.0 
END IONS

BEGIN IONS
NAME=5-Methoxy-5-oxopentanoic acid CollisionEnergy:102040 M+H-H2O
PRECURSOR_MZ=129.055
INCHI="InChI=1S/C6H10O4/c1-10-6(9)4-2-3-5(7)8/h2-4H2,1H3,(H,7,8)"
SMILES=COC(=O)CCCC(=O)O
SPECTRUMID=CCMSLIB00010103245
53.0392 2741.639893 
55.018501 33205.0 
55.054901 67573.601562 
57.034199 22684.900391 
61.029099 13381.0 
63.8027 2454.77002 
65.039299 4960.680176 
67.054703 3561.25 
69.0298 3929.639893 
69.034103 103367.0 
69.461899 2570.98999 
71.0495 23649.699219 
73.0289 2756.850098 
81.033997 2860.080078 
82.417 3226.399902 
83.049599 170008.0 
85.0289 121128.0 
99.044403 12830.599609 
104.309998 2522.070068 
111.043999 49002.699219 
129.054993 20312.099609 
129.102997 5128.259766 
END IONS

BEGIN IONS
NAME=3-(4-hydroxyphenyl)-2-{2-[(phenylmethoxy)carbonylamino]acetylamino}propanoic a cid CollisionEnergy:102040 M+Na
PRECURSOR_MZ=395.121
INCHI="InChI=1S/C19H20N2O6/c22-15-8-6-13(7-9-15)10-16(18(24)25)21-17(23)11-20-19(26)27-12-14-4-2-1-3-5-14/h1-9,16,22H,10-12H2,(H,20,26)(H,21,23)(H,24,25)"
SMILES=O=C(O)C(Cc1ccc(O)cc1)N=C(O)CN=C(O)OCc1ccccc1
SPECTRUMID=CCMSLIB00010111385
56.28392 2553.0 
58.319778 2820.0 
62.41534 2967.0 
65.945633 2789.0 
66.778557 3205.0 
82.441521 3315.0 
91.054352 32465.0 
103.02002 2857.0 
104.339699 3530.0 
128.567444 2680.0 
128.966034 2984.0 
132.326523 2743.0 
151.672699 3220.0 
157.43515 3373.0 
158.057526 33720.0 
188.068497 4662.0 
204.062912 11670.0 
232.057709 600534.0 
287.062286 4311.0 
351.130951 27810.0 
395.120941 5224431.0 
END IONS

BEGIN IONS
NAME=CCG-208359 CollisionEnergy:205060 M+H-H2O
PRECURSOR_MZ=374.233
INCHI="InChI=1S/C22H33NO5/c1-4-23-10-20(2)7-6-13(27-3)22-12-9-11-5-8-21(26,14(12)19(25)28-11)15(18(22)23)16(24)17(20)22/h11-18,24,26H,4-10H2,1-3H3/t11-,12?,13?,14?,15-,16?,17?,18+,20-,21+,22-/m0/s1"
SMILES=CCN1CC2(C)CCC(OC)C34C5CC6CCC(O)(C5C(=O)O6)C(C(O)C23)C14
SPECTRUMID=CCMSLIB00010117526
58.065521 13306.0 
58.148411 2185.0 
67.054588 3033.0 
69.070236 3800.0 
71.049507 3791.0 
72.081078 4212.0 
73.95063 3084.0 
73.955193 3440.0 
79.054367 9591.0 
81.070213 3861.0 
82.39679 3155.0 
82.805901 2872.0 
85.916199 2423.0 
91.054283 4013.0 
92.377296 3455.0 
93.069969 4999.0 
96.080757 3094.0 
96.087311 2473.0 
98.096184 3282.0 
105.06987 3487.0 
107.049217 2598.0 
111.080101 3166.0 
119.085136 4156.0 
122.096603 5738.0 
131.085388 4630.0 
136.111694 3715.0 
143.085602 3750.0 
148.112259 27774.0 
150.12796 2523.0 
171.080246 3025.0 
172.110825 3114.0 
174.128021 10870.0 
176.144119 4009.0 
186.127411 3877.0 
188.143539 3929.0 
194.154221 2993.0 
200.142914 2524.0 
206.154022 9415.0 
232.134048 4123.0 
232.16983 11149.0 
256.169861 3399.0 
260.12915 5508.0 
270.148193 11431.0 
272.16272 5560.0 
282.14978 2734.0 
284.164185 36653.0 
288.195465 3887.0 
300.157623 19645.0 
302.244781 3037.0 
314.211029 5271.0 
328.189087 2999.0 
330.242859 4910.0 
342.204529 29531.0 
346.238525 11057.0 
356.218689 4239.0 
359.47757 3210.0 
372.216675 2882.0 
374.231781 549386.0 
396.064209 2607.0 
END IONS

BEGIN IONS
NAME="4-[(1,4-dioxa-8-azaspiro[4.5]dec-8-yl)methyl]-5,7-dimethylchromen-2-one CollisionEnergy:102040" M+Na
PRECURSOR_MZ=352.152
INCHI="InChI=1S/C19H23NO4/c1-13-9-14(2)18-15(11-17(21)24-16(18)10-13)12-20-5-3-19(4-6-20)22-7-8-23-19/h9-11H,3-8,12H2,1-2H3"
SMILES=Cc1cc(C)c2c(CN3CCC4(CC3)OCCO4)cc(=O)oc2c1
SPECTRUMID=CCMSLIB00010104576
53.505531 2273.0 
57.957932 2260.0 
67.607468 2665.0 
76.021942 2371.0 
104.280327 3258.0 
117.607811 2235.0 
185.379898 2417.0 
195.751221 2363.0 
238.050018 2612.0 
243.644531 2427.0 
329.32428 2814.0 
352.151703 1003005.0 
370.162994 41226.0 
END IONS

BEGIN IONS
NAME=Glabranin CollisionEnergy:205060 M+H
PRECURSOR_MZ=325.143
INCHI="InChI=1S/C20H20O4/c1-12(2)8-9-14-15(21)10-16(22)19-17(23)11-18(24-20(14)19)13-6-4-3-5-7-13/h3-8,10,18,21-22H,9,11H2,1-2H3/t18-/m0/s1"
SMILES=CC(C)=CCc1c(O)cc(O)c2c1OC(c1ccccc1)CC2=O
SPECTRUMID=CCMSLIB00010115903
50.015751 5271.0 
50.627991 4215.0 
51.020569 3530.0 
51.023479 7590.0 
55.018379 323843.0 
58.001598 4533.0 
59.04966 44093.0 
63.02346 4184.0 
65.039047 95531.0 
65.572792 4197.0 
65.686829 3826.0 
67.018417 5771.0 
68.997528 275526.0 
69.033997 50738.0 
69.070412 8727.0 
79.018181 82683.0 
79.054482 8787.0 
81.033813 90910.0 
90.829987 4956.0 
91.054428 6976291.0 
92.997238 40169.0 
95.013077 8024.0 
97.028603 86804.0 
99.007713 96506.0 
103.054199 357619.0 
103.196503 4986.0 
104.92067 4676.0 
105.033531 26081.0 
105.069763 56546.0 
107.048958 5002.0 
109.028542 34034.0 
111.007942 9913.0 
113.023369 5899.0 
115.054626 34926.0 
117.018044 16767.0 
117.070213 5147.0 
121.028313 10099.0 
123.007584 164575.0 
129.069977 57012.0 
131.049225 1379925.0 
135.04361 5027.0 
137.023438 219138.0 
139.038803 8101.0 
141.01825 937866.0 
141.069778 98785.0 
145.065262 5575.0 
145.101822 9263.0 
147.007614 7771.0 
152.062332 83625.0 
153.018585 16815.0 
153.06987 275130.0 
155.033844 97928.0 
155.04921 121760.0 
155.085327 76677.0 
157.065033 9543.0 
157.971786 5035.0 
163.039185 32932.0 
165.018341 5947324.0 
165.069046 78330.0 
166.077698 16630.0 
167.033432 8470.0 
167.085602 182502.0 
169.064758 118955.0 
171.079712 8287.0 
173.05983 18746.0 
177.070282 66472.0 
178.077667 20927.0 
179.033585 42567.0 
179.049683 27453.0 
179.085037 9470.0 
181.064835 410707.0 
183.028885 4341832.0 
183.670547 4368.0 
185.032776 6125.0 
185.059601 69446.0 
191.0345 46617.0 
195.080521 212587.0 
197.059906 295204.0 
199.075256 9688.0 
205.065063 65567.0 
206.045578 8360.0 
207.07991 5239.0 
208.259079 9550.0 
208.279968 9216.0 
209.059586 342641.0 
213.091232 28534.0 
221.080902 75618.0 
223.056793 4388.0 
223.075058 218159.0 
227.070328 242049.0 
233.058762 28790.0 
241.084366 30732.0 
251.070007 273930.0 
269.080566 4529916.0 
325.142944 6478992.0 
END IONS

BEGIN IONS
NAME="(2S)-2-[(tert-butoxy)carbonylamino]-3-[1-(2,4-dinitrophenyl)imidazol-4-yl]prop anoic acid CollisionEnergy:205060" 2M-H
PRECURSOR_MZ=841.239
INCHI="InChI=1S/C17H19N5O8/c1-17(2,3)30-16(25)19-12(15(23)24)6-10-8-20(9-18-10)13-5-4-11(21(26)27)7-14(13)22(28)29/h4-5,7-9,12H,6H2,1-3H3,(H,19,25)(H,23,24)/t12-/m0/s1"
SMILES=CC(C)(C)OC(O)=NC(Cc1cn(-c2ccc([N+](=O)[O-])cc2[N+](=O)[O-])cn1)C(=O)O
SPECTRUMID=CCMSLIB00010121071
61.510262 3194.0 
62.563419 3596.0 
65.364052 3497.0 
74.826347 3346.0 
75.596283 3968.0 
78.886139 3103.0 
84.308838 3040.0 
91.030167 4728.0 
95.025078 61565.0 
113.982811 3457.0 
118.677307 4382.0 
132.032898 15512.0 
134.036118 14593.0 
137.035309 5674.0 
146.036011 8866.0 
147.019867 15555.0 
147.044037 5261.0 
161.036346 5219.0 
162.030746 38771.0 
170.035507 6661.0 
171.04393 37307.0 
171.058029 3826.0 
176.034348 7878.0 
177.01767 7725.0 
177.042358 6803.0 
178.392181 3578.0 
182.01973 4918.0 
187.026581 43276.0 
189.042084 14380.0 
201.041992 170579.0 
202.04953 5402.0 
203.057312 19537.0 
209.279877 15752.0 
212.046844 14708.0 
228.041519 80466.0 
229.036758 29588.0 
231.050629 5898.0 
232.037811 4746.0 
256.048523 28812.0 
271.046722 6983.0 
303.036133 20088.0 
303.255707 4480.0 
330.118225 6013.0 
346.042969 622321.0 
358.117188 18306.0 
420.114349 50069.0 
566.831177 3806.0 
636.121948 3812.0 
702.443115 3900.0 
END IONS

BEGIN IONS
NAME=methyl 2-[(3-ethoxy-4-hydroxyphenyl)methylene]-3-oxobenzo[b]furan-5-carboxylat e CollisionEnergy:102040 M-H
PRECURSOR_MZ=339.087
INCHI="InChI=1S/C19H16O6/c1-3-24-16-8-11(4-6-14(16)20)9-17-18(21)13-10-12(19(22)23-2)5-7-15(13)25-17/h4-10,20H,3H2,1-2H3/b17-9-"
SMILES=CCOc1cc(C=C2Oc3ccc(C(=O)OC)cc3C2=O)ccc1O
SPECTRUMID=CCMSLIB00010109080
82.403961 3567.0 
92.384277 3240.0 
95.013092 3233.0 
97.84362 2664.0 
104.293991 4603.0 
123.008324 3185.0 
132.021744 108842.0 
133.029251 27956.0 
142.497025 3097.0 
146.326141 2711.0 
151.040268 30015.0 
159.00885 3653.0 
161.061279 3487.0 
183.045105 3371.0 
211.039993 6481.0 
223.040543 11099.0 
251.037125 5391.0 
253.050034 5041.0 
254.060471 5294.0 
254.986267 12401.0 
258.006226 2884.0 
266.06012 21058.0 
267.031219 4601.0 
267.066223 6861.0 
274.992676 4392.0 
278.987 3445.0 
282.05365 329758.0 
293.04599 55756.0 
298.97644 6646.0 
310.048645 1467230.0 
311.056396 169377.0 
318.982819 18240.0 
339.087677 2885065.0 
END IONS

BEGIN IONS
NAME=2-Methoxy-4-{(4E)-4-[(tetrahydro-2-furanylmethyl)imino]-4H-chromen-2-yl}phenol CollisionEnergy:102040 M+H
PRECURSOR_MZ=352.154
INCHI="InChI=1S/C21H21NO4/c1-24-21-11-14(8-9-18(21)23)20-12-17(22-13-15-5-4-10-25-15)16-6-2-3-7-19(16)26-20/h2-3,6-9,11-12,15,23H,4-5,10,13H2,1H3/b22-17+"
SMILES=COc1cc(-c2cc(=NCC3CCCO3)c3ccccc3o2)ccc1O
SPECTRUMID=CCMSLIB00010103906
52.189491 5056.0 
57.033829 6402.0 
57.070351 71501.0 
65.038544 5589.0 
67.054573 220225.0 
68.510757 5238.0 
73.942017 7151.0 
85.064957 521399.0 
108.322037 5553.0 
135.043045 7824.0 
137.023926 8539.0 
203.228485 6578.0 
225.078293 8039.0 
238.062164 8799.0 
253.071121 674920.0 
266.079132 13756.0 
267.088989 34600.0 
268.096283 2857379.0 
280.095764 298333.0 
281.104553 29370.0 
294.107574 18733.0 
306.112793 28780.0 
307.116943 7690.0 
308.128967 8963.0 
309.13382 46195.0 
310.111359 12115.0 
319.124146 11858.0 
322.140198 13360.0 
324.159302 11240.0 
334.144623 26927.0 
337.130005 3926284.0 
350.456726 15754.0 
351.143219 38540.0 
352.153595 44411232.0 
353.862061 21413.0 
END IONS

BEGIN IONS
NAME=N-(5-chloro-2-methoxyphenyl)-2-[9-(4-methylphenyl)-6-oxohydropurin-8-ylthio]ac etamide CollisionEnergy:205060 M+H
PRECURSOR_MZ=456.089
INCHI="InChI=1S/C21H18ClN5O3S/c1-12-3-6-14(7-4-12)27-19-18(20(29)24-11-23-19)26-21(27)31-10-17(28)25-15-9-13(22)5-8-16(15)30-2/h3-9,11H,10H2,1-2H3,(H,25,28)(H,23,24,29)"
SMILES=COc1ccc(Cl)cc1N=C(O)CSc1nc2c(O)ncnc2n1-c1ccc(C)cc1
SPECTRUMID=CCMSLIB00010124661
60.531349 4527.0 
66.734154 3687.0 
77.071533 3497.0 
104.273849 3634.0 
105.069733 7214.0 
114.749763 3306.0 
118.065201 3280.0 
130.065109 23678.0 
131.072952 3881.0 
135.026245 3818.0 
145.075729 14255.0 
148.075516 6201.0 
150.03746 5603.0 
151.304779 3118.0 
157.075745 20290.0 
158.059677 21159.0 
159.067764 4656.0 
162.03714 146705.0 
164.052109 22038.0 
169.076019 6992.0 
172.086853 43741.0 
174.037552 5073.0 
175.032288 21458.0 
184.086716 6769.0 
185.069305 6219.0 
185.095749 4009.0 
189.047928 124300.0 
190.031982 163382.0 
193.042969 67766.0 
198.065475 11442.0 
202.043457 35024.0 
208.41095 13018.0 
211.073975 3518.0 
212.081665 501776.0 
213.089722 50161.0 
216.059006 95902.0 
217.042923 16052.0 
230.038025 274004.0 
237.077179 12283.0 
238.084366 57226.0 
242.286758 3577.0 
244.053558 1482719.0 
246.71376 3241.0 
253.053741 13145.0 
256.041046 5544.0 
257.048737 130530.0 
262.063599 36828.0 
271.064301 815735.0 
299.059265 2030907.0 
456.08606 5025.0 
END IONS

BEGIN IONS
NAME=(2E)-3-(4-methoxyphenyl)-N-phenylprop-2-enamide CollisionEnergy:102040 M+formate
PRECURSOR_MZ=298.108
INCHI="InChI=1S/C16H15NO2/c1-19-15-10-7-13(8-11-15)9-12-16(18)17-14-5-3-2-4-6-14/h2-12H,1H3,(H,17,18)/b12-9+"
SMILES=COc1ccc(C=CC(O)=Nc2ccccc2)cc1
SPECTRUMID=CCMSLIB00010105719
52.564831 2316.0 
64.346352 2108.0 
65.65097 1836.0 
66.746651 2737.0 
74.101433 2354.0 
85.938004 1997.0 
87.925537 2761.0 
92.384262 2119.0 
103.9207 9157.0 
104.291603 2658.0 
112.985252 2775.0 
118.65773 2818.0 
157.981964 3018.0 
179.936111 9084.0 
185.405014 2389.0 
229.913223 8095.0 
229.965271 2560.0 
236.071457 8570.0 
252.102936 44904.0 
298.157623 11607.0 
303.551697 2641.0 
END IONS

BEGIN IONS
NAME=N-(3-chloro-4-fluorophenyl)-2-(9-ethyl-6-oxohydropurin-8-ylthio)acetamide CollisionEnergy:102040 2M-H
PRECURSOR_MZ=761.085
INCHI="InChI=1S/C15H13ClFN5O2S/c1-2-22-13-12(14(24)19-7-18-13)21-15(22)25-6-11(23)20-8-3-4-10(17)9(16)5-8/h3-5,7H,2,6H2,1H3,(H,20,23)(H,18,19,24)"
SMILES=CCn1c(SCC(O)=Nc2ccc(F)c(Cl)c2)nc2c(O)ncnc21
SPECTRUMID=CCMSLIB00010109809
56.23597 3264.0 
73.955841 3175.0 
116.612267 3433.0 
130.039047 3631.0 
135.031357 4021.0 
136.217545 4224.0 
143.978699 3344.0 
148.06514 3348.0 
163.063217 32991.0 
179.992706 13113.0 
182.9897 6093.0 
194.026993 67224.0 
195.035248 84725.0 
202.649811 3049.0 
209.050369 29689.0 
215.970078 28044.0 
235.005127 3268.0 
235.030319 17839.0 
244.969131 2980.0 
292.664948 3805.0 
306.056946 32560.0 
357.986694 3389.0 
380.039398 654666.0 
550.573059 3610.0 
END IONS

BEGIN IONS
NAME=FMOC-L-Isoleucine CollisionEnergy:205060 M+H
PRECURSOR_MZ=354.17
INCHI="InChI=1S/C21H23NO4/c1-3-13(2)19(20(23)24)22-21(25)26-12-18-16-10-6-4-8-14(16)15-9-5-7-11-17(15)18/h4-11,13,18-19H,3,12H2,1-2H3,(H,22,25)(H,23,24)/t13-,19-/m0/s1"
SMILES=CCC(C)C(N=C(O)OCC1c2ccccc2-c2ccccc21)C(=O)O
SPECTRUMID=CCMSLIB00010123336
56.965099 4139.0 
69.070221 29835.0 
72.025902 2177.0 
74.023918 37329.0 
81.971992 2282.0 
86.096542 152999.0 
112.075706 3406.0 
130.086197 51853.0 
132.101761 69436.0 
133.229645 2737.0 
176.063217 2611.0 
177.07222 2710.0 
178.077637 216009.0 
179.085297 600660.0 
216.404831 2337.0 
283.07428 3654.0 
311.069855 3635.0 
339.065125 3087.0 
354.08194 30373.0 
END IONS

BEGIN IONS
NAME=N-(4-{N-[2-(5-methylindol-3-yl)ethyl]carbamoyl}phenyl)acetamide CollisionEnergy:205060 M+H
PRECURSOR_MZ=336.171
INCHI="InChI=1S/C20H21N3O2/c1-13-3-8-19-18(11-13)16(12-22-19)9-10-21-20(25)15-4-6-17(7-5-15)23-14(2)24/h3-8,11-12,22H,9-10H2,1-2H3,(H,21,25)(H,23,24)"
SMILES=CC(O)=Nc1ccc(C(=O)NCCc2c[nH]c3ccc(C)cc23)cc1
SPECTRUMID=CCMSLIB00010118842
58.84557 2992.0 
62.514389 2671.0 
65.038879 48430.0 
68.049911 25688.0 
79.017883 2900.0 
91.054169 5889.0 
92.049461 79018.0 
94.065086 6546.0 
104.297867 3599.0 
108.044342 4591.0 
110.060059 30714.0 
120.044243 4140694.0 
121.028198 715970.0 
121.036079 17336.0 
129.069626 13587.0 
130.065094 5775.0 
131.085327 47381.0 
132.080002 4825.0 
136.075684 5608.0 
141.069809 6991.0 
143.072723 330468.0 
146.09523 10409.0 
156.079254 3795.0 
157.088257 21914.0 
158.096222 1932528.0 
162.054657 2938457.0 
172.075638 4540.0 
179.081146 28116.0 
205.096741 7515.0 
221.390366 3237.0 
259.124237 4235.0 
260.105927 38471.0 
262.110107 36383.0 
319.143219 170507.0 
336.093536 39346.0 
336.169647 304195.0 
355.721924 3560.0 
END IONS

BEGIN IONS
NAME="8-{[(1Z)-2-(4-bromo-3-nitrophenyl)-1-azavinyl]amino}-2-amino-9-[3,4-dihydroxy- 5-(hydroxymethyl)oxolan-2-yl]hydropurin-6-one CollisionEnergy:205060" M+H
PRECURSOR_MZ=525.048
INCHI="InChI=1S/C17H17BrN8O7/c18-7-2-1-6(3-8(7)26(31)32)4-20-24-17-21-10-13(22-16(19)23-14(10)30)25(17)15-12(29)11(28)9(5-27)33-15/h1-4,9,11-12,15,27-29H,5H2,(H,21,24)(H3,19,22,23,30)/b20-4-"
SMILES=N=c1nc(O)c2nc(NN=Cc3ccc(Br)c([N+](=O)[O-])c3)n(C3OC(CO)C(O)C3O)c2[nH]1
SPECTRUMID=CCMSLIB00010124882
53.014061 3621.0 
55.018211 5087.0 
55.029518 255633.0 
57.033852 7614.0 
68.024681 227196.0 
69.008659 182577.0 
69.033363 9259.0 
70.040352 48497.0 
71.01281 4506.0 
73.028709 8011.0 
74.096603 4217.0 
76.734497 3928.0 
85.028633 6068.0 
92.377487 4500.0 
95.035248 201005.0 
96.019127 48338.0 
96.043037 15920.0 
97.050812 99789.0 
98.058594 20265.0 
104.049217 4098.0 
104.286613 3746.0 
108.043823 5162.0 
111.030029 227436.0 
121.038223 5583.0 
122.046089 47768.0 
123.029999 1825361.0 
124.037758 241072.0 
125.045937 6371.0 
136.213379 4303.0 
137.056885 892950.0 
138.040894 425781.0 
140.211777 4212.0 
141.041763 5043.0 
142.048416 1112922.0 
148.025345 17818.0 
149.03302 168879.0 
150.040955 25555.0 
165.051804 3265006.0 
166.059555 3722453.0 
167.043533 328985.0 
167.068405 15721.0 
168.051819 4399.0 
183.087692 8927.0 
185.956345 4679.0 
214.957397 51297.0 
228.960617 61465.0 
268.093811 39790.0 
379.000549 6939.0 
393.004517 5482309.0 
485.128723 5782.0 
525.047974 23318.0 
END IONS

BEGIN IONS
NAME=1-Methyladenosine CollisionEnergy:102040 M+Cl
PRECURSOR_MZ=316.082
INCHI="InChI=1S/C11H15N5O4/c1-15-3-14-10-6(9(15)12)13-4-16(10)11-8(19)7(18)5(2-17)20-11/h3-5,7-8,11-12,17-19H,2H2,1H3/t5-,7-,8-,11-/m1/s1"
SMILES=Cn1cnc2c(ncn2C2OC(CO)C(O)C2O)c1=N
SPECTRUMID=CCMSLIB00010108610
98.836502 2283.0 
104.284767 3609.0 
148.062714 5160.0 
185.391693 3067.0 
220.624619 2347.0 
241.948227 2408.0 
276.591827 2485.0 
316.081299 32558.0 
END IONS

BEGIN IONS
NAME=3a-hydroxy-5b-cholan-24-oate CollisionEnergy:102040 M-H
PRECURSOR_MZ=375.29
INCHI="InChI=1S/C24H40O3/c1-15(4-9-22(26)27)19-7-8-20-18-6-5-16-14-17(25)10-12-23(16,2)21(18)11-13-24(19,20)3/h15-21,25H,4-14H2,1-3H3,(H,26,27)/t15-,16?,17-,18+,19-,20+,21+,23+,24-/m1/s1"
SMILES=CC(CCC(=O)O)C1CCC2C3CCC4CC(O)CCC4(C)C3CCC12C
SPECTRUMID=CCMSLIB00010110165
55.359119 10532.0 
81.475647 10514.0 
82.385338 13881.0 
117.9534 11078.0 
120.326378 11451.0 
136.894363 10205.0 
375.290741 29452526.0 
377.16806 17866.0 
377.21228 16187.0 
393.301697 276396.0 
END IONS

BEGIN IONS
NAME="4-methyl-7-[3,4,5-trihydroxy-6-(hydroxymethyl)(2H-3,4,5,6-tetrahydropyran-2-yl oxy)]chromen-2-one CollisionEnergy:205060" M+formate
PRECURSOR_MZ=383.098
INCHI="InChI=1S/C16H18O8/c1-7-4-12(18)23-10-5-8(2-3-9(7)10)22-16-15(21)14(20)13(19)11(6-17)24-16/h2-5,11,13-17,19-21H,6H2,1H3"
SMILES=Cc1cc(=O)oc2cc(OC3OC(CO)C(O)C(O)C3O)ccc12
SPECTRUMID=CCMSLIB00010123767
56.988232 2576.0 
63.216431 2267.0 
67.895622 2284.0 
75.1595 2763.0 
77.136459 2278.0 
104.305397 3820.0 
131.050095 20217.0 
133.029282 12854.0 
147.044785 5420.0 
161.174438 2537.0 
175.040054 1403022.0 
211.634415 2683.0 
262.084778 2299.0 
298.357758 3464.0 
383.098816 5111.0 
END IONS

BEGIN IONS
NAME="(3,4-dimethoxyphenyl)-N-(6-methyl(2H-benzo[3,4-d]1,3-dioxolen-5-yl))carboxamid e CollisionEnergy:205060" M+H
PRECURSOR_MZ=316.118
INCHI="InChI=1S/C17H17NO5/c1-10-6-15-16(23-9-22-15)8-12(10)18-17(19)11-4-5-13(20-2)14(7-11)21-3/h4-8H,9H2,1-3H3,(H,18,19)"
SMILES=COc1ccc(C(O)=Nc2cc3c(cc2C)OCO3)cc1OC
SPECTRUMID=CCMSLIB00010117659
51.023411 5749.0 
53.03912 67656.0 
53.689159 2763.0 
55.018291 3638.0 
55.054581 4054.0 
58.282131 2572.0 
65.038918 15227.0 
66.046822 36110.0 
67.054268 2532.0 
68.025681 4777.0 
68.997513 24032.0 
69.03376 6606.0 
73.937752 3144.0 
77.039001 14337.0 
79.054527 158134.0 
81.033577 15375.0 
81.070198 38846.0 
82.041389 7058.0 
91.054153 12935.0 
92.025681 5229.0 
92.049797 2922.0 
94.041481 84320.0 
94.064758 4922.0 
95.012772 4271.0 
95.049339 27069.0 
97.028587 4006.0 
98.036072 25469.0 
99.170387 3371.0 
104.262772 3049.0 
105.033188 19283.0 
107.04911 29537.0 
108.05661 2986.0 
109.028419 74088.0 
109.064812 91832.0 
111.007843 23118.0 
111.043793 4537.0 
121.028503 12203.0 
122.026787 5589.0 
122.036247 134808.0 
123.043533 4504.0 
124.051872 319993.0 
126.031143 84890.0 
135.044067 63307.0 
136.610062 2997.0 
137.023865 3977.0 
137.059875 4883.0 
139.075348 204579.0 
141.054733 15001.0 
148.038864 5429.0 
150.05484 161648.0 
154.025879 14162.0 
155.058502 3036.0 
155.070114 116622.0 
165.054535 3130577.0 
178.04895 22379.0 
220.572571 2985.0 
316.117493 1669254.0 
END IONS

BEGIN IONS
NAME="N-(2,5-dimethylphenyl)-2-[2-oxo-4-(2-1,2,3,4-tetrahydroisoquinolylcarbonyl)hyd roquinolyl]acetamide CollisionEnergy:102040" M-H
PRECURSOR_MZ=464.198
INCHI="InChI=1S/C29H27N3O3/c1-19-11-12-20(2)25(15-19)30-27(33)18-32-26-10-6-5-9-23(26)24(16-28(32)34)29(35)31-14-13-21-7-3-4-8-22(21)17-31/h3-12,15-16H,13-14,17-18H2,1-2H3,(H,30,33)"
SMILES=Cc1ccc(C)c(N=C(O)Cn2c(=O)cc(C(=O)N3CCc4ccccc4C3)c3ccccc32)c1
SPECTRUMID=CCMSLIB00010114357
55.781521 2446.0 
60.932819 2821.0 
118.684753 3027.0 
120.081947 10651.0 
128.050751 35743.0 
130.066711 23409.0 
140.04924 2701.0 
142.066025 28289.0 
144.045609 11835.0 
156.045181 3363.0 
158.00975 3100.0 
158.024811 3328.0 
158.06131 40897.0 
167.028641 2889.0 
172.041153 3712.0 
176.035126 3097.0 
184.041 34111.0 
185.047699 2652.0 
186.05629 222484.0 
191.946091 4057.0 
209.930984 8084.0 
271.124237 9694.0 
273.140717 3167.0 
275.118347 12656.0 
287.118958 3430.0 
299.118103 5592.0 
303.114563 42346.0 
315.11499 5777.0 
317.129791 123735.0 
319.109253 29799.0 
343.109344 34572.0 
464.198334 615882.0 
END IONS

BEGIN IONS
NAME=ferulic acid CollisionEnergy:205060 M-H
PRECURSOR_MZ=193.051
INCHI="InChI=1S/C10H10O4/c1-14-9-6-7(2-4-8(9)11)3-5-10(12)13/h2-6,11H,1H3,(H,12,13)/b5-3+"
SMILES=COc1cc(C=CC(=O)O)ccc1O
SPECTRUMID=CCMSLIB00010122922
79.95739 2533.0 
89.039467 16018.0 
90.933678 10779.0 
93.034576 9157.0 
106.042717 24678.0 
109.029373 3169.0 
111.008926 4032.0 
117.034767 16760.0 
118.392151 2351.0 
118.656807 2796.0 
121.029488 20527.0 
133.029694 68848.0 
134.037506 1167507.0 
137.02449 166772.0 
139.040237 56307.0 
144.221344 2733.0 
149.024139 3566.0 
149.060852 165749.0 
150.032028 25005.0 
165.019684 3657.0 
178.027252 450173.0 
193.050644 293518.0 
211.042282 3891.0 
END IONS

BEGIN IONS
NAME=galactose-1-phosphate CollisionEnergy:102040 M-H
PRECURSOR_MZ=259.022
INCHI="InChI=1S/C6H13O9P/c7-1-2-3(8)4(9)5(10)6(14-2)15-16(11,12)13/h2-10H,1H2,(H2,11,12,13)/t2-,3+,4+,5-,6-/m1/s1"
SMILES=O=P(O)(O)O[C@H]1O[C@H](CO)[C@H](O)[C@H](O)[C@H]1O
SPECTRUMID=CCMSLIB00010102745
66.767403 4219.97998 
73.979599 5194.839844 
78.958801 725745.0 
82.427399 4683.009766 
85.870796 4884.160156 
92.407997 5143.810059 
93.065002 4061.189941 
96.969498 332300.0 
99.478302 4200.450195 
100.555 4667.640137 
114.041 4565.700195 
118.696999 6545.990234 
119.941002 4523.819824 
138.979996 78213.601562 
186.173996 4528.5 
198.425995 4719.589844 
233.621994 5771.5 
241.011002 117810.0 
259.022003 713625.0 
END IONS

BEGIN IONS
NAME=5-(2-methoxyphenyl)-4-azabicyclo[4.4.0]decan-1-ol CollisionEnergy:102040 M+H
PRECURSOR_MZ=262.18
INCHI="InChI=1S/C16H23NO2/c1-19-14-8-3-2-6-12(14)15-13-7-4-5-9-16(13,18)10-11-17-15/h2-3,6,8,13,15,17-18H,4-5,7,9-11H2,1H3"
SMILES=COc1ccccc1C1NCCC2(O)CCCCC12
SPECTRUMID=CCMSLIB00010105094
60.958031 3763.0 
63.231892 4041.0 
67.054581 311253.0 
69.070099 21008.0 
69.343338 3559.0 
73.946854 5836.0 
81.070068 49937.0 
83.085541 6898.0 
84.959717 7136.0 
91.054497 18843.0 
92.365433 3568.0 
93.070198 27279.0 
104.27314 4628.0 
107.049026 17379.0 
107.085579 35680.0 
109.064857 5148.0 
109.101067 358578.0 
111.080299 78588.0 
111.116737 4505.0 
118.640823 4966.0 
119.085426 4565.0 
121.064659 1120810.0 
122.096207 7959.0 
124.052254 4100.0 
125.095711 5228.0 
134.060364 22477.0 
135.080093 18565.0 
135.521713 4765.0 
136.075562 382464.0 
136.111679 44224.0 
137.059616 125542.0 
145.064651 4225.0 
147.080215 99978.0 
148.0755 231095.0 
148.088943 7910.0 
149.082642 4588.0 
150.09201 4445.0 
151.074249 5628.0 
159.080414 121565.0 
162.090714 18037.0 
171.081024 5347.0 
173.095749 75631.0 
187.11232 9009.0 
201.127258 136949.0 
215.142715 477692.0 
216.137054 35357.0 
219.137619 174454.0 
227.142853 44662.0 
228.138245 7479.0 
229.14537 16625.0 
233.152039 7017.0 
243.185898 4370.0 
244.169144 11077323.0 
245.158173 7515.0 
261.084076 4318.0 
262.179657 8568887.0 
263.280487 4592.0 
END IONS

BEGIN IONS
NAME="(2E)-3-(3,4-dimethoxyphenyl)-N-(3,4-dimethoxyphenyl)prop-2-enamide CollisionEnergy:205060" M-H
PRECURSOR_MZ=342.135
INCHI="InChI=1S/C19H21NO5/c1-22-15-8-5-13(11-17(15)24-3)6-10-19(21)20-14-7-9-16(23-2)18(12-14)25-4/h5-12H,1-4H3,(H,20,21)/b10-6+"
SMILES=COc1ccc(C=CC(O)=Nc2ccc(OC)c(OC)c2)cc1OC
SPECTRUMID=CCMSLIB00010116814
54.691952 2681.0 
67.018181 4549.0 
69.034149 32643.0 
75.375038 2583.0 
92.387039 2809.0 
94.028992 12527.0 
95.0131 13776.0 
97.029022 18860.0 
104.291153 2692.0 
105.021141 17915.0 
120.008163 4130.0 
121.016037 4675.0 
122.015907 3851.0 
122.024529 59208.0 
123.000328 3018.0 
123.008347 50956.0 
128.04985 3554.0 
130.562897 2661.0 
133.0168 4193.0 
133.02861 5371.0 
134.023849 4750.0 
136.223022 3421.0 
146.024673 3409.0 
149.011795 28441.0 
149.060104 4556.0 
149.09642 12031.0 
150.018616 12543.0 
159.031937 3307.0 
161.010712 16639.0 
164.033966 5642.0 
174.018387 4856.0 
174.055374 6116.0 
175.025772 3940.0 
183.042953 3038.0 
192.033676 5808.0 
194.060501 3328.0 
195.044205 12001.0 
208.36792 9913.0 
208.795059 3232.0 
210.055222 12496.0 
211.039948 46670.0 
223.039597 3883.0 
225.054428 12162.0 
226.05043 17254.0 
226.067734 6226.0 
238.050583 111716.0 
239.034546 61718.0 
239.058777 5649.0 
240.065689 18380.0 
241.072266 22052.0 
252.065735 4933.0 
253.046646 13265.0 
253.073883 25312.0 
254.048584 130894.0 
266.045258 15431.0 
268.061096 74920.0 
269.068298 38694.0 
281.033966 5354.0 
281.06723 5348.0 
282.040466 142609.0 
284.059479 4848.0 
284.091736 46728.0 
296.056213 73885.0 
297.063934 110277.0 
311.079315 34284.0 
312.087463 824306.0 
326.104004 23503.0 
327.110931 866042.0 
342.134308 850832.0 
END IONS

BEGIN IONS
NAME="N-(2-methoxy-5-methylphenyl)-N'-benzylethane-1,2-diamide CollisionEnergy:205060" M+Na
PRECURSOR_MZ=321.121
INCHI="InChI=1S/C17H18N2O3/c1-12-8-9-15(22-2)14(10-12)19-17(21)16(20)18-11-13-6-4-3-5-7-13/h3-10H,11H2,1-2H3,(H,18,20)(H,19,21)"
SMILES=COc1ccc(C)cc1NC(=O)C(=O)NCc1ccccc1
SPECTRUMID=CCMSLIB00010120419
50.838131 2157.0 
60.531872 2198.0 
65.03904 3045.0 
80.98481 2688.0 
91.054359 125749.0 
92.05793 2652.0 
104.757011 2017.0 
123.157669 2215.0 
127.515633 2091.0 
139.485336 2135.0 
157.959869 2533.0 
231.757217 2358.0 
321.120514 278848.0 
321.160309 10017.0 
346.090759 9677.0 
350.391632 2105.0 
361.114594 5617.0 
362.147461 4703.0 
501.139404 2978.0 
531.18219 16966.0 
END IONS

BEGIN IONS
NAME="N-{3-[(2-indol-3-ylethyl)amino]-1,4-dioxo-2-naphthyl}acetamide CollisionEnergy:205060" M+Na
PRECURSOR_MZ=396.132
INCHI="InChI=1S/C22H19N3O3/c1-13(26)25-20-19(21(27)16-7-2-3-8-17(16)22(20)28)23-11-10-14-12-24-18-9-5-4-6-15(14)18/h2-9,12,23-24H,10-11H2,1H3,(H,25,26)"
SMILES=CC(O)=NC1=C(NCCc2c[nH]c3ccccc23)C(=O)c2ccccc2C1=O
SPECTRUMID=CCMSLIB00010123896
83.777779 2735.0 
144.080887 12204.0 
156.565964 2937.0 
171.071259 3178.0 
240.062851 14883.0 
256.322235 2909.0 
337.093781 43763.0 
378.120148 14362.0 
396.131439 4351724.0 
437.155212 5307.0 
536.382996 2878.0 
644.811829 3090.0 
746.20282 3086.0 
END IONS

BEGIN IONS
NAME="(2E)-1-(3,4-dibutoxyphenyl)-3-(2,4-dichlorophenyl)prop-2-en-1-one CollisionEnergy:102040" M+Na
PRECURSOR_MZ=443.115
INCHI="InChI=1S/C23H26Cl2O3/c1-3-5-13-27-22-12-9-18(15-23(22)28-14-6-4-2)21(26)11-8-17-7-10-19(24)16-20(17)25/h7-12,15-16H,3-6,13-14H2,1-2H3/b11-8+"
SMILES=CCCCOc1ccc(C(=O)C=Cc2ccc(Cl)cc2Cl)cc1OCCCC
SPECTRUMID=CCMSLIB00010110118
82.389343 3164.0 
90.976608 5180.0 
92.362587 2583.0 
92.376587 2696.0 
118.644974 2909.0 
123.19516 2498.0 
251.458023 2896.0 
373.171356 2611.0 
443.114227 364006.0 
443.341187 38631.0 
461.124329 16140.0 
469.286621 3460.0 
END IONS

BEGIN IONS
NAME="N-(2,4-dichlorophenyl)-2-[6-hydroxy-2-(4-methoxyphenyl)-3-azabicyclo[4.4.0]dec -3-yl]acetamide CollisionEnergy:102040" M+H
PRECURSOR_MZ=463.155
INCHI="InChI=1S/C24H28Cl2N2O3/c1-31-18-8-5-16(6-9-18)23-19-4-2-3-11-24(19,30)12-13-28(23)15-22(29)27-21-10-7-17(25)14-20(21)26/h5-10,14,19,23,30H,2-4,11-13,15H2,1H3,(H,27,29)"
SMILES=COc1ccc(C2C3CCCCC3(O)CCN2CC(O)=Nc2ccc(Cl)cc2Cl)cc1
SPECTRUMID=CCMSLIB00010108893
51.241131 3236.0 
56.04998 326042.0 
64.587914 3305.0 
67.054657 98209.0 
70.029099 7770.0 
73.964813 4124.0 
79.054329 5666.0 
81.070068 19576.0 
84.044518 23094.0 
84.873451 3428.0 
91.054237 13245.0 
92.391258 3944.0 
93.069687 6458.0 
107.085152 5579.0 
109.101089 85191.0 
119.085487 6608.0 
121.064789 553044.0 
134.097458 3910.0 
135.08017 19185.0 
137.059967 38785.0 
147.080276 114726.0 
148.075882 35134.0 
148.111877 3899.0 
159.080719 53060.0 
161.059387 6743.0 
161.986435 23708.0 
171.079971 16190.0 
173.096283 56644.0 
173.987198 1603424.0 
188.002655 62817.0 
189.053864 6569.0 
199.112946 4092.0 
201.127899 24807.0 
213.126968 5356.0 
214.123032 5974.0 
215.142899 208617.0 
216.270828 3233.0 
219.008606 215506.0 
224.380783 3194.0 
227.142731 95236.0 
231.008484 1055066.0 
232.168808 6696.0 
242.154266 16220.0 
243.161575 8242.0 
245.024109 988005.0 
247.021652 3765.0 
248.268005 3568.0 
253.601517 3383.0 
256.169159 98862.0 
256.198639 4430.0 
274.179932 33515.0 
275.138733 7598.0 
337.049194 60861.0 
337.090271 6046.0 
349.234161 3615.0 
430.243256 4523.0 
445.143951 1551708.0 
463.154449 4211623.0 
465.746674 3778.0 
END IONS

BEGIN IONS
NAME="3,4-dimethoxyphenyl 3,5-dimethylpyrazolyl ketone CollisionEnergy:205060" M+Na
PRECURSOR_MZ=283.105
INCHI="InChI=1S/C14H16N2O3/c1-9-7-10(2)16(15-9)14(17)11-5-6-12(18-3)13(8-11)19-4/h5-8H,1-4H3"
SMILES=COc1ccc(C(=O)n2nc(C)cc2C)cc1OC
SPECTRUMID=CCMSLIB00010116816
53.228489 2394.0 
69.07061 2532.0 
71.349426 2526.0 
73.958107 2301.0 
82.403816 3048.0 
98.984413 21163.0 
104.293373 2223.0 
109.100952 14539.0 
128.279633 2318.0 
135.727859 2439.0 
137.096054 3670.0 
137.528229 2387.0 
208.88353 3353.0 
247.16954 3185.0 
265.179108 3218.0 
283.105255 848051.0 
END IONS

BEGIN IONS
NAME=[4-(difluoromethoxy)-3-ethoxyphenyl]-N-(1-methylpyrazol-3-yl)carboxamide CollisionEnergy:205060 M+Na
PRECURSOR_MZ=334.097
INCHI="InChI=1S/C14H15F2N3O3/c1-3-21-11-8-9(4-5-10(11)22-14(15)16)13(20)17-12-6-7-19(2)18-12/h4-8,14H,3H2,1-2H3,(H,17,18,20)"
SMILES=CCOc1cc(C(=O)N=c2ccn(C)[nH]2)ccc1OC(F)F
SPECTRUMID=CCMSLIB00010114765
71.602226 2882.0 
82.394943 3430.0 
83.008347 2290.0 
84.669342 2338.0 
84.960007 3361.0 
92.083191 2400.0 
138.521652 2422.0 
140.62085 2352.0 
211.368515 4002.0 
231.229004 2272.0 
260.235077 2610.0 
314.089783 4639.0 
334.097046 1397641.0 
336.071594 2482.0 
END IONS

BEGIN IONS
NAME=3-(4-bromophenyl)-7-hydroxychromen-2-one CollisionEnergy:205060 M+H
PRECURSOR_MZ=316.981
INCHI="InChI=1S/C15H9BrO3/c16-11-4-1-9(2-5-11)13-7-10-3-6-12(17)8-14(10)19-15(13)18/h1-8,17H"
SMILES=O=c1oc2cc(O)ccc2cc1-c1ccc(Br)cc1
SPECTRUMID=CCMSLIB00010120311
59.428589 2860.0 
99.776581 3092.0 
114.200768 3107.0 
153.069855 47408.0 
154.077393 34945.0 
165.069626 27476.0 
168.057404 4371.0 
179.995865 4777.0 
181.064545 166780.0 
182.072052 73381.0 
194.072311 12895.0 
197.759201 2872.0 
209.059494 6431.0 
210.067245 3253634.0 
237.054352 55785.0 
238.061935 1263516.0 
260.990845 50747.0 
288.981323 13618.0 
316.980072 1787886.0 
317.323334 4189.0 
END IONS

BEGIN IONS
NAME="N-{4-[(2E)-3-(3,4-dimethoxyphenyl)prop-2-enoyl]phenyl}acetamide CollisionEnergy:102040" M+H
PRECURSOR_MZ=326.139
INCHI="InChI=1S/C19H19NO4/c1-13(21)20-16-8-6-15(7-9-16)17(22)10-4-14-5-11-18(23-2)19(12-14)24-3/h4-12H,1-3H3,(H,20,21)/b10-4+"
SMILES=COc1ccc(C=CC(=O)c2ccc(N=C(C)O)cc2)cc1OC
SPECTRUMID=CCMSLIB00010110328
56.96389 7017.0 
61.03426 7230.0 
65.039101 14412.0 
66.747871 10594.0 
72.191803 7137.0 
79.054649 7690.0 
81.033798 50329.0 
82.407127 8521.0 
91.054207 11951.0 
92.04966 14696.0 
94.065086 8457.0 
98.060364 8468.0 
103.05423 14638.0 
104.290489 7958.0 
105.069847 44524.0 
106.06514 87538.0 
107.049347 18094.0 
118.065048 33365.0 
118.661812 10551.0 
119.049393 15102.0 
120.044273 2716552.0 
121.028221 911794.0 
124.051979 48494.0 
127.855797 7544.0 
130.065247 10740.0 
131.049667 12322.0 
132.056824 17561.0 
133.064957 64763.0 
135.080002 44009.0 
136.075317 54424.0 
136.221359 9816.0 
137.05954 14398.0 
139.075317 131501.0 
146.05983 3833638.0 
147.043823 612645.0 
147.054169 20039.0 
148.051804 141061.0 
148.0755 51409.0 
149.059525 13833.0 
154.589767 8047.0 
159.043976 44707.0 
159.091904 41681.0 
160.051727 119727.0 
160.075577 33065.0 
161.059952 35994.0 
162.054672 2389575.0 
163.075058 963055.0 
165.054611 31275.0 
167.070297 43013.0 
176.04657 275669.0 
177.054855 9784.0 
179.35408 8493.0 
182.096558 16867.0 
187.085114 10117.0 
188.070328 6047703.0 
191.069901 8301175.0 
201.101227 99656.0 
210.090759 45746.0 
210.480865 8068.0 
212.063782 7592.0 
222.090698 30275.0 
223.099136 12316.0 
224.084885 8674.0 
224.107239 57652.0 
226.053726 7643.0 
229.096283 99254.0 
241.108887 10060.0 
242.117157 47627.0 
251.093002 53818.0 
252.101135 40407.0 
253.083099 11127.0 
256.134003 16309.0 
264.10321 10031.0 
266.116974 229746.0 
266.146576 11735.0 
267.099731 18597.0 
268.096527 17869.0 
269.105499 29985.0 
283.11969 52124.0 
284.12738 1347938.0 
285.108734 131414.0 
293.103485 16591.0 
294.112732 63979.0 
295.118683 32810.0 
296.093048 18296.0 
308.126526 110853.0 
310.106964 17805.0 
311.11319 73914.0 
324.622498 10846.0 
326.137787 29027436.0 
327.664642 11962.0 
END IONS

BEGIN IONS
NAME="1-{[(5-aminonaphthyl)amino]methylene}-7-(8-{[(5-aminonaphthyl)amino]methylene} -1,6-dihydroxy-3-methyl-5-(methylethyl)-7-oxo(2-naphthyl))-3,8-dihydroxy-6-met hyl-4-(methylethyl)naphthalen-2-one CollisionEnergy:102040" M-H
PRECURSOR_MZ=797.334
INCHI="InChI=1S/C50H46N4O6/c1-23(2)39-31-19-25(5)41(47(57)43(31)33(45(55)49(39)59)21-53-37-17-9-11-27-29(37)13-7-15-35(27)51)42-26(6)20-32-40(24(3)4)50(60)46(56)34(44(32)48(42)58)22-54-38-18-10-12-28-30(38)14-8-16-36(28)52/h7-24,53-54,57-60H,51-52H2,1-6H3/b33-21-,34-22-"
SMILES=Cc1cc2c(c(O)c1-c1c(C)cc3c(c1O)C(=CNc1cccc4c(N)cccc14)C(=O)C(O)=C3C(C)C)C(=CNc1cccc3c(N)cccc13)C(=O)C(O)=C2C(C)C
SPECTRUMID=CCMSLIB00010114490
66.743187 3759.0 
86.655067 3007.0 
104.286217 4438.0 
141.845963 3211.0 
157.077454 59660.0 
157.96814 3518.0 
159.821259 3712.0 
168.789917 3288.0 
185.396759 4015.0 
200.577972 3264.0 
301.431793 3312.0 
329.046082 4545.0 
364.320251 3947.0 
481.166229 41717.0 
639.24939 75037.0 
796.979309 5881.0 
797.33551 159163.0 
END IONS

BEGIN IONS
NAME="2-phenylethyl 4-(3-ethoxy-4-hydroxyphenyl)-7-(4-methoxyphenyl)-2-methyl-5-oxo- 1,4,6,7,8-pentahydroquinoline-3-carboxylate CollisionEnergy:205060" M-H
PRECURSOR_MZ=552.239
INCHI="InChI=1S/C34H35NO6/c1-4-40-30-20-24(12-15-28(30)36)32-31(34(38)41-17-16-22-8-6-5-7-9-22)21(2)35-27-18-25(19-29(37)33(27)32)23-10-13-26(39-3)14-11-23/h5-15,20,25,32,35-36H,4,16-19H2,1-3H3"
SMILES=CCOc1cc(C2C(C(=O)OCCc3ccccc3)=C(C)NC3=C2C(=O)CC(c2ccc(OC)cc2)C3)ccc1O
SPECTRUMID=CCMSLIB00010120438
64.953781 3098.0 
65.002907 31990.0 
67.018669 13515.0 
69.831902 2888.0 
73.914574 3361.0 
83.013748 14875.0 
91.018944 62887.0 
95.013779 33895.0 
98.796631 3465.0 
106.066277 24804.0 
108.021843 148952.0 
109.029587 384098.0 
111.008957 63518.0 
119.050377 18094.0 
123.008904 36260.0 
124.016747 95985.0 
137.060944 125267.0 
139.004227 21675.0 
144.04628 3530.0 
158.061401 36356.0 
160.040375 12437.0 
176.955841 3454.0 
182.833252 3041.0 
211.064041 6109.0 
212.071869 3457.0 
221.649094 3069.0 
222.09259 13888.0 
236.072144 31294.0 
236.107498 6659.0 
239.058228 25511.0 
240.067871 11876.0 
242.119751 2998.0 
248.07225 3114.0 
248.107574 3350.0 
250.087921 71077.0 
251.095871 107291.0 
252.102646 13581.0 
256.0625 11636.0 
264.103394 24374.0 
266.119049 293140.0 
276.065338 3307.0 
280.061737 5833.0 
280.098694 4081.0 
283.085205 28593.0 
310.109711 20761.0 
340.096832 7546.0 
341.10498 6789.0 
342.112061 5129.0 
356.12912 15117.0 
357.101837 14728.0 
358.10907 40038.0 
359.116516 63858.0 
360.125092 59218.0 
371.082306 5501.0 
372.124084 47195.0 
374.089844 5773.0 
374.140686 124878.0 
384.127075 25058.0 
385.094971 23671.0 
386.101624 22112.0 
398.140198 5584.0 
400.119659 62173.0 
404.187378 3751.0 
414.171417 15193.0 
448.177246 14996.0 
508.172485 5128.0 
523.199768 13170.0 
552.240295 1339343.0 
576.253967 4031.0 
END IONS

BEGIN IONS
NAME="3-(phenylsulfonyl)-1-(2-1,2,3,4-tetrahydroisoquinolyl)propan-1-one CollisionEnergy:102040" M+Na
PRECURSOR_MZ=352.098
INCHI="InChI=1S/C18H19NO3S/c20-18(11-13-23(21,22)17-8-2-1-3-9-17)19-12-10-15-6-4-5-7-16(15)14-19/h1-9H,10-14H2"
SMILES=O=C(CCS(=O)(=O)c1ccccc1)N1CCc2ccccc2C1
SPECTRUMID=CCMSLIB00010106256
58.2127 3118.0 
63.98056 3215.0 
73.962059 4085.0 
84.494873 3883.0 
92.391647 4042.0 
103.708427 3947.0 
104.297974 4161.0 
128.156219 3790.0 
160.076111 6454.0 
164.997849 8732.0 
188.106674 43092.0 
209.730072 5262.0 
209.75177 12099.0 
210.08876 117790.0 
211.097244 9549.0 
214.788666 4411.0 
312.926941 4158.0 
350.400391 8477.0 
352.096954 16412548.0 
353.806946 8040.0 
370.102997 4263.0 
END IONS

BEGIN IONS
NAME="1-(2H-benzo[3,4-d]1,3-dioxolan-5-yl)-3-[(4-chlorophenyl)amino]-3-(4-ethylpheny l)propan-1-one CollisionEnergy:102040" M-e
PRECURSOR_MZ=407.128
INCHI="InChI=1S/C24H22ClNO3/c1-2-16-3-5-17(6-4-16)21(26-20-10-8-19(25)9-11-20)14-22(27)18-7-12-23-24(13-18)29-15-28-23/h3-13,21,26H,2,14-15H2,1H3"
SMILES=CCc1ccc(C(CC(=O)c2ccc3c(c2)OCO3)Nc2ccc(Cl)cc2)cc1
SPECTRUMID=CCMSLIB00010104286
63.50975 2625.0 
104.28923 2967.0 
118.659492 3254.0 
124.889359 2352.0 
127.018356 6074.0 
129.009003 2337.0 
130.082169 2912.0 
133.757462 2595.0 
135.306229 2162.0 
138.010239 11009.0 
138.994217 2893.0 
149.00943 4039.0 
149.023193 125015.0 
150.026199 19026.0 
168.189194 2802.0 
185.40181 2511.0 
243.079269 3084.0 
243.106903 3119.0 
244.088303 715527.0 
254.117126 41718.0 
407.125092 76219.0 
407.238617 4091.0 
END IONS

BEGIN IONS
NAME=N-(3-methylthiophenyl)-2-[2-oxo-4-(pyrrolidinylcarbonyl)hydroquinolyl]acetamid e CollisionEnergy:205060 M+Na
PRECURSOR_MZ=444.135
INCHI="InChI=1S/C23H23N3O3S/c1-30-17-8-6-7-16(13-17)24-21(27)15-26-20-10-3-2-9-18(20)19(14-22(26)28)23(29)25-11-4-5-12-25/h2-3,6-10,13-14H,4-5,11-12,15H2,1H3,(H,24,27)"
SMILES=CSc1cccc(N=C(O)Cn2c(=O)cc(C(=O)N3CCCC3)c3ccccc32)c1
SPECTRUMID=CCMSLIB00010124750
53.21883 3274.0 
53.849258 2920.0 
54.15535 2863.0 
64.257103 2572.0 
84.081253 3552.0 
92.366203 3355.0 
100.153542 3455.0 
128.048538 3240.0 
150.639297 2613.0 
208.557571 6214.0 
216.641312 2772.0 
219.721436 3285.0 
257.422974 2766.0 
264.012146 2924.0 
283.108948 3252.0 
426.125 25113.0 
444.134644 2904615.0 
END IONS

BEGIN IONS
NAME=beta-Lapachone CollisionEnergy:205060 M+H
PRECURSOR_MZ=243.102
INCHI="InChI=1S/C15H14O3/c1-15(2)8-7-11-13(17)12(16)9-5-3-4-6-10(9)14(11)18-15/h3-6H,7-8H2,1-2H3"
SMILES=CC1(C)CCC2=C(O1)c1ccccc1C(=O)C2=O
SPECTRUMID=CCMSLIB00010118403
50.464081 3194.0 
54.737289 2667.0 
57.070641 3166.0 
71.049362 4308.0 
73.991386 2874.0 
81.07019 23020.0 
87.75473 2747.0 
92.378082 4072.0 
103.054192 40717.0 
104.284843 3301.0 
105.033447 90456.0 
117.069237 3086.0 
129.069778 3595.0 
131.049088 65081.0 
133.02832 68694.0 
141.07016 13944.0 
145.064301 11132.0 
147.044388 11158.0 
149.023285 3998.0 
153.06958 19653.0 
153.468323 3191.0 
155.048981 135326.0 
155.085419 21368.0 
157.064972 38338.0 
159.044037 1554073.0 
163.03978 3987.0 
165.069824 10920.0 
166.077972 6536.0 
167.085587 4539.0 
169.101028 20671.0 
173.059464 45776.0 
178.077911 5796.0 
179.085251 75944.0 
181.064957 42762.0 
182.072586 12603.0 
183.043945 364171.0 
183.080475 81211.0 
185.059753 14780.0 
186.173843 3081.0 
187.038864 2435644.0 
192.086212 2961.0 
197.059265 12160.0 
197.095978 86493.0 
199.075089 17165.0 
200.046661 14313.0 
201.054459 234101.0 
201.089264 10104.0 
205.049316 93598.0 
207.080597 46921.0 
208.087494 5552.0 
210.06723 35748.0 
214.061829 24154.0 
215.105362 8238.0 
225.090805 317760.0 
228.079468 28546.0 
243.101303 2022402.0 
272.236511 2891.0 
306.849701 2779.0 
317.229004 2974.0 
END IONS

BEGIN IONS
NAME=2-methoxyethyl 5-hydroxy-1-[2-(3-methoxyphenoxy)ethyl]-2-methylbenzo[g]indole- 3-carboxylate CollisionEnergy:205060 M+formate
PRECURSOR_MZ=494.182
INCHI="InChI=1S/C26H27NO6/c1-17-24(26(29)33-14-13-30-2)22-16-23(28)20-9-4-5-10-21(20)25(22)27(17)11-12-32-19-8-6-7-18(15-19)31-3/h4-10,15-16,28H,11-14H2,1-3H3"
SMILES=COCCOC(=O)c1c(C)n(CCOc2cccc(OC)c2)c2c1cc(O)c1ccccc12
SPECTRUMID=CCMSLIB00010122880
90.24913 2747.0 
92.392693 2858.0 
101.857681 2819.0 
123.045448 3700.0 
124.876282 2677.0 
133.214493 2343.0 
147.16716 3018.0 
163.606323 2606.0 
181.170898 3115.0 
182.459015 2582.0 
194.061356 34532.0 
195.069 12341.0 
222.056229 3179.0 
238.051117 15446.0 
239.058746 4116.0 
266.082367 3654.0 
297.100891 47438.0 
388.326569 2460.0 
448.17688 43693.0 
END IONS

BEGIN IONS
NAME="8-{[2-(4-ethoxy-3-methoxyphenyl)-5-methyl(1,3-oxazol-4-yl)]methylthio}-2,9-dim ethylhydropurin-6-one CollisionEnergy:102040" M+Na
PRECURSOR_MZ=464.136
INCHI="InChI=1S/C21H23N5O4S/c1-6-29-15-8-7-13(9-16(15)28-5)20-24-14(11(2)30-20)10-31-21-25-17-18(26(21)4)22-12(3)23-19(17)27/h7-9H,6,10H2,1-5H3,(H,22,23,27)"
SMILES=CCOc1ccc(-c2nc(CSc3nc4c(O)nc(C)nc4n3C)c(C)o2)cc1OC
SPECTRUMID=CCMSLIB00010110656
79.531769 3209.0 
87.200737 2761.0 
104.270569 4420.0 
105.069321 4025.0 
117.948372 2832.0 
126.765862 2859.0 
149.05867 3422.0 
150.054672 48992.0 
157.951263 4064.0 
178.086258 60810.0 
211.523987 3775.0 
218.0233 98995.0 
218.080948 154193.0 
219.030899 438781.0 
246.112152 937195.0 
398.21347 3321.0 
434.088257 6087.0 
464.135803 3853701.0 
END IONS

BEGIN IONS
NAME=Jasmonoyl-S-Isoleucine CollisionEnergy:205060 2M-H
PRECURSOR_MZ=645.412
INCHI="InChI=1S/C18H29NO4/c1-4-6-7-8-14-13(9-10-15(14)20)11-16(21)19-17(18(22)23)12(3)5-2/h6-7,12-14,17H,4-5,8-11H2,1-3H3,(H,19,21)(H,22,23)/b7-6-/t12-,13-,14-,17-/m0/s1"
SMILES=CC/C=C\C[C@H]1[C@@H](CCC1=O)CC(=O)N[C@@H]([C@@H](C)CC)C(=O)O
SPECTRUMID=CCMSLIB00010102001
56.992657 67451.867188 
58.029408 551629.9375 
58.538948 73881.109375 
66.780289 95070.1875 
68.744789 64308.890625 
94.221756 76427.054688 
102.808983 70398.328125 
104.344604 89418.523438 
109.065933 133458.84375 
114.77298 70459.578125 
127.869774 69843.546875 
128.108154 1785763.125 
130.087402 21394640.0 
172.097855 545188.4375 
322.202637 24394960.0 
323.207336 92054.554688 
END IONS

BEGIN IONS
NAME=6-oxoheptadecanedioic acid CollisionEnergy:205060 M+H
PRECURSOR_MZ=315.217
INCHI="InChI=1S/C17H30O5/c18-15(12-9-10-14-17(21)22)11-7-5-3-1-2-4-6-8-13-16(19)20/h1-14H2,(H,19,20)(H,21,22)"
SMILES=O=C(O)CCCCCCCCCCC(=O)CCCCC(=O)O
SPECTRUMID=CCMSLIB00010117421
50.440109 2540.0 
53.03923 5438.0 
55.018311 3318.0 
55.054779 49714.0 
57.0704 15055.0 
65.038986 39379.0 
67.054672 1278581.0 
69.033928 4525.0 
69.07029 119728.0 
71.04953 13604.0 
73.065063 2674.0 
73.301392 2771.0 
73.947739 3867.0 
73.95211 3319.0 
78.015404 2763.0 
78.343681 2762.0 
79.054558 137685.0 
81.070183 932735.0 
83.049461 15411.0 
83.085823 93522.0 
85.065117 20748.0 
91.054398 145332.0 
93.070038 163743.0 
95.049187 14109.0 
95.085678 920256.0 
97.064941 24956.0 
97.101349 56285.0 
98.406738 2937.0 
99.044083 3414.0 
99.080368 6147.0 
101.060081 4590.0 
105.069893 72089.0 
107.085533 119422.0 
109.065071 7077.0 
109.101212 335481.0 
111.044037 7019.0 
111.080551 20760.0 
111.11702 16325.0 
117.070183 17609.0 
119.085426 106886.0 
121.064888 3593.0 
121.101151 99735.0 
123.080673 17986.0 
123.116753 118896.0 
125.096367 6788.0 
125.133163 3450.0 
127.074898 4572.0 
131.085526 55623.0 
133.101242 138791.0 
135.080292 15898.0 
135.11673 101100.0 
137.095993 57293.0 
137.132736 43307.0 
143.0858 4626.0 
145.101151 42630.0 
147.117035 44240.0 
149.09639 14771.0 
149.132751 43805.0 
151.111771 65338.0 
151.148376 11667.0 
155.107086 24117.0 
157.101013 4575.0 
159.116669 35972.0 
161.096283 4191.0 
161.132767 4191.0 
162.421143 3530.0 
163.111786 27603.0 
165.127441 14113.0 
169.100372 4482.0 
169.122162 27121.0 
171.114777 3085.0 
173.132492 20113.0 
175.112396 3160.0 
177.127563 18177.0 
179.142197 3764.0 
181.122665 6735.0 
183.116211 6803.0 
187.148804 5520.0 
191.142426 5112.0 
191.179825 4940.0 
195.137741 29784.0 
199.486084 2790.0 
205.195175 5840.0 
209.153687 6018.0 
215.179398 124446.0 
217.195297 20113.0 
225.163513 19328.0 
233.189957 124479.0 
235.205704 27163.0 
243.173233 21958.0 
251.200409 1216822.0 
261.184845 116725.0 
279.19516 118703.0 
297.205597 210719.0 
328.266388 3440.0 
334.718292 3008.0 
END IONS

BEGIN IONS
NAME="methyl 2-{2-[(4-methoxyphenyl)methylene]-3-oxobenzo[3,4-b]furan-6-yloxy}acetat e CollisionEnergy:102040" M+H
PRECURSOR_MZ=341.102
INCHI="InChI=1S/C19H16O6/c1-22-13-5-3-12(4-6-13)9-17-19(21)15-8-7-14(10-16(15)25-17)24-11-18(20)23-2/h3-10H,11H2,1-2H3/b17-9-"
SMILES=COC(=O)COc1ccc2c(c1)OC(=Cc1ccc(OC)cc1)C2=O
SPECTRUMID=CCMSLIB00010111992
56.073921 3098.0 
63.17487 2843.0 
66.753242 3092.0 
82.402397 2488.0 
87.668404 2608.0 
91.054077 6695.0 
107.04908 11224.0 
116.106583 3068.0 
118.041183 14595.0 
133.064651 4687.0 
171.314713 3507.0 
179.069366 5604.0 
182.07254 5300.0 
197.09581 107552.0 
200.145721 3235.0 
208.035629 6530.0 
209.043777 37988.0 
212.08287 5472.0 
225.054611 4107.0 
225.090027 19905.0 
226.046692 32572.0 
235.05928 12023.0 
236.045807 4825.0 
239.069214 27678.0 
240.07753 81895.0 
251.068954 5536.0 
253.048874 39897.0 
253.084885 19648.0 
268.072571 797646.0 
269.081116 3247.0 
281.080414 30156.0 
282.08786 6154.0 
285.111908 69101.0 
298.080109 5963.0 
309.075043 55856.0 
313.104156 4296.0 
325.070374 27452.0 
326.078552 62895.0 
341.10144 4889036.0 
END IONS

BEGIN IONS
NAME=GA34 CollisionEnergy:102040 2M-2H+Na
PRECURSOR_MZ=717.289
INCHI="InChI=1S/C19H24O6/c1-8-5-18-6-9(8)3-4-11(18)19-7-10(20)14(21)17(2,16(24)25-19)13(19)12(18)15(22)23/h9-14,20-21H,1,3-7H2,2H3,(H,22,23)/t9-,10+,11-,12-,13-,14+,17+,18+,19-/m1/s1"
SMILES=C[C@]12[C@H]3[C@@H]([C@@]45C[C@@H](CC[C@H]4[C@@]3(C[C@@H]([C@@H]1O)O)OC2=O)C(=C)C5)C(=O)O
SPECTRUMID=CCMSLIB00010102033
50.537853 4409.913086 
58.005585 93529.351562 
58.008698 9330.204102 
59.013363 12207.28125 
67.533325 4402.466309 
72.39473 4666.087891 
99.687683 5087.992188 
131.393616 6170.92041 
136.952179 4465.150879 
149.169891 4643.127441 
199.11377 7222.833984 
199.149338 66464.351562 
223.148636 9908.446289 
227.144394 8167.421387 
237.128494 20613.396484 
239.144043 95266.515625 
240.114548 6659.099121 
241.159256 71155.132812 
255.139526 58326.539062 
259.170227 353746.21875 
267.140503 4994.944824 
285.14917 9089.068359 
307.132416 13141.870117 
321.111816 14571.293945 
325.143158 14973.385742 
347.149719 180156.921875 
369.130646 66777.679688 
717.289246 1728253.0 
718.292542 11494.25 
END IONS

BEGIN IONS
NAME=puromycin CollisionEnergy:102040 M+H
PRECURSOR_MZ=472.23
INCHI="InChI=1S/C22H29N7O5/c1-28(2)19-17-20(25-10-24-19)29(11-26-17)22-18(31)16(15(9-30)34-22)27-21(32)14(23)8-12-4-6-13(33-3)7-5-12/h4-7,10-11,14-16,18,22,30-31H,8-9,23H2,1-3H3,(H,27,32)/t14-,15+,16+,18+,22+/m0/s1"
SMILES=COc1ccc(CC(N)C(O)=NC2C(CO)OC(n3cnc4c(N(C)C)ncnc43)C2O)cc1
SPECTRUMID=CCMSLIB00010109066
66.739632 4391.0 
69.033813 23733.0 
72.044617 7672.0 
74.546188 2973.0 
84.044601 21596.0 
86.060173 6432.0 
90.055077 4840.0 
96.044441 6406.0 
97.028229 54167.0 
100.039223 4730.0 
114.054733 8093.0 
115.039383 4412.0 
121.064468 59422.0 
124.039169 24876.0 
132.065155 13712.0 
135.0802 4960.0 
142.049911 40676.0 
150.091217 1666827.0 
160.060196 252270.0 
161.059616 7881.0 
164.092911 1080939.0 
178.085754 6522.0 
178.391403 3302.0 
178.411758 3002.0 
182.490875 2994.0 
188.078079 5863.0 
192.102417 6056.0 
215.90773 3481.0 
232.096466 13595.0 
264.123749 7978.0 
274.105255 3576.0 
281.149902 16281.0 
291.133453 22000.0 
292.11734 57102.0 
301.006226 3767.0 
309.143677 1886608.0 
422.397949 3739.0 
454.219635 17692.0 
472.229431 2312325.0 
END IONS

BEGIN IONS
NAME="(1,2,9,10-tetramethoxy-6-methyl-5,6,6a,7-tetrahydro-4H-dibenzo[de,g]quinolin-3-yl)methanol CollisionEnergy:102040" M+H-H2O
PRECURSOR_MZ=368.186
INCHI="InChI=1S/C22H27NO5/c1-23-7-6-13-15(11-24)21(27-4)22(28-5)20-14-10-18(26-3)17(25-2)9-12(14)8-16(23)19(13)20/h9-10,16,24H,6-8,11H2,1-5H3"
SMILES=COc1cc2c(cc1OC)-c1c(OC)c(OC)c(CO)c3c1C(C2)N(C)CC3
SPECTRUMID=CCMSLIB00010104214
75.044296 6611.0 
82.392464 5146.0 
104.276283 5906.0 
105.672722 5672.0 
147.566879 5222.0 
250.09613 6086.0 
251.10614 52941.0 
261.089966 8060.0 
262.095947 8023.0 
263.105408 57219.0 
264.112701 33616.0 
265.089569 8134.0 
265.121704 30568.0 
267.101807 21326.0 
268.105957 5800.0 
276.112152 7466.0 
277.085999 16509.0 
277.11734 6574.0 
278.089905 10325.0 
278.126221 10798.0 
279.101166 375425.0 
280.108978 37586.0 
281.07962 7019.0 
281.117279 9322.0 
282.124512 130819.0 
290.11731 38426.0 
291.099854 164686.0 
292.105988 68548.0 
293.115875 161434.0 
293.175171 5358.0 
294.124298 1322916.0 
295.096497 336566.0 
295.131409 54797.0 
296.106262 40984.0 
296.136597 7794.0 
297.112152 23811.0 
304.134308 15133.0 
305.141205 274720.0 
306.123993 894625.0 
307.09494 227652.0 
307.132324 66773.0 
308.139862 871012.0 
308.171082 12086.0 
308.181702 6949.0 
309.110626 89808.0 
309.147858 77058.0 
310.11908 1493112.0 
311.128143 35484.0 
312.136169 22836.0 
320.13089 57410.0 
321.136108 126292.0 
322.116394 369533.0 
323.126709 10002.0 
324.134521 147545.0 
325.1427 3833653.0 
334.14035 31235.0 
336.158905 394777.0 
337.141296 1236845.0 
338.137512 176242.0 
339.158112 327567.0 
339.205505 9468.0 
350.140198 6967.0 
351.155823 18374.0 
352.153564 131098.0 
353.160645 183010.0 
366.167542 29678.0 
366.363525 24532.0 
368.184967 22930598.0 
370.018463 22317.0 
END IONS

BEGIN IONS
NAME=N-Acetyl-D-tryptophan CollisionEnergy:205060 M+H
PRECURSOR_MZ=247.108
INCHI="InChI=1S/C13H14N2O3/c1-8(16)15-12(13(17)18)6-9-7-14-11-5-3-2-4-10(9)11/h2-5,7,12,14H,6H2,1H3,(H,15,16)(H,17,18)/t12-/m1/s1"
SMILES=CC(O)=NC(Cc1c[nH]c2ccccc12)C(=O)O
SPECTRUMID=CCMSLIB00010121090
59.275982 87812.0 
66.746941 86326.0 
88.039963 296874.0 
104.296623 70691.0 
115.054489 182764.0 
117.07019 100766.0 
118.065392 1688831.0 
130.065231 5065871.0 
132.080933 4028167.0 
142.065201 922407.0 
143.073257 319181.0 
144.080719 1645563.0 
146.060059 7359598.0 
156.081329 108638.0 
158.084167 334923.0 
159.091736 12145598.0 
160.062714 76004.0 
160.075577 701928.0 
169.076187 439994.0 
170.060104 2875273.0 
170.076248 157652.0 
183.09169 109343.0 
184.076035 421801.0 
187.086609 1157966.0 
188.070602 7538106.0 
201.102249 7009380.0 
205.097076 2682449.0 
211.087189 96801.0 
229.097641 1185317.0 
247.108047 866373.0 
END IONS

BEGIN IONS
NAME="2,2,2-trifluoroethyl 6-(3-ethoxy-4-hydroxyphenyl)-4-methyl-2-oxo-1,3,6-trihydr opyrimidine-5-carboxylate CollisionEnergy:102040" M-H
PRECURSOR_MZ=373.102
INCHI="InChI=1S/C16H17F3N2O5/c1-3-25-11-6-9(4-5-10(11)22)13-12(8(2)20-15(24)21-13)14(23)26-7-16(17,18)19/h4-6,13,22H,3,7H2,1-2H3,(H2,20,21,24)"
SMILES=CCOc1cc(C2NC(O)=NC(C)=C2C(=O)OCC(F)(F)F)ccc1O
SPECTRUMID=CCMSLIB00010109608
68.924301 2729.0 
68.995377 14310.0 
69.112 2561.0 
73.954521 3178.0 
81.378372 2964.0 
92.379677 3175.0 
99.006241 21246.0 
146.961563 4595.0 
151.037766 2634.0 
160.016708 57309.0 
161.024567 4981.0 
165.056076 4289.0 
174.956192 49982.0 
187.07637 4184.0 
188.071609 11597.0 
189.056 863058.0 
201.043167 13436.0 
202.050476 13315.0 
209.82254 5307.0 
216.055084 23054.0 
227.04631 28549.0 
230.082703 69650.0 
235.033142 2938.0 
242.98761 2934.0 
243.041489 61615.0 
244.049026 88475.0 
245.058136 2847.0 
273.088318 217952.0 
284.053436 10934.0 
286.032654 4147.0 
300.048981 45397.0 
301.058105 4711.0 
302.064545 3182.0 
304.914368 99356.0 
328.984985 2530.0 
330.0961 282480.0 
373.101868 1025381.0 
516.179626 2874.0 
559.756042 2915.0 
673.721252 3080.0 
END IONS

BEGIN IONS
NAME=CCG-208577 CollisionEnergy:102040 M+H
PRECURSOR_MZ=409.149
INCHI="InChI=1S/C20H24O9/c1-7-12(22)26-10-6-17-9-5-8(16(2,3)4)18(17)11(21)13(23)28-15(18)29-20(17,14(24)27-9)19(7,10)25/h7-11,15,21,25H,5-6H2,1-4H3/t7-,8+,9?,10+,11+,15-,17-,18+,19-,20?/m1/s1"
SMILES=CC1C(=O)OC2CC34C5CC(C(C)(C)C)C36C(OC(=O)C6O)OC4(C(=O)O5)C21O
SPECTRUMID=CCMSLIB00010111154
55.054539 4307.0 
57.070309 46219.0 
59.04953 14482.0 
62.021111 3236.0 
66.746674 3626.0 
67.054619 5446.0 
69.03376 22402.0 
69.070328 25996.0 
79.054459 5815.0 
81.070091 7833.0 
83.012909 30109.0 
83.049606 8610.0 
83.085533 22602.0 
88.853256 3097.0 
91.05452 4971.0 
92.38401 6058.0 
92.483429 3247.0 
93.069992 13026.0 
95.049507 4135.0 
95.085663 94454.0 
97.028343 4186.0 
97.064636 19340.0 
99.080231 15500.0 
101.023354 7571.0 
105.069733 13326.0 
107.04892 19762.0 
107.085281 8321.0 
109.064438 4123.0 
111.080307 58886.0 
113.023628 5123.0 
113.096046 153827.0 
119.085373 23301.0 
121.06485 5928.0 
121.100906 14116.0 
123.08046 15422.0 
127.038849 6937.0 
127.566063 4322.0 
129.06987 4798.0 
131.08519 16643.0 
133.064972 14968.0 
133.101288 6932.0 
133.567093 3441.0 
135.044281 5150.0 
135.080368 7404.0 
143.034225 12649.0 
143.085922 26821.0 
145.064819 16626.0 
145.101334 29095.0 
146.900818 3900.0 
147.044342 6828.0 
147.080215 20860.0 
147.116653 12825.0 
149.060104 4316.0 
155.085251 8394.0 
157.065216 7684.0 
157.101288 71236.0 
159.080276 32810.0 
159.116699 34328.0 
161.05925 21121.0 
161.095963 21443.0 
163.038376 7521.0 
163.074768 5058.0 
165.054352 3917.0 
165.091171 4610.0 
167.085449 5211.0 
169.063751 6065.0 
169.101273 25370.0 
171.080399 34292.0 
171.116516 22902.0 
173.060425 27855.0 
173.095871 62825.0 
173.131897 4069.0 
175.038895 7568.0 
175.076004 31798.0 
175.112274 29003.0 
177.05455 18610.0 
177.127106 5135.0 
179.085846 4007.0 
181.049149 6778.0 
181.100952 17273.0 
183.063339 3717.0 
183.0802 14555.0 
183.117035 16478.0 
185.059387 7218.0 
185.096054 52972.0 
185.132004 5096.0 
187.038513 4302.0 
187.075287 40409.0 
187.111832 69510.0 
189.054504 16335.0 
189.090668 32905.0 
189.127167 5128.0 
191.032974 4098.0 
191.07019 20654.0 
191.106491 4292.0 
193.049347 4357.0 
193.104492 3997.0 
193.122513 23814.0 
194.110107 6251.0 
195.080933 4676.0 
197.096222 46403.0 
197.132172 23811.0 
199.076309 33018.0 
199.111084 49776.0 
199.147476 13178.0 
201.05455 7779.0 
201.091064 70295.0 
201.126663 14233.0 
203.033951 6889.0 
203.069672 28915.0 
203.1064 37084.0 
205.049484 26519.0 
205.085052 5818.0 
207.06514 7160.0 
207.116898 15998.0 
209.095779 22895.0 
209.132126 46649.0 
210.103683 6351.0 
211.075577 16841.0 
211.11116 27016.0 
211.147949 8522.0 
213.054428 8699.0 
213.09082 42722.0 
213.126846 24436.0 
215.07048 26880.0 
215.10643 72249.0 
215.143326 17600.0 
217.049072 14681.0 
217.085281 51386.0 
217.121948 8423.0 
219.065445 5990.0 
219.101212 15210.0 
221.04361 8440.0 
221.080673 21361.0 
225.053131 5486.0 
225.091217 57107.0 
225.126953 69142.0 
227.069885 14837.0 
227.106323 73552.0 
227.142883 79169.0 
229.049286 24753.0 
229.085388 38264.0 
229.122314 25888.0 
229.159302 8109.0 
231.065277 14321.0 
231.10054 17178.0 
233.081024 7721.0 
233.116592 8659.0 
235.114075 26300.0 
237.088699 5390.0 
237.097382 4450.0 
237.127396 95539.0 
239.069077 5454.0 
239.106659 28776.0 
239.142899 22592.0 
241.086319 27614.0 
241.122787 27448.0 
243.067841 24756.0 
243.102768 54767.0 
243.136627 59638.0 
245.080719 34943.0 
245.116745 21631.0 
245.152649 34033.0 
247.059647 32059.0 
247.094284 7435.0 
249.075424 201143.0 
251.056015 7561.0 
253.086121 38995.0 
253.122055 159635.0 
255.102188 26366.0 
255.137772 121338.0 
257.080292 7939.0 
257.116608 21199.0 
257.152191 6317.0 
259.095886 26800.0 
259.130951 6285.0 
261.078094 6024.0 
261.111664 26928.0 
261.148285 13963.0 
263.107483 37955.0 
265.122192 51206.0 
267.13855 5494.0 
269.116943 7537.0 
271.062866 6540.0 
271.096924 35862.0 
271.132446 142556.0 
271.163269 5729.0 
273.078705 6367.0 
273.111816 76900.0 
273.148132 47356.0 
275.05603 8168.0 
275.091736 4207.0 
275.126678 8629.0 
277.071228 4163.0 
277.142914 5636.0 
281.081848 9197.0 
281.116821 171104.0 
281.149628 6393.0 
283.097015 5095.0 
283.132385 129164.0 
283.166138 5082.0 
285.076202 5410.0 
285.111603 7841.0 
285.144745 8862.0 
287.091797 32505.0 
287.124176 5649.0 
289.07312 9393.0 
289.106812 31950.0 
289.143127 98513.0 
291.098785 18549.0 
291.1604 5948.0 
293.11554 4543.0 
299.094971 10647.0 
299.127258 243847.0 
301.106659 20259.0 
301.142517 138631.0 
301.182648 4778.0 
303.086029 20214.0 
303.122589 7868.0 
305.101654 35048.0 
307.117035 22788.0 
309.112183 88580.0 
311.12674 31023.0 
315.122253 24029.0 
317.068634 12331.0 
317.137726 239221.0 
319.112457 8278.0 
319.153412 163511.0 
327.122223 267496.0 
329.137634 126764.0 
331.117126 28659.0 
335.075989 7962.0 
335.148376 75598.0 
337.106598 15479.0 
345.13269 845050.0 
347.148712 179221.0 
355.117462 95828.0 
363.143158 509339.0 
373.127594 297758.0 
381.154144 17747.0 
391.138184 245677.0 
391.260376 14776.0 
409.14859 2047785.0 
409.271637 132142.0 
427.15921 3795502.0 
END IONS

BEGIN IONS
NAME=Isoalantolactone CollisionEnergy:102040 M+H-H2O
PRECURSOR_MZ=215.143
INCHI="InChI=1S/C15H20O2/c1-9-5-4-6-15(3)8-13-11(7-12(9)15)10(2)14(16)17-13/h11-13H,1-2,4-8H2,3H3/t11?,12-,13?,15+/m0/s1"
SMILES=C=C1C(=O)OC2CC3(C)CCCC(=C)C3CC12
SPECTRUMID=CCMSLIB00010112059
53.038879 2606.0 
55.018291 2782.0 
55.05468 4863.0 
55.78154 2272.0 
56.965229 3016.0 
57.070351 3744.0 
57.737171 2586.0 
59.100201 2463.0 
66.737923 2508.0 
67.054573 15898.0 
69.033852 35836.0 
69.07019 18131.0 
71.049179 3473.0 
72.559196 2612.0 
74.096649 11918.0 
79.054237 19758.0 
81.070107 69466.0 
83.04924 5310.0 
84.044182 2573.0 
84.959846 5443.0 
91.054321 21262.0 
93.06987 51207.0 
95.005577 2508.0 
95.049202 10375.0 
95.085518 64266.0 
97.064667 3573.0 
105.06987 189523.0 
107.048843 10164.0 
107.077728 5206.0 
107.085373 76152.0 
109.064774 34584.0 
109.101067 10591.0 
117.069946 24400.0 
119.049553 3045.0 
119.085457 84790.0 
121.064667 40786.0 
121.100647 4576.0 
123.080353 17752.0 
129.06958 14434.0 
131.085495 162446.0 
133.064865 14728.0 
133.101227 53957.0 
135.080353 23990.0 
137.022293 2392.0 
141.069794 20837.0 
142.078232 3031.0 
143.08519 39743.0 
145.065384 20162.0 
145.101105 228635.0 
146.108612 3396.0 
147.080261 19091.0 
149.0961 4738.0 
154.077194 4307.0 
155.085464 152548.0 
156.092941 25879.0 
157.101059 76944.0 
158.108704 4801.0 
159.044815 29369.0 
159.080444 171123.0 
159.116669 154002.0 
161.096085 6185.0 
161.132401 79792.0 
167.085449 14964.0 
168.093002 22586.0 
169.101089 166921.0 
171.116837 40462.0 
172.124786 4559.0 
173.096054 145149.0 
173.132202 70695.0 
175.038483 3449.0 
176.936859 3432.0 
182.108856 124487.0 
185.131958 21899.0 
186.10437 4371.0 
187.075027 16292.0 
187.112595 44547.0 
187.127853 4474.0 
187.14801 401835.0 
197.132401 440877.0 
200.118607 11102.0 
215.07048 99288.0 
215.14299 1757900.0 
END IONS

BEGIN IONS
NAME="2-(benzimidazol-2-ylmethylthio)-5,6-dimethoxybenzimidazole CollisionEnergy:205060" M+Na
PRECURSOR_MZ=363.089
INCHI="InChI=1S/C17H16N4O2S/c1-22-14-7-12-13(8-15(14)23-2)21-17(20-12)24-9-16-18-10-5-3-4-6-11(10)19-16/h3-8H,9H2,1-2H3,(H,18,19)(H,20,21)"
SMILES=COc1cc2nc(SCc3nc4ccccc4[nH]3)[nH]c2cc1OC
SPECTRUMID=CCMSLIB00010119780
50.517818 2068.0 
62.458939 2318.0 
66.749802 2776.0 
73.96006 2849.0 
81.070038 4928.0 
84.08107 2901.0 
85.675636 2298.0 
101.425346 2478.0 
102.090912 3945.0 
123.116608 2645.0 
127.994057 2681.0 
145.050537 2179.0 
184.615005 2424.0 
185.014053 2954.0 
201.063049 14537.0 
232.027267 174483.0 
233.035339 62999.0 
251.045761 2559.0 
257.601135 2459.0 
363.08786 562651.0 
END IONS

BEGIN IONS
NAME=N-(2-indol-3-ylethyl)[(4-nitrophenyl)methoxy]carboxamide CollisionEnergy:205060 M-H
PRECURSOR_MZ=338.115
INCHI="InChI=1S/C18H17N3O4/c22-18(25-12-13-5-7-15(8-6-13)21(23)24)19-10-9-14-11-20-17-4-2-1-3-16(14)17/h1-8,11,20H,9-10,12H2,(H,19,22)"
SMILES=O=[N+]([O-])c1ccc(COC(O)=NCCc2c[nH]c3ccccc23)cc1
SPECTRUMID=CCMSLIB00010122111
52.239868 2511.0 
60.9702 2807.0 
68.499977 2103.0 
83.287048 1962.0 
92.377274 2656.0 
122.024773 43893.0 
123.032387 11547.0 
124.040421 14479.0 
152.034958 15017.0 
166.014435 4370.0 
185.071899 223654.0 
208.337128 11532.0 
220.597885 2103.0 
267.989655 2955.0 
281.432404 2466.0 
317.985718 5024.0 
337.978119 3568.0 
338.115082 4030.0 
346.899841 2275.0 
END IONS

BEGIN IONS
NAME="N-[2-(3,4-dimethylphenoxy)ethyl](3,4,5-trimethoxyphenyl)carboxamide CollisionEnergy:102040" M+Na
PRECURSOR_MZ=382.162
INCHI="InChI=1S/C20H25NO5/c1-13-6-7-16(10-14(13)2)26-9-8-21-20(22)15-11-17(23-3)19(25-5)18(12-15)24-4/h6-7,10-12H,8-9H2,1-5H3,(H,21,22)"
SMILES=COc1cc(C(O)=NCCOc2ccc(C)c(C)c2)cc(OC)c1OC
SPECTRUMID=CCMSLIB00010106053
73.632492 2713.0 
73.943428 3370.0 
82.38723 3164.0 
100.423531 2545.0 
198.836014 2901.0 
211.98288 4221.0 
308.762878 2620.0 
382.161926 4040403.0 
END IONS

BEGIN IONS
NAME="N,N-diethyl[4-(2-indolinyl-2-oxoethoxy)-3-methoxyphenyl]carboxamide CollisionEnergy:205060" M+Na
PRECURSOR_MZ=405.178
INCHI="InChI=1S/C22H26N2O4/c1-4-23(5-2)22(26)17-10-11-19(20(14-17)27-3)28-15-21(25)24-13-12-16-8-6-7-9-18(16)24/h6-11,14H,4-5,12-13,15H2,1-3H3"
SMILES=CCN(CC)C(=O)c1ccc(OCC(=O)N2CCc3ccccc32)c(OC)c1
SPECTRUMID=CCMSLIB00010118320
78.370499 2945.0 
89.140083 2662.0 
89.178169 2874.0 
104.286079 3326.0 
136.21106 3079.0 
141.054565 29631.0 
173.020859 59053.0 
207.182144 3109.0 
244.0923 3367.0 
245.102921 3194.0 
286.104187 11212.0 
299.732849 3049.0 
312.078583 3109.0 
348.5672 2634.0 
350.391937 2652.0 
375.166504 5400.0 
387.16333 3388.0 
405.177704 3045713.0 
END IONS

BEGIN IONS
NAME="8-[(2,5-dimethylphenyl)methylthio]-9-methylhydropurin-6-one CollisionEnergy:102040" M+Na
PRECURSOR_MZ=323.094
INCHI="InChI=1S/C15H16N4OS/c1-9-4-5-10(2)11(6-9)7-21-15-18-12-13(19(15)3)16-8-17-14(12)20/h4-6,8H,7H2,1-3H3,(H,16,17,20)"
SMILES=Cc1ccc(C)c(CSc2nc3c(O)ncnc3n2C)c1
SPECTRUMID=CCMSLIB00010107783
52.029129 2775.0 
118.652924 2683.0 
119.085449 51074.0 
136.204178 2945.0 
141.489655 2578.0 
158.167618 3015.0 
204.007385 300017.0 
205.015747 37857.0 
206.286377 2500.0 
212.095963 3143.0 
232.050034 2481.0 
299.986176 6057.0 
323.093079 2660347.0 
END IONS

BEGIN IONS
NAME=N-(3-chloro-4-fluorophenyl)-2-{4-[(4-methylpiperidyl)carbonyl]-2-oxohydroquino lyl}acetamide CollisionEnergy:102040 M+formate
PRECURSOR_MZ=500.139
INCHI="InChI=1S/C24H23ClFN3O3/c1-15-8-10-28(11-9-15)24(32)18-13-23(31)29(21-5-3-2-4-17(18)21)14-22(30)27-16-6-7-20(26)19(25)12-16/h2-7,12-13,15H,8-11,14H2,1H3,(H,27,30)"
SMILES=CC1CCN(C(=O)c2cc(=O)n(CC(O)=Nc3ccc(F)c(Cl)c3)c3ccccc23)CC1
SPECTRUMID=CCMSLIB00010112934
54.21088 2537.0 
60.130539 2684.0 
92.383751 4154.0 
95.824677 2860.0 
124.281464 2500.0 
136.217606 2790.0 
190.467133 2322.0 
192.71109 2375.0 
194.966461 2595.0 
207.918488 13636.0 
220.650192 2584.0 
289.466553 2533.0 
310.717743 3025.0 
431.393768 2998.0 
454.134491 61830.0 
END IONS

BEGIN IONS
NAME="N-(5,6-dimethoxy-3-oxohydroisobenzofuran-4-yl)(2-methyl(3-furyl))carboxamide CollisionEnergy:102040" M+H
PRECURSOR_MZ=318.097
INCHI="InChI=1S/C16H15NO6/c1-8-10(4-5-22-8)15(18)17-13-12-9(7-23-16(12)19)6-11(20-2)14(13)21-3/h4-6H,7H2,1-3H3,(H,17,18)"
SMILES=COc1cc2c(c(N=C(O)c3ccoc3C)c1OC)C(=O)OC2
SPECTRUMID=CCMSLIB00010105662
50.875839 3077.0 
53.039261 4645.0 
56.31023 2770.0 
63.480579 3070.0 
67.018044 4334.0 
73.504333 3247.0 
73.706543 3023.0 
73.953117 4773.0 
82.401016 4036.0 
108.734283 16267.0 
109.028252 10536432.0 
109.32325 16188.0 
185.399918 3395.0 
236.053802 3426.0 
300.084595 26351.0 
318.096069 856586.0 
END IONS

BEGIN IONS
NAME=N-Acetyl-L-glutamic acid CollisionEnergy:102040 M-H
PRECURSOR_MZ=188.056
INCHI="InChI=1S/C7H11NO5/c1-4(9)8-5(7(12)13)2-3-6(10)11/h5H,2-3H2,1H3,(H,8,9)(H,10,11)(H,12,13)/t5-/m0/s1"
SMILES=CC(O)=NC(CCC(=O)O)C(=O)O
SPECTRUMID=CCMSLIB00010114045
58.029301 221682.0 
59.013378 1439036.0 
63.483559 15776.0 
81.20533 15448.0 
82.029442 23013.0 
84.045303 60910.0 
100.040497 95317.0 
100.076752 582924.0 
102.056107 2612870.0 
126.056282 231926.0 
128.035461 3758817.0 
144.066742 1503043.0 
146.046066 439719.0 
170.045914 1281170.0 
170.062683 29771.0 
188.056595 1973044.0 
END IONS

BEGIN IONS
NAME=methyl 2-[(3-methoxyphenyl)carbonylamino]benzoate CollisionEnergy:102040 M+H
PRECURSOR_MZ=286.107
INCHI="InChI=1S/C16H15NO4/c1-20-12-7-5-6-11(10-12)15(18)17-14-9-4-3-8-13(14)16(19)21-2/h3-10H,1-2H3,(H,17,18)"
SMILES=COC(=O)c1ccccc1N=C(O)c1cccc(OC)c1
SPECTRUMID=CCMSLIB00010105372
50.295059 3053.0 
53.03904 17188.0 
63.02343 3279.0 
66.747322 5236.0 
68.026222 33950.0 
76.031212 3204.0 
77.03923 3611.0 
79.018379 26662.0 
79.054459 15355.0 
86.545471 3237.0 
92.025551 31406.0 
95.049156 11751.0 
96.020531 5963.0 
107.04911 23082.0 
111.044411 5446.0 
120.020981 4726.0 
120.044197 6963.0 
122.768051 3504.0 
125.059708 257402.0 
129.891998 2912.0 
130.761948 2876.0 
134.639557 3512.0 
135.044006 8387161.0 
135.450455 3887.0 
136.217056 3979.0 
146.02356 117203.0 
146.036072 5689.0 
148.075439 3441.0 
185.409225 3335.0 
213.25946 3327.0 
254.080917 1713670.0 
268.097046 5820.0 
286.072327 6424.0 
286.106873 74861.0 
286.334747 3165.0 
END IONS

BEGIN IONS
NAME=SCHEMBL12751296 CollisionEnergy:102040 M+H
PRECURSOR_MZ=629.311
INCHI="InChI=1S/C38H44O8/c1-20(2)10-9-15-36(8)16-14-24-29(39)28-30(40)26-18-23-19-27-35(6,7)46-37(33(23)41,17-13-22(5)34(42)43)38(26,27)45-32(28)25(31(24)44-36)12-11-21(3)4/h10-11,13-14,16,18,23,27,39H,9,12,15,17,19H2,1-8H3,(H,42,43)/b22-13-/t23?,27-,36-,37+,38-/m1/s1"
SMILES=CC(C)=CCCC1(C)C=Cc2c(O)c3c(c(CC=C(C)C)c2O1)OC12C(=CC4CC1C(C)(C)OC2(CC=C(C)C(=O)O)C4=O)C3=O
SPECTRUMID=CCMSLIB00010114152
57.220821 2745.0 
67.054909 5037.0 
69.070381 21529.0 
70.793167 3009.0 
71.387703 2796.0 
80.794258 3129.0 
81.070427 14064.0 
83.567886 2902.0 
90.027397 3778.0 
92.367622 4379.0 
93.070374 18917.0 
95.086037 3415.0 
99.044289 3762.0 
107.085854 15705.0 
109.028381 3566.0 
109.101753 20088.0 
123.117111 13191.0 
135.116348 21653.0 
136.198029 3969.0 
147.080734 4525.0 
151.039993 5227.0 
165.018021 5575.0 
185.05986 6419.0 
185.096939 6163.0 
187.075836 5260.0 
191.069901 5304.0 
193.086319 4278.0 
195.02951 6082.0 
199.075806 5326.0 
209.096573 11268.0 
211.112793 12797.0 
213.05484 32674.0 
213.090561 58692.0 
219.065063 5392.0 
225.091583 3878.0 
227.104996 21604.0 
229.122925 45008.0 
231.067108 4228.0 
237.091736 18610.0 
243.06636 5228.0 
245.118134 5451.0 
253.085968 12056.0 
255.101273 42444.0 
257.08197 4651.0 
273.118011 3822.0 
273.148529 28287.0 
275.700104 3632.0 
285.040741 5888.0 
299.127899 46062.0 
317.141449 3749.0 
337.06897 6262.0 
353.061981 6169.0 
355.191406 4024.0 
365.064178 24550.0 
375.123077 7394.0 
379.117188 25266.0 
387.123596 5960.0 
391.117859 17522.0 
405.139404 4856.0 
406.146393 3733.0 
407.108154 6391.0 
419.22168 4388.0 
443.188202 4548.0 
447.178009 63075.0 
459.179871 3949.0 
462.204742 15323.0 
474.202789 6050.0 
487.174774 124251.0 
487.251801 5585.0 
505.182739 12947.0 
509.232941 24167.0 
527.241821 107315.0 
530.265747 13857.0 
543.239319 5477.0 
545.252991 147919.0 
561.246399 26089.0 
573.247803 739499.0 
583.304321 5713.0 
601.314514 54979.0 
629.30957 268859.0 
END IONS

BEGIN IONS
NAME=Untitled CollisionEnergy:205060 M-H
PRECURSOR_MZ=431.098
INCHI="InChI=1S/C21H20O10/c1-7-2-9-15(18(27)14-10(16(9)25)4-8(23)5-11(14)24)12(3-7)30-21-20(29)19(28)17(26)13(6-22)31-21/h2-5,13,17,19-24,26,28-29H,6H2,1H3"
SMILES=Cc1cc(OC2OC(CO)C(O)C(O)C2O)c2c(c1)C(=O)c1cc(O)cc(O)c1C2=O
SPECTRUMID=CCMSLIB00010121767
50.927319 15950.0 
59.70422 14832.0 
65.542427 13763.0 
71.013138 20186.0 
73.117081 16520.0 
83.971024 23795.0 
104.286118 18589.0 
139.055725 18697.0 
153.071548 87669.0 
157.966812 15419.0 
169.065903 92803.0 
179.051132 19756.0 
180.057999 257240.0 
181.066315 950057.0 
182.037277 201527.0 
183.045013 19983.0 
185.06102 92354.0 
195.045761 26161.0 
196.053268 82602.0 
197.061157 1116476.0 
199.040588 33292.0 
201.055984 64182.0 
207.0448 131386.0 
207.618454 112123.0 
209.061234 107265.0 
210.032547 528329.0 
212.04834 131811.0 
213.056519 240399.0 
224.047806 319351.0 
225.056122 15193204.0 
227.035339 370598.0 
227.072433 25503.0 
237.056427 357452.0 
238.064484 65021.0 
239.070877 71936.0 
240.043152 4255841.0 
241.05098 2968803.0 
249.056473 21343.0 
252.040756 26776.0 
253.051743 324650.0 
254.024521 35307.0 
254.058914 110887.0 
255.068192 166033.0 
256.039581 80614.0 
265.051056 704389.0 
267.066742 33868.0 
268.037994 84594.0 
269.04599 56183540.0 
270.050354 27359.0 
280.039154 80522.0 
281.048798 119705.0 
282.053467 405894.0 
283.062225 205628.0 
293.045807 722121.0 
303.437256 34765.0 
311.055939 568273.0 
319.647797 16023.0 
323.055664 23639.0 
335.05542 19041.0 
371.075012 18542.0 
413.089661 184875.0 
431.098938 37426844.0 
432.108185 25786.0 
END IONS

BEGIN IONS
NAME="6,7-Dimethoxy-4-ethylcoumarin CollisionEnergy:102040" M+Na
PRECURSOR_MZ=257.078
INCHI="InChI=1S/C13H14O4/c1-4-8-5-13(14)17-10-7-12(16-3)11(15-2)6-9(8)10/h5-7H,4H2,1-3H3"
SMILES=CCc1cc(=O)oc2cc(OC)c(OC)cc12
SPECTRUMID=CCMSLIB00010106868
53.079639 1999.0 
64.473251 2178.0 
77.197113 2121.0 
79.021248 3093.0 
82.380157 2757.0 
95.9403 2325.0 
102.970039 2355.0 
114.942627 2493.0 
122.975403 2188.0 
147.694199 2612.0 
150.952225 3361.0 
158.404022 2194.0 
178.946182 15178.0 
196.956528 11074.0 
198.108963 21861.0 
207.114212 51739.0 
216.11824 2471.0 
218.623459 2894.0 
237.115723 121568.0 
257.078247 774574.0 
257.266235 5194.0 
257.62915 12314.0 
275.089417 28567.0 
END IONS

BEGIN IONS
NAME=guaiazulene CollisionEnergy:102040 M-e
PRECURSOR_MZ=198.14
INCHI="InChI=1S/C15H18/c1-10(2)13-7-5-11(3)14-8-6-12(4)15(14)9-13/h5-10H,1-4H3"
SMILES=Cc1ccc(C(C)C)cc2c(C)ccc1-2
SPECTRUMID=CCMSLIB00010114262
73.938011 3344.0 
104.265038 4097.0 
142.077118 2408.0 
143.085648 3152.0 
153.070374 5616.0 
155.085587 96953.0 
168.093094 36415.0 
183.116943 1995973.0 
197.131958 35131.0 
198.140396 3294427.0 
210.47142 4112.0 
END IONS

BEGIN IONS
NAME="methyl 4-[(3,4,5-trimethoxyphenyl)carbonylamino]benzoate CollisionEnergy:102040" M+H
PRECURSOR_MZ=346.129
INCHI="InChI=1S/C18H19NO6/c1-22-14-9-12(10-15(23-2)16(14)24-3)17(20)19-13-7-5-11(6-8-13)18(21)25-4/h5-10H,1-4H3,(H,19,20)"
SMILES=COC(=O)c1ccc(NC(=O)c2cc(OC)c(OC)c(OC)c2)cc1
SPECTRUMID=CCMSLIB00010106664
56.08432 3725.0 
64.168892 4407.0 
65.038933 7874.0 
67.054367 4952.0 
79.054604 33521.0 
81.033684 9040.0 
81.070099 47833.0 
82.401657 4025.0 
83.049812 5605.0 
91.054298 19109.0 
92.381859 4846.0 
93.03331 8732.0 
94.041351 6845.0 
95.049202 7282.0 
96.057243 5446.0 
106.065269 13983.0 
107.048843 16073.0 
107.962784 3870.0 
108.02063 5735.0 
109.056252 6396.0 
109.064789 177641.0 
111.044067 19183.0 
111.080406 7663.0 
113.023109 8371.0 
113.059334 5149.0 
119.036507 5225.0 
122.036087 20760.0 
122.059959 60222.0 
123.043877 17294.0 
124.052002 38192.0 
125.059776 8301.0 
128.046677 21657.0 
134.059555 30887.0 
135.044037 15768.0 
137.059616 177478.0 
138.067429 305783.0 
139.038956 100311.0 
139.075287 115155.0 
141.01799 20628.0 
143.070435 5502.0 
146.023544 139803.0 
150.054794 279144.0 
152.046448 81336.0 
153.054871 51642.0 
154.062332 5431890.0 
154.556381 5518.0 
156.041809 48617.0 
163.049911 26556.0 
169.0858 3921302.0 
169.65448 4475.0 
178.049713 840849.0 
184.037292 4780.0 
185.080658 14210.0 
195.065048 3863034.0 
196.06842 15210.0 
210.112 8871.0 
252.672333 4059.0 
270.110443 6504.0 
287.117279 8456.0 
314.102417 21146.0 
331.104065 9338.0 
346.127838 8287958.0 
347.791351 4887.0 
END IONS

BEGIN IONS
NAME=6-Hydroxy-4'-methoxyflavone CollisionEnergy:102040 M-H
PRECURSOR_MZ=267.066
INCHI="InChI=1S/C16H12O4/c1-19-12-5-2-10(3-6-12)16-9-14(18)13-8-11(17)4-7-15(13)20-16/h2-9,17H,1H3"
SMILES=COc1ccc(-c2cc(=O)c3cc(O)ccc3o2)cc1
SPECTRUMID=CCMSLIB00010104380
53.810612 2072.0 
55.736549 2551.0 
66.700943 2163.0 
66.755531 2302.0 
104.103493 2196.0 
121.085213 3840.0 
125.691162 2365.0 
132.021179 5301.0 
181.814896 2100.0 
188.645248 2540.0 
198.885452 2767.0 
203.525177 2063.0 
208.052399 54822.0 
209.346115 8171.0 
216.988525 4240.0 
223.03978 5261.0 
224.048294 19844.0 
226.377991 2711.0 
228.922668 2683.0 
242.807983 2506.0 
251.034103 3774.0 
252.042343 427116.0 
266.988556 57771.0 
267.065887 1021389.0 
273.089233 2350.0 
END IONS

BEGIN IONS
NAME=ST50331689 CollisionEnergy:102040 2M-H
PRECURSOR_MZ=539.098
INCHI="InChI=1S/C15H10O5/c16-9-2-3-10-13(7-9)20-14(15(10)19)6-8-1-4-11(17)12(18)5-8/h1-7,16-18H/b14-6+"
SMILES=O=C1C(=Cc2ccc(O)c(O)c2)Oc2cc(O)ccc21
SPECTRUMID=CCMSLIB00010110061
64.238319 3047.0 
66.550728 2633.0 
92.402351 3168.0 
104.312523 3779.0 
118.682022 2586.0 
133.030457 10290.0 
215.355606 2768.0 
221.947327 2774.0 
269.045502 488504.0 
271.847412 2798.0 
278.301453 2931.0 
END IONS

BEGIN IONS
NAME=5-Hydroxyindole-3-acetic acid CollisionEnergy:102040 M-H
PRECURSOR_MZ=190.051
INCHI="InChI=1S/C10H9NO3/c12-7-1-2-9-8(4-7)6(5-11-9)3-10(13)14/h1-2,4-5,11-12H,3H2,(H,13,14)"
SMILES=O=C(O)Cc1c[nH]c2ccc(O)cc12
SPECTRUMID=CCMSLIB00010114354
52.084721 2034.0 
66.759613 2243.0 
73.973503 1829.0 
85.22406 2376.0 
94.543694 2317.0 
97.909126 2305.0 
99.925697 4536.0 
101.95192 13219.0 
102.923782 3530.0 
102.948738 2834.0 
107.394592 2372.0 
116.050903 3477.0 
118.030403 3754.0 
131.03743 4213.0 
132.045288 16840.0 
133.029373 8021.0 
143.864731 4654.0 
144.04509 66807.0 
145.053146 23772.0 
145.899261 4723.0 
145.941727 12309.0 
146.025192 9361.0 
146.060791 125865.0 
146.938507 2949.0 
159.032959 3589.0 
159.860153 13484.0 
160.040085 81130.0 
161.893829 2835.0 
162.019104 16098.0 
162.894791 2587.0 
189.851532 4266.0 
190.014542 28682.0 
190.050095 15637.0 
END IONS

BEGIN IONS
NAME="3-methoxy-4-(1-methyl-2-oxo-2-phenylethoxy)-7,8,9,10-tetrahydrobenzo[1,2-c]chr omen-6-one CollisionEnergy:205060" M+Na
PRECURSOR_MZ=401.136
INCHI="InChI=1S/C23H22O5/c1-14(20(24)15-8-4-3-5-9-15)27-22-19(26-2)13-12-17-16-10-6-7-11-18(16)23(25)28-21(17)22/h3-5,8-9,12-14H,6-7,10-11H2,1-2H3"
SMILES=COc1ccc2c3c(c(=O)oc2c1OC(C)C(=O)c1ccccc1)CCCC3
SPECTRUMID=CCMSLIB00010116188
60.973179 14187.0 
66.694138 12971.0 
75.038231 15577.0 
102.263496 15761.0 
104.293297 15080.0 
239.067184 351721.0 
251.067596 112306.0 
253.047226 397196.0 
266.992493 20928.0 
267.062866 410449.0 
268.070251 10397037.0 
269.078094 3166834.0 
281.079102 19865.0 
286.080383 276257.0 
287.088928 71590.0 
309.096771 199921.0 
310.103577 83536.0 
315.476562 16868.0 
367.910492 16163.0 
401.135559 45624208.0 
403.219391 18755.0 
END IONS

BEGIN IONS
NAME="[(2,4,5-trimethoxyphenyl)methylene]methane-1,1-dicarbonitrile CollisionEnergy:102040" M-e
PRECURSOR_MZ=244.084
INCHI="InChI=1S/C13H12N2O3/c1-16-11-6-13(18-3)12(17-2)5-10(11)4-9(7-14)8-15/h4-6H,1-3H3"
SMILES=COc1cc(OC)c(OC)cc1C=C(C#N)C#N
SPECTRUMID=CCMSLIB00010114471
56.965099 4073.0 
71.754173 3760.0 
82.391197 3223.0 
84.960007 3246.0 
89.036957 3166.0 
89.849586 2953.0 
118.065117 3261.0 
120.150436 2904.0 
128.049744 4335.0 
132.043991 2776.0 
136.73175 2760.0 
141.044724 11679.0 
143.06015 13490.0 
143.516891 3442.0 
146.060013 13522.0 
152.521561 21857.0 
154.015182 12167.0 
158.04747 116934.0 
158.060364 4500.0 
159.054886 4314.0 
160.032806 20515.0 
161.527115 94390.0 
162.535477 22526.0 
164.02977 11968.0 
167.316025 3486.0 
169.038849 103457.0 
170.532516 42767.0 
171.055389 64990.0 
171.54158 72376.0 
172.038803 5302.0 
173.034973 30782.0 
173.070938 194699.0 
174.054932 11401.0 
178.044235 167631.0 
179.070831 3722.0 
179.535614 3005.0 
180.546844 284276.0 
182.040314 3685.0 
183.049698 46685.0 
186.042175 59428.0 
187.049728 42775.0 
189.133087 3027.0 
189.552139 395044.0 
192.054993 82775.0 
198.042068 28369.0 
198.557617 56982.0 
199.050461 10199.0 
201.065308 532738.0 
202.050262 4105.0 
203.563293 14006.0 
212.567993 23753.0 
214.037613 9893.0 
229.060608 1409120.0 
230.069305 5307.0 
244.084076 2984673.0 
244.263016 98181.0 
END IONS

BEGIN IONS
NAME=2'-DEOXYURIDINE CollisionEnergy:205060 M+Na
PRECURSOR_MZ=251.064
INCHI="InChI=1S/C9H12N2O5/c12-4-6-5(13)3-8(16-6)11-2-1-7(14)10-9(11)15/h1-2,5-6,8,12-13H,3-4H2,(H,10,14,15)/t5-,6+,8+/m0/s1"
SMILES=O=c1nc(O)ccn1C1CC(O)C(CO)O1
SPECTRUMID=CCMSLIB00010125586
59.6222 1919.0 
60.90263 2174.0 
62.376659 2002.0 
70.956879 2081.0 
76.928131 2670.0 
79.021347 2770.0 
92.375 3078.0 
98.98394 22286.0 
104.279617 2326.0 
114.354202 2225.0 
118.652802 2251.0 
135.016373 121892.0 
136.203278 2976.0 
139.036362 11669.0 
149.046188 2299.0 
150.425278 2447.0 
184.024246 2119.0 
190.922791 4194.0 
251.063354 124932.0 
END IONS

BEGIN IONS
NAME="butyl 4-[(3,4-dimethoxyphenyl)carbonylamino]benzoate CollisionEnergy:205060" M+H
PRECURSOR_MZ=358.165
INCHI="InChI=1S/C20H23NO5/c1-4-5-12-26-20(23)14-6-9-16(10-7-14)21-19(22)15-8-11-17(24-2)18(13-15)25-3/h6-11,13H,4-5,12H2,1-3H3,(H,21,22)"
SMILES=CCCCOC(=O)c1ccc(NC(=O)c2ccc(OC)c(OC)c2)cc1
SPECTRUMID=CCMSLIB00010120072
50.01548 20199.0 
51.023602 40124.0 
53.002781 12244.0 
53.03912 108306.0 
55.018372 16136.0 
55.054482 10852.0 
57.070351 200673.0 
65.038986 328650.0 
66.046837 257292.0 
67.018044 9997.0 
67.054718 35650.0 
68.99749 130253.0 
69.033943 107190.0 
72.676422 9482.0 
75.044312 19090.0 
77.038757 89212.0 
78.046783 14520.0 
79.01812 55088.0 
79.054497 1174250.0 
81.033699 158953.0 
81.070099 244561.0 
82.041412 72787.0 
83.049393 41842.0 
85.028687 18576.0 
90.033493 14991.0 
91.05423 71161.0 
92.025497 65862.0 
92.049583 425339.0 
93.033569 44701.0 
93.057007 14858.0 
94.041367 592350.0 
94.065041 9668.0 
95.012833 20908.0 
95.049187 218533.0 
96.057007 42665.0 
97.02845 41943.0 
98.036201 177645.0 
99.043716 11814.0 
103.017799 324842.0 
105.033417 96849.0 
105.044472 44973.0 
106.065041 98727.0 
107.012718 21500.0 
107.049026 307177.0 
108.044327 340855.0 
108.056763 125725.0 
109.028374 911196.0 
109.064774 644412.0 
110.036346 18537.0 
111.007637 210937.0 
111.0438 14046.0 
120.04435 421361.0 
120.054237 17141.0 
120.080803 39941.0 
121.028191 239796.0 
122.03611 873413.0 
123.043442 13443.0 
124.051849 5705993.0 
125.023369 11193.0 
125.059792 37139.0 
126.031036 444006.0 
133.076248 18270.0 
135.043564 38440.0 
136.039307 248877.0 
136.208542 11637.0 
137.023422 41632.0 
137.059204 79088.0 
139.075272 2700574.0 
141.054276 168501.0 
146.02359 223512.0 
151.038803 14374.0 
153.054581 13775.0 
154.025955 101389.0 
155.070129 796446.0 
164.034119 1437947.0 
164.504486 10772.0 
165.054489 18865506.0 
187.51297 10874.0 
192.101913 148697.0 
205.097198 44297.0 
220.096497 243780.0 
245.663071 9417.0 
257.108673 14322.0 
258.111969 441563.0 
284.092194 75392.0 
302.101562 134654.0 
343.141113 14008.0 
358.164246 14206598.0 
END IONS

BEGIN IONS
NAME="3-[3-(2-chlorophenyl)-1-oxo(2,3,4-trihydro-5H,10H,11H-benzo[b]benzo[2,1-f]1,4- diazepin-11-yl)]-6-methylchromen-4-one CollisionEnergy:205060" M+formate
PRECURSOR_MZ=527.138
INCHI="InChI=1S/C29H23ClN2O3/c1-16-10-11-26-19(12-16)29(34)20(15-35-26)28-27-24(31-22-8-4-5-9-23(22)32-28)13-17(14-25(27)33)18-6-2-3-7-21(18)30/h2-12,15,17,28,31-32H,13-14H2,1H3"
SMILES=Cc1ccc2occ(C3Nc4ccccc4NC4=C3C(=O)CC(c3ccccc3Cl)C4)c(=O)c2c1
SPECTRUMID=CCMSLIB00010116977
53.646118 2602.0 
53.8955 2396.0 
59.248219 2582.0 
74.972633 2512.0 
82.404381 3274.0 
92.383842 3201.0 
134.805435 2341.0 
146.515671 2288.0 
147.191452 2693.0 
157.979584 3247.0 
160.40419 2430.0 
174.469666 2445.0 
208.010681 10307.0 
208.030563 3888.0 
266.98819 4063.0 
279.26358 2796.0 
297.174133 2847.0 
481.136353 17499.0 
END IONS

BEGIN IONS
NAME="3-[(1E)-2-(2-hydroxy-2,2-diphenylacetylamino)-2-azavinyl]phenyl 2H-benzo[3,4-d ]1,3-dioxolane-5-carboxylate CollisionEnergy:102040" M+Na
PRECURSOR_MZ=517.137
INCHI="InChI=1S/C29H22N2O6/c32-27(21-14-15-25-26(17-21)36-19-35-25)37-24-13-7-8-20(16-24)18-30-31-28(33)29(34,22-9-3-1-4-10-22)23-11-5-2-6-12-23/h1-18,34H,19H2,(H,31,33)/b30-18+"
SMILES=O=C(Oc1cccc(C=NN=C(O)C(O)(c2ccccc2)c2ccccc2)c1)c1ccc2c(c1)OCO2
SPECTRUMID=CCMSLIB00010112671
52.913589 2885.0 
59.3437 2557.0 
62.252892 3051.0 
63.78524 2564.0 
64.608597 2461.0 
72.478409 3004.0 
77.618263 2596.0 
79.548683 2568.0 
82.391418 2701.0 
82.590759 2556.0 
89.03875 161588.0 
92.369781 3681.0 
104.276573 3382.0 
111.020477 105260.0 
118.643471 2901.0 
136.197739 3680.0 
157.955948 3395.0 
230.055679 3075.0 
231.065277 29430.0 
232.07309 28472.0 
249.038376 3148.0 
262.51535 3681.0 
277.046692 121794.0 
305.052765 95485.0 
307.069885 3601.0 
499.039703 6520.0 
499.126099 486486.0 
517.136658 1856610.0 
END IONS

BEGIN IONS
NAME=Methyl beta-D-galactoside CollisionEnergy:102040 M+acetate
PRECURSOR_MZ=253.093
INCHI="InChI=1S/C7H14O6/c1-12-7-6(11)5(10)4(9)3(2-8)13-7/h3-11H,2H2,1H3/t3-,4+,5+,6-,7-/m1/s1"
SMILES=CO[C@@H]1O[C@H](CO)[C@H](O)[C@H](O)[C@H]1O
SPECTRUMID=CCMSLIB00010102753
53.417 31060.300781 
59.013401 457228.0 
62.966999 30368.300781 
65.265099 35943.101562 
73.732498 35911.199219 
82.434097 36531.898438 
92.4198 37103.601562 
136.268005 37592.699219 
158.044998 36530.800781 
193.070999 212227.0 
197.123993 36203.5 
197.143997 40092.898438 
203.975998 36772.300781 
210.910004 72297.203125 
235.028 144807.0 
END IONS

BEGIN IONS
NAME=folic acid CollisionEnergy:205060 M-2H]
PRECURSOR_MZ=219.563
INCHI="InChI=1S/C19H19N7O6/c20-19-25-15-14(17(30)26-19)23-11(8-22-15)7-21-10-3-1-9(2-4-10)16(29)24-12(18(31)32)5-6-13(27)28/h1-4,8,12,21H,5-7H2,(H,24,29)(H,27,28)(H,31,32)(H3,20,22,25,26,30)/t12-/m0/s1"
SMILES=N=c1nc(O)c2nc(CNc3ccc(C(=O)NC(CCC(=O)O)C(=O)O)cc3)cnc2[nH]1
SPECTRUMID=CCMSLIB00010123423
59.0135 2986.0 
59.450779 1935.0 
63.550919 2142.0 
66.009438 8272.0 
73.985039 3017.0 
82.029861 4890.0 
83.694313 2163.0 
85.029182 4149.0 
92.050636 9749.0 
117.04493 2332.0 
122.025047 10393.0 
128.0354 4502.0 
131.049225 10239.0 
132.044159 81858.0 
135.032928 13625.0 
147.056427 31909.0 
154.549316 43163.0 
155.041336 71895.0 
155.543045 4844.0 
157.039612 2945.0 
161.072327 15472.0 
162.042068 3087.0 
164.034103 13819.0 
174.042145 10669.0 
175.050217 125466.0 
175.572784 52217.0 
176.056946 11874.0 
176.073929 3120.0 
176.09494 5287.0 
177.103226 4697.0 
197.567947 172008.0 
198.069885 19189.0 
207.039948 107071.0 
208.041595 3277.0 
219.563324 33606.0 
220.064133 3761.0 
267.101196 9554.0 
269.081116 10695.0 
279.103333 2518.0 
292.096985 4979.0 
293.115997 4008.0 
310.107422 3703.0 
311.088135 17516.0 
322.105133 31858.0 
323.107635 3789.0 
336.121857 34390.0 
350.134949 9633.0 
END IONS

BEGIN IONS
NAME=kinetin CollisionEnergy:102040 M-H
PRECURSOR_MZ=214.073
INCHI="InChI=1S/C10H9N5O/c1-2-7(16-3-1)4-11-9-8-10(13-5-12-8)15-6-14-9/h1-3,5-6H,4H2,(H2,11,12,13,14,15)"
SMILES=c1coc(CNc2nc[nH]c3ncnc2-3)c1
SPECTRUMID=CCMSLIB00010105086
50.61232 2361.0 
55.163391 2204.0 
59.124481 2207.0 
61.243118 2337.0 
64.43586 2555.0 
69.033989 2719.0 
73.957138 2857.0 
92.025269 4870.0 
92.384689 2977.0 
101.596184 2332.0 
103.9739 3079.0 
104.295181 2627.0 
107.036362 5584.0 
117.021049 16685.0 
118.664772 2625.0 
132.031815 10146.0 
133.039383 1005450.0 
134.047226 903799.0 
134.056381 12858.0 
142.041077 4907.0 
144.030655 3132.0 
146.047226 10534.0 
158.046875 20113.0 
160.026306 5459.0 
160.062256 10594.0 
165.402283 2656.0 
169.052002 4960.0 
170.047348 90814.0 
172.063034 5625.0 
173.034149 15815.0 
181.897308 5894.0 
186.078247 82743.0 
187.062042 25065.0 
196.062729 352996.0 
199.048431 3503.0 
209.538452 5956.0 
212.057831 3236.0 
214.073456 2870789.0 
END IONS

BEGIN IONS
NAME=1-(phenylsulfonyl)pyrrolidine-2-carboxylic acid CollisionEnergy:205060 2M-H
PRECURSOR_MZ=509.106
INCHI="InChI=1S/C11H13NO4S/c13-11(14)10-7-4-8-12(10)17(15,16)9-5-2-1-3-6-9/h1-3,5-6,10H,4,7-8H2,(H,13,14)"
SMILES=O=C(O)C1CCCN1S(=O)(=O)c1ccccc1
SPECTRUMID=CCMSLIB00010119732
53.59827 2548.0 
55.735779 2503.0 
63.96204 37319.0 
68.577141 2584.0 
68.865021 2805.0 
93.034279 16289.0 
123.083717 3256.0 
128.882874 2425.0 
141.001724 255217.0 
147.326797 2225.0 
148.79808 2644.0 
187.00116 2548.0 
219.169586 3230.0 
254.049423 161893.0 
331.069397 2919.0 
343.482513 3018.0 
END IONS

BEGIN IONS
NAME=2-{1-[(4-chlorophenyl)carbonyl]-5-methoxy-2-methylindol-3-yl}-N-(phenylethyl)a cetamide CollisionEnergy:102040 M+Na
PRECURSOR_MZ=483.145
INCHI="InChI=1S/C27H25ClN2O3/c1-17(19-7-5-4-6-8-19)29-26(31)16-23-18(2)30(25-14-13-22(33-3)15-24(23)25)27(32)20-9-11-21(28)12-10-20/h4-15,17H,16H2,1-3H3,(H,29,31)"
SMILES=COc1ccc2c(c1)c(CC(O)=NC(C)c1ccccc1)c(C)n2C(=O)c1ccc(Cl)cc1
SPECTRUMID=CCMSLIB00010108830
73.963493 3701.0 
118.674026 4746.0 
133.154755 3659.0 
157.993637 4630.0 
192.743423 3627.0 
239.143265 29579.0 
240.147079 3998.0 
254.63504 4362.0 
278.894958 3917.0 
394.618805 3339.0 
415.114594 3458.0 
462.203491 25941.0 
462.706207 19337.0 
468.123596 6320.0 
480.339355 4871.0 
480.41217 9306.0 
483.144318 8864126.0 
485.901947 6640.0 
END IONS

BEGIN IONS
NAME=2-amino-8-morpholin-4-ylhydropurin-6-one CollisionEnergy:205060 M-H
PRECURSOR_MZ=235.095
INCHI="InChI=1S/C9H12N6O2/c10-8-12-6-5(7(16)14-8)11-9(13-6)15-1-3-17-4-2-15/h1-4H2,(H4,10,11,12,13,14,16)"
SMILES=N=c1nc(O)c2nc(N3CCOCC3)[nH]c2[nH]1
SPECTRUMID=CCMSLIB00010121447
66.005707 4493.0 
66.009338 87682.0 
66.746773 2713.0 
67.875237 2362.0 
69.008972 28159.0 
73.044456 2526.0 
73.956749 3031.0 
78.009369 6281.0 
80.772392 2715.0 
82.40538 2725.0 
92.383812 3582.0 
103.919693 4063.0 
104.012756 4459.0 
104.290367 2710.0 
106.028687 4856.0 
113.181587 2425.0 
118.664818 3434.0 
119.036179 19533.0 
120.031067 4439.0 
121.015106 4732.0 
121.039101 4372.0 
122.023582 5188.0 
123.03138 5965.0 
135.066879 4985.0 
136.219727 2873.0 
138.067047 30299.0 
144.030838 2559.0 
146.047226 28882.0 
147.054977 45173.0 
148.063232 9275.0 
149.034851 2609.0 
160.062393 21960.0 
162.077713 21461.0 
163.037582 4090.0 
163.062302 14943.0 
164.044754 18534.0 
165.029129 14507.0 
165.077103 2869.0 
166.022797 2512.0 
166.03717 18518.0 
174.042938 20765.0 
174.077805 5003.0 
177.052643 10765.0 
181.073074 21134.0 
183.088898 4496.0 
184.255264 2840.0 
188.0578 86483.0 
190.06073 48636.0 
191.068954 21737.0 
192.089401 105027.0 
193.073196 87867.0 
200.057816 27504.0 
205.084503 54465.0 
211.083847 170961.0 
212.811234 2777.0 
217.083908 24338.0 
218.068405 792467.0 
235.095062 2212943.0 
237.063202 6150.0 
END IONS

BEGIN IONS
NAME=ST024712 CollisionEnergy:205060 M+formate
PRECURSOR_MZ=491.12
INCHI="InChI=1S/C22H22O10/c1-29-11-4-2-10(3-5-11)13-9-30-15-7-12(6-14(24)17(15)18(13)25)31-22-21(28)20(27)19(26)16(8-23)32-22/h2-7,9,16,19-24,26-28H,8H2,1H3"
SMILES=COc1ccc(-c2coc3cc(OC4OC(CO)C(O)C(O)C4O)cc(O)c3c2=O)cc1
SPECTRUMID=CCMSLIB00010119954
73.948471 3821.0 
92.370163 3879.0 
105.505188 2700.0 
112.985687 2765.0 
132.021759 25951.0 
135.008392 12883.0 
151.003372 3955.0 
180.056595 5078.0 
195.045532 6948.0 
196.053177 13735.0 
200.047958 3237.0 
202.123718 3229.0 
211.039932 25439.0 
212.047745 18028.0 
223.039795 17982.0 
224.047913 44954.0 
226.028564 23753.0 
239.035294 84332.0 
240.042786 45605.0 
252.043274 31687.0 
264.045715 4381.0 
267.029938 118249.0 
267.061401 4427.0 
268.037842 2045045.0 
282.052551 5188.0 
283.06134 2525475.0 
290.058685 3866.0 
325.071655 34302.0 
445.116669 6149.0 
END IONS

BEGIN IONS
NAME=N-(3-chloro-4-fluorophenyl)-2-[4-(morpholin-4-ylcarbonyl)-2-oxohydroquinolyl]a cetamide CollisionEnergy:102040 M+Na
PRECURSOR_MZ=466.094
INCHI="InChI=1S/C22H19ClFN3O4/c23-17-11-14(5-6-18(17)24)25-20(28)13-27-19-4-2-1-3-15(19)16(12-21(27)29)22(30)26-7-9-31-10-8-26/h1-6,11-12H,7-10,13H2,(H,25,28)"
SMILES=O=C(c1cc(=O)n(CC(O)=Nc2ccc(F)c(Cl)c2)c2ccccc12)N1CCOCC1
SPECTRUMID=CCMSLIB00010112552
66.743401 5803.0 
69.033813 245420.0 
70.065224 6007.0 
74.767273 11958.0 
82.400597 4364.0 
83.055107 9832.0 
83.060493 194039.0 
83.845871 4816.0 
84.068169 63483.0 
85.07621 73501.0 
86.083893 10974.0 
87.091614 11629.0 
92.37645 6661.0 
97.075844 49118.0 
99.091377 23799.0 
106.66935 5256.0 
136.217514 5524.0 
138.010101 115040.0 
139.001831 9604.0 
139.013626 66333.0 
140.007355 1343550.0 
140.991653 32392.0 
145.06459 24366.0 
158.018936 7179.0 
161.059586 9577.0 
173.060593 19701.0 
175.075256 47760.0 
181.034241 7396.0 
206.036545 1255343.0 
207.039948 1406156.0 
207.258667 21907.0 
208.033401 21105412.0 
208.813141 22949.0 
210.047958 64940.0 
216.100464 41801.0 
230.117203 20602.0 
249.06015 82975.0 
257.127625 216350.0 
258.134369 31280.0 
259.143585 3015542.0 
260.146698 203446.0 
261.149597 177365.0 
268.088867 41066.0 
271.144409 37225.0 
293.110992 10046.0 
327.169525 23093.0 
352.09137 10395.0 
380.087219 103412.0 
463.573608 21463.0 
466.170715 20584956.0 
468.788666 24027.0 
780.967346 6079.0 
END IONS

BEGIN IONS
NAME=myricetin CollisionEnergy:102040 2M-H
PRECURSOR_MZ=635.068
INCHI="InChI=1S/C15H10O8/c16-6-3-7(17)11-10(4-6)23-15(14(22)13(11)21)5-1-8(18)12(20)9(19)2-5/h1-4,16-20,22H"
SMILES=O=c1c(O)c(-c2cc(O)c(O)c(O)c2)oc2cc(O)cc(O)c12
SPECTRUMID=CCMSLIB00010108220
50.868629 2862.0 
66.752289 3128.0 
70.114807 2896.0 
92.390938 4404.0 
118.665421 3097.0 
127.98848 3705.0 
136.634506 3236.0 
137.024612 16523.0 
151.003464 25273.0 
158.996933 3148.0 
178.99881 33700.0 
212.104156 5241.0 
317.030273 318729.0 
END IONS

BEGIN IONS
NAME=2-Hydroxy-3-(4-hydroxyphenyl)propanoic acid CollisionEnergy:102040 M-H
PRECURSOR_MZ=181.051
INCHI="InChI=1S/C9H10O4/c10-7-3-1-6(2-4-7)5-8(11)9(12)13/h1-4,8,10-11H,5H2,(H,12,13)"
SMILES=O=C(O)C(O)Cc1ccc(O)cc1
SPECTRUMID=CCMSLIB00010126337
72.992798 13496100.0 
92.015701 325226.0 
93.034599 540310.0 
104.332001 426361.0 
107.050003 712169.0 
107.734001 316537.0 
109.028999 499709.0 
119.050003 25154400.0 
121.028999 1390730.0 
134.037003 1145070.0 
135.044998 44656800.0 
163.039993 68707904.0 
181.050995 50660400.0 
END IONS

BEGIN IONS
NAME="3,4-DIHYDROXYBENZOIC ACID CollisionEnergy:102040" M-H
PRECURSOR_MZ=153.019
INCHI="InChI=1S/C7H6O4/c8-5-2-1-4(7(10)11)3-6(5)9/h1-3,8-9H,(H,10,11)"
SMILES=O=C(O)c1ccc(O)c(O)c1
SPECTRUMID=CCMSLIB00010102494
59.246899 201941.0 
66.7687 178781.0 
81.034203 730794.0 
91.018402 220662.0 
104.325996 282365.0 
105.001999 161097.0 
108.022003 1689460.0 
109.028999 107885000.0 
153.018997 24705100.0 
153.039993 263535.0 
END IONS

BEGIN IONS
NAME=N-(3-methoxyphenyl)-2-[9-(4-methylphenyl)-6-oxohydropurin-8-ylthio]acetamide CollisionEnergy:102040 M+Na
PRECURSOR_MZ=444.11
INCHI="InChI=1S/C21H19N5O3S/c1-13-6-8-15(9-7-13)26-19-18(20(28)23-12-22-19)25-21(26)30-11-17(27)24-14-4-3-5-16(10-14)29-2/h3-10,12H,11H2,1-2H3,(H,24,27)(H,22,23,28)"
SMILES=COc1cccc(N=C(O)CSc2nc3c(O)ncnc3n2-c2ccc(C)cc2)c1
SPECTRUMID=CCMSLIB00010111263
56.412449 4087.0 
64.217346 3026.0 
66.751518 3691.0 
109.8209 3310.0 
186.052795 5208.0 
210.182068 5716.0 
214.076797 4168.0 
249.074402 88562.0 
279.030426 182133.0 
280.038605 214260.0 
281.048553 3709.0 
289.071228 29211.0 
293.045715 26659.0 
321.040924 137916.0 
429.086517 19206.0 
444.109619 9810085.0 
451.104919 4473.0 
END IONS

BEGIN IONS
NAME="17-[N-(2-chlorophenyl)carbamoyl]-1,2,6,6,10,17,20-heptamethyl-12-oxopentacyclo [12.8.0.0<2,11>.0<5,10>.0<15,20>]docos-13-en-7-yl acetate CollisionEnergy:102040" M+Na
PRECURSOR_MZ=644.348
INCHI="InChI=1S/C38H52ClNO4/c1-23(41)44-30-14-15-36(6)29(33(30,2)3)13-16-38(8)31(36)28(42)21-24-25-22-35(5,18-17-34(25,4)19-20-37(24,38)7)32(43)40-27-12-10-9-11-26(27)39/h9-12,21,25,29-31H,13-20,22H2,1-8H3,(H,40,43)"
SMILES=CC(=O)OC1CCC2(C)C(CCC3(C)C2C(=O)C=C2C4CC(C)(C(O)=Nc5ccccc5Cl)CCC4(C)CCC23C)C1(C)C
SPECTRUMID=CCMSLIB00010113296
65.461189 3215.0 
83.010811 6587.0 
92.387978 4533.0 
95.085983 5516.0 
107.085701 4968.0 
121.100998 3471.0 
217.158585 3573.0 
229.913254 3337.0 
233.814072 3092.0 
282.996765 3304.0 
285.219879 3813.0 
562.34137 4890.0 
584.325195 185437.0 
584.428528 6231.0 
595.994019 3735.0 
602.334839 20247.0 
644.347046 3201403.0 
662.357422 327518.0 
END IONS

BEGIN IONS
NAME="N-(2,5-dimethylphenyl)-2-(9-methyl-6-oxohydropurin-8-ylthio)acetamide CollisionEnergy:102040" M+H
PRECURSOR_MZ=344.118
INCHI="InChI=1S/C16H17N5O2S/c1-9-4-5-10(2)11(6-9)19-12(22)7-24-16-20-13-14(21(16)3)17-8-18-15(13)23/h4-6,8H,7H2,1-3H3,(H,19,22)(H,17,18,23)"
SMILES=Cc1ccc(C)c(N=C(O)CSc2nc3c(O)ncnc3n2C)c1
SPECTRUMID=CCMSLIB00010108954
56.168758 17440.0 
82.412666 19165.0 
84.98674 17816.0 
107.085342 92862.0 
117.069641 46778.0 
119.085693 36999.0 
130.065475 29755.0 
132.080093 24252.0 
134.096283 775194.0 
137.045166 25029.0 
144.081085 203830.0 
145.088623 721101.0 
147.068176 163444.0 
149.04567 77776.0 
150.053925 78588.0 
151.061752 239121.0 
160.07576 108711.0 
162.053986 25327.0 
162.091141 272043.0 
163.061142 79760.0 
168.021255 34201.0 
176.053207 23858.0 
181.017609 2866416.0 
183.033752 45941.0 
195.033401 14950662.0 
208.005157 67101.0 
213.044052 138946.0 
223.028214 80731864.0 
223.900238 31237.0 
236.059753 94054.0 
311.082703 44385.0 
326.105865 735729.0 
344.116974 8363225.0 
END IONS

BEGIN IONS
NAME="3,7,3'-Trihydroxyflavone CollisionEnergy:205060" M-H
PRECURSOR_MZ=269.046
INCHI="InChI=1S/C15H10O5/c16-9-3-1-2-8(6-9)15-14(19)13(18)11-5-4-10(17)7-12(11)20-15/h1-7,16-17,19H"
SMILES=O=c1c(O)c(-c2cccc(O)c2)oc2cc(O)ccc12
SPECTRUMID=CCMSLIB00010125968
62.707611 2051.0 
91.018623 12716.0 
93.03447 17446.0 
101.282059 2550.0 
117.033524 2890.0 
123.044937 2522.0 
133.02951 10601.0 
135.008728 15868.0 
136.222382 2944.0 
143.05014 3748.0 
153.018677 5261.0 
154.959091 2760.0 
167.049988 9938.0 
169.065735 36990.0 
171.045456 4531.0 
172.886322 20187.0 
175.004089 2739.0 
182.038193 3917.0 
185.060638 13860.0 
195.044891 43628.0 
196.053192 26645.0 
197.060959 19895.0 
199.03981 3023.0 
200.880432 13229.0 
211.040146 64362.0 
213.05542 49574.0 
223.039978 47408.0 
224.048141 46776.0 
225.055832 15593.0 
239.034637 30221.0 
240.041275 8673.0 
241.050613 14027.0 
252.042984 12756.0 
268.038116 2390.0 
269.045593 761541.0 
END IONS

BEGIN IONS
NAME=LITHOCHOLIC ACID CollisionEnergy:102040 M+formate
PRECURSOR_MZ=421.296
INCHI="InChI=1S/C24H40O3/c1-15(4-9-22(26)27)19-7-8-20-18-6-5-16-14-17(25)10-12-23(16,2)21(18)11-13-24(19,20)3/h15-21,25H,4-14H2,1-3H3,(H,26,27)/t15-,16-,17-,18+,19-,20+,21+,23+,24-/m1/s1"
SMILES=CC(CCC(=O)O)C1CCC2C3CCC4CC(O)CCC4(C)C3CCC12C
SPECTRUMID=CCMSLIB00010112292
73.952637 3116.0 
92.374977 2724.0 
101.291634 2673.0 
104.284569 3894.0 
112.093079 2481.0 
117.52993 2815.0 
148.956528 27204.0 
196.306717 2775.0 
216.943954 17832.0 
284.932617 35480.0 
331.830719 2596.0 
352.918304 11671.0 
375.290375 680076.0 
378.154877 2923.0 
393.299896 3218.0 
404.57901 2974.0 
421.295898 34235.0 
557.766602 2611.0 
579.82428 3537.0 
682.716919 2506.0 
END IONS

BEGIN IONS
NAME=cholic acid CollisionEnergy:205060 M+H-H2O
PRECURSOR_MZ=391.284
INCHI="InChI=1S/C24H40O5/c1-13(4-7-21(28)29)16-5-6-17-22-18(12-20(27)24(16,17)3)23(2)9-8-15(25)10-14(23)11-19(22)26/h13-20,22,25-27H,4-12H2,1-3H3,(H,28,29)/t13-,14+,15-,16-,17+,18+,19-,20+,22+,23+,24-/m1/s1"
SMILES=CC(CCC(=O)O)C1CCC2C3C(O)CC4CC(O)CCC4(C)C3CC(O)C12C
SPECTRUMID=CCMSLIB00010120210
53.039051 3779.0 
55.054729 33573.0 
56.47887 2431.0 
57.070358 3101.0 
58.49369 2282.0 
59.049511 3165.0 
67.054573 76873.0 
69.070343 21294.0 
71.0495 3584.0 
75.514954 3119.0 
79.054482 55618.0 
81.064796 5401.0 
81.070091 125205.0 
82.377243 3007.0 
83.04924 6685.0 
83.085564 24470.0 
85.064941 15717.0 
91.054398 56324.0 
93.069946 105225.0 
95.085564 108179.0 
99.043961 17441.0 
101.059837 23518.0 
105.069817 155641.0 
105.976044 2974.0 
107.085388 126490.0 
109.06456 5450.0 
109.10112 63744.0 
117.069908 25320.0 
119.085449 136325.0 
121.101227 56525.0 
123.080101 6099.0 
123.11631 11309.0 
127.065521 3434.0 
127.075493 4264.0 
129.069458 13576.0 
131.08551 66047.0 
131.588623 2619.0 
133.101059 113768.0 
135.079681 3431.0 
135.116745 42035.0 
137.096191 3621.0 
142.077438 3578.0 
143.085571 40451.0 
144.092728 3676.0 
145.101044 133804.0 
147.116745 114115.0 
149.0233 14021.0 
149.096298 6447.0 
149.132431 26510.0 
155.085297 11134.0 
156.092789 4823.0 
157.101196 65239.0 
159.116653 116376.0 
161.093872 3101.0 
161.132431 50095.0 
163.111801 3856.0 
163.147842 15361.0 
167.107315 3738.0 
169.100555 16860.0 
171.116806 57400.0 
173.132446 36345.0 
175.112 6786.0 
175.148102 17240.0 
183.116501 20286.0 
185.095856 4162.0 
185.132187 43995.0 
187.110489 2919.0 
187.148224 22240.0 
189.125961 4134.0 
189.163742 10128.0 
191.106522 14723.0 
193.121948 20084.0 
195.11618 5444.0 
197.132294 14172.0 
198.139374 4318.0 
199.147766 60473.0 
201.163452 17266.0 
205.121902 5602.0 
207.137939 12022.0 
209.131912 16125.0 
211.147659 13385.0 
213.163467 109238.0 
215.178482 18107.0 
223.147369 5581.0 
225.163208 13361.0 
227.142548 12613.0 
227.178909 25856.0 
231.172867 4057.0 
233.151917 3962.0 
239.179672 23640.0 
241.195663 21035.0 
245.152527 27907.0 
247.169189 13735.0 
253.194061 5533.0 
254.202713 6373.0 
255.209656 4780.0 
259.168976 17037.0 
261.183197 4524.0 
273.185547 11632.0 
287.938477 2644.0 
309.257202 37429.0 
313.21405 6348.0 
319.241791 16544.0 
327.267609 6450.0 
337.251984 73865.0 
355.262512 831594.0 
373.273193 124092.0 
391.204712 6557.0 
391.282715 33544.0 
END IONS

BEGIN IONS
NAME="8-[(2,6-dimethylpiperidyl)methyl]-7-hydroxy-4-phenylchromen-2-one CollisionEnergy:102040" M+Na
PRECURSOR_MZ=386.173
INCHI="InChI=1S/C23H25NO3/c1-15-7-6-8-16(2)24(15)14-20-21(25)12-11-18-19(13-22(26)27-23(18)20)17-9-4-3-5-10-17/h3-5,9-13,15-16,25H,6-8,14H2,1-2H3"
SMILES=CC1CCCC(C)N1Cc1c(O)ccc2c(-c3ccccc3)cc(=O)oc12
SPECTRUMID=CCMSLIB00010103402
56.999298 2349.0 
73.953819 2900.0 
86.164124 2967.0 
136.109894 52280.0 
136.212463 3201.0 
139.202866 2796.0 
214.425629 2872.0 
232.928665 2697.0 
237.464737 2888.0 
273.052246 1649614.0 
291.062622 130293.0 
314.077911 49070.0 
355.96463 2468.0 
381.011169 3094.0 
386.172516 279649.0 
END IONS

BEGIN IONS
NAME="6,9-dimethyl-3,4,5,3a,9b-pentahydrocyclopenta[1,2-c]quinoline-4-carboxylic aci d CollisionEnergy:205060" M-H
PRECURSOR_MZ=242.119
INCHI="InChI=1S/C15H17NO2/c1-8-6-7-9(2)13-12(8)10-4-3-5-11(10)14(16-13)15(17)18/h3-4,6-7,10-11,14,16H,5H2,1-2H3,(H,17,18)"
SMILES=Cc1ccc(C)c2c1NC(C(=O)O)C1CC=CC21
SPECTRUMID=CCMSLIB00010123728
51.0947 1940.0 
52.212471 2290.0 
71.46524 2790.0 
80.098557 2466.0 
85.802116 2167.0 
92.20816 2390.0 
119.909622 2116.0 
120.081993 20788.0 
185.629272 2184.0 
198.129074 36157.0 
242.118988 595538.0 
252.271118 2361.0 
264.534241 2341.0 
END IONS

BEGIN IONS
NAME="(3,4-dimethoxyphenyl)-N-{[(methylamino)thioxomethyl]amino}carboxamide CollisionEnergy:102040" M+H
PRECURSOR_MZ=270.091
INCHI="InChI=1S/C11H15N3O3S/c1-12-11(18)14-13-10(15)7-4-5-8(16-2)9(6-7)17-3/h4-6H,1-3H3,(H,13,15)(H2,12,14,18)"
SMILES=CN=C(S)NN=C(O)c1ccc(OC)c(OC)c1
SPECTRUMID=CCMSLIB00010110602
53.039108 3131.0 
59.481121 2495.0 
68.997124 4084.0 
79.054321 11662.0 
82.961838 3318.0 
92.386391 3089.0 
94.041634 4027.0 
100.905327 3047.0 
104.289467 3147.0 
107.049042 3513.0 
109.028214 5822.0 
109.0644 4619.0 
111.006706 2560.0 
122.036003 15768.0 
124.051651 26975.0 
126.030907 18183.0 
126.040543 2569.0 
139.074982 81828.0 
152.069916 4712.0 
155.069611 16477.0 
157.985031 2783.0 
164.272797 2698.0 
165.054291 4307076.0 
176.331024 2713.0 
181.07251 22431.0 
197.091583 320023.0 
212.037003 3739.0 
214.052856 26611.0 
235.387985 3260.0 
239.047882 56507.0 
244.391891 5870.0 
251.255753 2962.0 
258.403015 3183.0 
270.089386 22807.0 
END IONS

BEGIN IONS
NAME="(2H,3H-benzo[3,4-e]1,4-dioxin-6-ylsulfonyl)[2-(2,5-dimethylindol-3-yl)ethyl]am ine CollisionEnergy:102040" M+formate
PRECURSOR_MZ=431.128
INCHI="InChI=1S/C20H22N2O4S/c1-13-3-5-18-17(11-13)16(14(2)22-18)7-8-21-27(23,24)15-4-6-19-20(12-15)26-10-9-25-19/h3-6,11-12,21-22H,7-10H2,1-2H3"
SMILES=Cc1ccc2[nH]c(C)c(CCNS(=O)(=O)c3ccc4c(c3)OCCO4)c2c1
SPECTRUMID=CCMSLIB00010109377
50.0616 2385.0 
62.99958 2149.0 
68.630043 2621.0 
70.578346 2280.0 
80.640808 2851.0 
92.402847 3314.0 
112.946503 2424.0 
122.024902 4612.0 
174.955719 3230.0 
209.026108 5688.0 
214.018036 349671.0 
256.64624 2611.0 
313.109344 2575.0 
385.123108 450052.0 
390.988007 3677.0 
410.976929 2949.0 
430.979553 23423.0 
END IONS

BEGIN IONS
NAME="2',5-Dimethoxyflavone CollisionEnergy:205060" M+Na
PRECURSOR_MZ=305.078
INCHI="InChI=1S/C17H14O4/c1-19-13-7-4-3-6-11(13)16-10-12(18)17-14(20-2)8-5-9-15(17)21-16/h3-10H,1-2H3"
SMILES=COc1ccccc1-c1cc(=O)c2c(OC)cccc2o1
SPECTRUMID=CCMSLIB00010114787
73.936272 2840.0 
75.127579 2156.0 
75.190224 2706.0 
87.038017 2568.0 
90.97657 2635.0 
104.034218 2387.0 
119.48774 2843.0 
145.033585 2348.0 
150.043884 2236.0 
170.108261 2410.0 
234.542328 2717.0 
290.054504 24973.0 
303.410492 2819.0 
305.077911 3196183.0 
323.089172 13218.0 
END IONS

BEGIN IONS
NAME=Tetrahydropapaveroline CollisionEnergy:102040 M-H
PRECURSOR_MZ=286.108
INCHI="InChI=1S/C16H17NO4/c18-13-2-1-9(6-14(13)19)5-12-11-8-16(21)15(20)7-10(11)3-4-17-12/h1-2,6-8,12,17-21H,3-5H2"
SMILES=Oc1ccc(CC2NCCc3cc(O)c(O)cc32)cc1O
SPECTRUMID=CCMSLIB00010113617
73.956879 3306.0 
82.403282 3985.0 
92.383148 5073.0 
104.293732 2955.0 
122.037277 68876.0 
123.045067 52399.0 
124.016441 17047.0 
135.045212 14211.0 
137.024445 41182.0 
147.033096 7078.0 
154.027145 26550.0 
162.056122 4571803.0 
181.897125 12022.0 
183.913483 42071.0 
184.780075 3250.0 
209.721024 8209.0 
239.903214 19003.0 
257.913635 17271.0 
286.108673 2799703.0 
END IONS

BEGIN IONS
NAME="(2R)-2-[(4-{[(2-amino-4-oxo(8-hydropteridin-6-yl))methyl]amino}phenyl)carbonyl amino]pentanedioic acid, hydrate CollisionEnergy:102040" M-2H]
PRECURSOR_MZ=219.563
INCHI="InChI=1S/C19H19N7O6/c20-19-25-15-14(17(30)26-19)23-11(8-22-15)7-21-10-3-1-9(2-4-10)16(29)24-12(18(31)32)5-6-13(27)28/h1-4,8,12,21H,5-7H2,(H,24,29)(H,27,28)(H,31,32)(H3,20,22,25,26,30)/t12-/m1/s1"
SMILES=N=c1nc(O)c2nc(CNc3ccc(C(=O)NC(CCC(=O)O)C(=O)O)cc3)cnc2[nH]1
SPECTRUMID=CCMSLIB00010112084
59.01326 2823.0 
77.906487 2896.0 
82.029587 9305.0 
82.885529 1973.0 
85.029114 4431.0 
89.145798 2035.0 
118.700439 2553.0 
122.024307 5138.0 
128.035431 11913.0 
132.04422 11157.0 
135.032593 5404.0 
135.056503 3306.0 
147.056259 16319.0 
154.549454 60876.0 
155.041245 169776.0 
155.543289 18232.0 
174.042389 13945.0 
174.544754 2650.0 
174.564392 2368.0 
175.050064 99628.0 
175.08728 14000.0 
175.572876 76635.0 
176.057175 15451.0 
176.075928 3410.0 
176.095108 12701.0 
177.102875 11553.0 
188.56163 2680.0 
197.567795 313654.0 
198.069321 47770.0 
207.039871 53821.0 
210.557693 2700.0 
219.56282 62526.0 
220.063248 10050.0 
267.101257 15739.0 
269.078247 2324.0 
310.105438 9613.0 
311.089447 27861.0 
312.093811 2528.0 
322.10553 29233.0 
336.121796 43730.0 
337.123138 4861.0 
350.137634 16098.0 
362.100769 4087.0 
378.365906 2363.0 
391.324646 2443.0 
END IONS

BEGIN IONS
NAME=2-[(N-phenylcarbamoyl)amino]propanoic acid CollisionEnergy:205060 2M-H
PRECURSOR_MZ=415.162
INCHI="InChI=1S/C10H12N2O3/c1-7(9(13)14)11-10(15)12-8-5-3-2-4-6-8/h2-7H,1H3,(H,13,14)(H2,11,12,15)"
SMILES=CC(N=C(O)Nc1ccccc1)C(=O)O
SPECTRUMID=CCMSLIB00010122000
70.453468 2938.0 
76.704803 2979.0 
88.040138 3702668.0 
88.100471 3741.0 
92.401039 2922.0 
104.312363 3815.0 
114.01963 17422.0 
116.928467 23379.0 
128.78244 3000.0 
134.574829 2962.0 
207.077103 493098.0 
209.557663 3504.0 
209.576752 4321.0 
211.495361 2841.0 
227.955719 3777.0 
267.050659 3394.0 
290.106171 3080.0 
293.33139 2967.0 
377.577637 2759.0 
394.537292 2754.0 
END IONS

BEGIN IONS
NAME=3-(2-Thienyl)-dl-alanine CollisionEnergy:205060 M-H
PRECURSOR_MZ=170.028
INCHI="InChI=1S/C7H9NO2S/c8-6(7(9)10)4-5-2-1-3-11-5/h1-3,6H,4,8H2,(H,9,10)"
SMILES=NC(Cc1cccs1)C(=O)O
SPECTRUMID=CCMSLIB00010123824
66.757347 2267.0 
72.008743 91773.0 
75.569366 2110.0 
82.420151 2675.0 
82.995934 24815.0 
92.400467 2074.0 
99.027161 3727.0 
103.919693 2949.0 
104.310112 2322.0 
109.011673 287855.0 
125.006721 3713.0 
126.038231 14524.0 
153.001541 203460.0 
158.622269 2282.0 
170.028168 102438.0 
185.444138 3395.0 
END IONS

BEGIN IONS
NAME=2-(acetylamino)-3-indol-3-yl-N-{2-[5-methyl-2-(methylethyl)phenoxy]ethyl}propa namide CollisionEnergy:102040 M+Na
PRECURSOR_MZ=444.226
INCHI="InChI=1S/C25H31N3O3/c1-16(2)20-10-9-17(3)13-24(20)31-12-11-26-25(30)23(28-18(4)29)14-19-15-27-22-8-6-5-7-21(19)22/h5-10,13,15-16,23,27H,11-12,14H2,1-4H3,(H,26,30)(H,28,29)"
SMILES=CC(O)=NC(Cc1c[nH]c2ccccc12)C(O)=NCCOc1cc(C)ccc1C(C)C
SPECTRUMID=CCMSLIB00010108720
50.775681 3342.0 
51.91275 2782.0 
52.220249 3060.0 
52.989948 2887.0 
82.393478 3916.0 
91.202278 3211.0 
99.870201 2916.0 
130.066406 4302.0 
142.188004 3398.0 
210.477707 3429.0 
223.083313 46196.0 
237.098572 27363.0 
251.078674 15412.0 
252.109161 31749.0 
294.124084 5483.0 
402.176056 16247.0 
426.214111 16600.0 
441.798798 5707.0 
444.224487 9337650.0 
446.676361 4692.0 
END IONS

BEGIN IONS
NAME=CHEMBL1715881 CollisionEnergy:205060 M-H
PRECURSOR_MZ=577.156
INCHI="InChI=1S/C27H30O14/c1-10-20(31)22(33)24(35)26(38-10)41-27-25(36)23(34)21(32)18(40-27)9-37-13-6-14(29)19-15(30)8-16(39-17(19)7-13)11-2-4-12(28)5-3-11/h2-8,10,18,20-29,31-36H,9H2,1H3/t10-,18-,20-,21+,22+,23+,24+,25-,26-,27?/m0/s1"
SMILES=CC1OC(OC2OC(COc3cc(O)c4c(=O)cc(-c5ccc(O)cc5)oc4c3)C(O)C(O)C2O)C(O)C(O)C1O
SPECTRUMID=CCMSLIB00010123795
56.5835 3987.0 
60.541882 4733.0 
63.02359 150983.0 
65.002853 69392.0 
83.013527 8526.0 
89.002853 5353.0 
92.382683 5109.0 
93.034561 29631.0 
105.034439 23076.0 
107.013847 169631.0 
117.034576 326088.0 
121.029823 16313.0 
124.907303 3441.0 
133.029465 4892.0 
135.045258 19683.0 
136.221237 4871.0 
146.961273 18337.0 
147.009674 5059.0 
148.017685 6054.0 
149.024323 111686.0 
151.003799 101101.0 
155.050705 8244.0 
157.065765 20745.0 
159.04512 142802.0 
161.02449 101390.0 
169.066132 57040.0 
171.045761 16462.0 
172.048828 3947.0 
173.060913 4047.0 
174.95665 14011.0 
180.057922 21648.0 
181.066208 52049.0 
182.038315 5212.0 
183.044952 89806.0 
192.235504 4531.0 
195.045914 18047.0 
196.053131 35619.0 
197.060883 99732.0 
199.040253 23617.0 
200.046616 4253.0 
201.056198 74904.0 
203.035126 16073.0 
210.032303 6313.0 
211.040436 18645.0 
212.048019 4335.0 
213.056244 15010.0 
224.048843 39615.0 
225.055939 159411.0 
227.034927 85027.0 
239.035736 26106.0 
240.043243 45498.0 
241.050858 16479.0 
253.051956 6766.0 
267.029541 18598.0 
267.890594 10821.0 
267.918518 4614.0 
268.038208 513468.0 
269.045868 10831171.0 
270.050598 4990.0 
270.17749 6995.0 
270.20993 17261.0 
291.066956 6117.0 
304.91507 24508.0 
311.054352 30650.0 
577.157043 601517.0 
END IONS

BEGIN IONS
NAME=N-.alpha.-(tert-Butoxycarbonyl)-L-Histidine CollisionEnergy:205060 M+H
PRECURSOR_MZ=256.129
INCHI="InChI=1S/C11H17N3O4/c1-11(2,3)18-10(17)14-8(9(15)16)4-7-5-12-6-13-7/h5-6,8H,4H2,1-3H3,(H,12,13)(H,14,17)(H,15,16)/t8-/m0/s1"
SMILES=CC(C)(C)OC(O)=NC(Cc1cnc[nH]1)C(=O)O
SPECTRUMID=CCMSLIB00010121653
56.05014 3266.0 
57.070358 31390.0 
60.329601 2291.0 
62.434662 2507.0 
66.570107 2643.0 
66.575531 2266.0 
68.050034 5735.0 
73.93734 3578.0 
79.021523 3781.0 
81.044983 11585.0 
82.052841 38215.0 
82.058006 3417.0 
83.0606 168178.0 
83.946457 2701.0 
84.959877 17285.0 
85.516548 2856.0 
93.044853 112278.0 
95.060432 195427.0 
110.071289 3256587.0 
111.055397 13247.0 
133.95903 55110.0 
136.050293 6765.0 
139.05014 3738.0 
149.954239 10625.0 
151.969315 5963.0 
156.076782 1621276.0 
158.927292 6499.0 
176.937881 6140.0 
177.949036 17184.0 
195.959671 21697.0 
200.066513 827610.0 
225.238647 2848.0 
232.928726 5014.0 
239.258011 2725.0 
256.12915 28873.0 
END IONS

BEGIN IONS
NAME=2-(4-hydroxyquinazolin-2-ylthio)-N-(4-methylphenyl)acetamide CollisionEnergy:205060 M+H
PRECURSOR_MZ=326.096
INCHI="InChI=1S/C17H15N3O2S/c1-11-6-8-12(9-7-11)18-15(21)10-23-17-19-14-5-3-2-4-13(14)16(22)20-17/h2-9H,10H2,1H3,(H,18,21)(H,19,20,22)"
SMILES=Cc1ccc(NC(=O)CSc2nc(O)c3ccccc3n2)cc1
SPECTRUMID=CCMSLIB00010119560
53.039089 15352.0 
53.972729 2909.0 
54.724689 2907.0 
57.06086 2607.0 
69.338448 3208.0 
77.039032 12980.0 
79.054573 6338.0 
82.457848 2993.0 
91.054153 25112.0 
92.36734 3095.0 
93.057137 18233.0 
93.069923 68525.0 
95.049118 6187.0 
103.054192 5748.0 
104.049271 50781.0 
105.033707 26582.0 
105.069809 16639.0 
106.064873 13828.0 
107.073013 4396.0 
108.08065 205438.0 
108.088966 6724.0 
118.065132 3429.0 
120.043411 3160.0 
120.080742 309024.0 
130.065781 2916.0 
132.044357 4012483.0 
133.052246 7550.0 
145.039307 5906.0 
146.059753 23299.0 
147.055038 17829.0 
148.075714 14795.0 
150.054871 923295.0 
162.000885 46194.0 
179.027206 4519.0 
185.751389 3762.0 
191.027145 786539.0 
193.042923 6207.0 
205.927765 3210.0 
219.022064 3287838.0 
221.192184 3265.0 
250.439804 3381.0 
272.579803 3027.0 
284.083618 4422.0 
293.763397 3712.0 
326.095459 77941.0 
END IONS

BEGIN IONS
NAME=2-[4-((1E)prop-1-enyl)-2-methoxyphenoxy]acetic acid CollisionEnergy:102040 M+Na
PRECURSOR_MZ=245.078
INCHI="InChI=1S/C12H14O4/c1-3-4-9-5-6-10(11(7-9)15-2)16-8-12(13)14/h3-7H,8H2,1-2H3,(H,13,14)/b4-3+"
SMILES=CC=Cc1ccc(OCC(=O)O)c(OC)c1
SPECTRUMID=CCMSLIB00010110543
64.100769 2120.0 
92.366737 3154.0 
95.389214 2234.0 
132.825928 2215.0 
137.046051 3003.0 
165.077286 3951.0 
170.309921 2631.0 
174.268555 2180.0 
186.064575 37616.0 
207.508209 7848.0 
210.736511 3358.0 
212.979828 2506.0 
221.524323 25195.0 
222.025421 9558.0 
227.183441 3745.0 
233.032623 4399.0 
233.534195 3130.0 
245.078308 482309.0 
END IONS

BEGIN IONS
NAME=ethyl 2-[(2-chloro-4-nitrophenyl)carbonylamino]-3-indol-3-ylpropanoate CollisionEnergy:102040 M-H
PRECURSOR_MZ=414.086
INCHI="InChI=1S/C20H18ClN3O5/c1-2-29-20(26)18(9-12-11-22-17-6-4-3-5-14(12)17)23-19(25)15-8-7-13(24(27)28)10-16(15)21/h3-8,10-11,18,22H,2,9H2,1H3,(H,23,25)"
SMILES=CCOC(=O)C(Cc1c[nH]c2ccccc12)N=C(O)c1ccc([N+](=O)[O-])cc1Cl
SPECTRUMID=CCMSLIB00010112596
53.847191 2235.0 
54.994141 2452.0 
74.754257 2610.0 
86.016899 2885.0 
97.204353 2991.0 
98.996101 40645.0 
102.549606 2659.0 
112.00396 3247.0 
116.05072 32946.0 
127.028549 3202.0 
128.035339 337070.0 
136.262482 2964.0 
139.972656 2718.0 
147.020004 247702.0 
155.985825 245433.0 
165.030594 13760.0 
173.997696 2719.0 
177.030853 12334.0 
191.009674 14825.0 
194.996719 64186.0 
199.97496 19654.0 
203.009918 273655.0 
209.925232 3422.0 
219.041183 2914.0 
221.020126 9834.0 
227.045959 48028.0 
238.986465 133342.0 
249.051682 446242.0 
257.09317 46204.0 
285.028381 1108050.0 
368.043579 15899.0 
393.981476 3270.0 
414.085938 363875.0 
END IONS

BEGIN IONS
NAME=N-adamantanyl-2-{1-[(4-chlorophenyl)carbonyl]-5-methoxy-2-methylindol-3-yl}ace tamide CollisionEnergy:205060 M+H
PRECURSOR_MZ=491.21
INCHI="InChI=1S/C29H31ClN2O3/c1-17-24(13-27(33)31-29-14-18-9-19(15-29)11-20(10-18)16-29)25-12-23(35-2)7-8-26(25)32(17)28(34)21-3-5-22(30)6-4-21/h3-8,12,18-20H,9-11,13-16H2,1-2H3,(H,31,33)"
SMILES=COc1ccc2c(c1)c(CC(O)=NC13CC4CC(CC(C4)C1)C3)c(C)n2C(=O)c1ccc(Cl)cc1
SPECTRUMID=CCMSLIB00010119619
50.01564 21321.0 
51.023369 48442.0 
53.0392 5015.0 
55.054691 8047.0 
57.070381 3967.0 
62.963501 3721.0 
65.038872 6437.0 
66.755287 3399.0 
67.054588 229025.0 
69.07019 48931.0 
75.023247 27992.0 
77.038757 3916.0 
79.018379 26247.0 
79.054466 733608.0 
81.070091 180508.0 
86.999748 160035.0 
90.976707 5716.0 
91.054291 97680.0 
92.393639 3777.0 
93.033867 6202.0 
93.069946 1024722.0 
94.041237 3916.0 
95.049103 16025.0 
104.305344 4545.0 
105.06987 20934.0 
105.087013 4256.0 
107.085449 843384.0 
110.99968 15394.0 
111.043907 4422.0 
114.994339 16473.0 
129.010025 52914.0 
133.101471 19043.0 
135.11673 9086665.0 
138.994446 2602250.0 
139.004456 124612.0 
140.99115 4659.0 
158.00087 3945.0 
160.075226 4578.0 
174.091034 5555.0 
176.143341 39562.0 
301.983429 3728.0 
312.07901 14537.0 
314.093109 48542.0 
355.083252 34971.0 
465.400116 4226.0 
491.20874 743746.0 
END IONS

BEGIN IONS
NAME="N-[2-(3,4-dimethoxyphenyl)ethyl]-2-{7-[(2-fluorophenyl)methyl]-1,3-dimethyl-2, 6-dioxo(1,3,7-trihydropurin-8-ylthio)}acetamide CollisionEnergy:102040" M+H
PRECURSOR_MZ=542.187
INCHI="InChI=1S/C26H28FN5O5S/c1-30-23-22(24(34)31(2)26(30)35)32(14-17-7-5-6-8-18(17)27)25(29-23)38-15-21(33)28-12-11-16-9-10-19(36-3)20(13-16)37-4/h5-10,13H,11-12,14-15H2,1-4H3,(H,28,33)"
SMILES=COc1ccc(CCN=C(O)CSc2nc3c(c(=O)n(C)c(=O)n3C)n2Cc2ccccc2F)cc1OC
SPECTRUMID=CCMSLIB00010108286
56.49184 3921.0 
57.01413 8761.0 
57.737629 3968.0 
63.91394 4023.0 
82.392082 5314.0 
83.02951 77702.0 
88.188469 4421.0 
89.038597 5962.0 
92.370117 5597.0 
105.070267 7261.0 
108.749603 7261.0 
109.044907 7631433.0 
109.340813 7200.0 
119.479973 4435.0 
121.065392 5386.0 
123.023979 92017.0 
123.060387 4408.0 
133.064926 6328.0 
135.060516 94651.0 
135.079712 6916.0 
136.055878 46687.0 
136.200745 5905.0 
137.076508 19625.0 
141.016373 7989.0 
149.059921 19106.0 
150.068756 78992.0 
151.075348 55920.0 
152.045975 5400.0 
153.016602 8903.0 
153.06311 4483.0 
164.083221 205501.0 
165.091019 397859.0 
168.022232 6126.0 
177.082886 58122.0 
180.101608 15608.0 
181.071838 8265.0 
182.117767 33761.0 
183.047272 6306.0 
187.067413 5269.0 
192.101746 20888.0 
193.071609 5805.0 
194.118378 19291.0 
203.0616 7336.0 
205.058029 5011.0 
205.077591 27159.0 
205.109238 9486.0 
208.097 17424.0 
211.028503 244873.0 
213.107483 10240.0 
223.027634 4232.0 
225.044098 211030.0 
226.081696 6036.0 
229.947769 5205.0 
232.087418 7556.0 
236.067734 19488.0 
239.023697 21056.0 
239.05954 20004.0 
241.102219 30849.0 
245.072021 103396.0 
245.097534 7082.0 
248.065582 10880.0 
248.091919 5481.0 
251.023224 5698.0 
253.038879 1096473.0 
258.104858 122086.0 
258.13327 6547.0 
262.099121 31416.0 
265.038239 45050.0 
267.054596 22627.0 
273.128265 749942.0 
276.058258 39156.0 
278.076904 7952.0 
287.093262 9245.0 
289.10965 84635.0 
290.154663 153158.0 
299.058594 40070.0 
299.091766 4651.0 
304.054352 41545.0 
319.065765 462363.0 
333.082275 55996.0 
361.076355 5223327.0 
485.165527 9811.0 
524.178955 33817.0 
538.922424 8813.0 
542.18689 10100858.0 
545.483459 12832.0 
END IONS

BEGIN IONS
NAME="N-[(1E)-2-(4-{(1E)-2-[(3,5-dihydroxyphenyl)carbonylamino]-2-azavinyl}phenyl)-1 -azavinyl](3,5-dihydroxyphenyl)carboxamide CollisionEnergy:102040" M-H
PRECURSOR_MZ=433.115
INCHI="InChI=1S/C22H18N4O6/c27-17-5-15(6-18(28)9-17)21(31)25-23-11-13-1-2-14(4-3-13)12-24-26-22(32)16-7-19(29)10-20(30)8-16/h1-12,27-30H,(H,25,31)(H,26,32)/b23-11+,24-12+"
SMILES=OC(=NN=Cc1ccc(C=NN=C(O)c2cc(O)cc(O)c2)cc1)c1cc(O)cc(O)c1
SPECTRUMID=CCMSLIB00010113725
65.039513 3826.0 
67.018562 6040.0 
81.932404 2943.0 
90.034782 49191.0 
95.013924 14885.0 
107.013947 3742.0 
108.021744 44877.0 
108.045677 4323.0 
109.016312 13442.0 
109.02951 335455.0 
110.024803 56610.0 
111.008591 12660.0 
116.050842 14182.0 
123.008453 11898.0 
123.032494 6415.0 
124.01683 29074.0 
125.024437 4535.0 
134.024811 258343.0 
136.006424 3018.0 
139.903442 3716.0 
140.050919 3817.0 
151.027481 53617.0 
152.035339 636979.0 
156.081818 3985.0 
177.030396 23169.0 
182.060944 13204.0 
208.07756 5792.0 
210.05603 33249.0 
223.063324 5452.0 
224.072342 36132.0 
236.033356 3937.0 
239.072403 4147.0 
240.079605 4018.0 
251.059494 4804.0 
252.066559 147369.0 
254.082504 12846.0 
254.853683 3235.0 
263.046143 70052.0 
264.05368 54110.0 
267.078247 17045.0 
268.085632 13745.0 
269.092987 19142.0 
279.10199 13566.0 
280.072662 204292.0 
282.088348 4977.0 
307.099182 21314.0 
321.115021 34933.0 
335.09256 34882.0 
344.092133 11965.0 
348.932739 3237.0 
349.107788 103986.0 
360.085999 6818.0 
363.100159 14094.0 
377.1138 178736.0 
377.302795 3525.0 
388.083252 84797.0 
405.109009 208743.0 
416.088776 361912.0 
433.115326 3191566.0 
471.833099 3401.0 
END IONS

BEGIN IONS
NAME=57524-89-7 CollisionEnergy:205060 M+Cl
PRECURSOR_MZ=481.236
INCHI="InChI=1S/C26H38O6/c1-4-5-6-22(31)32-26(21(30)15-27)12-10-19-18-8-7-16-13-17(28)9-11-24(16,2)23(18)20(29)14-25(19,26)3/h13,18-20,23,27,29H,4-12,14-15H2,1-3H3/t18-,19-,20-,23+,24-,25-,26-/m0/s1"
SMILES=CCCCC(=O)OC1(C(=O)CO)CCC2C3CCC4=CC(=O)CCC4(C)C3C(O)CC21C
SPECTRUMID=CCMSLIB00010118971
66.306023 2518.0 
88.001556 2503.0 
92.382553 3608.0 
93.901001 2526.0 
115.810028 2327.0 
126.19931 2747.0 
130.036148 3207.0 
136.219589 2497.0 
161.906555 2520.0 
212.656708 2693.0 
238.733643 2614.0 
260.982605 2540.0 
344.876526 5400.0 
END IONS

BEGIN IONS
NAME="10-ethyl-10,10a-dimethyl-5,6,7,10a-tetrahydro-1,3-oxazolidino[4,3-a]isoquinoli n-8-one CollisionEnergy:102040" M+H
PRECURSOR_MZ=246.149
INCHI="InChI=1S/C15H19NO2/c1-4-14(2)15(3)12-8-6-5-7-11(12)9-10-16(15)13(17)18-14/h5-8H,4,9-10H2,1-3H3"
SMILES=CCC1(C)OC(=O)N2CCc3ccccc3C21C
SPECTRUMID=CCMSLIB00010105027
50.347939 54151.0 
50.696461 56416.0 
56.489079 61068.0 
57.07037 95554.0 
64.632828 67510.0 
66.762703 52708.0 
69.070068 65163.0 
71.085808 119491.0 
74.023949 136211.0 
78.44519 62672.0 
82.393013 79633.0 
87.462761 59947.0 
88.039574 361644.0 
91.054611 63075.0 
104.278061 71888.0 
105.069542 84037.0 
111.995537 59126.0 
115.054626 120768.0 
117.069817 1384228.0 
118.643341 66327.0 
128.062714 259888.0 
129.06987 2618310.0 
131.085449 449547.0 
132.080856 118208.0 
141.069946 124236.0 
142.078125 488072.0 
143.08548 5914040.0 
146.096283 5244045.0 
147.07933 76110.0 
155.085938 281248.0 
156.093155 1228810.0 
157.101181 7007642.0 
158.060684 142193.0 
159.117172 1128866.0 
160.113373 110810.0 
170.108932 11603263.0 
171.11525 119930.0 
172.075729 92987.0 
173.132019 111938.0 
176.07048 1057245.0 
185.132416 85953176.0 
190.086105 32885052.0 
190.125931 226266.0 
202.158783 4660848.0 
203.14357 139548.0 
204.102356 92568.0 
213.113693 85108.0 
228.138062 10781149.0 
246.148636 201291392.0 
END IONS

BEGIN IONS
NAME="8-{[(3-chloro-4-imidazolylphenyl)amino]sulfonyl}-4,6-dimethylhydroquinolin-2-o ne CollisionEnergy:102040" 2M-H
PRECURSOR_MZ=855.135
INCHI="InChI=1S/C20H17ClN4O3S/c1-12-7-15-13(2)9-19(26)23-20(15)18(8-12)29(27,28)24-14-3-4-17(16(21)10-14)25-6-5-22-11-25/h3-11,24H,1-2H3,(H,23,26)"
SMILES=Cc1cc(S(=O)(=O)Nc2ccc(-n3ccnc3)c(Cl)c2)c2nc(O)cc(C)c2c1
SPECTRUMID=CCMSLIB00010105995
64.370567 3040.0 
67.055077 3215.0 
67.18634 3229.0 
73.222054 3360.0 
73.975433 3463.0 
104.319702 4398.0 
115.749947 3249.0 
130.306976 4025.0 
136.248489 3571.0 
232.73468 3720.0 
427.06311 199888.0 
END IONS

BEGIN IONS
NAME="3-(2-methylpropyl)-3a,4,5,6-tetrahydro-2-benzofuran-1(3h)-one CollisionEnergy:205060" M+H-H2O
PRECURSOR_MZ=177.127
INCHI="InChI=1S/C12H18O2/c1-8(2)7-11-9-5-3-4-6-10(9)12(13)14-11/h6,8-9,11H,3-5,7H2,1-2H3"
SMILES=CC(C)CC1OC(=O)C2=CCCCC21
SPECTRUMID=CCMSLIB00010125159
52.300041 2250.0 
53.039101 11605.0 
53.995041 2080.0 
55.018162 3239.0 
55.054668 13401.0 
57.033829 18531.0 
59.049549 21538.0 
65.128883 2062.0 
67.054619 53711.0 
69.033737 4036.0 
69.070221 34969.0 
72.936829 2071.0 
79.054466 115669.0 
81.070137 82187.0 
83.04924 16303.0 
83.085732 2634.0 
91.054298 89523.0 
93.069962 221363.0 
94.899963 10282.0 
95.049271 5460.0 
95.085602 24478.0 
97.064659 2451.0 
105.069946 37840.0 
107.049217 16109.0 
107.085426 137439.0 
107.093826 4586.0 
109.064491 9053.0 
109.100182 2757.0 
111.080322 3975.0 
117.060806 2272.0 
117.069878 59596.0 
118.655273 2646.0 
119.085579 45241.0 
121.064613 11808.0 
121.101067 42569.0 
123.080101 9725.0 
129.07016 4001.0 
130.077393 2913.0 
131.08548 32609.0 
133.100983 32449.0 
135.080414 23610.0 
135.116653 75831.0 
135.926193 5131.0 
144.093277 5610.0 
149.011856 3035.0 
149.095917 4061.0 
149.132355 121425.0 
153.936661 12986.0 
159.116714 92633.0 
177.127182 285594.0 
213.064316 2488.0 
220.77095 2731.0 
END IONS

BEGIN IONS
NAME=L-cystine CollisionEnergy:102040 M+H
PRECURSOR_MZ=241.031
INCHI="InChI=1S/C6H12N2O4S2/c7-3(5(9)10)1-13-14-2-4(8)6(11)12/h3-4H,1-2,7-8H2,(H,9,10)(H,11,12)/t3-,4-/m0/s1"
SMILES=N[C@@H](CSSC[C@H](N)C(=O)O)C(=O)O
SPECTRUMID=CCMSLIB00010102912
58.2915 1957.790039 
73.949997 2357.459961 
74.0065 2446.540039 
74.024399 24098.199219 
84.260696 1927.390015 
86.303497 2058.399902 
87.949402 2158.120117 
108.327003 2058.300049 
118.643997 2218.75 
120.012001 69911.5 
122.027 48861.601562 
135.964005 2165.629883 
136.203003 3812.939941 
151.983994 131664.0 
153.998993 11384.099609 
159.617996 2240.169922 
168.264999 2035.280029 
195.026001 16763.400391 
230.445007 2323.0 
241.007004 4180.839844 
241.031006 58097.101562 
END IONS

BEGIN IONS
NAME="3,6-DIMETHOXYFLAVONE CollisionEnergy:102040" M+H
PRECURSOR_MZ=283.096
INCHI="InChI=1S/C17H14O4/c1-19-12-8-9-14-13(10-12)15(18)17(20-2)16(21-14)11-6-4-3-5-7-11/h3-10H,1-2H3"
SMILES=COc1ccc2oc(-c3ccccc3)c(OC)c(=O)c2c1
SPECTRUMID=CCMSLIB00010103572
68.855904 7986.0 
72.256363 4870.0 
84.959686 49006.0 
92.367973 6157.0 
105.03347 168949.0 
119.049294 30087.0 
123.044083 5762.0 
135.04361 68659.0 
149.059448 6360.0 
150.77858 5488.0 
151.039368 23456.0 
163.039597 7859.0 
168.041382 8261.0 
177.054535 6593.0 
181.064682 88818.0 
195.080978 29176.0 
197.060135 11318.0 
209.911957 9492.0 
211.075027 38479.0 
225.054504 7210.0 
226.0625 8027.0 
227.106293 53538.0 
234.991852 21076.0 
239.069885 79267.0 
240.077667 438223.0 
251.023148 19579.0 
251.069916 7164.0 
253.003326 47115.0 
253.04509 6771.0 
259.961456 8475.0 
260.029541 36584.0 
267.065002 3003462.0 
268.072754 7221200.0 
270.052399 48244.0 
281.081055 23821.0 
281.872375 30130.0 
282.085571 47198.0 
283.096161 33548782.0 
284.328644 24336.0 
END IONS

BEGIN IONS
NAME="1,2,6,6,10,17,20-heptamethyl-12-oxo-17-(prop-2-ynyloxycarbonyl)pentacyclo[12.8 .0.0<2,11>.0<5,10>.0<15,20>]docos-13-en-7-yl acetate CollisionEnergy:102040" 2M+H
PRECURSOR_MZ=1101.74
INCHI="InChI=1S/C35H50O5/c1-10-19-39-29(38)32(6)16-15-31(5)17-18-34(8)23(24(31)21-32)20-25(37)28-33(7)13-12-27(40-22(2)36)30(3,4)26(33)11-14-35(28,34)9/h1,20,24,26-28H,11-19,21H2,2-9H3"
SMILES=C#CCOC(=O)C1(C)CCC2(C)CCC3(C)C(=CC(=O)C4C5(C)CCC(OC(C)=O)C(C)(C)C5CCC43C)C2C1
SPECTRUMID=CCMSLIB00010113946
79.053703 9116.0 
81.070129 70337.0 
83.048607 28997.0 
83.085403 10066.0 
90.976357 12620.0 
91.053719 13603.0 
93.069283 29892.0 
95.048897 11241.0 
95.085548 182387.0 
102.811272 6252.0 
105.069077 35491.0 
106.498581 5526.0 
107.085548 132741.0 
109.063797 9464.0 
109.101242 77839.0 
111.079903 12817.0 
119.085533 114139.0 
121.101151 172153.0 
123.079628 13173.0 
123.116699 53394.0 
133.101212 85247.0 
135.079712 26220.0 
135.116745 251890.0 
135.771576 6965.0 
136.200455 7547.0 
137.095581 10636.0 
137.13179 12041.0 
139.110367 14488.0 
145.100082 28031.0 
147.116776 62273.0 
149.084122 7614.0 
149.096008 186344.0 
149.132935 44571.0 
157.100525 32486.0 
159.116608 54154.0 
161.095428 14028.0 
161.132263 110199.0 
163.11055 10233.0 
163.146927 35059.0 
165.127518 6241.0 
171.116394 12958.0 
173.132095 83054.0 
175.110779 14312.0 
175.132721 7671.0 
175.148132 187213.0 
177.163712 113551.0 
185.131897 8350.0 
187.112183 8976.0 
187.147308 41488.0 
189.125458 12020.0 
189.163681 537708.0 
191.178101 28095.0 
199.14801 80193.0 
201.162567 32607.0 
209.096848 11514.0 
209.115768 8079.0 
211.147736 8109.0 
213.16272 37406.0 
215.14389 61113.0 
215.178085 14058.0 
217.158875 201680.0 
219.173111 10328.0 
221.135239 6858.0 
225.160751 7942.0 
226.950424 10232.0 
227.177856 36570.0 
229.158325 7609.0 
229.194717 9880.0 
231.174408 7421.0 
235.170395 6056.0 
239.178192 6623.0 
241.193481 9658.0 
243.210419 25236.0 
245.152237 7277.0 
245.189194 51250.0 
253.195221 57427.0 
255.209473 7558.0 
257.189056 10633.0 
267.210114 14734.0 
271.204712 110239.0 
273.184967 60217.0 
277.17868 76500.0 
285.220856 13594.0 
287.164948 7029.0 
299.164673 20794.0 
299.198181 8616.0 
301.179382 42110.0 
311.196533 9845.0 
315.196899 11043.0 
329.209625 15320.0 
337.212799 9803.0 
355.226471 191108.0 
389.319183 49416.0 
407.329712 116268.0 
465.856049 7249.0 
467.351562 51781.0 
473.342316 37370.0 
491.350922 123496.0 
531.078125 7195.0 
548.038818 7672.0 
551.372925 9803399.0 
552.373291 25632.0 
1101.739014 1534445.0 
END IONS

BEGIN IONS
NAME=Rhoifolin CollisionEnergy:205060 M+H
PRECURSOR_MZ=579.171
INCHI="InChI=1S/C27H30O14/c1-10-20(32)22(34)24(36)26(37-10)41-25-23(35)21(33)18(9-28)40-27(25)38-13-6-14(30)19-15(31)8-16(39-17(19)7-13)11-2-4-12(29)5-3-11/h2-8,10,18,20-30,32-36H,9H2,1H3/t10-,18+,20-,21+,22+,23?,24+,25+,26-,27+/m0/s1"
SMILES=CC1OC(OC2C(Oc3cc(O)c4c(=O)cc(-c5ccc(O)cc5)oc4c3)OC(CO)C(O)C2O)C(O)C(O)C1O
SPECTRUMID=CCMSLIB00010125114
50.090229 3437.0 
57.03405 7317.0 
60.73138 3582.0 
63.011921 3649.0 
67.018227 44442.0 
68.997513 21457.0 
71.049522 50136.0 
73.028603 8043.0 
75.044403 4672.0 
77.547546 3766.0 
83.049263 3436.0 
85.02314 4271.0 
85.028572 87194.0 
91.054176 27532.0 
97.028343 4256.0 
111.04335 4521.0 
119.039803 6778.0 
119.049141 161866.0 
121.028221 54715.0 
129.018082 15247.0 
129.055252 14359.0 
138.765884 3667.0 
145.028519 51799.0 
153.018188 400154.0 
163.039444 40372.0 
171.02887 73113.0 
187.037674 6281.0 
203.070953 14688.0 
225.054062 30387.0 
229.04808 25675.0 
243.064407 28082.0 
244.308304 3445.0 
247.060196 7475.0 
270.051025 4034.0 
271.059753 7598009.0 
417.397858 4148.0 
433.113556 56504.0 
579.169006 17523.0 
END IONS

BEGIN IONS
NAME="N-(5-chloro(2-pyridyl))-2-(2-1,2,3,4-tetrahydroisoquinolyl)acetamide CollisionEnergy:102040" M+H
PRECURSOR_MZ=302.105
INCHI="InChI=1S/C16H16ClN3O/c17-14-5-6-15(18-9-14)19-16(21)11-20-8-7-12-3-1-2-4-13(12)10-20/h1-6,9H,7-8,10-11H2,(H,18,19,21)"
SMILES=OC(CN1CCc2ccccc2C1)=Nc1ccc(Cl)cn1
SPECTRUMID=CCMSLIB00010104103
73.945473 20690.0 
82.390701 27062.0 
104.278938 24718.0 
105.069893 52169.0 
117.069687 198107.0 
119.085281 160982.0 
129.021469 351723.0 
129.069687 106693.0 
131.072906 100978.0 
134.096313 3463273.0 
141.008774 33523.0 
141.021255 827316.0 
144.080566 100355.0 
146.096298 38196388.0 
146.554092 27934.0 
168.448364 24229.0 
169.016159 37281848.0 
171.012726 38195.0 
172.075607 84635.0 
174.09111 1576943.0 
213.364319 25267.0 
218.019684 25068.0 
300.752411 29348.0 
302.104889 48777960.0 
END IONS

BEGIN IONS
NAME=2382-79-8 CollisionEnergy:205060 M+H
PRECURSOR_MZ=246.124
INCHI="InChI=1S/C13H15N3O2/c1-8(17)16-12(13(14)18)6-9-7-15-11-5-3-2-4-10(9)11/h2-5,7,12,15H,6H2,1H3,(H2,14,18)(H,16,17)/t12-/m0/s1"
SMILES=CC(O)=NC(Cc1c[nH]c2ccccc12)C(=N)O
SPECTRUMID=CCMSLIB00010123665
78.736801 2628.0 
82.394386 2659.0 
92.373833 3176.0 
114.189499 2759.0 
115.053886 32845.0 
117.057114 15776.0 
118.064857 56795.0 
130.064987 399504.0 
132.080643 875421.0 
142.065002 122908.0 
142.074341 3268.0 
144.080505 65649.0 
145.075897 25880.0 
146.05983 58187.0 
156.080719 21045.0 
157.995651 2671.0 
158.060059 11282.0 
158.083649 67947.0 
159.091522 2858559.0 
160.075424 152466.0 
160.090546 5304.0 
169.075775 351776.0 
170.059738 493686.0 
183.0914 96634.0 
184.075333 45630.0 
187.086288 499400.0 
188.070267 39357.0 
201.101974 1469177.0 
204.112701 5970.0 
211.085999 78784.0 
229.096741 649713.0 
END IONS

BEGIN IONS
NAME="2-[6-(4-chloro-3,5-dimethylphenoxy)-4-methylpyrimidin-2-ylthio]-1-phenylethan- 1-one CollisionEnergy:205060" M+Na
PRECURSOR_MZ=421.075
INCHI="InChI=1S/C21H19ClN2O2S/c1-13-9-17(10-14(2)20(13)22)26-19-11-15(3)23-21(24-19)27-12-18(25)16-7-5-4-6-8-16/h4-11H,12H2,1-3H3"
SMILES=Cc1cc(Oc2cc(C)c(Cl)c(C)c2)nc(SCC(=O)c2ccccc2)n1
SPECTRUMID=CCMSLIB00010115223
50.46162 2371.0 
79.792633 2617.0 
82.388008 2852.0 
91.053978 2988.0 
92.36412 3810.0 
107.268967 2618.0 
146.646774 2368.0 
157.946457 3287.0 
180.167328 2747.0 
220.498077 2535.0 
421.073883 1090160.0 
END IONS

BEGIN IONS
NAME=6-bromo-3-(2-chlorophenyl)-4-phenylchromen-2-one CollisionEnergy:102040 M+H
PRECURSOR_MZ=410.978
INCHI=InChI=1S/C21H12BrClO2/c22-14-10-11-18-16(12-14)19(13-6-2-1-3-7-13)20(21(24)25-18)15-8-4-5-9-17(15)23/h1-12H
SMILES=O=c1oc2ccc(Br)cc2c(-c2ccccc2)c1-c1ccccc1Cl
SPECTRUMID=CCMSLIB00010114676
61.634869 2903.0 
65.827789 2545.0 
66.731903 3223.0 
82.385033 3463.0 
86.488586 2717.0 
92.362503 3382.0 
118.632729 2834.0 
176.734955 2952.0 
211.313538 2383.0 
241.102005 21490.0 
252.093353 15129.0 
253.10173 51568.0 
269.097198 18953.0 
269.51889 2550.0 
279.817535 3095.0 
287.061432 3953.0 
288.069885 15164.0 
297.090851 34210.0 
302.628418 3126.0 
304.064423 130002.0 
313.666077 2732.0 
331.052338 24804.0 
344.784302 2517.0 
348.013336 21137.0 
375.00177 17902.0 
383.420074 2582.0 
387.716888 2673.0 
410.977722 1425192.0 
411.250366 11723.0 
731.775635 2853.0 
END IONS

BEGIN IONS
NAME=ABSCISIC ACID GLUCOSYL ESTER CollisionEnergy:205060 M-H
PRECURSOR_MZ=425.182
INCHI="InChI=1S/C21H30O9/c1-11(5-6-21(28)12(2)8-13(23)9-20(21,3)4)7-15(24)30-19-18(27)17(26)16(25)14(10-22)29-19/h5-8,14,16-19,22,25-28H,9-10H2,1-4H3/b6-5+,11-7-/t14-,16-,17+,18-,19+,21-/m1/s1"
SMILES=CC1=CC(=O)CC([C@]1(/C=C/C(=C\C(=O)O[C@H]2[C@@H]([C@H]([C@@H]([C@H](O2)CO)O)O)O)/C)O)(C)C
SPECTRUMID=CCMSLIB00010102199
52.251949 4114.647949 
83.128723 3516.992432 
96.448555 3288.580566 
125.060432 8257.511719 
136.2883 5353.776367 
144.636215 3880.361572 
151.076111 6304.291504 
163.076645 5492.968262 
173.454239 3652.37793 
181.667007 3913.628662 
201.128403 11220.713867 
203.1064 5938.898438 
204.115143 16476.462891 
218.166916 3524.947998 
219.138962 26734.888672 
233.292419 4048.976074 
263.128479 54394.789062 
417.35022 3567.372559 
421.639587 3714.2146 
END IONS

BEGIN IONS
NAME=2-(7-hydroxy-4-methyl-2-oxochromen-3-yl)-N-(2-phenylethyl)acetamide CollisionEnergy:205060 2M-H
PRECURSOR_MZ=673.255
INCHI="InChI=1S/C20H19NO4/c1-13-16-8-7-15(22)11-18(16)25-20(24)17(13)12-19(23)21-10-9-14-5-3-2-4-6-14/h2-8,11,22H,9-10,12H2,1H3,(H,21,23)"
SMILES=Cc1c(CC(O)=NCCc2ccccc2)c(=O)oc2cc(O)ccc12
SPECTRUMID=CCMSLIB00010118625
56.046711 3029.0 
65.039284 13847.0 
67.018417 3908.0 
87.871437 3227.0 
90.777153 3019.0 
92.396088 3361.0 
95.827591 3804.0 
104.307137 2980.0 
108.021744 28803.0 
108.13343 2986.0 
109.029549 217576.0 
109.656189 2860.0 
117.071228 3697.0 
121.02932 3752.0 
130.042618 24036.0 
133.029785 7990.0 
133.959488 3186.0 
142.386337 3294.0 
143.050613 6521.0 
145.065857 135735.0 
147.04538 22688.0 
148.016357 21715.0 
159.044739 5125.0 
161.060989 7338.0 
171.044739 4107.0 
174.032944 22497.0 
175.039368 4959.0 
185.453659 3603.0 
187.0401 225368.0 
188.048203 85911.0 
188.071548 14243.0 
189.056015 101124.0 
199.082611 3355.0 
201.079865 4347.0 
202.051422 61682.0 
206.021606 3786.0 
215.03508 147630.0 
220.037552 21874.0 
230.045792 7501.0 
232.060944 3914.0 
266.118439 3782.0 
268.134216 7507.0 
292.133911 21911.0 
292.167084 3420.0 
294.114258 13328.0 
321.101013 18149.0 
336.124298 1104384.0 
412.630615 3546.0 
453.671814 3645.0 
458.763641 3238.0 
533.233276 3572.0 
END IONS

BEGIN IONS
NAME=3-carboxy-1-methylpyridinium CollisionEnergy:102040 M
PRECURSOR_MZ=138.055
INCHI="InChI=1S/C7H7NO2/c1-8-4-2-3-6(5-8)7(9)10/h2-5H,1H3/p+1"
SMILES=C[n+]1cccc(C(=O)O)c1
SPECTRUMID=CCMSLIB00010126597
64.047203 1298740.0 
65.0392 2212220.0 
66.747299 1030390.0 
67.054901 2093360.0 
92.049896 18376800.0 
92.384804 2109750.0 
93.057701 2046150.0 
94.065498 72989800.0 
96.044701 7824520.0 
104.296997 1517210.0 
110.059998 53948000.0 
121.539001 1324480.0 
131.272003 1177790.0 
136.009003 1324810.0 
138.054993 1152099968.0 
138.477005 2001670.0 
END IONS

BEGIN IONS
NAME=CHEMBL1565874 CollisionEnergy:205060 2M-H
PRECURSOR_MZ=575.119
INCHI="InChI=1S/C15H12O6/c16-8-4-9-14(20)10(6-21-15(9)13(19)5-8)7-1-2-11(17)12(18)3-7/h1-5,10,16-19H,6H2/t10-/m1/s1"
SMILES=O=C1c2cc(O)cc(O)c2OCC1c1ccc(O)c(O)c1
SPECTRUMID=CCMSLIB00010121382
60.541409 2665.0 
63.023819 12857.0 
65.002853 63844.0 
65.006363 3742.0 
66.745079 2832.0 
66.753464 3142.0 
79.897034 2847.0 
83.013611 27481.0 
98.524727 2526.0 
107.013786 115406.0 
107.021744 4930.0 
109.029617 12952.0 
125.02433 16947.0 
134.037094 4043.0 
135.044983 501044.0 
136.216492 3792.0 
151.003418 361994.0 
165.019669 3129.0 
169.014694 4633.0 
169.263489 2994.0 
175.220825 2704.0 
208.638336 13974.0 
287.055908 448767.0 
338.947144 2824.0 
460.983826 6636.0 
587.742493 3253.0 
END IONS

BEGIN IONS
NAME="4'-Hydroxy-2',4,6'-trimethoxychalcone CollisionEnergy:102040" M+H
PRECURSOR_MZ=315.123
INCHI="InChI=1S/C18H18O5/c1-21-14-7-4-12(5-8-14)6-9-15(20)18-16(22-2)10-13(19)11-17(18)23-3/h4-11,19H,1-3H3/b9-6+"
SMILES=COc1ccc(C=CC(=O)c2c(OC)cc(O)cc2OC)cc1
SPECTRUMID=CCMSLIB00010105129
76.863907 3760.0 
89.195198 3957.0 
92.373177 4394.0 
95.04879 4113.0 
111.043938 6986.0 
121.06443 55171.0 
125.059807 13419.0 
133.064682 133972.0 
133.075668 6564.0 
135.044205 4845.0 
137.059891 29013.0 
138.030991 7042.0 
147.080093 5448.0 
151.038025 6726.0 
153.054672 6898.0 
161.059509 1379931.0 
166.025711 31217.0 
179.069611 5505.0 
180.420883 13626.0 
181.049271 7875448.0 
181.681335 15007.0 
184.036194 17826.0 
199.059372 50513.0 
207.064713 5318.0 
269.189728 5805.0 
273.110992 45082.0 
283.097748 5051.0 
297.111786 16455.0 
300.099884 21471.0 
313.107452 4089.0 
313.679474 14978.0 
315.121918 8708547.0 
316.577698 8339.0 
END IONS

BEGIN IONS
NAME=e-64 CollisionEnergy:102040 M+H
PRECURSOR_MZ=358.209
INCHI="InChI=1S/C15H27N5O5/c1-8(2)7-9(20-13(22)10-11(25-10)14(23)24)12(21)18-5-3-4-6-19-15(16)17/h8-11H,3-7H2,1-2H3,(H,18,21)(H,20,22)(H,23,24)(H4,16,17,19)/t9-,10-,11-/m0/s1"
SMILES=CC(C)CC(N=C(O)C1OC1C(=O)O)C(O)=NCCCCNC(=N)N
SPECTRUMID=CCMSLIB00010114562
50.904861 3214.0 
51.143169 2695.0 
69.070129 11892.0 
71.012871 2538.0 
72.081169 149082.0 
75.852913 2585.0 
86.096642 27236.0 
89.02372 4914.0 
92.368347 2607.0 
97.076027 29333.0 
104.275101 3926.0 
110.532112 2741.0 
113.594002 2764.0 
114.102654 204656.0 
115.086639 10564.0 
131.128616 3006.0 
132.028976 32183.0 
141.113678 2968.0 
142.097 3579.0 
144.02919 15692.0 
172.097122 17210.0 
200.091644 154965.0 
215.123566 2736.0 
244.212784 11753.0 
298.175934 5718.0 
299.160309 31908.0 
303.981903 2518.0 
316.185455 12759.0 
330.211243 17605.0 
341.182587 24951.0 
358.208038 1477901.0 
END IONS

BEGIN IONS
NAME="2-(7-ethyl-3-methyl-2,6-dioxo-1,3,7-trihydropurin-8-ylthio)acetic acid CollisionEnergy:205060" M+H
PRECURSOR_MZ=285.065
INCHI="InChI=1S/C10H12N4O4S/c1-3-14-6-7(11-10(14)19-4-5(15)16)13(2)9(18)12-8(6)17/h3-4H2,1-2H3,(H,15,16)(H,12,17,18)"
SMILES=CCn1c(SCC(=O)O)nc2c1c(O)nc(=O)n2C
SPECTRUMID=CCMSLIB00010123967
56.050011 7335.0 
57.045269 12610.0 
58.029221 7661.0 
58.995468 4128.0 
67.02948 17296.0 
68.037216 43527.0 
68.049767 24410.0 
68.645477 3367.0 
69.045067 64905.0 
71.990448 7562.0 
81.04493 75548.0 
82.028954 4818.0 
83.060478 36963.0 
86.00589 15417.0 
87.958488 3549.0 
94.040062 30859.0 
95.060463 87277.0 
96.055847 12539.0 
96.068153 19264.0 
97.076317 34170.0 
99.001106 174698.0 
99.019073 3917.0 
100.008797 4525.0 
104.294762 3528.0 
108.055382 3926.0 
109.039383 5955.0 
109.050629 5257.0 
110.034851 6028.0 
110.071213 33079.0 
113.016747 42736.0 
120.05558 5756.0 
122.071022 77566.0 
123.055183 112715.0 
123.065193 8254.0 
124.050484 17558.0 
124.086723 4279.0 
125.004211 4867.0 
125.015587 4317.0 
126.011848 71981.0 
126.995743 7470.0 
127.019829 37152.0 
127.032082 14720.0 
128.027252 7040.0 
138.029602 14025.0 
138.066071 15587.0 
139.037292 5418.0 
140.027542 125433.0 
141.011261 6127.0 
141.065659 24338.0 
142.043503 5695.0 
145.006485 16560.0 
148.050751 5494.0 
149.082306 13306.0 
150.066437 19834.0 
151.074234 13220.0 
151.096909 6534.0 
152.081482 5803.0 
153.023132 6084.0 
154.006775 62397.0 
154.031525 9876.0 
154.043137 276004.0 
155.014587 261859.0 
155.051605 19779.0 
156.022949 3939.0 
156.058884 14805.0 
159.021896 3634.0 
162.06601 5271.0 
165.021881 5679.0 
165.040024 3870.0 
165.077026 12040.0 
166.006378 13399.0 
166.048126 14123.0 
167.038727 19718.0 
167.056213 82994.0 
168.022354 247034.0 
169.083618 5928.0 
170.001526 33226.0 
170.037704 4747.0 
170.075836 4235.0 
173.008545 6744.0 
173.025177 184039.0 
179.056122 106488.0 
180.063599 7462.0 
181.054398 75813.0 
181.070786 7155.0 
181.085632 19697.0 
182.038071 232565.0 
182.061325 20378.0 
183.009262 24342.0 
183.046265 35674.0 
183.068985 10360.0 
183.086441 3858.0 
184.017349 16563.0 
186.03273 48609.0 
191.056366 23457.0 
192.063507 4984.0 
192.249359 3241.0 
193.017654 7416.0 
193.071793 209619.0 
194.079468 46426.0 
195.033218 4058.0 
195.087814 46205.0 
196.017044 7942.0 
196.053802 15796.0 
197.012573 511836.0 
198.020386 1352518.0 
199.028229 79538.0 
200.04892 5821.0 
207.086731 3616.0 
208.093994 4012.0 
211.028122 1188134.0 
212.035538 23813.0 
213.043381 4860.0 
214.027405 3655.0 
221.011734 3927.0 
224.048248 6884.0 
225.043732 1077190.0 
226.051483 518881.0 
227.059341 178559.0 
227.084991 4350.0 
239.022873 135611.0 
239.059006 87459.0 
241.074875 13210.0 
242.059189 17165.0 
257.033325 42729.0 
267.054077 237821.0 
267.086823 7562.0 
285.064697 3810467.0 
END IONS

BEGIN IONS
NAME=ethyl 4-[2-(4-hydroxyquinazolin-2-ylthio)acetylamino]benzoate CollisionEnergy:205060 M+Na
PRECURSOR_MZ=406.083
INCHI="InChI=1S/C19H17N3O4S/c1-2-26-18(25)12-7-9-13(10-8-12)20-16(23)11-27-19-21-15-6-4-3-5-14(15)17(24)22-19/h3-10H,2,11H2,1H3,(H,20,23)(H,21,22,24)"
SMILES=CCOC(=O)c1ccc(NC(=O)CSc2nc(O)c3ccccc3n2)cc1
SPECTRUMID=CCMSLIB00010120977
66.735382 2412.0 
71.132713 2576.0 
75.642883 2350.0 
104.274559 3711.0 
149.227783 2249.0 
157.706619 2452.0 
160.474716 3009.0 
193.969467 2602.0 
215.024399 5053.0 
241.00386 29617.0 
242.842194 2968.0 
378.052429 3810.0 
406.08252 1232186.0 
END IONS

BEGIN IONS
NAME=Wedelolactone CollisionEnergy:205060 M-H
PRECURSOR_MZ=313.035
INCHI="InChI=1S/C16H10O7/c1-21-6-2-10(19)14-12(3-6)23-16(20)13-7-4-8(17)9(18)5-11(7)22-15(13)14/h2-5,17-19H,1H3"
SMILES=COc1cc(O)c2c(c1)oc(=O)c1c3cc(O)c(O)cc3oc21
SPECTRUMID=CCMSLIB00010123455
53.108391 2680.0 
60.22213 2160.0 
70.422287 2501.0 
70.973907 2841.0 
85.336578 2598.0 
86.699448 2500.0 
90.291893 2288.0 
99.46463 3251.0 
104.321182 3083.0 
157.02887 3677.0 
170.036591 9692.0 
186.032349 32079.0 
188.010406 3945.0 
198.031387 20553.0 
200.012268 3535.0 
201.019516 5490.0 
209.024277 4775.0 
210.032486 23858.0 
213.020248 5372.0 
214.027542 28378.0 
217.013611 3570.0 
222.581818 2653.0 
225.018204 2800.0 
226.027054 25344.0 
229.013626 3053.0 
230.021973 6056.0 
241.013626 4636.0 
242.022141 57383.0 
252.006271 11481.0 
253.013321 14652.0 
254.021744 46422.0 
256.001282 2865.0 
267.228638 2616.0 
269.008789 96258.0 
270.016418 177422.0 
285.036774 4428.0 
297.003723 37071.0 
298.011719 1930007.0 
313.035187 879700.0 
329.713959 3472.0 
490.98349 3376.0 
END IONS

BEGIN IONS
NAME="3,6,3',4'-Tetramethoxyflavone CollisionEnergy:205060" M+Na
PRECURSOR_MZ=365.1
INCHI="InChI=1S/C19H18O6/c1-21-12-6-8-14-13(10-12)17(20)19(24-4)18(25-14)11-5-7-15(22-2)16(9-11)23-3/h5-10H,1-4H3"
SMILES=COc1ccc2oc(-c3ccc(OC)c(OC)c3)c(OC)c(=O)c2c1
SPECTRUMID=CCMSLIB00010115285
54.970531 2476.0 
60.840031 2086.0 
63.690498 2271.0 
64.959198 2021.0 
66.116592 2149.0 
66.759644 2952.0 
69.377502 2034.0 
92.363678 2912.0 
119.989799 2341.0 
158.828354 2097.0 
262.832397 2440.0 
276.269257 2401.0 
296.082062 2240.0 
350.075348 32910.0 
365.099274 412733.0 
383.108185 3364.0 
END IONS

BEGIN IONS
NAME=4'-Methoxyflavone CollisionEnergy:205060 2M-H
PRECURSOR_MZ=503.15
INCHI="InChI=1S/C16H12O3/c1-18-12-8-6-11(7-9-12)16-10-14(17)13-4-2-3-5-15(13)19-16/h2-10H,1H3"
SMILES=COc1ccc(-c2cc(=O)c3ccccc3o2)cc1
SPECTRUMID=CCMSLIB00010114752
65.954468 2270.0 
71.611031 2203.0 
73.948662 3071.0 
82.392982 2405.0 
86.966309 2554.0 
117.230438 2216.0 
146.960938 4774.0 
174.956406 4314.0 
202.444794 2812.0 
238.060608 2718.0 
251.070892 35631.0 
252.800018 2805.0 
355.115356 3229.0 
END IONS

BEGIN IONS
NAME=4-({4-[(2-fluorophenyl)methyl]piperazinyl}methyl)-7-methylchromen-2-one CollisionEnergy:205060 M+Na
PRECURSOR_MZ=389.164
INCHI="InChI=1S/C22H23FN2O2/c1-16-6-7-19-18(13-22(26)27-21(19)12-16)15-25-10-8-24(9-11-25)14-17-4-2-3-5-20(17)23/h2-7,12-13H,8-11,14-15H2,1H3"
SMILES=Cc1ccc2c(CN3CCN(Cc4ccccc4F)CC3)cc(=O)oc2c1
SPECTRUMID=CCMSLIB00010116646
53.525799 2297.0 
86.096878 2311.0 
88.364143 2324.0 
88.678482 2434.0 
95.591057 2582.0 
136.219696 2424.0 
369.268646 2842.0 
389.163086 149354.0 
END IONS

BEGIN IONS
NAME="{2-[(4-methoxyphenyl)sulfonyl](3-1,2,3,4-tetrahydroisoquinolyl)}-N-benzylcarbo xamide CollisionEnergy:205060" M+formate
PRECURSOR_MZ=481.144
INCHI="InChI=1S/C24H24N2O4S/c1-30-21-11-13-22(14-12-21)31(28,29)26-17-20-10-6-5-9-19(20)15-23(26)24(27)25-16-18-7-3-2-4-8-18/h2-14,23H,15-17H2,1H3,(H,25,27)"
SMILES=COc1ccc(S(=O)(=O)N2Cc3ccccc3CC2C(O)=NCc2ccccc2)cc1
SPECTRUMID=CCMSLIB00010119449
66.755814 2731.0 
73.755051 2434.0 
73.96946 2839.0 
76.228767 2308.0 
83.948753 2558.0 
92.394363 2927.0 
96.794456 2732.0 
104.306793 2964.0 
107.426437 2749.0 
108.659233 2448.0 
112.986481 2915.0 
119.070183 2293.0 
119.465393 2639.0 
153.131714 2367.0 
157.999069 2684.0 
171.011688 25306.0 
204.111343 2640.0 
279.627075 3353.0 
328.835602 2716.0 
480.989258 4072.0 
END IONS

BEGIN IONS
NAME=nicotinic acid CollisionEnergy:102040 M+H
PRECURSOR_MZ=124.039
INCHI="InChI=1S/C6H5NO2/c8-6(9)5-2-1-3-7-4-5/h1-4H,(H,8,9)"
SMILES=O=C(O)c1cccnc1
SPECTRUMID=CCMSLIB00010107386
62.010319 6042.0 
68.04985 51903.0 
73.933517 7009.0 
78.034081 226707.0 
79.042221 38675.0 
80.049751 2194592.0 
96.044456 1377600.0 
96.050179 12345.0 
106.028427 16340.0 
118.621384 7918.0 
122.023209 31519.0 
123.681969 39704.0 
124.03933 32121750.0 
124.397774 43445.0 
136.18071 7122.0 
140.034134 89933.0 
END IONS

BEGIN IONS
NAME=xanthosine CollisionEnergy:102040 M+Na
PRECURSOR_MZ=307.065
INCHI="InChI=1S/C10H12N4O6/c15-1-3-5(16)6(17)9(20-3)14-2-11-4-7(14)12-10(19)13-8(4)18/h2-3,5-6,9,15-17H,1H2,(H2,12,13,18,19)/t3-,5-,6-,9-/m1/s1"
SMILES=OCC1OC(n2cnc3c(O)nc(O)nc32)C(O)C1O
SPECTRUMID=CCMSLIB00010114122
57.03421 5711.0 
69.034172 3722.0 
73.029083 3793.0 
73.938187 4136.0 
82.383202 4253.0 
90.554352 3394.0 
97.029312 3709.0 
104.260033 3825.0 
104.268677 3381.0 
106.614304 3320.0 
133.048843 5496.0 
155.031769 4275.0 
169.198654 3883.0 
175.02272 1855403.0 
185.366394 3528.0 
212.992935 3377.0 
216.638748 4099.0 
307.064575 2242695.0 
325.073669 13808.0 
END IONS

BEGIN IONS
NAME=SANGUINARINE CollisionEnergy:102040 M
PRECURSOR_MZ=332.092
INCHI="InChI=1S/C20H14NO4/c1-21-8-15-12(4-5-16-20(15)25-10-22-16)13-3-2-11-6-17-18(24-9-23-17)7-14(11)19(13)21/h2-8H,9-10H2,1H3/q+1"
SMILES=C[n+]1cc2c3c(ccc2c2ccc4cc5c(cc4c21)OCO5)OCO3
SPECTRUMID=CCMSLIB00010106128
69.303574 3925.0 
73.240677 4153.0 
75.805168 3874.0 
76.405746 4432.0 
82.402344 4529.0 
83.029694 18838.0 
91.855507 3599.0 
92.381523 5048.0 
103.430107 3891.0 
104.289627 4390.0 
163.012772 5083.0 
218.095825 5713.0 
244.07605 37849.0 
246.090729 104360.0 
248.10733 31123.0 
250.084732 9737.0 
272.071136 30594.0 
274.085754 385617.0 
275.092926 9081.0 
276.100861 82370.0 
278.080658 20659.0 
285.700592 6341.0 
289.071533 47783.0 
290.08075 21408.0 
302.080597 409551.0 
303.089478 25337.0 
304.096222 1156454.0 
306.072296 29774.0 
314.083466 15121.0 
316.059723 7574.0 
317.067627 709968.0 
318.0737 7149.0 
330.075562 278390.0 
330.529297 5070.0 
331.082886 15620.0 
332.091125 24995872.0 
333.662903 7044.0 
END IONS

BEGIN IONS
NAME="4,5,7-trimethyl-6-(piperidylsulfonyl)hydroquinolin-2-one CollisionEnergy:102040" M+H
PRECURSOR_MZ=335.142
INCHI="InChI=1S/C17H22N2O3S/c1-11-10-15(20)18-14-9-12(2)17(13(3)16(11)14)23(21,22)19-7-5-4-6-8-19/h9-10H,4-8H2,1-3H3,(H,18,20)"
SMILES=Cc1cc2[nH]c(=O)cc(C)c2c(C)c1S(=O)(=O)N1CCCCC1
SPECTRUMID=CCMSLIB00010105765
56.592152 3073.0 
59.17852 2841.0 
64.050774 2741.0 
66.734467 4511.0 
69.070213 3906.0 
73.944054 3116.0 
84.081039 81472.0 
84.609039 2776.0 
85.089348 4150.0 
86.096741 605328.0 
92.366814 3172.0 
104.272919 3461.0 
158.096893 49820.0 
164.21283 3184.0 
171.067169 4351.0 
175.580887 3442.0 
186.091431 1769556.0 
187.10173 13198.0 
202.086349 292303.0 
204.102203 75245.0 
211.996933 4252.0 
234.05777 32997.0 
250.022141 5504.0 
250.031082 9188.0 
250.053223 627704.0 
335.142303 6077916.0 
END IONS

BEGIN IONS
NAME=meta-topolin CollisionEnergy:102040 M+H
PRECURSOR_MZ=242.104
INCHI="InChI=1S/C12H11N5O/c18-9-3-1-2-8(4-9)5-13-11-10-12(15-6-14-10)17-7-16-11/h1-4,6-7,18H,5H2,(H2,13,14,15,16,17)"
SMILES=C1=CC(=CC(=C1)O)CNC2=NC=NC3=C2NC=N3
SPECTRUMID=CCMSLIB00010102067
50.688297 4666.78125 
53.038815 6597.256348 
56.672714 4232.446777 
77.038742 7440.610352 
79.054413 45552.417969 
82.44561 5396.464355 
95.049011 7425.635254 
106.762047 9957.984375 
107.049316 4966582.5 
107.337608 11263.46582 
136.062012 357834.625 
143.002274 5111.455078 
148.061661 80575.117188 
173.07048 7450.160156 
225.076202 11995.503906 
241.129044 20532.564453 
242.103134 9828818.0 
243.083267 18097.082031 
244.697693 5182.009277 
END IONS

BEGIN IONS
NAME=4'-Hydroxy-3'-Methoxyflavone CollisionEnergy:102040 M+Na
PRECURSOR_MZ=291.063
INCHI="InChI=1S/C16H12O4/c1-19-16-8-10(6-7-12(16)17)15-9-13(18)11-4-2-3-5-14(11)20-15/h2-9,17H,1H3"
SMILES=COc1cc(-c2cc(=O)c3ccccc3o2)ccc1O
SPECTRUMID=CCMSLIB00010104420
50.748119 1967.0 
56.82478 2477.0 
66.744034 2145.0 
73.957031 2826.0 
92.380524 2705.0 
104.290512 2648.0 
118.902451 2155.0 
166.621674 2058.0 
176.084671 2316.0 
193.987442 2789.0 
266.936768 2493.0 
291.062561 474913.0 
291.157074 25124.0 
291.192688 15842.0 
309.07254 12248.0 
END IONS

BEGIN IONS
NAME=3-hydroxy-2-[2-(2-methylindol-3-yl)ethyl]-3-phenylisoindolin-1-one CollisionEnergy:102040 M+Na
PRECURSOR_MZ=405.157
INCHI="InChI=1S/C25H22N2O2/c1-17-19(20-11-6-8-14-23(20)26-17)15-16-27-24(28)21-12-5-7-13-22(21)25(27,29)18-9-3-2-4-10-18/h2-14,26,29H,15-16H2,1H3"
SMILES=Cc1[nH]c2ccccc2c1CCN1C(=O)c2ccccc2C1(O)c1ccccc1
SPECTRUMID=CCMSLIB00010109557
111.665077 3557.0 
129.021896 3502.0 
144.080963 5118.0 
158.013519 4084.0 
158.057159 3696.0 
158.096375 151785.0 
206.690735 3360.0 
208.476471 3859.0 
230.057144 15148.0 
233.057419 24223.0 
233.38327 4119.0 
244.073334 4970.0 
248.068054 77731.0 
361.168579 6925.0 
387.142914 4471.0 
403.059387 15512.0 
404.143982 12727.0 
405.156677 11435673.0 
407.268433 13035.0 
407.326569 4272.0 
END IONS

BEGIN IONS
NAME="2',4'-dihydroxy-3,4-dimethoxychalcone CollisionEnergy:102040" M+H-H2O
PRECURSOR_MZ=283.096
INCHI="InChI=1S/C17H16O5/c1-21-16-8-4-11(9-17(16)22-2)3-7-14(19)13-6-5-12(18)10-15(13)20/h3-10,18,20H,1-2H3/b7-3+"
SMILES=COc1ccc(C=CC(=O)c2ccc(O)cc2O)cc1OC
SPECTRUMID=CCMSLIB00010103433
55.083549 4667.0 
77.775627 3668.0 
105.0336 22947.0 
136.187134 4867.0 
151.002365 24177.0 
163.038681 7367.0 
181.049042 7284.0 
182.021957 5754.0 
194.071655 20574.0 
197.063019 5257.0 
198.463272 5026.0 
210.069107 4702.0 
222.067429 73418.0 
223.073578 6549.0 
225.05484 6887.0 
237.052261 30570.0 
238.06163 9885.0 
239.069885 1514090.0 
240.075897 29117.0 
250.061035 52408.0 
251.069214 85174.0 
252.078049 18735.0 
253.049454 110922.0 
254.056854 407923.0 
255.064011 85400.0 
265.049713 39485.0 
267.064789 1480164.0 
268.07254 3492467.0 
281.83902 8771.0 
281.873199 12571.0 
282.089478 17154.0 
283.095978 24715732.0 
284.326355 14055.0 
END IONS

BEGIN IONS
NAME=CCG-208483 CollisionEnergy:205060 M+H-H2O
PRECURSOR_MZ=747.504
INCHI="InChI=1S/C43H72O11/c1-12-30(35(46)27(8)34(45)28(9)36-23(4)21-24(5)37(51-36)31(13-2)39(47)48)38-25(6)22-26(7)42(52-38)18-15-32(44)43(54-42)20-19-40(11,53-43)33-16-17-41(49,14-3)29(10)50-33/h15,18,23-34,36-38,44-45,49H,12-14,16-17,19-22H2,1-11H3,(H,47,48)/t23-,24-,25-,26+,27-,28-,29-,30-,31+,32+,33+,34+,36+,37?,38-,40-,41+,42-,43-/m0/s1"
SMILES=CCC(C(=O)O)C1OC(C(C)C(O)C(C)C(=O)C(CC)C2OC3(C=CC(O)C4(CCC(C)(C5CCC(O)(CC)C(C)O5)O4)O3)C(C)CC2C)C(C)CC1C
SPECTRUMID=CCMSLIB00010121537
53.038971 6936.0 
55.01849 33752.0 
55.054749 55678.0 
56.304249 3467.0 
57.03397 54045.0 
57.07045 35708.0 
59.049561 6092.0 
62.86554 4202.0 
65.624573 3806.0 
67.054626 100827.0 
67.45652 3950.0 
69.033928 190754.0 
69.070229 146242.0 
71.049507 70214.0 
71.085869 4251.0 
73.065018 21102.0 
73.597473 3927.0 
79.054543 61011.0 
81.070183 210664.0 
82.402077 4079.0 
83.049149 41856.0 
83.085899 48795.0 
85.028297 6760.0 
85.065247 30942.0 
87.080399 6722.0 
91.054207 61375.0 
93.069977 135730.0 
95.049271 76795.0 
95.085632 281642.0 
97.06488 196542.0 
97.101349 8387.0 
99.0439 26593.0 
99.080597 70739.0 
101.059853 18346.0 
104.294533 4950.0 
105.069901 104664.0 
106.808296 4096.0 
107.048897 8902.0 
107.08551 219979.0 
107.16433 3796.0 
109.064697 67475.0 
109.101189 108166.0 
111.044479 5407.0 
111.08036 176312.0 
113.059624 9147.0 
113.095947 39526.0 
117.06987 9180.0 
119.085503 116529.0 
121.028191 5069.0 
121.064499 40716.0 
121.101212 137399.0 
123.04406 26732.0 
123.08049 88095.0 
123.116753 123831.0 
125.059624 5928.0 
125.096062 41082.0 
127.075188 29960.0 
129.069626 6140.0 
131.085739 27397.0 
133.064774 8585.0 
133.101273 82750.0 
135.044022 40271.0 
135.080154 26053.0 
135.116791 117944.0 
137.059921 17210.0 
137.095947 73847.0 
137.132355 104167.0 
139.075333 40955.0 
139.111801 39537.0 
141.127304 39252.0 
143.085663 26063.0 
145.064789 31220.0 
145.10141 42749.0 
147.080902 28157.0 
147.116821 108924.0 
149.059601 87633.0 
149.096222 57392.0 
149.132492 8618.0 
151.075424 24256.0 
151.111923 77371.0 
153.127228 33787.0 
156.092407 7005.0 
157.101624 21433.0 
159.080185 25231.0 
159.117203 9657.0 
161.096298 23423.0 
161.132538 44468.0 
163.075378 25865.0 
163.111511 77268.0 
163.147964 15542.0 
165.0914 6958.0 
165.127258 157734.0 
167.10762 4189.0 
169.122284 21749.0 
171.11554 13311.0 
173.095886 24469.0 
173.133301 7913.0 
175.075836 5226.0 
175.112244 32594.0 
175.147675 32952.0 
177.090591 9195.0 
177.127625 5810.0 
179.105377 6032.0 
179.143097 41001.0 
181.121796 53980.0 
181.157974 14861.0 
183.13768 82078.0 
185.097748 5176.0 
185.133514 5056.0 
187.112076 26070.0 
189.091019 3779.0 
189.127365 69771.0 
191.106659 21749.0 
191.143723 16938.0 
193.158966 20362.0 
197.131638 4172.0 
197.152924 5513.0 
199.111908 18263.0 
199.133163 38025.0 
201.12738 7841.0 
203.10614 19047.0 
203.143906 31489.0 
205.086212 24587.0 
207.137817 57063.0 
211.096207 22220.0 
213.128128 6969.0 
215.106339 44289.0 
215.143661 5209.0 
217.121902 75401.0 
221.117249 8504.0 
221.153198 40462.0 
225.148026 87692.0 
227.104584 4599.0 
231.138184 5515.0 
231.17421 5171.0 
233.188522 5147.0 
239.141891 5207.0 
239.164658 54319.0 
241.15947 7218.0 
247.171082 4674.0 
249.150192 6447.0 
249.184738 14887.0 
251.199982 41892.0 
259.168365 8450.0 
267.194946 4592.0 
269.153625 21794.0 
275.163788 4336.0 
277.143951 4732.0 
277.178772 7043.0 
283.16925 8285.0 
287.163574 37837.0 
287.495605 5303.0 
295.189453 5483.0 
301.179718 51350.0 
303.230957 5694.0 
313.214935 8908.0 
315.192139 4750.0 
321.241425 72515.0 
323.851074 4279.0 
337.215149 9325.0 
339.252747 64316.0 
355.226013 99560.0 
357.261169 7641.0 
369.238007 5547.0 
373.236969 434277.0 
385.124176 4105.0 
391.247009 263296.0 
397.271545 5241.0 
399.289062 54822.0 
417.298767 23035.0 
425.26825 20659.0 
437.304962 8420.0 
443.27774 30850.0 
455.315674 100773.0 
461.292725 9295.0 
467.31366 5794.0 
473.326141 98940.0 
491.33606 47888.0 
607.395081 5621.0 
693.469727 19864.0 
711.480774 47049.0 
729.492798 259460.0 
747.503174 261144.0 
END IONS

BEGIN IONS
NAME=GLUTARIC ACID CollisionEnergy:205060 M+H-H2O
PRECURSOR_MZ=115.039
INCHI="InChI=1S/C5H8O4/c6-4(7)2-1-3-5(8)9/h1-3H2,(H,6,7)(H,8,9)"
SMILES=O=C(O)CCCC(=O)O
SPECTRUMID=CCMSLIB00010125329
51.077141 2024.0 
55.018421 8585.0 
55.055031 1899.0 
56.965359 36494.0 
57.93541 4765.0 
59.049728 2384.0 
67.510269 4184.0 
68.399559 2057.0 
69.034264 2423.0 
69.070221 12365.0 
72.937462 9574.0 
73.93013 4501.0 
73.938118 10102.0 
74.046799 7524.0 
75.332336 1997.0 
86.686951 2035.0 
87.044388 217085.0 
88.25972 1861.0 
90.015007 2314.0 
91.057472 4205.0 
91.948387 2430.0 
92.056503 3721.0 
97.06488 8831.0 
99.020493 3355.0 
115.074783 2393.0 
115.094963 11777.0 
214.035583 2211.0 
END IONS

BEGIN IONS
NAME=N-(5-chloro-2-methylphenyl)-2-[2-oxo-4-(N-propylcarbamoyl)hydroquinolyl]acetam ide CollisionEnergy:205060 M+Na
PRECURSOR_MZ=434.124
INCHI="InChI=1S/C22H22ClN3O3/c1-3-10-24-22(29)17-12-21(28)26(19-7-5-4-6-16(17)19)13-20(27)25-18-11-15(23)9-8-14(18)2/h4-9,11-12H,3,10,13H2,1-2H3,(H,24,29)(H,25,27)"
SMILES=CCCN=C(O)c1cc(=O)n(CC(O)=Nc2cc(Cl)ccc2C)c2ccccc12
SPECTRUMID=CCMSLIB00010124931
57.75248 2408.0 
91.054337 32562.0 
127.035362 20408.0 
187.049957 54689.0 
188.053436 4327.0 
203.035767 2419.0 
248.073975 2803.0 
309.085663 28519.0 
309.147552 2732.0 
313.075073 3040.0 
323.290009 2753.0 
361.305328 2533.0 
434.123322 847378.0 
END IONS

BEGIN IONS
NAME=meta-topolin CollisionEnergy:205060 2M-2H+Na
PRECURSOR_MZ=503.167
INCHI="InChI=1S/C12H11N5O/c18-9-3-1-2-8(4-9)5-13-11-10-12(15-6-14-10)17-7-16-11/h1-4,6-7,18H,5H2,(H2,13,14,15,16,17)"
SMILES=C1=CC(=CC(=C1)O)CNC2=NC=NC3=C2NC=N3
SPECTRUMID=CCMSLIB00010102074
77.074135 3911.698242 
81.174896 4074.058838 
92.439362 4718.81543 
98.024857 4446.68457 
106.028511 16350.208984 
107.035973 5658.607422 
132.031479 26635.193359 
132.045166 9586.716797 
133.039337 627594.6875 
134.047134 304168.40625 
146.047318 6642.171875 
159.056213 8619.619141 
186.067169 16113.472656 
197.059433 13395.837891 
198.06749 14648.202148 
207.206757 4633.033691 
208.04895 5736.004395 
213.077866 9921.304688 
220.048935 112082.484375 
223.062332 7787.930176 
235.060379 26099.142578 
236.417938 4442.73877 
238.072571 5854.521973 
239.081161 8673.020508 
240.088943 422201.75 
247.046753 5328.730469 
260.057251 4860.800293 
262.070862 791382.75 
309.09491 4748.162598 
372.201721 4293.307129 
END IONS

BEGIN IONS
NAME=D-Sorbitol CollisionEnergy:102040 M+Cl
PRECURSOR_MZ=217.048
INCHI="InChI=1S/C6H14O6/c7-1-3(9)5(11)6(12)4(10)2-8/h3-12H,1-2H2/t3-,4+,5-,6-/m1/s1"
SMILES=OC[C@H](O)[C@@H](O)[C@H](O)[C@H](O)CO
SPECTRUMID=CCMSLIB00010126424
53.1092 24047.900391 
73.975899 28193.5 
75.209099 24520.199219 
82.425598 25691.900391 
92.4105 26309.5 
97.259697 26549.699219 
101.064003 21741.800781 
104.319 21772.900391 
112.065002 25071.800781 
181.072006 269144.0 
END IONS

BEGIN IONS
NAME="N-(2,6-dimethylphenyl)-2-{2-oxo-4-[N-benzylcarbamoyl]hydroquinolyl}acetamide CollisionEnergy:205060" M+formate
PRECURSOR_MZ=484.188
INCHI="InChI=1S/C27H25N3O3/c1-18-9-8-10-19(2)26(18)29-24(31)17-30-23-14-7-6-13-21(23)22(15-25(30)32)27(33)28-16-20-11-4-3-5-12-20/h3-15H,16-17H2,1-2H3,(H,28,33)(H,29,31)"
SMILES=Cc1cccc(C)c1N=C(O)Cn1c(=O)cc(C(O)=NCc2ccccc2)c2ccccc21
SPECTRUMID=CCMSLIB00010121485
55.12624 2269.0 
58.182449 2717.0 
64.728401 2470.0 
73.957443 2727.0 
82.404617 2691.0 
82.427017 2521.0 
91.56517 2368.0 
104.289833 2574.0 
116.05069 33106.0 
120.081734 10866.0 
126.136551 2639.0 
128.050461 73545.0 
130.066116 53042.0 
132.045364 14156.0 
142.029968 3648.0 
142.065933 5087.0 
143.061996 3841.0 
144.045456 99080.0 
144.058167 3867.0 
144.081238 3130.0 
146.024353 5069.0 
146.061172 4620.0 
150.928268 2449.0 
156.045212 5170.0 
156.070206 3154.0 
157.987213 2784.0 
158.048218 20439.0 
158.061111 115890.0 
160.040588 20082.0 
169.077606 10888.0 
172.040619 11817.0 
176.071411 15328.0 
181.524246 2949.0 
183.393448 2852.0 
184.040268 19114.0 
185.40303 2645.0 
187.305038 3173.0 
209.665024 4509.0 
231.092361 6198.0 
245.10936 4135.0 
247.12384 57871.0 
261.104156 22057.0 
277.098694 17648.0 
282.397125 2599.0 
291.113678 11654.0 
293.090515 3383.0 
305.129181 67313.0 
323.103607 80770.0 
323.142548 4736.0 
438.182251 570611.0 
END IONS

BEGIN IONS
NAME=Taurolithocholate CollisionEnergy:205060 M+H-H2O
PRECURSOR_MZ=466.299
INCHI="InChI=1S/C26H45NO5S/c1-17(4-9-24(29)27-14-15-33(30,31)32)21-7-8-22-20-6-5-18-16-19(28)10-12-25(18,2)23(20)11-13-26(21,22)3/h17-23,28H,4-16H2,1-3H3,(H,27,29)(H,30,31,32)/t17-,18-,19-,20+,21-,22+,23+,25+,26-/m1/s1"
SMILES=CC(CCC(O)=NCCS(=O)(=O)O)C1CCC2C3CCC4CC(O)CCC4(C)C3CCC12C
SPECTRUMID=CCMSLIB00010119296
50.358551 37819.0 
53.039268 56873.0 
55.018471 69275.0 
55.054909 922057.0 
67.054878 2034701.0 
69.070488 698055.0 
79.054802 1233302.0 
81.070427 3951654.0 
83.050209 64080.0 
83.086067 1062681.0 
85.065437 229110.0 
91.054733 595349.0 
93.070358 2557900.0 
95.085953 3611453.0 
97.101479 221687.0 
105.070251 1016704.0 
107.085838 2993675.0 
108.011543 918957.0 
109.065353 161269.0 
109.101486 2108145.0 
109.109932 106105.0 
111.080704 168002.0 
117.070259 57428.0 
118.664803 48721.0 
119.085617 1049608.0 
121.065376 49420.0 
121.101288 2531389.0 
121.11097 95069.0 
123.080719 96241.0 
123.117142 411703.0 
126.022034 9699705.0 
131.08548 485284.0 
132.115646 40420.0 
133.101196 1321632.0 
135.080673 78350.0 
135.116776 2759276.0 
137.096024 173791.0 
137.132156 72163.0 
143.08577 180001.0 
145.101089 827719.0 
147.116699 1138686.0 
149.096298 181907.0 
149.132401 1448011.0 
151.112457 169583.0 
157.10141 262236.0 
159.116562 944198.0 
161.132111 689295.0 
163.111664 354297.0 
163.148041 687516.0 
165.127441 86084.0 
171.117477 235094.0 
173.132553 433555.0 
175.112488 76722.0 
175.148026 321309.0 
177.127411 700112.0 
177.163834 239490.0 
183.61615 47645.0 
185.132324 227036.0 
187.147964 343156.0 
189.128204 65517.0 
189.163742 482166.0 
191.142838 252438.0 
194.049164 53793.0 
199.148209 244300.0 
201.163834 240776.0 
203.179871 347387.0 
205.158646 85336.0 
208.063583 694458.0 
208.159988 44195.0 
213.163132 545379.0 
213.909561 62658.0 
215.179657 209699.0 
217.195358 207070.0 
222.079117 163134.0 
227.179428 322267.0 
229.194153 55131.0 
231.174667 62313.0 
234.080078 52225.0 
236.094498 69239.0 
241.195709 173104.0 
248.092789 52473.0 
259.206085 70555.0 
262.110474 67997.0 
276.126678 313055.0 
288.125885 95603.0 
290.142731 209468.0 
302.141693 388437.0 
304.158112 198723.0 
316.158203 259293.0 
318.173004 104661.0 
323.272583 1602582.0 
330.173706 332409.0 
341.283203 3048154.0 
344.189758 260034.0 
346.024689 46944.0 
356.189667 180193.0 
358.205658 90555.0 
370.205383 330888.0 
384.218811 388504.0 
466.297974 13678627.0 
END IONS

BEGIN IONS
NAME="6-amino-4-(7-methoxy(2H-benzo[d]1,3-dioxolan-5-yl))-3-propyl-4H-pyrano[2,3-c]p yrazole-5-carbonitrile CollisionEnergy:102040" M+Na
PRECURSOR_MZ=377.122
INCHI="InChI=1S/C18H18N4O4/c1-3-4-11-15-14(10(7-19)17(20)26-18(15)22-21-11)9-5-12(23-2)16-13(6-9)24-8-25-16/h5-6,14H,3-4,8,20H2,1-2H3,(H,21,22)"
SMILES=CCCc1[nH]nc2c1C(c1cc(OC)c3c(c1)OCO3)C(C#N)=C(N)O2
SPECTRUMID=CCMSLIB00010110688
57.376282 2279.0 
73.949272 3070.0 
73.95385 2808.0 
377.121094 448621.0 
END IONS

BEGIN IONS
NAME="3,6,3',4'-Tetramethoxyflavone CollisionEnergy:205060" M+Na
PRECURSOR_MZ=365.1
INCHI="InChI=1S/C19H18O6/c1-21-12-6-8-14-13(10-12)17(20)19(24-4)18(25-14)11-5-7-15(22-2)16(9-11)23-3/h5-10H,1-4H3"
SMILES=COc1ccc2oc(-c3ccc(OC)c(OC)c3)c(OC)c(=O)c2c1
SPECTRUMID=CCMSLIB00010115284
53.969238 18257.0 
56.7659 18829.0 
58.091949 19540.0 
61.234348 18278.0 
62.16407 18087.0 
68.355797 20494.0 
74.080627 20109.0 
92.376022 20126.0 
101.74942 18457.0 
131.358658 23832.0 
158.170135 22239.0 
160.280685 18869.0 
187.750183 25495.0 
192.621338 20058.0 
203.092636 22923.0 
211.99855 30834.0 
350.075714 2011095.0 
365.099274 25983578.0 
366.903931 23489.0 
383.110809 253816.0 
END IONS

BEGIN IONS
NAME="methyl 4-(6-bromo-2-oxo-1,3,4-trihydrobenzo[h]quinolin-4-yl)benzoate CollisionEnergy:102040" M+H
PRECURSOR_MZ=410.039
INCHI="InChI=1S/C21H16BrNO3/c1-26-21(25)13-8-6-12(7-9-13)16-11-19(24)23-20-15-5-3-2-4-14(15)18(22)10-17(16)20/h2-10,16H,11H2,1H3,(H,23,24)"
SMILES=COC(=O)c1ccc(C2CC(O)=Nc3c2cc(Br)c2ccccc32)cc1
SPECTRUMID=CCMSLIB00010112730
51.120449 2463.0 
62.157471 2918.0 
66.245583 2657.0 
84.922142 2984.0 
92.36747 3366.0 
105.033127 3690.0 
156.044235 6188.0 
195.067749 242951.0 
196.075882 12429.0 
219.975662 11028.0 
230.097092 6034.0 
243.103912 22875.0 
244.112213 3932.0 
247.970428 152492.0 
249.880188 2795.0 
257.083252 6877.0 
259.970245 60075.0 
270.090302 10503.0 
271.098572 57311.0 
272.106049 16067.0 
272.978455 5808.0 
273.985748 238475.0 
274.084717 4821.0 
274.323944 3258.0 
287.130737 3512.0 
288.100708 12488.0 
303.087982 14866.0 
303.123993 5837.0 
307.624847 3449.0 
308.007996 25479.0 
322.022766 17060.0 
331.119843 54093.0 
336.000153 4406.0 
338.987305 17099.0 
350.017303 155384.0 
351.024445 14475.0 
353.00351 5430.0 
354.011108 26134.0 
366.04895 5795.0 
367.975037 6087.0 
368.027313 147776.0 
378.012085 1953803.0 
382.006836 188506.0 
396.020721 15265.0 
410.038055 1860433.0 
END IONS

BEGIN IONS
NAME=(2Z)-2-benzoxazol-2-yl-3-(4-hydroxy-3-methoxyphenyl)-1-(4-methylphenyl)prop-2- en-1-one CollisionEnergy:102040 M+Na
PRECURSOR_MZ=408.121
INCHI="InChI=1S/C24H19NO4/c1-15-7-10-17(11-8-15)23(27)18(13-16-9-12-20(26)22(14-16)28-2)24-25-19-5-3-4-6-21(19)29-24/h3-14,26H,1-2H3/b18-13+"
SMILES=COc1cc(C=C(C(=O)c2ccc(C)cc2)c2nc3ccccc3o2)ccc1O
SPECTRUMID=CCMSLIB00010104150
71.95459 3584.0 
82.378708 4162.0 
98.575493 3258.0 
104.260773 4596.0 
136.178497 4705.0 
138.993988 21484.0 
140.991501 6592.0 
158.7789 3752.0 
212.559021 3992.0 
315.041901 69060.0 
316.045471 16132.0 
317.037476 40726.0 
344.984558 4364.0 
359.529114 34492.0 
366.541992 36086.0 
367.040283 195033.0 
367.539459 43830.0 
368.534119 17519.0 
375.550751 4897.0 
376.045288 51816.0 
376.472198 5681.0 
376.550049 4886.0 
384.910858 8412.0 
387.553101 29815.0 
393.097382 30377.0 
407.109314 7172.0 
408.119965 15379494.0 
426.130249 17674.0 
END IONS

BEGIN IONS
NAME="4-amino-3-indol-3-ylazoline-2,5-dione CollisionEnergy:102040" M-H
PRECURSOR_MZ=226.062
INCHI="InChI=1S/C12H9N3O2/c13-10-9(11(16)15-12(10)17)7-5-14-8-4-2-1-3-6(7)8/h1-5,14H,(H3,13,15,16,17)"
SMILES=NC1=C(c2c[nH]c3ccccc23)C(O)=NC1=O
SPECTRUMID=CCMSLIB00010113470
55.1726 2277.0 
69.009201 13563.0 
82.418243 3293.0 
87.925339 3668.0 
92.568367 2523.0 
100.874382 2368.0 
104.309258 2699.0 
121.489258 2431.0 
122.894302 8579.0 
123.902229 10709.0 
136.909439 4116.0 
141.912643 24174.0 
153.047318 2961.0 
154.053589 14899.0 
155.061722 545044.0 
156.045624 31236.0 
165.045929 3228.0 
182.072586 8540.0 
183.055756 2833.0 
199.051727 4752.0 
212.598618 2742.0 
226.062592 1865082.0 
END IONS

BEGIN IONS
NAME=Jasmonoyl-S-Isoleucine CollisionEnergy:205060 M-H2O+H
PRECURSOR_MZ=306.206
INCHI="InChI=1S/C18H29NO4/c1-4-6-7-8-14-13(9-10-15(14)20)11-16(21)19-17(18(22)23)12(3)5-2/h6-7,12-14,17H,4-5,8-11H2,1-3H3,(H,19,21)(H,22,23)/b7-6-/t12-,13-,14-,17-/m0/s1"
SMILES=CC/C=C\C[C@H]1[C@@H](CCC1=O)CC(=O)N[C@@H]([C@@H](C)CC)C(=O)O
SPECTRUMID=CCMSLIB00010102008
53.038929 46784.785156 
55.054558 130724.5 
57.057796 44141.679688 
58.065388 40249.011719 
60.044399 40332.179688 
67.054321 380340.15625 
69.069931 1626534.75 
74.023773 88359.9375 
79.054291 515967.8125 
81.069931 564359.0 
82.443649 44146.265625 
83.049332 48065.238281 
84.08123 37954.320312 
86.096436 9749220.0 
91.054237 2488622.0 
93.063019 61896.535156 
93.069878 1256484.5 
95.049118 208883.203125 
95.085411 82534.6875 
96.04451 77275.226562 
101.646347 37930.03125 
103.054207 53174.960938 
104.345444 48099.644531 
105.069885 3148642.5 
107.08551 312117.4375 
109.064857 679312.8125 
109.101318 122945.546875 
109.927979 36749.140625 
110.021294 32671.199219 
117.070007 143729.578125 
119.085602 1065158.75 
119.095093 64992.0 
121.06443 43666.964844 
121.101044 62721.125 
123.08049 62558.21875 
128.107025 972603.1875 
128.117859 52101.640625 
129.070023 96029.898438 
130.086441 46344.613281 
131.085663 218390.140625 
131.946655 37440.125 
132.090637 68532.09375 
132.101944 1350985.875 
133.064148 83856.539062 
133.101151 2503247.0 
145.101089 97075.03125 
145.299332 36616.8125 
147.116821 3317137.5 
149.096375 53066.714844 
149.132721 234840.9375 
151.075256 44981.378906 
151.111725 1680920.5 
156.101807 211203.25 
158.057587 33268.449219 
165.127945 46878.863281 
165.416611 36599.8125 
167.143082 54628.183594 
175.11171 674681.5625 
192.138184 109867.375 
193.122742 156518.53125 
204.1371 43024.074219 
209.703781 60148.441406 
210.148026 62789.308594 
222.148788 61355.328125 
243.661713 35998.074219 
260.199493 1790749.25 
278.209778 2808978.5 
306.168915 68815.898438 
306.203735 1653458.375 
END IONS

BEGIN IONS
NAME=7-hydroxy-3-phenyl-8-(piperidylmethyl)chromen-4-one CollisionEnergy:205060 M+H
PRECURSOR_MZ=336.159
INCHI="InChI=1S/C21H21NO3/c23-19-10-9-16-20(24)18(15-7-3-1-4-8-15)14-25-21(16)17(19)13-22-11-5-2-6-12-22/h1,3-4,7-10,14,23H,2,5-6,11-13H2"
SMILES=O=c1c(-c2ccccc2)coc2c(CN3CCCCC3)c(O)ccc12
SPECTRUMID=CCMSLIB00010114798
55.018349 11236.0 
56.05003 49763.0 
65.038986 173399.0 
69.070236 1060622.0 
69.449966 9032.0 
70.222511 9333.0 
70.943153 10107.0 
72.241409 9933.0 
77.039581 10786.0 
82.554207 8673.0 
84.081017 807773.0 
85.888687 38715.0 
86.096611 37113564.0 
86.305267 19913.0 
93.033783 89876.0 
93.831284 9559.0 
95.012932 22426.0 
103.054176 18715.0 
105.033401 731163.0 
111.043877 22111.0 
121.02829 196134.0 
131.01268 216019.0 
149.023254 8144182.0 
152.061829 340372.0 
153.070343 53062.0 
156.319748 10083.0 
165.069519 262619.0 
166.077026 114856.0 
167.033783 8695683.0 
167.085251 889498.0 
169.03775 14262.0 
169.064804 40470.0 
176.062286 13781.0 
177.069366 165802.0 
178.021088 11079.0 
178.077728 46576.0 
181.064423 108057.0 
194.072739 73771.0 
195.080246 1349272.0 
205.063873 84201.0 
209.344162 15275.0 
222.066513 39960.0 
223.075073 5083454.0 
249.052017 12389.0 
250.035187 16969.0 
250.062302 205774.0 
251.069824 29406896.0 
252.110565 22826.0 
253.084961 69843.0 
334.554626 11112.0 
335.151306 14630.0 
336.158661 24663886.0 
337.773407 14507.0 
352.943146 15645.0 
END IONS

BEGIN IONS
NAME=56-84-8 CollisionEnergy:102040 M+H-H2O
PRECURSOR_MZ=116.034
INCHI="InChI=1S/C4H7NO4/c5-2(4(8)9)1-3(6)7/h2H,1,5H2,(H,6,7)(H,8,9)/t2-/m0/s1"
SMILES=N[C@@H](CC(=O)O)C(=O)O
SPECTRUMID=CCMSLIB00010103337
52.674702 1721.780029 
66.740196 2674.070068 
69.2061 2079.600098 
70.065804 4671.450195 
72.081398 8018.819824 
74.0243 231226.0 
74.494499 2038.630005 
83.938904 2349.959961 
85.789299 1876.410034 
87.102997 1902.109985 
88.076202 2035.890015 
92.088799 2027.089966 
104.279999 2722.590088 
106.958 2312.699951 
116.107002 2905.159912 
END IONS

BEGIN IONS
NAME="2-{2-[(3,4-dimethoxyphenyl)methylene]-3-oxobenzo[3,4-b]furan-6-yloxy}acetamide CollisionEnergy:205060" M-H
PRECURSOR_MZ=354.098
INCHI="InChI=1S/C19H17NO6/c1-23-14-6-3-11(7-16(14)24-2)8-17-19(22)13-5-4-12(9-15(13)26-17)25-10-18(20)21/h3-9H,10H2,1-2H3,(H2,20,21)/b17-8-"
SMILES=COc1ccc(C=C2Oc3cc(OCC(=N)O)ccc3C2=O)cc1OC
SPECTRUMID=CCMSLIB00010123234
63.034359 2641.0 
63.223351 2796.0 
64.204277 2714.0 
70.551804 2525.0 
92.402946 2635.0 
104.316109 2855.0 
117.266243 2000.0 
190.976089 2672.0 
210.522797 4113.0 
224.072708 2646.0 
238.050858 60081.0 
239.035828 2512.0 
252.065674 22350.0 
266.045776 225389.0 
267.030548 19672.0 
280.061584 20660.0 
281.036713 5186.0 
281.069366 112874.0 
282.05307 12364.0 
293.032715 17151.0 
296.092407 79717.0 
297.07608 15172.0 
302.886719 2478.0 
308.053711 3445.0 
354.098114 220152.0 
END IONS

BEGIN IONS
NAME=2-{4-[(6-ethyl-2-oxochromen-4-yl)methyl]piperazinyl}-N-(3-methylthiophenyl)ace tamide CollisionEnergy:102040 M+H
PRECURSOR_MZ=452.2
INCHI="InChI=1S/C25H29N3O3S/c1-3-18-7-8-23-22(13-18)19(14-25(30)31-23)16-27-9-11-28(12-10-27)17-24(29)26-20-5-4-6-21(15-20)32-2/h4-8,13-15H,3,9-12,16-17H2,1-2H3,(H,26,29)"
SMILES=CCc1ccc2oc(=O)cc(CN3CCN(CC(O)=Nc4cccc(SC)c4)CC3)c2c1
SPECTRUMID=CCMSLIB00010108050
56.049938 20403.0 
56.746109 2830.0 
58.065639 16999.0 
64.566177 2810.0 
70.065483 103513.0 
72.081146 17377.0 
76.266724 2654.0 
85.076462 3805.0 
92.41375 3508.0 
97.07605 624806.0 
98.08387 12491.0 
99.091927 6729.0 
105.983269 2712.0 
111.091637 5379.0 
142.855347 3556.0 
159.080719 4100.0 
200.107788 6441.0 
228.101944 6636.0 
235.830658 2767.0 
240.103638 3483.0 
242.11795 19546.0 
270.13623 3153.0 
285.159271 532407.0 
299.104309 3850.0 
321.884003 2938.0 
452.199341 1655036.0 
474.198303 3165.0 
END IONS

BEGIN IONS
NAME="2-(3,4-dichlorophenyl)(4-quinolyl) 2-1,2,3,4-tetrahydroisoquinolyl ketone CollisionEnergy:205060" M+H
PRECURSOR_MZ=433.087
INCHI="InChI=1S/C25H18Cl2N2O/c26-21-10-9-17(13-22(21)27)24-14-20(19-7-3-4-8-23(19)28-24)25(30)29-12-11-16-5-1-2-6-18(16)15-29/h1-10,13-14H,11-12,15H2"
SMILES=O=C(c1cc(-c2ccc(Cl)c(Cl)c2)nc2ccccc12)N1CCc2ccccc2C1
SPECTRUMID=CCMSLIB00010117622
50.313782 3253.0 
56.29068 3098.0 
57.769081 2825.0 
68.066116 3377.0 
73.483978 3210.0 
80.948051 4708.0 
90.976501 5987.0 
105.070183 34399.0 
115.054192 23016.0 
117.056923 16566.0 
117.069656 7214.0 
128.049484 582914.0 
130.06485 17110.0 
132.080826 476045.0 
143.072845 19624.0 
144.080811 7259.0 
146.060043 640688.0 
146.310074 3682.0 
158.976761 6196.0 
160.075119 5401.0 
169.076187 18481.0 
203.073273 5085.0 
204.080734 93382.0 
212.039062 36430.0 
230.097183 4107.0 
232.075821 14705.0 
237.031769 4695.0 
238.04155 70225.0 
239.049362 116968.0 
245.109772 3842.0 
266.036224 19534.0 
266.972748 3840.0 
267.044159 46072.0 
272.002899 7858.0 
273.009949 5888.0 
274.01828 5800089.0 
277.007233 3788.0 
289.031219 5738.0 
290.011383 5159.0 
301.028961 8153.0 
302.012817 93403.0 
305.000244 140361.0 
317.02417 37480.0 
329.022644 40515.0 
433.086548 3508623.0 
END IONS

BEGIN IONS
NAME="3-[(1E)-1-methyl-3-(2-oxo(1H-benzo[d]azolin-3-ylidene))-2,3-diazaprop-1-enyl]- 4-hydroxy-1-phenylhydroquinolin-2-one CollisionEnergy:102040" M-H
PRECURSOR_MZ=421.131
INCHI="InChI=1S/C25H18N4O3/c1-15(27-28-22-17-11-5-7-13-19(17)26-24(22)31)21-23(30)18-12-6-8-14-20(18)29(25(21)32)16-9-3-2-4-10-16/h2-14,30H,1H3,(H,26,28,31)/b27-15+"
SMILES=CC(=NN=C1C(=O)Nc2ccccc21)c1c(O)c2ccccc2n(-c2ccccc2)c1=O
SPECTRUMID=CCMSLIB00010113256
71.051826 3121.0 
82.399742 2592.0 
92.560181 2616.0 
95.122566 2830.0 
114.113533 2486.0 
116.051132 3028.0 
118.656616 3013.0 
125.290207 2550.0 
132.045334 43578.0 
144.045792 42435.0 
145.040649 13251.0 
148.957001 20557.0 
157.980301 2900.0 
160.040009 17493.0 
184.040237 14248.0 
216.944382 5613.0 
235.476242 3141.0 
236.071976 166166.0 
255.724197 2951.0 
260.072052 15773.0 
261.067749 15464.0 
277.098389 862660.0 
284.931671 14575.0 
316.983704 4617.0 
352.853516 3462.0 
352.917358 9837.0 
365.132263 4091.0 
393.126221 42875.0 
420.986237 30989.0 
421.131104 478639.0 
END IONS

BEGIN IONS
NAME=N-(2-fluorophenyl)-2-[2-oxo-4-(N-propylcarbamoyl)hydroquinolyl]acetamide CollisionEnergy:102040 M+H
PRECURSOR_MZ=382.156
INCHI="InChI=1S/C21H20FN3O3/c1-2-11-23-21(28)15-12-20(27)25(18-10-6-3-7-14(15)18)13-19(26)24-17-9-5-4-8-16(17)22/h3-10,12H,2,11,13H2,1H3,(H,23,28)(H,24,26)"
SMILES=CCCN=C(O)c1cc(=O)n(CC(O)=Nc2ccccc2F)c2ccccc12
SPECTRUMID=CCMSLIB00010111657
52.748501 2665.0 
71.43631 2301.0 
76.14827 2140.0 
77.050362 2424.0 
87.178726 2387.0 
92.371201 3228.0 
119.53801 2361.0 
125.705994 2438.0 
130.065033 34283.0 
136.596344 2381.0 
144.045029 3042.0 
146.059952 39255.0 
158.059921 64162.0 
186.05426 3944.0 
201.06575 11066.0 
210.950455 4123.0 
215.118347 5096.0 
226.143051 2909.0 
231.112839 71042.0 
243.112534 318018.0 
271.107269 983431.0 
284.139374 5996.0 
350.194824 24402.0 
382.22052 97322.0 
END IONS

BEGIN IONS
NAME="2-({4-methoxy-3-[(3-methyl-4-nitrophenoxy)methyl]phenyl}methylene)-3,4-dihydro naphthalen-1-one CollisionEnergy:102040" M+H
PRECURSOR_MZ=430.165
INCHI="InChI=1S/C26H23NO5/c1-17-13-22(10-11-24(17)27(29)30)32-16-21-15-18(7-12-25(21)31-2)14-20-9-8-19-5-3-4-6-23(19)26(20)28/h3-7,10-15H,8-9,16H2,1-2H3/b20-14+"
SMILES=COc1ccc(C=C2CCc3ccccc3C2=O)cc1COc1ccc([N+](=O)[O-])c(C)c1
SPECTRUMID=CCMSLIB00010112453
69.033623 2874.0 
75.81398 2551.0 
76.019249 2398.0 
91.054283 14303.0 
92.370941 3701.0 
97.947121 2515.0 
104.278221 4222.0 
105.069748 26066.0 
107.101593 2554.0 
107.293587 2512.0 
108.784447 2745.0 
117.070107 19078.0 
121.064743 17422.0 
129.069946 3227.0 
133.064789 48472.0 
149.059036 11349.0 
151.075378 11038.0 
157.064819 5281.0 
159.080276 13369.0 
164.145889 3589.0 
170.072922 3537.0 
204.094482 3848.0 
216.093765 10749.0 
217.100784 6418.0 
219.116821 5207.0 
221.13205 3495.0 
229.100235 23221.0 
231.116974 24336.0 
232.087997 3986.0 
234.103546 11175.0 
235.111282 4984.0 
244.085968 3250.0 
245.096451 12658.0 
246.103622 3336.0 
247.11142 222104.0 
249.127029 33938.0 
259.111511 29313.0 
262.098389 12746.0 
277.12204 1994050.0 
311.295563 3908.0 
330.143768 2795.0 
390.657227 2938.0 
430.163788 4232.0 
430.386566 4509.0 
584.829651 3055.0 
866.806396 3170.0 
END IONS

BEGIN IONS
NAME=berberine CollisionEnergy:205060 M
PRECURSOR_MZ=336.123
INCHI="InChI=1S/C20H18NO4/c1-22-17-4-3-12-7-16-14-9-19-18(24-11-25-19)8-13(14)5-6-21(16)10-15(12)20(17)23-2/h3-4,7-10H,5-6,11H2,1-2H3/q+1"
SMILES=COc1ccc2cc3[n+](cc2c1OC)CCc1cc2c(cc1-3)OCO2
SPECTRUMID=CCMSLIB00010115509
53.064152 5005.0 
93.607841 4679.0 
112.409798 4462.0 
112.794861 5705.0 
115.85627 4460.0 
123.693817 4698.0 
234.090973 9404.0 
248.071396 7768.0 
249.078064 19832.0 
250.0867 16421.0 
251.095551 8360.0 
257.067657 8446.0 
262.085022 44744.0 
263.061371 9670.0 
263.093506 205593.0 
264.100952 71399.0 
266.080688 5871.0 
274.085754 27867.0 
275.094879 25609.0 
276.067566 10105.0 
276.101715 78765.0 
277.073029 107821.0 
278.080627 3217312.0 
279.087433 25848.0 
289.074188 9955.0 
290.079803 53039.0 
290.808838 7522.0 
291.088379 342047.0 
292.096252 9002766.0 
293.39447 6232.0 
303.087128 9694.0 
304.096191 2783570.0 
305.068298 10498.0 
305.104034 53951.0 
306.075378 3487015.0 
307.083069 772993.0 
312.907806 5312.0 
318.075439 1079170.0 
318.615784 7486.0 
319.085175 5442.0 
320.091003 11916560.0 
321.098724 1794542.0 
321.576569 7140.0 
334.104858 5055.0 
334.531464 10820.0 
336.122192 15499922.0 
337.723053 9848.0 
END IONS

BEGIN IONS
NAME=N-(3-chlorophenyl)-2-{2-oxo-4-[N-benzylcarbamoyl]hydroquinolyl}acetamide CollisionEnergy:102040 M+formate
PRECURSOR_MZ=490.118
INCHI="InChI=1S/C25H20ClN3O3/c26-18-9-6-10-19(13-18)28-23(30)16-29-22-12-5-4-11-20(22)21(14-24(29)31)25(32)27-15-17-7-2-1-3-8-17/h1-14H,15-16H2,(H,27,32)(H,28,30)"
SMILES=O=c1cc(C(O)=NCc2ccccc2)c2ccccc2n1CC(O)=Nc1cccc(Cl)c1
SPECTRUMID=CCMSLIB00010112657
54.244148 2840.0 
62.65567 2759.0 
66.743317 3142.0 
91.667809 2551.0 
104.285439 2829.0 
105.979347 3345.0 
116.050453 3653.0 
126.011497 43486.0 
128.050156 6597.0 
130.066254 15161.0 
132.04451 4196.0 
134.060837 2787.0 
144.045395 37284.0 
156.070114 5445.0 
158.048447 20926.0 
158.061218 34444.0 
160.040359 6438.0 
169.0784 3295.0 
176.071335 4756.0 
184.040283 31911.0 
196.460602 2955.0 
202.051575 10559.0 
235.239655 2717.0 
245.10997 3285.0 
247.1241 93690.0 
261.102722 29830.0 
263.11969 10646.0 
277.098083 24920.0 
291.114166 15984.0 
311.058868 69296.0 
317.092468 21210.0 
323.103058 27500.0 
421.839111 3554.0 
444.111908 998145.0 
END IONS

BEGIN IONS
NAME="1-(2H-benzo[d]1,3-dioxolen-5-yl)-3-(benzo[d]benzo[3,4-b]furan-3-ylamino)propan -1-one CollisionEnergy:205060" M+H
PRECURSOR_MZ=360.123
INCHI="InChI=1S/C22H17NO4/c24-18(14-5-8-20-22(11-14)26-13-25-20)9-10-23-15-6-7-17-16-3-1-2-4-19(16)27-21(17)12-15/h1-8,11-12,23H,9-10,13H2"
SMILES=O=C(CCNc1ccc2c(c1)oc1ccccc12)c1ccc2c(c1)OCO2
SPECTRUMID=CCMSLIB00010115550
55.930408 3261.0 
57.001511 3211.0 
58.065609 5831.0 
91.054512 26575.0 
92.378853 3632.0 
98.136726 3609.0 
104.286079 3429.0 
104.293541 3618.0 
107.307739 3365.0 
139.053528 23618.0 
141.069763 46843.0 
149.023346 4571.0 
163.038452 63930.0 
164.042511 60783.0 
165.05426 75448.0 
167.073639 4704.0 
168.05687 795452.0 
168.079926 51276.0 
169.064636 263718.0 
169.77771 3868.0 
172.95668 3469.0 
182.059158 3345.0 
194.061539 3925.0 
195.067657 20863.0 
195.352768 3796.0 
195.369873 9026.0 
196.075577 9839958.0 
196.78598 8617.0 
196.893204 3426.0 
197.078766 39405.0 
206.809113 3592.0 
301.10022 26213.0 
342.164459 5361.0 
360.119965 88841.0 
360.173462 22315.0 
360.361328 31975.0 
393.966766 3532.0 
END IONS

BEGIN IONS
NAME="N-(3-cyano-4,5-dimethyl(2-thienyl))-3-(3,4,5-trimethoxyphenyl)propanamide CollisionEnergy:205060" M+Na
PRECURSOR_MZ=397.119
INCHI="InChI=1S/C19H22N2O4S/c1-11-12(2)26-19(14(11)10-20)21-17(22)7-6-13-8-15(23-3)18(25-5)16(9-13)24-4/h8-9H,6-7H2,1-5H3,(H,21,22)"
SMILES=COc1cc(CCC(O)=Nc2sc(C)c(C)c2C#N)cc(OC)c1OC
SPECTRUMID=CCMSLIB00010118115
55.921829 3011.0 
62.08342 2709.0 
73.307411 2710.0 
91.075546 2594.0 
103.235497 2570.0 
108.048447 2638.0 
305.71344 3313.0 
382.09668 12521.0 
395.083862 3065.0 
397.118774 2574787.0 
END IONS

BEGIN IONS
NAME=N-{2-[2-methyl-5-(trifluoromethoxy)indol-3-yl]ethyl}(2-oxochromen-3-yl)carboxa mide CollisionEnergy:205060 M+H
PRECURSOR_MZ=431.121
INCHI="InChI=1S/C22H17F3N2O4/c1-12-15(16-11-14(31-22(23,24)25)6-7-18(16)27-12)8-9-26-20(28)17-10-13-4-2-3-5-19(13)30-21(17)29/h2-7,10-11,27H,8-9H2,1H3,(H,26,28)"
SMILES=Cc1[nH]c2ccc(OC(F)(F)F)cc2c1CCN=C(O)c1cc2ccccc2oc1=O
SPECTRUMID=CCMSLIB00010119647
54.71479 2908.0 
66.448143 3108.0 
80.252129 3142.0 
84.024803 3675.0 
89.039062 4498.0 
90.976387 6267.0 
91.054207 5823.0 
103.054237 6565.0 
109.044693 4428.0 
115.054169 29096.0 
116.050056 3707.0 
117.05719 5755.0 
128.050995 5593.0 
128.061859 63638.0 
129.069901 325661.0 
130.065201 21067.0 
131.182617 3486.0 
132.04422 4278.0 
132.080719 17704.0 
133.044647 3783.0 
134.06076 4494.0 
135.060043 14138.0 
141.057327 15858.0 
144.080826 7392.0 
145.028397 7973.0 
145.066452 3557.0 
145.088562 105780.0 
148.055786 4827.0 
149.07579 14218.0 
154.065125 20275.0 
155.060059 5824.0 
155.072586 31153.0 
156.08075 273821.0 
157.088684 284710.0 
158.060043 78995.0 
158.963913 4267.0 
159.061478 5631.0 
160.076004 23552.0 
160.854553 3770.0 
161.063477 97126.0 
171.069366 3786.0 
172.039185 28358.0 
172.074905 6651.0 
173.023254 5211.0 
173.083679 68767.0 
174.073883 6446.0 
174.091187 55241.0 
175.036667 5933.0 
175.062424 17452.0 
176.087265 120163.0 
184.08638 14068.0 
190.050171 26342.0 
191.033829 248597.0 
199.036575 4257.0 
201.038223 35623.0 
202.048187 10030.0 
202.066162 49444.0 
207.049225 14401.0 
214.047409 94750.0 
215.067291 19505.0 
216.064499 52694.0 
222.072189 6735.0 
225.051666 37485.0 
227.055206 1329763.0 
234.311172 3810.0 
240.062881 15471.0 
241.070526 30571.0 
241.111084 6247.0 
242.078613 6471363.0 
243.054092 4732.0 
266.968018 3848.0 
345.124664 35774.0 
431.12088 304655.0 
END IONS

BEGIN IONS
NAME=Aristolochic acid CollisionEnergy:205060 M+Na
PRECURSOR_MZ=364.043
INCHI="InChI=1S/C17H11NO7/c1-23-12-4-2-3-8-9(12)5-11(18(21)22)14-10(17(19)20)6-13-16(15(8)14)25-7-24-13/h2-6H,7H2,1H3,(H,19,20)"
SMILES=COc1cccc2c1cc([N+](=O)[O-])c1c(C(=O)O)cc3c(c12)OCO3
SPECTRUMID=CCMSLIB00010125543
56.639011 1937.0 
57.84288 2017.0 
60.137501 2185.0 
61.233662 2366.0 
78.622719 2429.0 
80.878822 2443.0 
81.028877 2398.0 
82.397263 3018.0 
92.374237 3019.0 
92.380402 2791.0 
93.360497 2230.0 
104.287483 2683.0 
116.673691 2219.0 
136.207153 2408.0 
157.967163 3107.0 
318.049042 17435.0 
364.041901 208211.0 
END IONS

BEGIN IONS
NAME="(2E)-1-(2H-benzo[3,4-d]1,3-dioxolan-5-yl)-3-(3,4-dimethoxyphenyl)prop-2-en-1-o ne CollisionEnergy:205060" M+H
PRECURSOR_MZ=313.107
INCHI="InChI=1S/C18H16O5/c1-20-15-7-4-12(9-17(15)21-2)3-6-14(19)13-5-8-16-18(10-13)23-11-22-16/h3-10H,11H2,1-2H3/b6-3+"
SMILES=COc1ccc(C=CC(=O)c2ccc3c(c2)OCO3)cc1OC
SPECTRUMID=CCMSLIB00010120010
50.015739 5163.0 
51.023529 4981.0 
53.002789 21530.0 
55.018318 41983.0 
57.034069 4746.0 
61.762009 3420.0 
65.038986 168633.0 
66.046783 7504.0 
67.018318 16034.0 
68.997513 134656.0 
69.034019 8971.0 
71.013008 6194.0 
71.049004 3787.0 
76.579422 4053.0 
77.038857 6113.0 
78.046654 6150.0 
78.737587 3520.0 
79.054558 170847.0 
81.03363 5940.0 
84.960037 6504.0 
89.038567 48315.0 
90.046272 3915.0 
91.054367 192982.0 
92.062119 42141.0 
93.033386 4283.0 
95.012909 122837.0 
95.049088 15292.0 
102.046516 28570.0 
103.054207 296339.0 
104.278938 4185.0 
105.033524 82009.0 
105.069923 348542.0 
107.049316 30236.0 
109.028343 19387.0 
115.054153 35808.0 
117.033623 59154.0 
117.069199 5970.0 
118.041367 103261.0 
119.049133 326704.0 
120.056931 217242.0 
121.028648 8589.0 
121.06469 22133.0 
122.036163 16932.0 
123.044113 19291.0 
124.051613 32330.0 
125.02346 41059.0 
130.041336 31599.0 
131.049332 42873.0 
132.056931 505597.0 
133.028336 248718.0 
133.064835 271455.0 
134.03566 4277.0 
135.043991 423751.0 
135.080322 73854.0 
137.023392 8324.0 
137.059662 7947.0 
138.06813 28562.0 
139.038986 20602.0 
139.075638 61113.0 
145.028564 51285.0 
146.036224 89479.0 
147.043961 264334.0 
148.051834 1539958.0 
149.0233 2966240.0 
151.038773 7401.0 
151.07515 14893.0 
152.047318 7384.0 
152.062347 4856.0 
157.963989 4017.0 
158.035965 5857.0 
159.044128 21183.0 
160.051773 512642.0 
161.02298 6470.0 
161.059601 85123.0 
163.075302 3929895.0 
165.054642 17656.0 
165.069916 8132.0 
166.077484 5275.0 
169.064651 5873.0 
174.03006 4778.0 
175.025589 7032.0 
175.03894 458270.0 
176.046753 569143.0 
181.064835 24961.0 
183.079437 7403.0 
191.07016 5909201.0 
191.760468 5054.0 
193.064621 4504.0 
194.072357 9790.0 
195.080261 26748.0 
196.087967 43505.0 
197.05954 25680.0 
198.066193 4400.0 
205.625427 5411.0 
208.104752 5901.0 
208.123886 6817.0 
209.060318 25489.0 
211.075348 9750.0 
212.083054 16457.0 
221.059174 7096.0 
222.067505 21937.0 
223.075531 17344.0 
224.082962 39807.0 
225.054352 9658.0 
227.070068 5626.0 
227.107132 16615.0 
237.054886 6646.0 
238.063263 6071.0 
239.070496 23732.0 
240.078049 16897.0 
241.08577 4572.0 
251.070694 41714.0 
252.077744 39831.0 
254.094452 4984.0 
255.070694 5109.0 
255.101364 44977.0 
266.056183 5607.0 
267.065887 16209.0 
271.096954 40238.0 
279.06427 4833.0 
280.073151 17253.0 
281.081543 18549.0 
282.087463 20271.0 
283.095612 56812.0 
285.110657 35549.0 
295.096893 15970.0 
297.074554 14305.0 
298.08252 8610.0 
313.106476 7087188.0 
END IONS

BEGIN IONS
NAME="1-[6-(3,3-dimethyl-2-oxobutylthio)purin-9-yl]-3,3-dimethylbutan-2-one CollisionEnergy:205060" M+H
PRECURSOR_MZ=349.169
INCHI="InChI=1S/C17H24N4O2S/c1-16(2,3)11(22)7-21-10-20-13-14(21)18-9-19-15(13)24-8-12(23)17(4,5)6/h9-10H,7-8H2,1-6H3"
SMILES=CC(C)(C)C(=O)CSc1ncnc2c1ncn2CC(=O)C(C)(C)C
SPECTRUMID=CCMSLIB00010114840
52.38261 2562.0 
57.070381 483759.0 
62.103241 2763.0 
69.070267 30877.0 
71.47834 2493.0 
74.688347 2527.0 
78.238449 2651.0 
79.054512 34223.0 
81.070137 48941.0 
82.396843 3039.0 
83.086037 8491.0 
88.572418 2775.0 
99.080261 30726.0 
113.041634 6456.0 
118.651352 3970.0 
133.05101 22112.0 
134.058533 10184.0 
135.0914 3030.0 
138.011337 3070.0 
147.066681 4296.0 
148.050018 4531.0 
153.022797 56807.0 
160.252441 2582.0 
165.022995 22204.0 
166.030487 43209.0 
167.039078 10772.0 
175.061661 18525.0 
175.097534 6300.0 
179.038239 5647.0 
180.046249 3807.0 
186.102371 21460.0 
189.113205 3634.0 
198.020828 18822.0 
199.096451 9485.0 
203.129181 11473.0 
204.113358 24022.0 
211.097092 4000.0 
212.036102 4151.0 
219.123901 22247.0 
223.077728 6591.0 
231.123825 46801.0 
232.131699 68041.0 
236.071243 12263.0 
244.094223 3786.0 
245.139008 2923.0 
249.134598 20740.0 
250.089096 3913.0 
250.295471 2804.0 
251.09584 709649.0 
253.174606 2738.0 
259.119019 5193.0 
263.095917 137258.0 
264.103821 46565.0 
265.111481 221277.0 
283.155212 5399.0 
284.161743 3288.0 
287.185974 3773.0 
293.107239 2804.0 
297.170502 35652.0 
331.156647 3681.0 
349.168671 1490378.0 
END IONS

BEGIN IONS
NAME="ethyl 6-bromo-5-methoxy-1-phenyl-2-(1,2,3,4-tetraazolylmethyl)indole-3-carboxy late CollisionEnergy:205060" M+Na
PRECURSOR_MZ=478.048
INCHI="InChI=1S/C20H18BrN5O3/c1-3-29-20(27)19-14-9-18(28-2)15(21)10-16(14)26(13-7-5-4-6-8-13)17(19)11-25-12-22-23-24-25/h4-10,12H,3,11H2,1-2H3"
SMILES=CCOC(=O)c1c(Cn2cnnn2)n(-c2ccccc2)c2cc(Br)c(OC)cc12
SPECTRUMID=CCMSLIB00010125938
52.058369 2523.0 
52.920422 2497.0 
122.075104 2703.0 
145.39534 2973.0 
191.072327 9886.0 
192.080826 12219.0 
204.081146 11978.0 
219.067764 12935.0 
220.075821 91797.0 
234.0914 397927.0 
235.063522 4019.0 
235.07225 4188.0 
235.099091 54950.0 
236.070419 4841.0 
248.070755 5601.0 
248.107285 11117.0 
250.050629 6442.0 
250.084915 4128.0 
254.048279 2877.0 
261.077332 23489.0 
263.059021 13701.0 
263.093842 4721.0 
264.065674 41189.0 
268.983765 3325.0 
278.081329 161195.0 
279.088745 76600.0 
296.979645 12359.0 
297.987274 34054.0 
298.994843 3427.0 
307.120789 10612.0 
312.001953 65169.0 
313.010071 14402.0 
324.974487 11990.0 
326.989838 11791.0 
339.997589 34271.0 
342.01474 18904.0 
356.998535 4203.0 
358.008209 5252.0 
386.038544 323407.0 
448.949341 2619.0 
478.047668 56235.0 
END IONS

BEGIN IONS
NAME=(2-methylbenzoxazol-7-yl)-N-{2-[2-methyl-5-(trifluoromethoxy)indol-3-yl]ethyl} carboxamide CollisionEnergy:102040 M+formate
PRECURSOR_MZ=462.128
INCHI="InChI=1S/C21H18F3N3O3/c1-11-14(16-10-13(30-21(22,23)24)6-7-17(16)26-11)8-9-25-20(28)15-4-3-5-18-19(15)29-12(2)27-18/h3-7,10,26H,8-9H2,1-2H3,(H,25,28)"
SMILES=Cc1nc2cccc(C(O)=NCCc3c(C)[nH]c4ccc(OC(F)(F)F)cc34)c2o1
SPECTRUMID=CCMSLIB00010107064
54.447418 2120.0 
55.21249 2165.0 
66.27697 2463.0 
74.227699 2449.0 
87.890541 2574.0 
90.00573 2349.0 
99.012459 2184.0 
127.957848 2578.0 
175.051071 16231.0 
208.141663 2720.0 
248.115875 22931.0 
416.12262 309401.0 
END IONS

BEGIN IONS
NAME="(2E)-3-(2H-benzo[3,4-d]1,3-dioxolen-5-yl)-2-(acetylamino)-N-benzylprop-2-enami de CollisionEnergy:205060" M+H
PRECURSOR_MZ=339.134
INCHI="InChI=1S/C19H18N2O4/c1-13(22)21-16(19(23)20-11-14-5-3-2-4-6-14)9-15-7-8-17-18(10-15)25-12-24-17/h2-10H,11-12H2,1H3,(H,20,23)(H,21,22)/b16-9+"
SMILES=CC(O)=NC(=Cc1ccc2c(c1)OCO2)C(O)=NCc1ccccc1
SPECTRUMID=CCMSLIB00010121849
59.26836 3087.0 
65.039177 18282.0 
65.461319 2394.0 
72.515007 2975.0 
73.810448 2629.0 
84.960022 3987.0 
91.054497 1413525.0 
104.049561 132327.0 
104.281853 3519.0 
106.065323 16553.0 
107.049049 34676.0 
108.080856 544334.0 
119.049339 4156.0 
132.04451 354859.0 
134.059921 20127.0 
135.044098 79803.0 
146.060364 3178.0 
147.044113 154373.0 
149.05986 4585.0 
150.055145 16463.0 
160.039795 26977.0 
161.04808 5883.0 
162.055054 1909373.0 
164.070938 30052.0 
174.055344 21845.0 
177.054733 141522.0 
190.050064 27353.0 
192.776581 2903.0 
203.080688 7057.0 
204.065628 15589.0 
206.082596 5303.0 
232.060486 941280.0 
282.084839 3022.0 
287.88858 3254.0 
297.123199 21966.0 
297.87442 3240.0 
302.950012 2843.0 
315.884674 6372.0 
END IONS

BEGIN IONS
NAME=Fraxetin CollisionEnergy:205060 M+Na
PRECURSOR_MZ=231.026
INCHI="InChI=1S/C10H8O5/c1-14-6-4-5-2-3-7(11)15-10(5)9(13)8(6)12/h2-4,12-13H,1H3"
SMILES=COc1cc2ccc(=O)oc2c(O)c1O
SPECTRUMID=CCMSLIB00010121480
58.960819 7955.0 
61.011131 2176.0 
74.931183 12311.0 
79.021393 17337.0 
84.959763 3502.0 
87.47995 2098.0 
101.003197 36029.0 
104.269157 2165.0 
107.182747 1783.0 
136.188751 2641.0 
152.946259 2390.0 
154.985214 2997.0 
170.955002 15766.0 
188.964996 4919.0 
231.026276 117095.0 
249.036087 3813.0 
394.385162 2112.0 
END IONS

BEGIN IONS
NAME=4'-Methoxyflavone CollisionEnergy:102040 M-H
PRECURSOR_MZ=251.071
INCHI="InChI=1S/C16H12O3/c1-18-12-8-6-11(7-9-12)16-10-14(17)13-4-2-3-5-15(13)19-16/h2-10H,1H3"
SMILES=COc1ccc(-c2cc(=O)c3ccccc3o2)cc1
SPECTRUMID=CCMSLIB00010103412
61.07885 2629.0 
68.903633 2471.0 
73.952499 2792.0 
95.88913 2428.0 
105.512306 3175.0 
110.22863 2397.0 
112.984947 3604.0 
114.990044 2724.0 
118.654823 2819.0 
136.20639 3528.0 
185.391815 3601.0 
206.069748 4817.0 
207.07901 11240.0 
222.064682 34318.0 
223.07634 9890.0 
250.031158 4804.0 
250.058243 39464.0 
251.071396 4682490.0 
252.117538 5009.0 
260.283691 2967.0 
283.056885 79286.0 
341.04718 3479.0 
484.322968 2901.0 
END IONS

BEGIN IONS
NAME=N-[4-(methylethyl)phenyl]-2-(9-methyl-6-oxohydropurin-8-ylthio)butanamide CollisionEnergy:205060 M+H
PRECURSOR_MZ=386.165
INCHI="InChI=1S/C19H23N5O2S/c1-5-14(17(25)22-13-8-6-12(7-9-13)11(2)3)27-19-23-15-16(24(19)4)20-10-21-18(15)26/h6-11,14H,5H2,1-4H3,(H,22,25)(H,20,21,26)"
SMILES=CCC(Sc1nc2c(O)ncnc2n1C)C(=O)Nc1ccc(C(C)C)cc1
SPECTRUMID=CCMSLIB00010120002
53.002689 4974.0 
56.049969 4368.0 
57.045361 3999.0 
64.050774 3784.0 
65.038879 5042.0 
67.054649 5266.0 
69.033783 22867.0 
70.93586 3700.0 
71.040329 3832.0 
72.891411 3554.0 
73.010887 57345.0 
75.448921 3946.0 
79.054482 14920.0 
81.03421 3755.0 
84.985832 15488.0 
91.054298 142400.0 
92.049568 66734.0 
93.056999 6316.0 
93.069771 42790.0 
94.065117 68636.0 
95.049316 4745.0 
103.054321 5211.0 
105.069763 19071.0 
105.31517 3454.0 
106.064972 40092.0 
107.085403 146935.0 
115.054108 16571.0 
117.069817 69439.0 
118.065132 19257.0 
119.072983 87926.0 
120.044273 138387.0 
120.080849 21887.0 
123.943092 3413.0 
124.049606 5185.0 
125.057587 4219.0 
126.011742 5690.0 
132.080521 21913.0 
133.051926 44401.0 
133.088196 18331.0 
134.096313 1446830.0 
137.034607 6206.0 
137.045517 67453.0 
137.095917 16588.0 
138.995987 20991.0 
139.991455 28327.0 
144.080414 29616.0 
146.096069 17783.0 
147.090927 26972.0 
149.045441 14632.0 
150.05365 16828.0 
151.061234 122428.0 
153.02243 7712.0 
154.00592 6023.0 
156.021896 6238.0 
162.091171 294448.0 
163.061371 5386.0 
172.112015 42122.0 
176.143066 123817.0 
177.077484 4619.0 
180.101944 18793.0 
181.01767 1296830.0 
182.025467 2016324.0 
183.03331 1218708.0 
186.127487 6353.0 
189.076706 34252.0 
190.084351 20906.0 
191.091797 5328.0 
195.033249 343978.0 
204.138657 6685.0 
213.042847 5948.0 
222.043839 19087.0 
223.064499 5340488.0 
223.934525 4932.0 
250.030975 4732.0 
251.059296 6134094.0 
368.151978 16855.0 
381.612885 4823.0 
386.164276 84950.0 
END IONS

BEGIN IONS
NAME="1-(3,4-dimethoxyphenyl)-3-[(1-methylbenzimidazol-6-yl)amino]propan-1-one CollisionEnergy:102040" M+H
PRECURSOR_MZ=340.166
INCHI="InChI=1S/C19H21N3O3/c1-22-12-21-15-6-5-14(11-16(15)22)20-9-8-17(23)13-4-7-18(24-2)19(10-13)25-3/h4-7,10-12,20H,8-9H2,1-3H3"
SMILES=COc1ccc(C(=O)CCNc2ccc3ncn(C)c3c2)cc1OC
SPECTRUMID=CCMSLIB00010104993
118.04351 3676.0 
118.629936 5059.0 
132.067993 18086.0 
145.062714 4418.0 
146.071701 7951.0 
147.079056 45354.0 
148.086044 6994.0 
152.535583 3330.0 
159.078873 89439.0 
160.086777 4133845.0 
161.094299 7383.0 
164.058334 4060.0 
166.061844 35944.0 
173.094696 23535.0 
174.102631 33680.0 
193.083878 5178.0 
196.181641 3617.0 
279.664215 3147.0 
295.13092 8094.0 
296.139191 102185.0 
307.130524 48950.0 
324.133575 514792.0 
325.14151 181524.0 
338.557526 14280.0 
340.165009 11956373.0 
341.785919 11437.0 
END IONS

BEGIN IONS
NAME="N-(3-cyanophenyl)(3,4,5-trimethoxyphenyl)carboxamide CollisionEnergy:205060" M+Cl
PRECURSOR_MZ=347.08
INCHI="InChI=1S/C17H16N2O4/c1-21-14-8-12(9-15(22-2)16(14)23-3)17(20)19-13-6-4-5-11(7-13)10-18/h4-9H,1-3H3,(H,19,20)"
SMILES=COc1cc(C(O)=Nc2cccc(C#N)c2)cc(OC)c1OC
SPECTRUMID=CCMSLIB00010117434
50.14484 2252.0 
50.682678 2553.0 
73.968262 3152.0 
79.01886 2991.0 
81.034119 10339.0 
82.52478 2438.0 
84.621452 2457.0 
87.92997 2610.0 
95.490196 2518.0 
97.349503 2754.0 
109.029228 14059.0 
117.045341 3517.0 
120.00882 12502.0 
120.187828 2733.0 
135.03244 36308.0 
137.024078 53551.0 
137.557404 2284.0 
143.024811 3121.0 
153.018784 3281.0 
155.034805 4555.0 
173.754181 2851.0 
193.041321 9892.0 
197.035614 12309.0 
209.035431 16733.0 
222.044098 3719.0 
226.038177 28752.0 
237.030762 30407.0 
250.038834 4167.0 
251.046036 3389.0 
252.055115 5476.0 
253.061401 5564.0 
263.045685 28684.0 
265.028168 3325.0 
265.062683 11054.0 
266.032837 55495.0 
267.076324 19252.0 
279.043732 2576.0 
280.048035 28647.0 
281.05658 504718.0 
295.071686 65877.0 
296.079254 48011.0 
311.103546 759579.0 
329.002655 2582.0 
346.976746 6022.0 
END IONS

BEGIN IONS
NAME=3-{3-[(4-fluorophenyl)amino]propanoyl}chromen-2-one CollisionEnergy:205060 M+Na
PRECURSOR_MZ=334.085
INCHI="InChI=1S/C18H14FNO3/c19-13-5-7-14(8-6-13)20-10-9-16(21)15-11-12-3-1-2-4-17(12)23-18(15)22/h1-8,11,20H,9-10H2"
SMILES=O=C(CCNc1ccc(F)cc1)c1cc2ccccc2oc1=O
SPECTRUMID=CCMSLIB00010116891
58.812248 2337.0 
79.193237 2159.0 
81.457176 2562.0 
92.366051 2801.0 
104.274887 2653.0 
165.576813 2152.0 
170.93045 2607.0 
195.527481 2185.0 
197.020813 32665.0 
198.925278 2513.0 
211.03624 346874.0 
223.036316 4397.0 
252.061554 5109.0 
283.516022 2655.0 
334.084198 312910.0 
END IONS

BEGIN IONS
NAME=N-(4-methylphenyl)-2-[2-oxo-4-(N-propylcarbamoyl)hydroquinolyl]acetamide CollisionEnergy:205060 M+formate
PRECURSOR_MZ=422.172
INCHI="InChI=1S/C22H23N3O3/c1-3-12-23-22(28)18-13-21(27)25(19-7-5-4-6-17(18)19)14-20(26)24-16-10-8-15(2)9-11-16/h4-11,13H,3,12,14H2,1-2H3,(H,23,28)(H,24,26)"
SMILES=CCCN=C(O)c1cc(=O)n(CC(=O)Nc2ccc(C)cc2)c2ccccc12
SPECTRUMID=CCMSLIB00010123161
73.956413 2630.0 
77.303543 2211.0 
78.918472 3521.0 
89.290703 2613.0 
106.066269 3265.0 
116.050842 5024.0 
122.384323 2323.0 
128.050598 44780.0 
130.066071 47481.0 
136.212952 2469.0 
139.743896 2300.0 
144.045395 170678.0 
156.069168 4872.0 
157.983215 3240.0 
158.048019 24686.0 
158.061234 46738.0 
160.039261 8046.0 
172.040695 4682.0 
174.055649 3947.0 
176.071579 12227.0 
184.040894 2620.0 
197.108917 5919.0 
199.124664 29927.0 
201.103394 12799.0 
202.050781 4053.0 
213.10321 33155.0 
227.963531 2633.0 
229.098022 19050.0 
245.09288 11293.0 
269.093079 15124.0 
275.10321 5680.0 
291.114197 32413.0 
376.166595 260120.0 
393.671631 2556.0 
405.20343 3186.0 
END IONS

BEGIN IONS
NAME="4,5-diacetyloxy-6-(acetyloxymethyl)-2-prop-2-enyloxy-2H-3,4,5,6-tetrahydropyra n-3-yl acetate CollisionEnergy:102040" M+NH4
PRECURSOR_MZ=406.171
INCHI="InChI=1S/C17H24O10/c1-6-7-22-17-16(26-12(5)21)15(25-11(4)20)14(24-10(3)19)13(27-17)8-23-9(2)18/h6,13-17H,1,7-8H2,2-5H3"
SMILES=C=CCOC1OC(COC(C)=O)C(OC(C)=O)C(OC(C)=O)C1OC(C)=O
SPECTRUMID=CCMSLIB00010106264
53.21825 2132.0 
61.028961 2873.0 
61.184681 2742.0 
67.610733 2206.0 
73.938972 3911.0 
81.033821 23693.0 
97.028412 31017.0 
109.028381 632398.0 
127.038902 137916.0 
136.184067 3419.0 
139.038452 35765.0 
169.049377 337475.0 
211.05983 48319.0 
211.54834 3693.0 
271.080719 77352.0 
331.101746 121260.0 
406.11264 3201.0 
406.171448 15796.0 
417.038666 2956.0 
END IONS

BEGIN IONS
NAME=Norspermidine CollisionEnergy:102040 M-H+2Na
PRECURSOR_MZ=176.113
INCHI="InChI=1S/C6H17N3/c7-3-1-5-9-6-2-4-8/h9H,1-8H2"
SMILES=NCCCNCCCN
SPECTRUMID=CCMSLIB00010126741
58.000198 191739.0 
59.6427 205975.0 
66.762398 215193.0 
95.365501 211908.0 
100.093002 387973.0 
103.494003 201493.0 
104.311996 203815.0 
111.081001 2930540.0 
114.072998 1973950.0 
129.104996 151634000.0 
140.078995 5780380.0 
154.666 183444.0 
158.089996 1727000.0 
176.113007 6890000.0 
END IONS

BEGIN IONS
NAME=4-{(2E)-3-[4-(methylethyl)phenyl]prop-2-enoyl}phenyl 4-methylbenzoate CollisionEnergy:102040 M+H
PRECURSOR_MZ=385.18
INCHI="InChI=1S/C26H24O3/c1-18(2)21-11-6-20(7-12-21)8-17-25(27)22-13-15-24(16-14-22)29-26(28)23-9-4-19(3)5-10-23/h4-18H,1-3H3/b17-8+"
SMILES=Cc1ccc(C(=O)Oc2ccc(C(=O)C=Cc3ccc(C(C)C)cc3)cc2)cc1
SPECTRUMID=CCMSLIB00010114695
59.00016 2488.0 
62.24268 2315.0 
65.039093 4457.0 
91.054489 12560.0 
92.369034 3597.0 
94.483582 2773.0 
109.06488 4433.0 
119.049332 562686.0 
198.833908 2344.0 
227.468613 2670.0 
234.993042 2382.0 
265.0867 14038.0 
385.179535 555452.0 
385.292023 48349.0 
END IONS

BEGIN IONS
NAME=Lobeline hydrochloride CollisionEnergy:102040 M+H-H2O
PRECURSOR_MZ=320.201
INCHI="InChI=1S/C22H27NO2/c1-23-19(15-21(24)17-9-4-2-5-10-17)13-8-14-20(23)16-22(25)18-11-6-3-7-12-18/h2-7,9-12,19-21,24H,8,13-16H2,1H3/t19-,20?,21?/m0/s1"
SMILES=CN1C(CC(=O)c2ccccc2)CCCC1CC(O)c1ccccc1
SPECTRUMID=CCMSLIB00010104010
51.559509 2477.0 
60.52552 3254.0 
61.62199 2738.0 
68.049713 4267.0 
70.065323 12436.0 
82.065247 19163.0 
82.385323 3162.0 
85.283951 3519.0 
91.054192 34261.0 
92.363564 5181.0 
94.065117 10300.0 
96.08078 1326016.0 
105.03334 122773.0 
108.08062 10258.0 
109.088593 21564.0 
117.069679 4913.0 
131.085327 13437.0 
143.085464 25253.0 
148.111816 12269.0 
159.080109 5138.0 
162.0914 5353.0 
174.126938 13901.0 
198.127899 16940.0 
200.143143 798489.0 
202.121567 3402.0 
216.138031 1073241.0 
290.18689 2853.0 
296.953796 2881.0 
320.200226 2864083.0 
END IONS

BEGIN IONS
NAME=N-(3-chloro-4-methoxyphenyl)-2-[4-(morpholin-4-ylcarbonyl)-2-oxohydroquinolyl] acetamide CollisionEnergy:205060 M+H
PRECURSOR_MZ=456.132
INCHI="InChI=1S/C23H22ClN3O5/c1-31-20-7-6-15(12-18(20)24)25-21(28)14-27-19-5-3-2-4-16(19)17(13-22(27)29)23(30)26-8-10-32-11-9-26/h2-7,12-13H,8-11,14H2,1H3,(H,25,28)"
SMILES=COc1ccc(N=C(O)Cn2c(=O)cc(C(=O)N3CCOCC3)c3ccccc32)cc1Cl
SPECTRUMID=CCMSLIB00010125090
70.029167 70707.0 
84.141823 2595.0 
86.060364 2607.0 
86.552109 2533.0 
90.975166 2825.0 
92.371277 3340.0 
100.068169 3309.0 
100.075661 99804.0 
104.279373 2824.0 
114.054916 183448.0 
121.426964 3245.0 
128.049484 6295.0 
129.069229 2858.0 
130.065613 19088.0 
132.044357 31494.0 
133.052353 20507.0 
144.535736 2820.0 
156.044754 27865.0 
156.080566 16535.0 
158.059814 40688.0 
161.046402 3100.0 
183.092438 4095.0 
183.995697 2737.0 
186.054886 52292.0 
195.091309 2732.0 
199.08606 14169.0 
215.118286 5786.0 
227.117722 16654.0 
243.112518 11501.0 
255.113235 2885.0 
259.107361 220449.0 
271.10733 229232.0 
299.102112 630355.0 
312.132965 5277.0 
319.104248 2787.0 
369.043671 10622.0 
436.127808 9982.0 
438.122711 29978.0 
445.125854 5385.0 
456.128296 45114.0 
459.999786 2866.0 
END IONS

BEGIN IONS
NAME=CHEMBL66966 CollisionEnergy:205060 M+2H]
PRECURSOR_MZ=181.05
INCHI="InChI=1S/C18H16O8/c19-12-4-1-10(7-14(12)21)3-6-17(23)26-16(18(24)25)9-11-2-5-13(20)15(22)8-11/h1-8,16,19-22H,9H2,(H,24,25)/b6-3+"
SMILES=O=C(C=Cc1ccc(O)c(O)c1)OC(Cc1ccc(O)c(O)c1)C(=O)O
SPECTRUMID=CCMSLIB00010122042
54.947472 2829.0 
56.965191 12890.0 
61.011059 11037.0 
62.01442 2879.0 
63.18187 2806.0 
65.038857 13303.0 
70.942123 10827.0 
71.952179 12142.0 
76.088707 3188.0 
79.02166 3517.0 
79.05452 55894.0 
84.959831 794210.0 
89.038643 227807.0 
89.04493 6019.0 
91.054443 33816.0 
93.033409 19446.0 
95.049171 4793.0 
98.975601 4568.0 
102.962593 4611.0 
102.970078 102785.0 
102.977814 4403.0 
104.278557 3084.0 
107.048988 136488.0 
111.043839 59009.0 
111.968208 11370.0 
116.97184 4580.0 
116.98558 4084.0 
117.033318 417928.0 
118.650818 3769.0 
119.049156 14978.0 
120.98111 21537.0 
125.985863 4815.0 
134.978561 14063.0 
135.0439 1032043.0 
139.038803 61384.0 
145.028275 626056.0 
152.989075 6679.0 
157.010757 14509.0 
157.973083 3832.0 
158.012985 12774.0 
158.059647 4046.0 
162.973907 57508.0 
163.038773 2745130.0 
175.983719 5152.0 
180.984024 153977.0 
181.049042 27969.0 
181.075165 4543.0 
186.055252 12751.0 
198.994629 12047.0 
203.999847 13466.0 
211.535599 2761.0 
263.84198 2891.0 
END IONS

BEGIN IONS
NAME="4,7,8-trimethylhydroquinolin-2-one CollisionEnergy:102040" M+Na
PRECURSOR_MZ=210.089
INCHI="InChI=1S/C12H13NO/c1-7-4-5-10-8(2)6-11(14)13-12(10)9(7)3/h4-6H,1-3H3,(H,13,14)"
SMILES=Cc1ccc2c(C)cc(O)nc2c1C
SPECTRUMID=CCMSLIB00010104112
64.96463 2409.0 
65.396347 2288.0 
78.015404 2349.0 
82.411263 2113.0 
84.959412 2413.0 
92.390617 3039.0 
112.673302 2094.0 
127.07608 2069.0 
186.964111 8024.0 
210.088394 489645.0 
211.044342 3126.0 
228.100357 8973.0 
END IONS

BEGIN IONS
NAME="ethyl 2-amino-4-(2,4-difluorophenyl)-5-oxo-4H-pyrano[3,2-c]chromene-3-carboxyl ate CollisionEnergy:102040" M+H
PRECURSOR_MZ=400.099
INCHI="InChI=1S/C21H15F2NO5/c1-2-27-20(25)17-15(11-8-7-10(22)9-13(11)23)16-18(29-19(17)24)12-5-3-4-6-14(12)28-21(16)26/h3-9,15H,2,24H2,1H3"
SMILES=CCOC(=O)C1=C(N)Oc2c(c(=O)oc3ccccc23)C1c1ccc(F)cc1F
SPECTRUMID=CCMSLIB00010109047
66.746727 3136.0 
68.013191 7239.0 
82.4039 3084.0 
86.023613 77773.0 
104.292648 3996.0 
114.054649 121439.0 
121.02784 27812.0 
141.01387 14223.0 
163.038467 361740.0 
166.045868 82039.0 
167.029694 11887.0 
191.031189 3536.0 
191.065445 12422.0 
192.024277 13942.0 
207.028091 7221.0 
209.024551 3904.0 
210.036423 3412.0 
214.049271 30058.0 
219.060547 71870.0 
230.080368 3068.0 
240.028275 318041.0 
258.038574 50490.0 
267.044128 401480.0 
281.054382 2892.0 
286.069977 522326.0 
287.050385 1732244.0 
300.477783 3515.0 
326.059235 3484.0 
328.075592 4076.0 
334.048035 23616.0 
354.055908 993780.0 
400.097626 1064738.0 
END IONS

BEGIN IONS
NAME=2-methoxyethyl 1-{2-[(4-chlorophenyl)methoxy]ethyl}-5-hydroxy-2-methylindole-3 -carboxylate CollisionEnergy:102040 M+Na
PRECURSOR_MZ=440.124
INCHI="InChI=1S/C22H24ClNO5/c1-15-21(22(26)29-12-11-27-2)19-13-18(25)7-8-20(19)24(15)9-10-28-14-16-3-5-17(23)6-4-16/h3-8,13,25H,9-12,14H2,1-2H3"
SMILES=COCCOC(=O)c1c(C)n(CCOCc2ccc(Cl)cc2)c2ccc(O)cc12
SPECTRUMID=CCMSLIB00010111765
56.900902 2720.0 
58.626869 3032.0 
73.967911 3048.0 
87.513718 2963.0 
87.883522 2831.0 
104.304077 3549.0 
106.747063 3269.0 
123.278831 3007.0 
216.630173 2943.0 
224.223618 4036.0 
303.226227 3791.0 
344.086334 11990.0 
440.123016 5406907.0 
440.197784 257420.0 
END IONS

BEGIN IONS
NAME=Wedelolactone CollisionEnergy:205060 2M-H
PRECURSOR_MZ=627.078
INCHI="InChI=1S/C16H10O7/c1-21-6-2-10(19)14-12(3-6)23-16(20)13-7-4-8(17)9(18)5-11(7)22-15(13)14/h2-5,17-19H,1H3"
SMILES=COc1cc(O)c2c(c1)oc(=O)c1c3cc(O)c(O)cc3oc21
SPECTRUMID=CCMSLIB00010123457
53.130692 2993.0 
62.074162 2795.0 
73.193428 3099.0 
79.658127 2872.0 
82.424263 4259.0 
92.406952 3791.0 
104.320198 3928.0 
186.031921 13760.0 
198.031693 4370.0 
210.031006 3665.0 
210.400177 7203.0 
214.027115 12453.0 
242.022049 22390.0 
253.012741 4582.0 
254.021805 14707.0 
269.008484 26533.0 
270.016479 49521.0 
297.003815 6996.0 
298.011505 745038.0 
313.035187 554981.0 
END IONS

BEGIN IONS
NAME=4-(4-methylphenyl)-4-oxo-2-(phenylmethylamino)butanoic acid CollisionEnergy:102040 M-H
PRECURSOR_MZ=296.129
INCHI="InChI=1S/C18H19NO3/c1-13-7-9-15(10-8-13)17(20)11-16(18(21)22)19-12-14-5-3-2-4-6-14/h2-10,16,19H,11-12H2,1H3,(H,21,22)"
SMILES=Cc1ccc(C(=O)CC(NCc2ccccc2)C(=O)O)cc1
SPECTRUMID=CCMSLIB00010105725
53.064152 2202.0 
54.797722 2709.0 
56.558971 2526.0 
65.271072 2617.0 
82.40802 2571.0 
92.389557 4008.0 
104.300652 3009.0 
107.050613 3568.0 
110.339287 2477.0 
117.071083 245901.0 
118.982536 2776.0 
119.050484 13133.0 
133.065872 20039.0 
137.493301 2386.0 
143.05069 3169.0 
145.065903 226508.0 
157.990402 2699.0 
158.690948 2208.0 
159.239639 2465.0 
160.076706 4542.0 
161.060745 38699.0 
162.056183 35702.0 
167.128159 2373.0 
176.179581 2540.0 
189.055893 1456756.0 
210.883881 2469.0 
292.30481 2370.0 
296.128693 4844.0 
END IONS

BEGIN IONS
NAME=N-(3-fluoro-4-methylphenyl)-2-(6-oxo-9-phenylhydropurin-8-ylthio)acetamide CollisionEnergy:102040 2M-H
PRECURSOR_MZ=817.194
INCHI="InChI=1S/C20H16FN5O2S/c1-12-7-8-13(9-15(12)21)24-16(27)10-29-20-25-17-18(22-11-23-19(17)28)26(20)14-5-3-2-4-6-14/h2-9,11H,10H2,1H3,(H,24,27)(H,22,23,28)"
SMILES=Cc1ccc(N=C(O)CSc2nc3c(O)ncnc3n2-c2ccccc2)cc1F
SPECTRUMID=CCMSLIB00010110157
63.034081 3320.0 
67.905792 3498.0 
73.000443 3270.0 
77.688141 3509.0 
82.65004 3131.0 
92.378906 4042.0 
92.445389 3416.0 
101.056412 3644.0 
104.287933 3642.0 
104.628983 3259.0 
141.046036 33264.0 
157.971085 4493.0 
162.036392 5398.0 
176.018219 6225.0 
181.889053 3155.0 
196.023788 19774.0 
211.062653 148840.0 
238.461929 4500.0 
242.026596 47675.0 
243.03537 29191.0 
255.035919 4532.0 
257.051117 13342.0 
283.028839 7369.0 
297.823303 3280.0 
334.110443 13783.0 
408.093536 439149.0 
484.815582 3781.0 
639.735291 3733.0 
END IONS

BEGIN IONS
NAME=Epiestradiol CollisionEnergy:205060 M+H-H2O
PRECURSOR_MZ=255.174
INCHI="InChI=1S/C18H24O2/c1-18-9-8-14-13-5-3-12(19)10-11(13)2-4-15(14)16(18)6-7-17(18)20/h3,5,10,14-17,19-20H,2,4,6-9H2,1H3/t14-,15-,16+,17-,18+/m1/s1"
SMILES=CC12CCC3c4ccc(O)cc4CCC3C1CCC2O
SPECTRUMID=CCMSLIB00010122871
55.05489 127681.0 
56.556728 75154.0 
58.35257 82843.0 
60.427151 77270.0 
67.054893 2225438.0 
69.070442 647252.0 
79.054497 134132.0 
81.070419 1093205.0 
91.054977 153813.0 
93.070389 325296.0 
95.086029 2385150.0 
105.070427 820774.0 
107.04937 863128.0 
107.086327 115321.0 
109.101463 2565164.0 
115.054367 366171.0 
117.069977 338294.0 
121.064972 327461.0 
123.116943 88198.0 
129.069748 77984.0 
131.049194 468212.0 
131.085693 1884043.0 
133.06488 12034799.0 
135.116745 328823.0 
141.069931 757027.0 
144.056885 1396964.0 
145.064789 2273164.0 
147.08017 791362.0 
147.117157 110684.0 
157.064911 310208.0 
159.08046 34109440.0 
161.096863 299518.0 
169.076187 345877.0 
173.095795 693670.0 
174.519318 91873.0 
185.096985 119018.0 
199.112015 100339.0 
213.190231 78851.0 
255.174088 11508945.0 
END IONS

BEGIN IONS
NAME=2'-Hydroxy-.beta.-naphthoflavone CollisionEnergy:102040 M-H
PRECURSOR_MZ=287.071
INCHI="InChI=1S/C19H12O3/c20-15-8-4-3-7-14(15)18-11-16(21)19-13-6-2-1-5-12(13)9-10-17(19)22-18/h1-11,20H"
SMILES=O=c1cc(-c2ccccc2O)oc2ccc3ccccc3c12
SPECTRUMID=CCMSLIB00010103925
75.732147 3217.0 
86.294571 2850.0 
88.456177 2668.0 
104.289787 3524.0 
117.034691 1082969.0 
136.216736 4757.0 
139.42041 2935.0 
143.050415 101370.0 
161.024323 61235.0 
167.050293 232837.0 
241.065781 13464.0 
243.081345 31113.0 
245.061157 5572.0 
258.91864 5222.0 
259.076721 1054681.0 
268.903107 4175.0 
269.059631 24773.0 
286.065521 7134.0 
287.071777 8317193.0 
END IONS

BEGIN IONS
NAME="2-amino-4-(3-chlorophenyl)-6-(hydroxymethyl)-8-oxo-4H-pyrano[3,2-b]pyran-3-car bonitrile CollisionEnergy:102040" M-H
PRECURSOR_MZ=329.033
INCHI="InChI=1S/C16H11ClN2O4/c17-9-3-1-2-8(4-9)13-11(6-18)16(19)23-14-12(21)5-10(7-20)22-15(13)14/h1-5,13,20H,7,19H2"
SMILES=N#CC1=C(N)Oc2c(oc(CO)cc2=O)C1c1cccc(Cl)c1
SPECTRUMID=CCMSLIB00010109876
59.5214 2638.0 
65.014099 2629957.0 
68.013687 3683.0 
68.699661 2804.0 
73.965103 3245.0 
80.213348 2407.0 
85.983643 2578.0 
90.933418 4895.0 
95.013702 11257.0 
99.253937 2576.0 
108.009117 12059.0 
122.024719 12136.0 
131.472687 2763.0 
192.929108 9370.0 
201.022614 37779.0 
206.001892 10344.0 
217.01622 3537.0 
220.017258 4348.0 
221.001633 23790.0 
229.017792 4137.0 
231.031586 4294.0 
248.011765 10881.0 
260.012482 3979.0 
271.731659 3180.0 
302.022705 130101.0 
311.023773 5916.0 
328.980743 2662.0 
329.036133 58522.0 
END IONS

BEGIN IONS
NAME=2-octyltridecanedioic acid CollisionEnergy:205060 M-H
PRECURSOR_MZ=355.285
INCHI="InChI=1S/C21H40O4/c1-2-3-4-5-10-13-16-19(21(24)25)17-14-11-8-6-7-9-12-15-18-20(22)23/h19H,2-18H2,1H3,(H,22,23)(H,24,25)"
SMILES=CCCCCCCCC(CCCCCCCCCCC(=O)O)C(=O)O
SPECTRUMID=CCMSLIB00010118641
56.197559 27125.0 
57.034031 23693.0 
58.430389 21288.0 
59.870319 21701.0 
66.743668 30270.0 
70.925484 25353.0 
71.474838 25097.0 
92.379646 32041.0 
107.876709 23019.0 
118.274757 22812.0 
153.128876 58483.0 
169.159744 133067.0 
181.159973 315448.0 
187.757935 25143.0 
193.159439 34263.0 
201.561325 28082.0 
213.528549 27058.0 
291.267761 130841.0 
293.285278 7388897.0 
309.282135 176956.0 
311.295197 315460.0 
337.27533 28961546.0 
355.285736 76491688.0 
END IONS

BEGIN IONS
NAME=Ursolic acid CollisionEnergy:205060 M+formate
PRECURSOR_MZ=501.359
INCHI="InChI=1S/C30H48O3/c1-18-10-15-30(25(32)33)17-16-28(6)20(24(30)19(18)2)8-9-22-27(5)13-12-23(31)26(3,4)21(27)11-14-29(22,28)7/h8,18-19,21-24,31H,9-17H2,1-7H3,(H,32,33)/t18-,19+,21+,22-,23+,24+,27+,28-,29-,30+/m1/s1"
SMILES=CC1CCC2(C(=O)O)CCC3(C)C(=CCC4C5(C)CCC(O)C(C)(C)C5CCC43C)C2C1C
SPECTRUMID=CCMSLIB00010125336
51.24472 2553.0 
54.26038 2192.0 
66.750023 2900.0 
66.895447 2032.0 
80.541801 2527.0 
88.681374 2180.0 
92.384102 3066.0 
92.778702 2354.0 
180.682678 2833.0 
213.58168 2771.0 
220.66655 2466.0 
237.764954 2447.0 
238.662781 2571.0 
244.355835 2424.0 
254.892441 2779.0 
262.703461 2433.0 
302.635529 2563.0 
455.353821 11535.0 
END IONS

BEGIN IONS
NAME="ethyl 2-[(2H,3H-benzo[3,4-e]1,4-dioxin-6-ylsulfonyl)amino]-3-indol-3-ylpropano ate CollisionEnergy:102040" M+H
PRECURSOR_MZ=431.127
INCHI="InChI=1S/C21H22N2O6S/c1-2-27-21(24)18(11-14-13-22-17-6-4-3-5-16(14)17)23-30(25,26)15-7-8-19-20(12-15)29-10-9-28-19/h3-8,12-13,18,22-23H,2,9-11H2,1H3"
SMILES=CCOC(=O)C(Cc1c[nH]c2ccccc12)NS(=O)(=O)c1ccc2c(c1)OCCO2
SPECTRUMID=CCMSLIB00010108973
55.054501 4695.0 
59.14381 3283.0 
66.74041 4343.0 
68.997437 22979.0 
69.033882 17059.0 
70.473701 3327.0 
92.373947 4012.0 
95.013107 4615.0 
107.012848 9237.0 
113.023514 5789.0 
117.069443 6510.0 
118.065269 50449.0 
130.065262 623825.0 
131.073303 35875.0 
132.08136 33100.0 
135.044922 4483.0 
142.065094 49035.0 
143.073029 452317.0 
144.044998 35995.0 
144.080887 428250.0 
146.046722 6139.0 
146.060104 187413.0 
151.038986 61869.0 
153.054855 52693.0 
156.067917 5752.0 
157.076126 887054.0 
158.083984 2342117.0 
159.091553 36128.0 
160.07579 7928.0 
163.050186 126370.0 
170.06012 158862.0 
172.112183 139969.0 
173.07045 8336.0 
174.091476 1184865.0 
175.032013 7815.0 
183.010941 8820.0 
188.070435 49785.0 
188.107254 5390.0 
199.005951 242057.0 
203.08049 16641.0 
208.390961 5148.0 
208.410172 7055.0 
216.102036 5355861.0 
221.037781 8295.0 
231.1129 264664.0 
232.120331 39024.0 
330.078918 6106.0 
357.09021 2311099.0 
368.057983 15435.0 
385.084808 22909.0 
390.142242 1181043.0 
414.098419 25325.0 
414.161499 3904.0 
431.127014 2457026.0 
449.146637 5322.0 
END IONS

BEGIN IONS
NAME="Brefeldin A, natural CollisionEnergy:102040" M+H-H2O
PRECURSOR_MZ=263.164
INCHI="InChI=1S/C16H24O4/c1-11-5-3-2-4-6-12-9-13(17)10-14(12)15(18)7-8-16(19)20-11/h4,6-8,11-15,17-18H,2-3,5,9-10H2,1H3/b6-4+,8-7+/t11-,12?,13-,14+,15+/m0/s1"
SMILES=CC1CCCC=CC2CC(O)CC2C(O)C=CC(=O)O1
SPECTRUMID=CCMSLIB00010112938
50.08073 3251.0 
55.01849 17722.0 
55.054611 26368.0 
57.03413 5058.0 
57.070381 17330.0 
58.885231 3156.0 
65.039131 5437.0 
67.054604 234802.0 
69.03389 17009.0 
69.070183 61996.0 
71.0495 21927.0 
71.086029 6124.0 
71.780289 3149.0 
73.028893 22192.0 
74.524452 2985.0 
78.538391 2831.0 
79.054482 130381.0 
81.033707 46667.0 
81.070099 369416.0 
82.37722 3930.0 
83.01342 5077.0 
83.049377 37744.0 
83.085739 284604.0 
85.028923 5144.0 
85.064949 19140.0 
85.101341 5174.0 
91.054321 198134.0 
93.033798 13380.0 
93.069923 213544.0 
93.076599 7286.0 
95.049232 112588.0 
95.078621 8199.0 
95.085617 341925.0 
97.028671 21355.0 
97.064827 20124.0 
97.101227 36608.0 
99.007599 70007.0 
99.080528 48608.0 
101.023232 44337.0 
103.054123 18342.0 
105.069847 365729.0 
107.049118 77170.0 
107.085411 185743.0 
109.028419 22913.0 
109.064598 33115.0 
109.101097 369668.0 
111.043991 32343.0 
111.08033 40900.0 
113.059479 19139.0 
113.09594 25040.0 
115.053978 10699.0 
117.069801 260500.0 
119.049316 40528.0 
119.08548 212839.0 
121.064934 64650.0 
121.091278 6354.0 
121.101097 161455.0 
122.998932 3280.0 
123.043854 28881.0 
123.080353 24021.0 
123.116699 97115.0 
125.060066 23314.0 
125.095879 16386.0 
127.03891 21762.0 
128.062286 7382.0 
128.290405 2893.0 
129.069717 164653.0 
131.049347 18069.0 
131.085495 319256.0 
133.064758 344066.0 
133.101135 492448.0 
134.108963 70670.0 
135.043823 35933.0 
135.08046 72601.0 
135.116806 91901.0 
137.059906 34435.0 
137.096191 38841.0 
137.132904 12378.0 
139.039032 37419.0 
139.07489 14710.0 
139.111893 13099.0 
141.054321 5218.0 
141.06987 7409.0 
142.07666 4030.0 
143.085526 204671.0 
145.064804 43050.0 
145.101151 214415.0 
147.044373 12209.0 
147.08046 101050.0 
147.116577 111704.0 
149.059753 144818.0 
149.096024 48868.0 
149.132355 75634.0 
151.075409 117484.0 
151.111679 199178.0 
153.054474 13467.0 
153.068741 3110.0 
153.090164 6108.0 
155.084839 12511.0 
157.065033 32564.0 
157.101151 253968.0 
159.080643 36351.0 
159.116791 276228.0 
160.124435 50783.0 
161.059402 54785.0 
161.095932 67190.0 
161.132599 77398.0 
163.075317 146535.0 
163.111816 34517.0 
163.148026 85408.0 
165.054428 18412.0 
165.090927 50639.0 
167.070007 56810.0 
167.085724 21253.0 
167.142914 5205.0 
169.101059 18398.0 
171.065491 3965.0 
171.080795 53999.0 
171.116653 139733.0 
173.095673 18287.0 
173.132339 159944.0 
175.075378 86873.0 
175.11174 38630.0 
175.147873 68193.0 
177.090714 43955.0 
177.127319 40177.0 
179.069992 29694.0 
179.106613 36815.0 
181.085144 22156.0 
181.101303 22255.0 
183.116608 83651.0 
185.096283 63987.0 
185.13237 390946.0 
187.110718 27131.0 
187.148193 5016.0 
189.090851 89813.0 
189.127533 17627.0 
189.163651 104196.0 
191.106033 13058.0 
193.085861 20149.0 
197.132477 7156.0 
199.11264 39400.0 
199.148026 1117190.0 
201.128296 26390.0 
201.163574 65332.0 
203.10704 65007.0 
203.142715 73943.0 
205.123215 6926.0 
207.101456 7597.0 
209.132278 114872.0 
215.143982 4533.0 
217.124863 32818.0 
217.158554 542221.0 
219.137848 52061.0 
220.050278 5812.0 
221.153366 7744.0 
227.142883 470884.0 
229.055862 4912.0 
233.15329 3854.0 
235.169189 34492.0 
245.153336 1748211.0 
263.163757 1662129.0 
END IONS

BEGIN IONS
NAME=N-(3-methylphenyl)-2-[9-(4-methylphenyl)-6-oxohydropurin-8-ylthio]acetamide CollisionEnergy:102040 M+Na
PRECURSOR_MZ=428.115
INCHI="InChI=1S/C21H19N5O2S/c1-13-6-8-16(9-7-13)26-19-18(20(28)23-12-22-19)25-21(26)29-11-17(27)24-15-5-3-4-14(2)10-15/h3-10,12H,11H2,1-2H3,(H,24,27)(H,22,23,28)"
SMILES=Cc1ccc(-n2c(SCC(O)=Nc3cccc(C)c3)nc3c(O)ncnc32)cc1
SPECTRUMID=CCMSLIB00010111256
50.06229 3117.0 
52.3591 2906.0 
69.829803 3386.0 
78.056389 3089.0 
118.64016 4218.0 
136.188461 4196.0 
136.200043 3263.0 
148.685791 3594.0 
170.05751 6125.0 
212.081314 4453.0 
215.414276 3458.0 
230.039307 6273.0 
244.053421 48744.0 
249.0746 51346.0 
257.049164 4975.0 
271.064362 143737.0 
279.030273 118324.0 
280.0383 138459.0 
283.858917 3085.0 
289.068726 14129.0 
291.288116 3402.0 
293.046936 12922.0 
299.059113 576487.0 
321.040527 74002.0 
428.114288 7446727.0 
430.411713 4544.0 
END IONS

BEGIN IONS
NAME="8-{[2-(2-methoxyphenyl)-5-methyl(1,3-oxazol-4-yl)]methylthio}-2,9-dimethylhydr opurin-6-one CollisionEnergy:102040" M-H
PRECURSOR_MZ=396.114
INCHI="InChI=1S/C19H19N5O3S/c1-10-13(22-18(27-10)12-7-5-6-8-14(12)26-4)9-28-19-23-15-16(24(19)3)20-11(2)21-17(15)25/h5-8H,9H2,1-4H3,(H,20,21,25)"
SMILES=COc1ccccc1-c1nc(CSc2nc3c(O)nc(C)nc3n2C)c(C)o1
SPECTRUMID=CCMSLIB00010105895
82.406219 3042.0 
88.452133 2359.0 
92.384933 3547.0 
118.665573 3046.0 
126.603813 2683.0 
163.062439 4144.0 
193.01886 3883.0 
194.026413 449574.0 
195.034012 72815.0 
209.050049 20352.0 
287.745605 2650.0 
396.113342 225461.0 
END IONS

BEGIN IONS
NAME="7-hydroxy-4,8-dimethylchromen-2-one CollisionEnergy:205060" 2M-H
PRECURSOR_MZ=379.119
INCHI="InChI=1S/C11H10O3/c1-6-5-10(13)14-11-7(2)9(12)4-3-8(6)11/h3-5,12H,1-2H3"
SMILES=Cc1cc(=O)oc2c(C)c(O)ccc12
SPECTRUMID=CCMSLIB00010116789
64.85273 2201.0 
118.678909 2570.0 
118.9664 13816.0 
145.066055 2819.0 
146.961197 111809.0 
174.955902 99140.0 
189.055634 172531.0 
203.278595 2663.0 
242.943375 34645.0 
END IONS

BEGIN IONS
NAME="2-(4-methoxyphenyl)-2-oxoethyl 3-[(3,4-dimethoxyphenyl)carbonylamino]benzoate CollisionEnergy:102040" M+formate
PRECURSOR_MZ=494.146
INCHI="InChI=1S/C25H23NO7/c1-30-20-10-7-16(8-11-20)21(27)15-33-25(29)18-5-4-6-19(13-18)26-24(28)17-9-12-22(31-2)23(14-17)32-3/h4-14H,15H2,1-3H3,(H,26,28)"
SMILES=COc1ccc(C(=O)COC(=O)c2cccc(N=C(O)c3ccc(OC)c(OC)c3)c2)cc1
SPECTRUMID=CCMSLIB00010109907
59.427639 2641.0 
59.75071 2365.0 
64.734993 2224.0 
66.744469 2815.0 
73.95639 2654.0 
86.586708 2372.0 
93.034187 3290.0 
95.423027 2737.0 
104.289413 3864.0 
122.024849 13486.0 
145.75708 3019.0 
203.589005 2505.0 
287.080078 27292.0 
389.059723 2468.0 
418.094116 13973.0 
420.146393 14239.0 
432.108643 11016.0 
433.113708 3375.0 
448.140259 303173.0 
513.083252 3018.0 
END IONS

BEGIN IONS
NAME=N-(2-fluorophenyl)-2-[2-oxo-4-(piperidylcarbonyl)hydroquinolyl]acetamide CollisionEnergy:205060 M+H
PRECURSOR_MZ=408.172
INCHI="InChI=1S/C23H22FN3O3/c24-18-9-3-4-10-19(18)25-21(28)15-27-20-11-5-2-8-16(20)17(14-22(27)29)23(30)26-12-6-1-7-13-26/h2-5,8-11,14H,1,6-7,12-13,15H2,(H,25,28)"
SMILES=O=C(c1cc(=O)n(CC(O)=Nc2ccccc2F)c2ccccc12)N1CCCCC1
SPECTRUMID=CCMSLIB00010124519
50.59161 2973.0 
64.030792 2752.0 
65.41571 3010.0 
67.054741 3159.0 
69.066032 8315.0 
69.07029 252243.0 
70.065491 12906.0 
78.348389 3394.0 
82.065338 12208.0 
84.081009 80228.0 
94.999184 3194.0 
98.060127 3118.0 
98.096527 385466.0 
106.065002 6775.0 
112.075737 694502.0 
128.049667 39197.0 
130.06514 107209.0 
132.044479 4405.0 
133.052612 24677.0 
133.062607 3262.0 
142.064819 4578.0 
143.073456 4396.0 
144.079895 4639.0 
146.059616 11391.0 
156.044296 41276.0 
156.08165 6162.0 
157.052689 4338.0 
157.077057 3963.0 
158.045288 7290.0 
158.060059 200905.0 
167.072342 5561.0 
169.075974 103685.0 
173.071228 3498.0 
180.080933 6658.0 
182.098175 6520.0 
183.091858 12670.0 
185.070801 17704.0 
186.054886 244915.0 
193.089203 4074.0 
197.106903 6611.0 
198.128174 6230.0 
208.112503 14904.0 
213.065689 40460.0 
213.138336 15363.0 
225.138519 157566.0 
226.111176 6528.0 
239.118515 3739.0 
241.133514 74506.0 
249.865799 3610.0 
257.128235 753186.0 
269.128204 889351.0 
276.095764 3786.0 
280.142456 4066.0 
297.123077 1976756.0 
310.152893 30032.0 
408.138702 5983.0 
417.156494 3573.0 
422.349457 3335.0 
END IONS

BEGIN IONS
NAME=taurine CollisionEnergy:102040 M-H+2Na
PRECURSOR_MZ=169.986
INCHI="InChI=1S/C2H7NO3S/c3-1-2-7(4,5)6/h1-3H2,(H,4,5,6)"
SMILES=NCCS(=O)(=O)O
SPECTRUMID=CCMSLIB00010126585
64.887299 8369.679688 
92.388702 10816.200195 
100.177002 8551.820312 
115.558998 8991.240234 
122.459999 8676.620117 
150.503006 7954.120117 
169.985992 1087170.0 
170.059998 18238.0 
170.095993 49828.300781 
END IONS

BEGIN IONS
NAME=6-amino-2-[(2-methylnaphthyl)methylthio]pyrimidin-4-ol CollisionEnergy:205060 M+H
PRECURSOR_MZ=298.101
INCHI="InChI=1S/C16H15N3OS/c1-10-6-7-11-4-2-3-5-12(11)13(10)9-21-16-18-14(17)8-15(20)19-16/h2-8H,9H2,1H3,(H3,17,18,19,20)"
SMILES=Cc1ccc2ccccc2c1CSc1nc(N)cc(O)n1
SPECTRUMID=CCMSLIB00010116316
52.31179 2880.0 
53.03899 11672.0 
54.668991 2665.0 
57.584991 2999.0 
59.945839 2540.0 
68.013351 18128.0 
77.016998 23713.0 
78.327309 2911.0 
84.366676 3051.0 
85.039749 69240.0 
92.396088 3429.0 
97.039452 17045.0 
102.000557 3639.0 
103.05394 14937.0 
105.033409 5899.0 
115.054077 73123.0 
125.149673 2928.0 
126.995667 42313.0 
128.062073 20960.0 
129.069824 79363.0 
133.359924 2845.0 
135.658386 2838.0 
136.236588 3487.0 
138.995972 5868.0 
144.022507 389736.0 
145.064606 4606.0 
152.061035 5127.0 
153.069733 233339.0 
154.077591 107794.0 
154.584915 4265.0 
155.085358 5507133.0 
155.587387 5035.0 
156.022476 46240.0 
289.459564 2865.0 
298.100281 255908.0 
END IONS

BEGIN IONS
NAME="3-[2-(diethylamino)ethyl]-2-(3,4,5-trimethoxyphenyl)-1,2,3-trihydroquinazolin- 4-one CollisionEnergy:205060" M+H
PRECURSOR_MZ=414.239
INCHI="InChI=1S/C23H31N3O4/c1-6-25(7-2)12-13-26-22(24-18-11-9-8-10-17(18)23(26)27)16-14-19(28-3)21(30-5)20(15-16)29-4/h8-11,14-15,22,24H,6-7,12-13H2,1-5H3"
SMILES=CCN(CC)CCN1C(=O)c2ccccc2NC1c1cc(OC)c(OC)c(OC)c1
SPECTRUMID=CCMSLIB00010115568
50.015461 26496.0 
51.023411 33389.0 
55.018291 40052.0 
65.038902 124578.0 
65.515747 21142.0 
68.026222 25143.0 
70.065483 24520.0 
72.076637 39601.0 
72.081078 1073663.0 
77.038979 29472.0 
78.034073 426993.0 
78.046768 106086.0 
79.054207 25890.0 
81.033737 26646.0 
81.069977 99893.0 
84.008461 21716.0 
86.096733 282731.0 
91.054443 125734.0 
92.025627 27165.0 
92.04953 239803.0 
93.033379 111730.0 
93.057198 114618.0 
95.049118 52004.0 
100.112053 4630920.0 
102.033684 52291.0 
104.049553 337233.0 
104.287727 23877.0 
105.033386 1355339.0 
105.056519 21916.0 
105.069588 24063.0 
106.028793 29520.0 
106.041298 49648.0 
106.065079 212067.0 
107.048973 102040.0 
108.056351 99000.0 
109.064743 359117.0 
117.05722 1103489.0 
118.064987 685766.0 
119.036507 32844.0 
119.049789 27537.0 
119.060158 133942.0 
120.044273 1562667.0 
121.051781 94013.0 
123.043549 90801.0 
124.05162 54722.0 
125.059479 114722.0 
129.044601 5103960.0 
130.028717 9331713.0 
130.039307 536854.0 
130.064651 277762.0 
131.050339 24040.0 
131.060699 190717.0 
132.044266 4762459.0 
132.080276 206712.0 
133.075851 655325.0 
134.05957 28927.0 
135.043991 209368.0 
137.04837 34032.0 
137.05957 414762.0 
138.055298 37727.0 
138.067322 863685.0 
139.038971 240808.0 
139.075317 234707.0 
139.554062 22930.0 
143.06015 54535.0 
145.075974 43925.0 
146.059448 119349.0 
147.042892 42444.0 
147.055283 957302.0 
147.067322 63140.0 
147.092758 26417.0 
148.051926 375887.0 
148.075241 506328.0 
150.054794 578836.0 
151.038666 45155.0 
151.0625 32707.0 
152.046753 265574.0 
153.054077 159913.0 
154.062286 10679238.0 
155.072144 38933.0 
155.399323 26200.0 
162.054764 47161.0 
162.078949 84799.0 
163.038544 48624.0 
163.086304 129983.0 
165.054718 451106.0 
166.0634 119109.0 
167.070404 454303.0 
169.085815 4539760.0 
170.059296 38090.0 
171.05481 54562.0 
172.051041 26421.0 
173.070831 1788131.0 
175.086395 238153.0 
178.049759 212376.0 
178.064743 32021.0 
179.033951 177689.0 
179.056854 81780.0 
179.072708 97732.0 
180.064514 72973.0 
180.080429 843481.0 
181.086151 4345884.0 
183.068085 35620.0 
183.09082 32462.0 
184.036316 127900.0 
184.075668 256524.0 
190.063339 47939.0 
191.072479 38111.0 
192.081161 32762.0 
193.07489 52597.0 
194.059357 124911.0 
194.081207 106333.0 
195.066422 329731.0 
195.103821 105215.0 
196.075699 354643.0 
197.071121 148302.0 
198.055099 153258.0 
198.090881 374788.0 
199.085785 31628.0 
205.073853 40668.0 
206.060608 45097.0 
206.08078 41733.0 
207.067764 213611.0 
207.09137 891456.0 
208.075287 662319.0 
208.099213 572751.0 
209.063065 33348.0 
209.083694 619047.0 
209.104935 43563.0 
210.054825 74832.0 
210.092545 273354.0 
211.063156 72965.0 
211.086182 149747.0 
212.070221 491059.0 
213.078476 27505.0 
219.091187 25609.0 
220.075272 171038.0 
220.097031 36505.0 
221.069489 251585.0 
221.106796 154409.0 
222.055435 247525.0 
222.09314 248293.0 
222.114822 89213.0 
223.061386 89335.0 
223.086548 205367.0 
224.070297 1418767.0 
224.092789 51370.0 
225.077438 112075.0 
225.101395 44377.0 
226.085983 872780.0 
227.093933 101077.0 
229.072281 50382.0 
233.08345 36298.0 
234.090363 80325.0 
235.061981 56429.0 
235.085892 1251083.0 
236.06958 1279235.0 
236.094345 1154848.0 
237.077408 719691.0 
237.102142 268798.0 
238.047272 50067.0 
238.087479 802408.0 
239.056442 87515.0 
239.080246 702323.0 
240.06514 1725374.0 
240.100159 138408.0 
241.073441 47725.0 
241.111816 23821.0 
242.080414 49125.0 
246.078735 32144.0 
247.086426 42039.0 
248.06842 45599.0 
249.073273 46608.0 
249.101883 525803.0 
250.048462 109689.0 
250.084457 397646.0 
250.111099 67525.0 
251.080338 3269606.0 
251.11705 101655.0 
252.064957 2054649.0 
252.093719 137384.0 
253.070786 57954.0 
253.09642 1207655.0 
254.080688 2304006.0 
255.089417 434334.0 
256.095703 38017.0 
261.100922 42788.0 
262.084656 102766.0 
263.080658 944583.0 
264.064026 705648.0 
264.091827 422399.0 
265.070496 581765.0 
265.097382 723598.0 
266.04364 42568.0 
266.078674 255957.0 
266.109253 84607.0 
267.075928 3908238.0 
267.110626 231929.0 
268.059692 2001606.0 
268.09549 813065.0 
269.104248 968328.0 
270.077972 35027.0 
270.112091 172835.0 
277.095734 93010.0 
278.105621 31076.0 
279.078308 229009.0 
279.112061 2728258.0 
280.121582 2336555.0 
281.091492 2820813.0 
282.073517 551239.0 
282.099762 1818463.0 
282.138794 33820.0 
283.082062 528326.0 
283.112396 203108.0 
289.098724 43677.0 
293.091919 236044.0 
293.126526 32010.0 
294.113251 196754.0 
295.107147 3012545.0 
295.201355 147247.0 
296.115448 154125.0 
297.047943 24481.0 
297.088715 363890.0 
297.122528 6665080.0 
298.106689 9262922.0 
307.106964 2613040.0 
308.113922 112061.0 
309.122223 145074.0 
310.131042 176313.0 
311.10199 2201103.0 
311.138428 211854.0 
312.108887 31712.0 
325.117462 4687113.0 
326.125366 162207.0 
339.523407 26696.0 
340.137909 45844.0 
341.148926 50469268.0 
399.217743 28827.0 
414.237732 33252364.0 
END IONS

BEGIN IONS
NAME=ST077156 CollisionEnergy:102040 M-H
PRECURSOR_MZ=417.119
INCHI="InChI=1S/C21H22O9/c22-9-17-18(25)19(26)20(27)21(30-17)28-12-5-6-13-14(24)8-15(29-16(13)7-12)10-1-3-11(23)4-2-10/h1-7,15,17-23,25-27H,8-9H2"
SMILES=O=C1CC(c2ccc(O)cc2)Oc2cc(OC3OC(CO)C(O)C(O)C3O)ccc21
SPECTRUMID=CCMSLIB00010110842
65.084229 3607.0 
66.115868 2747.0 
67.72213 2755.0 
82.438454 2972.0 
82.651253 2746.0 
91.018837 59115.0 
92.377693 3673.0 
101.395332 2942.0 
119.050247 609833.0 
131.895905 3533.0 
135.008957 1073560.0 
136.2117 4111.0 
148.016708 3752.0 
153.019455 329818.0 
161.025223 3476.0 
162.504868 3348.0 
163.447708 3074.0 
179.98877 3028.0 
180.006012 12517.0 
254.056839 4394.0 
255.066437 3593702.0 
417.119232 2266229.0 
END IONS

BEGIN IONS
NAME="2-{4-[(6-chloro(2H-benzo[d]1,3-dioxolan-5-yl))methylene]-2,5-dioxo(1,3-diazoli dinyl)}-N-(3-methylphenyl)acetamide CollisionEnergy:205060" M-H
PRECURSOR_MZ=412.071
INCHI="InChI=1S/C20H16ClN3O5/c1-11-3-2-4-13(5-11)22-18(25)9-24-19(26)15(23-20(24)27)6-12-7-16-17(8-14(12)21)29-10-28-16/h2-8H,9-10H2,1H3,(H,22,25)(H,23,27)/b15-6-"
SMILES=Cc1cccc(N=C(O)CN2C(=O)C(=Cc3cc4c(cc3Cl)OCO4)N=C2O)c1
SPECTRUMID=CCMSLIB00010121550
52.44622 4957.0 
65.998016 33957.0 
68.997711 25638.0 
69.008797 12748.0 
74.618423 4982.0 
76.01886 21154.0 
81.993156 66585.0 
90.034851 9500.0 
91.018547 21698.0 
95.024567 11099.0 
102.034752 50748.0 
104.297081 5724.0 
106.066048 211674.0 
114.03476 49835.0 
115.018837 33605.0 
115.028458 5238.0 
116.026482 21632.0 
116.05024 7868.0 
117.034752 5926.0 
118.029846 12536.0 
119.318909 5262.0 
120.045357 133840.0 
123.019852 279413.0 
123.029999 8897.0 
126.99514 8200.0 
128.037857 54965.0 
128.047241 5252.0 
130.029694 1067821.0 
131.013443 22995.0 
131.037506 263623.0 
131.061203 9038.0 
132.045334 332277.0 
133.028763 7450.0 
134.024857 13581.0 
134.060654 12839.0 
135.994873 7885.0 
141.045349 9195.0 
142.029617 30290.0 
142.989899 8064.0 
144.045273 173234.0 
145.029327 28922.0 
145.040817 11587.0 
146.024643 365197.0 
147.032684 11903.0 
147.996002 27088.0 
148.040421 130776.0 
149.973618 6152.0 
149.987534 292828.0 
150.995422 307716.0 
154.005707 8392.0 
155.01416 32860.0 
156.032867 510471.0 
157.017395 10569.0 
157.040298 30687.0 
158.024612 883940.0 
159.019272 9637.0 
159.032547 54341.0 
159.055893 12411.0 
160.040161 173891.0 
161.072266 101242.0 
162.995468 207135.0 
163.088089 9737.0 
163.990265 18310.0 
164.003418 255414.0 
164.998505 604349.0 
166.006287 229828.0 
169.039917 57462.0 
170.024536 24960.0 
170.048203 20722.0 
171.032547 6236.0 
171.05603 38987.0 
172.027206 30280.0 
172.041382 79281.0 
173.036362 9202.0 
174.019318 76668.0 
175.990479 10872.0 
176.034622 38711.0 
178.006775 51247.0 
178.990555 132315.0 
179.985397 9391.0 
185.035416 109522.0 
186.019608 122763.0 
186.042694 32571.0 
187.030121 9060.0 
187.051147 73816.0 
188.035187 37484.0 
188.056732 19488.0 
189.066818 903857.0 
190.007385 43568.0 
190.990845 9818.0 
191.98526 32877.0 
192.993027 60531.0 
194.001099 462238.0 
194.989853 6425.0 
195.008835 46698.0 
197.035706 21949.0 
198.019974 11562.0 
200.022446 563599.0 
201.030518 142547.0 
203.985245 23368.0 
206.003265 15034.0 
207.009628 11743.0 
208.015976 6767.0 
213.03038 391786.0 
214.03801 266218.0 
215.046112 414712.0 
218.001236 286701.0 
218.996338 6995.0 
219.980255 7889.0 
220.988022 30923.0 
221.010818 10455.0 
221.996811 45492.0 
228.01506 9124.0 
229.025208 45234.0 
232.988098 50374.0 
233.011703 6193.0 
233.996628 83457.0 
234.992569 5911.0 
235.998947 23334.0 
237.007187 41943.0 
240.016846 8172.0 
241.000275 6781.0 
241.025558 154763.0 
242.03334 29970.0 
243.0401 58255.0 
246.990097 6358.0 
248.001312 5500.0 
249.00737 77206.0 
250.014908 39208.0 
251.021759 8679.0 
261.99115 345502.0 
265.002808 59589.0 
269.019836 9416.0 
275.994476 35660.0 
277.002808 42592.0 
278.012604 10018.0 
279.017761 195163.0 
282.004028 94401.0 
303.075012 13046.0 
304.996674 187782.0 
305.088409 7099.0 
339.056519 7430.0 
348.098175 91007.0 
376.094788 51090.0 
382.061523 23599.0 
383.067627 170738.0 
384.07547 230887.0 
409.877686 10362.0 
409.929382 7677.0 
411.062653 13005.0 
412.070282 13698747.0 
414.225403 8310.0 
414.27652 9747.0 
END IONS

BEGIN IONS
NAME=6-amino-9-[2-(4-methylphenoxy)ethyl]purine-8-thiol CollisionEnergy:205060 M-H
PRECURSOR_MZ=300.092
INCHI="InChI=1S/C14H15N5OS/c1-9-2-4-10(5-3-9)20-7-6-19-13-11(18-14(19)21)12(15)16-8-17-13/h2-5,8H,6-7H2,1H3,(H,18,21)(H2,15,16,17)"
SMILES=Cc1ccc(OCCn2c(S)nc3c(N)ncnc32)cc1
SPECTRUMID=CCMSLIB00010116240
53.29525 2748.0 
56.162701 2516.0 
57.409111 2644.0 
57.975208 5593.0 
71.252762 2602.0 
77.464767 2910.0 
92.398399 4088.0 
95.050392 6255.0 
97.878532 3348.0 
98.538063 2859.0 
106.04277 28232.0 
106.971703 5788.0 
107.050201 7695007.0 
108.021919 23707.0 
118.422623 2904.0 
123.044861 42980.0 
134.046753 4794.0 
138.032349 5230.0 
164.002975 21180.0 
165.024506 4938.0 
166.020355 3987.0 
192.035126 182168.0 
231.932556 5510.0 
253.453491 3240.0 
300.092224 77532.0 
END IONS

BEGIN IONS
NAME="3-(2-(2H-benzo[3,4-d]1,3-dioxolen-5-yl)-2-oxoethyl)-1-[(2-fluorophenyl)methyl] -3-hydroxyindolin-2-one CollisionEnergy:102040" M+H
PRECURSOR_MZ=420.124
INCHI="InChI=1S/C24H18FNO5/c25-18-7-3-1-5-16(18)13-26-19-8-4-2-6-17(19)24(29,23(26)28)12-20(27)15-9-10-21-22(11-15)31-14-30-21/h1-11,29H,12-14H2"
SMILES=O=C(CC1(O)C(=O)N(Cc2ccccc2F)c2ccccc21)c1ccc2c(c1)OCO2
SPECTRUMID=CCMSLIB00010109587
61.591999 2766.0 
65.039162 13300.0 
68.997437 6501.0 
72.208878 2895.0 
75.095337 2875.0 
82.930031 3290.0 
95.012512 4660.0 
99.717827 3585.0 
103.123077 3159.0 
109.044777 19543.0 
117.67437 3958.0 
118.643181 3442.0 
121.788887 3320.0 
148.552734 4689.0 
149.023193 6158326.0 
149.495026 3476.0 
165.054306 20253.0 
185.376877 3763.0 
222.26416 3199.0 
256.075958 7443.0 
319.215515 3303.0 
360.101257 11700.0 
402.113098 113302.0 
402.168732 6425.0 
420.123169 112041.0 
420.240356 5197.0 
436.850769 3031.0 
511.12558 3397.0 
END IONS

BEGIN IONS
NAME=3-indol-3-yl-2-({2-[(4-methylphenyl)carbonylamino]phenyl}carbonylamino)propano ic acid CollisionEnergy:102040 M+H
PRECURSOR_MZ=442.176
INCHI="InChI=1S/C26H23N3O4/c1-16-10-12-17(13-11-16)24(30)28-22-9-5-3-7-20(22)25(31)29-23(26(32)33)14-18-15-27-21-8-4-2-6-19(18)21/h2-13,15,23,27H,14H2,1H3,(H,28,30)(H,29,31)(H,32,33)"
SMILES=Cc1ccc(C(=O)Nc2ccccc2C(O)=NC(Cc2c[nH]c3ccccc23)C(=O)O)cc1
SPECTRUMID=CCMSLIB00010111460
51.259239 2608.0 
55.163811 3720.0 
91.054581 7476.0 
92.38372 3129.0 
118.065468 12611.0 
119.049133 376001.0 
120.044456 21990.0 
130.065292 19173.0 
132.080872 27993.0 
144.080978 46449.0 
146.023758 317682.0 
146.059998 253214.0 
147.055313 77546.0 
159.091583 54623.0 
170.060715 6557.0 
188.070557 1528988.0 
205.097168 2026852.0 
210.427811 4246.0 
221.093353 3781.0 
237.080017 3655.0 
238.08609 3181028.0 
261.102051 14083.0 
268.047363 3645.0 
278.126892 7286.0 
306.123505 17474.0 
369.927582 3840.0 
442.036896 4575.0 
442.175079 15100.0 
END IONS

BEGIN IONS
NAME=6-amino-9-[2-(4-methylphenoxy)ethyl]purine-8-thiol CollisionEnergy:102040 M+H
PRECURSOR_MZ=302.107
INCHI="InChI=1S/C14H15N5OS/c1-9-2-4-10(5-3-9)20-7-6-19-13-11(18-14(19)21)12(15)16-8-17-13/h2-5,8H,6-7H2,1H3,(H,18,21)(H2,15,16,17)"
SMILES=Cc1ccc(OCCn2c(S)nc3c(N)ncnc32)cc1
SPECTRUMID=CCMSLIB00010104903
59.79332 10925.0 
65.038757 4782.0 
66.19812 4514.0 
67.054581 4150.0 
73.951477 5847.0 
79.054314 6503.0 
82.394417 5602.0 
91.054497 27512.0 
92.376747 4583.0 
105.070137 11527.0 
107.049538 7959.0 
107.085419 154514.0 
108.056152 9400.0 
109.06356 26914.0 
110.058563 95225.0 
117.069527 19945.0 
135.054794 7023.0 
135.066788 27420.0 
135.0802 250265.0 
136.061981 88194.0 
136.073303 9937.0 
137.082214 66926.0 
140.015427 4940.0 
140.026917 10149.0 
150.01239 7232.0 
150.077011 69101.0 
151.006592 6347.0 
152.014847 6663.0 
152.027618 110816.0 
153.022949 40693.0 
160.061447 30228.0 
161.069687 35971.0 
162.077225 425259.0 
166.017807 181487.0 
167.025574 1012233.0 
167.038269 85052.0 
168.033661 1396636.0 
169.022217 5250.0 
170.037766 27061.0 
176.05603 20625.0 
177.022949 116138.0 
177.1474 4965.0 
180.033585 1570854.0 
194.049286 12449517.0 
195.056976 1984055.0 
195.088364 19089.0 
195.097382 11582.0 
196.065216 20791.0 
223.523911 5208.0 
254.878723 6219.0 
300.753845 6917.0 
302.106354 31588734.0 
303.467316 10518.0 
END IONS

BEGIN IONS
NAME=N-(4-{[5-((1E)-3-oxo-3-phenylprop-1-enyl)-2-methoxyphenyl]methoxy}phenyl)aceta mide CollisionEnergy:102040 M+Na
PRECURSOR_MZ=424.152
INCHI="InChI=1S/C25H23NO4/c1-18(27)26-22-10-12-23(13-11-22)30-17-21-16-19(9-15-25(21)29-2)8-14-24(28)20-6-4-3-5-7-20/h3-16H,17H2,1-2H3,(H,26,27)/b14-8+"
SMILES=COc1ccc(C=CC(=O)c2ccccc2)cc1COc1ccc(N=C(C)O)cc1
SPECTRUMID=CCMSLIB00010107499
51.663219 15101.0 
59.38311 14721.0 
63.166698 13966.0 
76.348373 13921.0 
81.218582 13446.0 
92.384842 15685.0 
109.420113 13882.0 
159.662308 15660.0 
171.041428 74314.0 
173.044678 937008.0 
174.485275 16388.0 
233.106567 19779.0 
245.093536 119724.0 
261.102051 72906.0 
273.088623 85642.0 
274.094543 129408.0 
276.075745 99695.0 
306.082458 122337.0 
381.1362 101810.0 
392.125549 101502.0 
409.130981 67427.0 
421.901489 52776.0 
423.140869 24337.0 
424.151398 74517664.0 
426.417023 59616.0 
END IONS

BEGIN IONS
NAME="pentyl 4-(3-chloro-4-hydroxy-5-methoxyphenyl)-2,7,7-trimethyl-5-oxo-1,4,6,7,8- pentahydroquinoline-3-carboxylate CollisionEnergy:205060" M+Na
PRECURSOR_MZ=484.186
INCHI="InChI=1S/C25H32ClNO5/c1-6-7-8-9-32-24(30)20-14(2)27-17-12-25(3,4)13-18(28)22(17)21(20)15-10-16(26)23(29)19(11-15)31-5/h10-11,21,27,29H,6-9,12-13H2,1-5H3"
SMILES=CCCCCOC(=O)C1=C(C)NC2=C(C(=O)CC(C)(C)C2)C1c1cc(Cl)c(O)c(OC)c1
SPECTRUMID=CCMSLIB00010117221
52.897228 2507.0 
57.667759 2811.0 
66.73951 3281.0 
92.364738 2710.0 
118.64785 3235.0 
135.473587 2542.0 
173.299484 2534.0 
182.183945 2971.0 
210.020752 5503.0 
210.040359 3097.0 
279.114227 2638.0 
387.317413 2977.0 
484.185577 1491144.0 
502.194275 12332.0 
END IONS

BEGIN IONS
NAME=Scopolin CollisionEnergy:205060 M-H
PRECURSOR_MZ=353.088
INCHI="InChI=1S/C16H18O9/c1-22-9-4-7-2-3-12(18)23-8(7)5-10(9)24-16-15(21)14(20)13(19)11(6-17)25-16/h2-5,11,13-17,19-21H,6H2,1H3/t11-,13-,14+,15-,16-/m1/s1"
SMILES=COC1=C(C=C2C(=C1)C=CC(=O)O2)O[C@H]3[C@@H]([C@H]([C@@H]([C@H](O3)CO)O)O)O
SPECTRUMID=CCMSLIB00010102061
65.295921 6199.215332 
66.791664 6472.967773 
79.957436 10538.342773 
92.447662 5698.726562 
96.960098 44591.066406 
104.026863 157017.796875 
123.009239 6276.041504 
148.016663 194524.453125 
163.040039 8854.90918 
176.011597 973296.5625 
183.012909 8310.677734 
185.53067 7606.849609 
191.035095 955886.6875 
197.028961 5751.047363 
207.766464 5282.835449 
211.176636 10332.539062 
353.086945 9482.060547 
353.204407 32909.273438 
END IONS

BEGIN IONS
NAME=Tectochrysin CollisionEnergy:102040 M-H
PRECURSOR_MZ=267.066
INCHI="InChI=1S/C16H12O4/c1-19-11-7-12(17)16-13(18)9-14(20-15(16)8-11)10-5-3-2-4-6-10/h2-9,17H,1H3"
SMILES=COc1cc(O)c2c(=O)cc(-c3ccccc3)oc2c1
SPECTRUMID=CCMSLIB00010108962
52.7202 2185.0 
66.746773 2220.0 
82.40313 2502.0 
92.381981 2329.0 
104.290771 3407.0 
111.009117 2460.0 
157.249298 2339.0 
157.976624 2609.0 
162.263672 2363.0 
182.045593 2405.0 
223.040039 38479.0 
224.047714 11984.0 
252.042847 394958.0 
267.066345 766002.0 
END IONS

BEGIN IONS
NAME=7-hydroxy-3-phenyl-8-(piperidylmethyl)chromen-4-one CollisionEnergy:102040 M-H
PRECURSOR_MZ=334.145
INCHI="InChI=1S/C21H21NO3/c23-19-10-9-16-20(24)18(15-7-3-1-4-8-15)14-25-21(16)17(19)13-22-11-5-2-6-12-22/h1,3-4,7-10,14,23H,2,5-6,11-13H2"
SMILES=O=c1c(-c2ccccc2)coc2c(CN3CCCCC3)c(O)ccc12
SPECTRUMID=CCMSLIB00010103463
60.504101 2605.0 
60.54388 3107.0 
65.32048 2940.0 
73.961143 4905.0 
85.366447 2660.0 
92.317047 2806.0 
92.387604 3487.0 
117.337982 2705.0 
118.666054 3251.0 
129.974762 4095.0 
134.428848 3364.0 
171.64122 3000.0 
241.512695 3188.0 
249.05542 13920.0 
250.063278 300802.0 
251.07106 65506.0 
282.053253 1059492.0 
296.44693 3315.0 
314.967651 3447.0 
333.335693 3428.0 
334.144989 5917338.0 
335.750763 4643.0 
END IONS

BEGIN IONS
NAME=N-{2-[5-(phenylmethoxy)indol-3-yl]ethyl}acetamide CollisionEnergy:102040 M+H
PRECURSOR_MZ=309.16
INCHI="InChI=1S/C19H20N2O2/c1-14(22)20-10-9-16-12-21-19-8-7-17(11-18(16)19)23-13-15-5-3-2-4-6-15/h2-8,11-12,21H,9-10,13H2,1H3,(H,20,22)"
SMILES=CC(O)=NCCc1c[nH]c2ccc(OCc3ccccc3)cc12
SPECTRUMID=CCMSLIB00010106413
53.836769 2993.0 
54.67392 3055.0 
65.038979 12023.0 
86.060204 134088.0 
88.128403 3493.0 
91.054321 1914805.0 
103.054893 3224.0 
108.04422 5812.0 
114.121613 3069.0 
117.069763 469201.0 
122.060226 5010.0 
125.841927 3120.0 
134.060272 5868.0 
136.206909 3883.0 
144.080002 3407.0 
146.059967 182337.0 
158.060379 4730.0 
159.067673 147991.0 
160.075775 36172.0 
161.276306 3399.0 
172.07547 440783.0 
175.086121 17113.0 
189.102142 21596.0 
200.093246 5117.0 
203.55217 3643.0 
205.258347 3675.0 
214.086182 12946.0 
217.096802 26808.0 
220.076965 3543.0 
221.083038 12910.0 
222.127502 5708.0 
224.10759 6712.0 
231.112213 84826.0 
234.092377 21790.0 
235.098633 56406.0 
238.122849 18721.0 
248.106018 5262.0 
249.108444 6276.0 
250.122253 6384392.0 
267.148132 41089.0 
274.121857 22096.0 
280.132782 12693.0 
291.148651 197174.0 
292.132568 355414.0 
309.159149 1900650.0 
END IONS

BEGIN IONS
NAME=3-(4-chlorophenyl)-7-hydroxychromen-2-one CollisionEnergy:102040 M-H
PRECURSOR_MZ=271.017
INCHI="InChI=1S/C15H9ClO3/c16-11-4-1-9(2-5-11)13-7-10-3-6-12(17)8-14(10)19-15(13)18/h1-8,17H"
SMILES=O=c1oc2cc(O)ccc2cc1-c1ccc(Cl)cc1
SPECTRUMID=CCMSLIB00010105707
51.094921 2601.0 
60.499142 2575.0 
74.861076 2613.0 
116.576439 3070.0 
137.580078 2694.0 
204.98909 12460.0 
215.03067 2659.0 
227.026871 22607.0 
242.9935 3343.0 
243.021454 75846.0 
270.695648 3326.0 
271.016479 4566423.0 
272.189453 4023.0 
END IONS

BEGIN IONS
NAME=Peiminine CollisionEnergy:102040 M+H
PRECURSOR_MZ=430.332
INCHI="InChI=1S/C27H43NO3/c1-15-4-7-25-27(3,31)21-6-5-17-18(20(21)14-28(25)13-15)11-22-19(17)12-24(30)23-10-16(29)8-9-26(22,23)2/h15-23,25,29,31H,4-14H2,1-3H3/t15-,16-,17+,18+,19-,20-,21-,22-,23+,25-,26+,27-/m0/s1"
SMILES=CC1CCC2N(C1)CC1C3CC4C(CC(=O)C5CC(O)CCC54C)C3CCC1C2(C)O
SPECTRUMID=CCMSLIB00010104485
50.105381 4470.0 
57.74036 5352.0 
82.398682 5544.0 
98.096893 11525.0 
105.290497 19862.0 
105.298752 12103.0 
112.112007 25557.0 
138.127533 247027.0 
138.139069 12133.0 
410.160248 23143.0 
410.308502 7765.0 
412.320099 18895170.0 
414.503571 12385.0 
428.020966 32616.0 
430.330444 34771976.0 
432.663391 37612.0 
END IONS

BEGIN IONS
NAME=4-[(4-chlorophenyl)methyl]-7-hydroxy-3-phenylchromen-2-one CollisionEnergy:102040 M+Na
PRECURSOR_MZ=385.06
INCHI="InChI=1S/C22H15ClO3/c23-16-8-6-14(7-9-16)12-19-18-11-10-17(24)13-20(18)26-22(25)21(19)15-4-2-1-3-5-15/h1-11,13,24H,12H2"
SMILES=O=c1oc2cc(O)ccc2c(Cc2ccc(Cl)cc2)c1-c1ccccc1
SPECTRUMID=CCMSLIB00010110627
63.59684 2185.0 
73.95388 2831.0 
82.394722 3129.0 
92.374397 2588.0 
116.058128 2528.0 
121.380547 2306.0 
124.379753 2437.0 
124.728188 2387.0 
125.015182 45062.0 
127.011879 12268.0 
176.239136 2413.0 
184.679626 2686.0 
208.788818 10809.0 
261.85553 2910.0 
384.991943 45798.0 
385.059296 750097.0 
403.07373 3747.0 
END IONS

BEGIN IONS
NAME=3-nitro-4-[(2-phenoxyethyl)amino]chromen-2-one CollisionEnergy:205060 M-H
PRECURSOR_MZ=325.083
INCHI="InChI=1S/C17H14N2O5/c20-17-16(19(21)22)15(13-8-4-5-9-14(13)24-17)18-10-11-23-12-6-2-1-3-7-12/h1-9,18H,10-11H2"
SMILES=O=c1oc2ccccc2c(NCCOc2ccccc2)c1[N+](=O)[O-]
SPECTRUMID=CCMSLIB00010115953
51.584221 3061.0 
55.17411 2829.0 
65.039368 15027.0 
65.998238 14823.0 
66.76165 3188.0 
67.030006 12005.0 
68.014053 10969.0 
68.995796 9585.0 
72.620598 2557.0 
90.03476 5108.0 
92.050537 68230.0 
92.401878 3384.0 
92.99588 13090.0 
93.034622 2279068.0 
102.035149 6112.0 
104.309952 3258.0 
116.026657 5333.0 
116.050827 14567.0 
117.034622 25843.0 
118.029961 666141.0 
119.050163 5557.0 
120.045578 5974.0 
121.915627 2725.0 
131.037582 26094.0 
132.0457 5939.0 
133.029938 18225.0 
141.045776 3239.0 
142.029999 15047.0 
143.025421 21938.0 
144.033539 3506.0 
144.045471 19900.0 
146.025009 14140.0 
146.061325 41665.0 
150.056137 12340.0 
156.033798 3570.0 
157.04039 3993.0 
158.024551 14506.0 
159.056854 5170.0 
160.040192 18758.0 
161.023865 19917.0 
169.041061 13662.0 
170.048782 6646.0 
171.020157 3932.0 
171.056534 4352.0 
172.027664 26958.0 
173.048599 5570.0 
174.056168 38944.0 
183.011902 24913.0 
184.040146 12442.0 
185.035782 70396.0 
191.02211 26017.0 
200.022751 109211.0 
201.046265 33678.0 
202.051254 124669.0 
213.030701 95292.0 
214.038696 80891.0 
231.041046 19856.0 
254.987061 6680.0 
261.067078 37782.0 
273.06955 6159.0 
288.053894 4925.0 
289.062042 89251.0 
290.069641 94354.0 
304.951355 2871.0 
304.98291 98723.0 
324.991394 37746.0 
325.083099 368925.0 
325.182312 38743.0 
END IONS

BEGIN IONS
NAME=Bexarotene CollisionEnergy:205060 M+H
PRECURSOR_MZ=349.216
INCHI="InChI=1S/C24H28O2/c1-15-13-20-21(24(5,6)12-11-23(20,3)4)14-19(15)16(2)17-7-9-18(10-8-17)22(25)26/h7-10,13-14H,2,11-12H2,1,3-6H3,(H,25,26)"
SMILES=C=C(c1ccc(C(=O)O)cc1)c1cc2c(cc1C)C(C)(C)CCC2(C)C
SPECTRUMID=CCMSLIB00010125878
55.054722 24971.0 
55.05722 3211.0 
57.07029 4784.0 
67.054581 2469.0 
69.070236 167268.0 
83.085457 6227.0 
84.23822 2331.0 
91.054192 25035.0 
103.054192 46479.0 
105.069878 22709.0 
111.116943 26012.0 
115.054047 16928.0 
117.069542 9734.0 
119.048958 19355.0 
119.08548 4363.0 
128.061783 16819.0 
129.069763 80591.0 
135.044113 27237.0 
136.015106 6126.0 
142.077438 12577.0 
143.085266 35867.0 
143.541412 2660.0 
145.100464 10800.0 
147.043961 236700.0 
149.059769 9820.0 
156.093277 4265.0 
157.101059 63880.0 
169.100906 3548.0 
171.116623 26788.0 
178.077377 11631.0 
179.085266 10246.0 
183.116669 19185.0 
188.070511 11277.0 
191.086121 11418.0 
192.093262 44251.0 
193.099976 10983.0 
197.132065 37236.0 
205.101044 15823.0 
206.108505 12232.0 
207.116745 16052.0 
211.147568 4847.0 
212.155884 38658.0 
219.117157 5064.0 
220.123581 2779.0 
227.179245 65815.0 
229.15889 5080.0 
233.096558 4090.0 
235.146805 2885.0 
236.082779 5487.0 
237.090836 3190.0 
247.110916 3581.0 
251.106537 85325.0 
261.128174 6310.0 
265.121979 45361.0 
279.137634 117532.0 
291.137939 5657.0 
293.15271 29587.0 
305.153839 5518.0 
319.169098 5779.0 
320.176819 6294.0 
331.205933 24126.0 
334.190491 5702.0 
349.216248 719432.0 
END IONS

BEGIN IONS
NAME="[2-(5-fluoro-2-methylindol-3-yl)ethyl][(2-methoxy-4,5-dimethylphenyl)sulfonyl] amine CollisionEnergy:205060" M+Na
PRECURSOR_MZ=413.131
INCHI="InChI=1S/C20H23FN2O3S/c1-12-9-19(26-4)20(10-13(12)2)27(24,25)22-8-7-16-14(3)23-18-6-5-15(21)11-17(16)18/h5-6,9-11,22-23H,7-8H2,1-4H3"
SMILES=COc1cc(C)c(C)cc1S(=O)(=O)NCCc1c(C)[nH]c2ccc(F)cc12
SPECTRUMID=CCMSLIB00010122287
58.609669 2522.0 
67.262032 2862.0 
82.436447 2705.0 
92.419502 2888.0 
95.189919 2444.0 
104.332672 3055.0 
130.282898 2657.0 
176.086853 17448.0 
238.050461 10849.0 
243.098938 2959.0 
360.447632 2944.0 
413.130341 2583964.0 
454.160736 5066.0 
482.843506 3916.0 
END IONS

BEGIN IONS
NAME=N-[2-(5-fluoro-2-methylindol-3-yl)ethyl](2-oxochromen-3-yl)carboxamide CollisionEnergy:205060 M+formate
PRECURSOR_MZ=409.121
INCHI="InChI=1S/C21H17FN2O3/c1-12-15(16-11-14(22)6-7-18(16)24-12)8-9-23-20(25)17-10-13-4-2-3-5-19(13)27-21(17)26/h2-7,10-11,24H,8-9H2,1H3,(H,23,25)"
SMILES=Cc1[nH]c2ccc(F)cc2c1CCN=C(O)c1cc2ccccc2oc1=O
SPECTRUMID=CCMSLIB00010120429
65.444977 2602.0 
68.043793 2131.0 
68.995323 5017.0 
71.657043 2115.0 
92.408417 2452.0 
92.995453 9717.0 
101.054451 2164.0 
112.984909 2672.0 
117.034782 25375.0 
118.687134 3084.0 
118.992287 2322.0 
145.029037 9323.0 
146.345108 2382.0 
192.989227 2334.0 
196.094604 2237.0 
204.092163 2348.0 
211.416199 3847.0 
254.985214 12789.0 
292.982849 2630.0 
304.982758 87806.0 
324.98877 29074.0 
342.979431 2444.0 
344.978668 3363.0 
363.114685 47611.0 
368.97644 4423.0 
404.157227 2580.0 
408.981171 13640.0 
532.823486 2758.0 
END IONS

BEGIN IONS
NAME=2-{[4-(tert-butyl)phenyl]carbonylamino}acetic acid CollisionEnergy:102040 M+H
PRECURSOR_MZ=236.128
INCHI="InChI=1S/C13H17NO3/c1-13(2,3)10-6-4-9(5-7-10)12(17)14-8-11(15)16/h4-7H,8H2,1-3H3,(H,14,17)(H,15,16)"
SMILES=CC(C)(C)c1ccc(C(=O)NCC(=O)O)cc1
SPECTRUMID=CCMSLIB00010107455
53.414211 2482.0 
56.895031 2524.0 
70.363777 2658.0 
71.445343 2542.0 
82.620567 2666.0 
91.054398 5820.0 
105.069923 10622.0 
139.419647 3024.0 
143.35643 3483.0 
146.072372 27095.0 
151.112427 3673.0 
160.569656 4684.0 
161.095886 7071063.0 
212.948868 2748.0 
218.118118 4901.0 
236.127884 159645.0 
END IONS

BEGIN IONS
NAME="8-((1E)-4-dibenzo[b,d]furan-2-yloxy-2-azabut-1-enyl)-2-[8-((1E)-4-dibenzo[b,d] furan-2-yloxy-2-azabut-1-enyl)-1,6,7-trihydroxy-3-methyl-5-(methylethyl)(2-nap hthyl)]-3-methyl-5-(methylethyl)naphthalene-1,6,7-triol CollisionEnergy:102040" M+2H]
PRECURSOR_MZ=469.188
INCHI="InChI=1S/C58H52N2O10/c1-29(2)47-39-23-31(5)49(55(63)51(39)41(53(61)57(47)65)27-59-19-21-67-33-15-17-45-37(25-33)35-11-7-9-13-43(35)69-45)50-32(6)24-40-48(30(3)4)58(66)54(62)42(52(40)56(50)64)28-60-20-22-68-34-16-18-46-38(26-34)36-12-8-10-14-44(36)70-46/h7-18,23-30,61-66H,19-22H2,1-6H3/b59-27+,60-28+"
SMILES=Cc1cc2c(C(C)C)c(O)c(O)c(C=NCCOc3ccc4oc5ccccc5c4c3)c2c(O)c1-c1c(C)cc2c(C(C)C)c(O)c(O)c(C=NCCOc3ccc4oc5ccccc5c4c3)c2c1O
SPECTRUMID=CCMSLIB00010114498
95.773064 2842.0 
104.295319 3472.0 
121.404663 3149.0 
129.987305 3131.0 
134.841919 3394.0 
143.953537 3209.0 
165.069504 3222.0 
175.848587 3352.0 
183.044403 12936.0 
183.080368 48897.0 
184.051743 111777.0 
185.058426 16254.0 
211.075073 84096.0 
212.07843 3870.0 
214.062149 17073.0 
219.091995 4728.0 
227.070023 7288.0 
228.07547 5713.0 
228.101501 130090.0 
229.105225 4059.0 
233.089142 5292.0 
242.093246 52742.0 
242.593597 14064.0 
243.100464 13367.0 
255.617264 16025.0 
256.103943 5252.0 
256.606903 3646.0 
263.61438 19033.0 
265.96283 3149.0 
272.131195 3990.0 
277.138428 7128.0 
347.624084 6758.0 
348.128235 3031.0 
355.640289 81777.0 
356.141754 17650.0 
369.163452 14827.0 
440.780212 3093.0 
441.126617 4503.0 
455.181396 4995.0 
461.675079 16511.0 
465.169708 5519.0 
467.147217 7401.0 
468.161652 18209.0 
468.679596 21660.0 
469.18811 2935996.0 
469.387268 214895.0 
469.689697 851977.0 
473.194305 31588.0 
483.180145 229718.0 
484.181488 39512.0 
498.200378 3456.0 
500.209442 6591.0 
510.227448 13902.0 
526.223328 13327.0 
636.383728 3593.0 
658.269348 3618.0 
700.28772 4319.0 
710.27356 88572.0 
711.279846 25352.0 
856.026306 3176.0 
END IONS

BEGIN IONS
NAME=acridone CollisionEnergy:205060 M+Na
PRECURSOR_MZ=218.058
INCHI="InChI=1S/C13H9NO/c15-13-9-5-1-3-7-11(9)14-12-8-4-2-6-10(12)13/h1-8H,(H,14,15)"
SMILES=O=c1c2ccccc2[nH]c2ccccc12
SPECTRUMID=CCMSLIB00010115487
50.611679 2079.0 
51.466129 2097.0 
52.31551 1874.0 
56.965191 2267.0 
57.7006 1964.0 
61.01096 3218.0 
70.869873 1951.0 
73.966499 2240.0 
76.552948 2021.0 
79.021378 3188.0 
84.959808 2755.0 
85.914558 2299.0 
86.096481 2080.0 
98.667229 2037.0 
98.975098 8735.0 
116.985878 2613.0 
136.230865 2452.0 
144.530304 2107.0 
153.535507 3499.0 
165.528595 2380.0 
172.865967 1929.0 
185.962311 10348.0 
194.944763 2056.0 
194.968277 3295.0 
194.999771 3427.0 
207.583435 2111.0 
218.057434 127469.0 
218.081375 5008.0 
218.107666 3077.0 
236.069199 2974.0 
END IONS

BEGIN IONS
NAME="N-(2,5-difluorophenyl)-2-(4-hydroxyquinazolin-2-ylthio)acetamide CollisionEnergy:205060" M+Na
PRECURSOR_MZ=370.043
INCHI="InChI=1S/C16H11F2N3O2S/c17-9-5-6-11(18)13(7-9)19-14(22)8-24-16-20-12-4-2-1-3-10(12)15(23)21-16/h1-7H,8H2,(H,19,22)(H,20,21,23)"
SMILES=OC(CSc1nc(O)c2ccccc2n1)=Nc1cc(F)ccc1F
SPECTRUMID=CCMSLIB00010119526
55.35424 2651.0 
56.96524 9482.0 
58.961071 2375.0 
68.676117 2420.0 
73.948639 2548.0 
90.380348 2325.0 
91.054337 27160.0 
92.372498 2989.0 
98.816978 2688.0 
132.044479 103150.0 
134.284531 2397.0 
136.111496 4354.0 
150.054413 20699.0 
157.966766 2878.0 
166.17244 2989.0 
191.02713 36374.0 
196.539246 4422.0 
203.01178 16215.0 
205.543518 2828.0 
215.025803 2975.0 
217.051437 3281.0 
219.022141 60074.0 
221.021927 10483.0 
237.253952 3044.0 
241.003281 14526.0 
249.000671 20040.0 
252.994492 17502.0 
264.992889 2714.0 
267.010681 50103.0 
271.0047 6305.0 
272.016937 2966.0 
274.980011 4798.0 
285.022003 3298.0 
292.990448 19045.0 
370.041626 1885328.0 
370.568665 24693.0 
392.073151 3921.0 
404.016998 3513.0 
410.083069 5105.0 
420.233215 2448.0 
467.812469 2973.0 
END IONS

BEGIN IONS
NAME="6,4'-Dimethoxy-3-hydroxyflavone CollisionEnergy:102040" M+H
PRECURSOR_MZ=299.091
INCHI="InChI=1S/C17H14O5/c1-20-11-5-3-10(4-6-11)17-16(19)15(18)13-9-12(21-2)7-8-14(13)22-17/h3-9,19H,1-2H3"
SMILES=COc1ccc(-c2oc3ccc(OC)cc3c(=O)c2O)cc1
SPECTRUMID=CCMSLIB00010104381
52.807281 4289.0 
55.156109 3426.0 
56.882229 3634.0 
69.033997 20507.0 
73.949516 3671.0 
92.37027 3540.0 
104.279312 4633.0 
107.049133 39314.0 
114.250648 3972.0 
121.065079 19212.0 
121.717293 3642.0 
124.05162 4899.0 
125.059982 23532.0 
129.054413 7822.0 
131.474106 4143.0 
135.044159 1222607.0 
135.081299 21244.0 
136.199249 5140.0 
137.05986 125822.0 
147.044373 4032.0 
151.039108 143045.0 
163.038925 120632.0 
165.074966 4630.0 
168.041565 9216.0 
181.049088 32316.0 
183.081757 7109.0 
183.42305 4203.0 
197.060013 3623.0 
200.083176 6359.0 
210.06871 4659.0 
211.075455 17649.0 
212.084656 4573.0 
215.105667 6306.0 
225.090271 28045.0 
228.077789 47495.0 
239.070511 43518.0 
241.050308 5133.0 
243.102722 46243.0 
253.088165 6641.0 
255.064133 5475.0 
256.073059 479169.0 
267.065369 64553.0 
268.071381 9072.0 
270.088165 5586.0 
276.154633 9631.0 
281.081268 17715.0 
283.058014 6738.0 
284.06778 835536.0 
297.076019 8955.0 
297.751434 19665.0 
298.085144 6349.0 
299.091217 23554026.0 
300.440063 19739.0 
END IONS

BEGIN IONS
NAME=Isoscopoletin CollisionEnergy:205060 M-H
PRECURSOR_MZ=191.035
INCHI="InChI=1S/C10H8O4/c1-13-9-5-8-6(4-7(9)11)2-3-10(12)14-8/h2-5,11H,1H3"
SMILES=COc1cc2oc(=O)ccc2cc1O
SPECTRUMID=CCMSLIB00010121171
58.3228 2216.0 
61.433571 2482.0 
75.790863 2134.0 
85.436684 2237.0 
87.925056 9724.0 
90.794067 2108.0 
91.019089 2477.0 
102.948853 17162.0 
103.920631 2474.0 
104.026741 224910.0 
104.296883 2932.0 
120.02169 14410.0 
123.008621 11031.0 
146.938629 12594.0 
148.016647 229110.0 
154.406342 2079.0 
172.610886 2150.0 
176.011551 773639.0 
180.006973 18146.0 
191.034973 89104.0 
END IONS

BEGIN IONS
NAME=7-hydroxy-3-phenyl-8-(piperidylmethyl)chromen-4-one CollisionEnergy:102040 M+Na
PRECURSOR_MZ=358.141
INCHI="InChI=1S/C21H21NO3/c23-19-10-9-16-20(24)18(15-7-3-1-4-8-15)14-25-21(16)17(19)13-22-11-5-2-6-12-22/h1,3-4,7-10,14,23H,2,5-6,11-13H2"
SMILES=O=c1c(-c2ccccc2)coc2c(CN3CCCCC3)c(O)ccc12
SPECTRUMID=CCMSLIB00010103462
54.591068 3122.0 
60.502411 2959.0 
92.383263 3309.0 
136.211334 3815.0 
168.205856 3533.0 
209.146133 14267.0 
273.052185 10031607.0 
287.560333 3433.0 
291.062439 110048.0 
314.078461 88337.0 
358.141113 1681037.0 
376.148834 6027.0 
END IONS

BEGIN IONS
NAME=4-hydroxy-6-methyl-3-nitrochromen-2-one CollisionEnergy:102040 M+Na
PRECURSOR_MZ=244.022
INCHI="InChI=1S/C10H7NO5/c1-5-2-3-7-6(4-5)9(12)8(11(14)15)10(13)16-7/h2-4,12H,1H3"
SMILES=Cc1ccc2oc(=O)c([N+](=O)[O-])c(O)c2c1
SPECTRUMID=CCMSLIB00010105213
63.612228 2109.0 
66.850349 2364.0 
86.144379 2198.0 
87.85218 2146.0 
92.381729 2095.0 
104.288429 2568.0 
131.10405 2081.0 
221.013596 2351.0 
244.021515 144059.0 
END IONS

BEGIN IONS
NAME=IPTG CollisionEnergy:205060 M-H
PRECURSOR_MZ=237.08
INCHI="InChI=1S/C9H18O5S/c1-4(2)15-9-8(13)7(12)6(11)5(3-10)14-9/h4-13H,3H2,1-2H3/t5-,6+,7+,8-,9+/m1/s1"
SMILES=CC(C)SC1OC(CO)C(O)C(O)C1O
SPECTRUMID=CCMSLIB00010125034
50.476311 1745.0 
58.00552 3293.0 
58.42931 2346.0 
59.01321 13509.0 
60.492008 2231.0 
69.275688 2142.0 
71.013474 30239.0 
72.992683 2334.0 
73.029289 4869.0 
73.968826 2286.0 
75.027168 37001.0 
85.029289 14836.0 
87.008492 2288.0 
91.22715 2086.0 
95.01355 3004.0 
96.004066 2286.0 
101.02446 43487.0 
103.920311 9633.0 
104.306221 3273.0 
113.0243 20948.0 
147.941452 2741.0 
158.001724 2517.0 
161.045731 40588.0 
172.568695 2289.0 
178.243439 2156.0 
237.079742 10670.0 
283.014618 2434.0 
END IONS

BEGIN IONS
NAME=2-{4-[(6-ethoxy-2-oxochromen-4-yl)methyl]piperazinyl}-N-methyl-N-phenylacetami de CollisionEnergy:102040 M+Na
PRECURSOR_MZ=458.205
INCHI="InChI=1S/C25H29N3O4/c1-3-31-21-9-10-23-22(16-21)19(15-25(30)32-23)17-27-11-13-28(14-12-27)18-24(29)26(2)20-7-5-4-6-8-20/h4-10,15-16H,3,11-14,17-18H2,1-2H3"
SMILES=CCOc1ccc2oc(=O)cc(CN3CCN(CC(=O)N(C)c4ccccc4)CC3)c2c1
SPECTRUMID=CCMSLIB00010107503
65.580559 3031.0 
66.746407 3558.0 
66.755089 3447.0 
80.022293 3166.0 
87.765984 3217.0 
89.365311 3682.0 
99.987183 4556.0 
111.116203 3699.0 
116.787971 3259.0 
121.414238 3262.0 
171.605362 3949.0 
175.145599 3317.0 
188.148651 3299.0 
224.63681 2852.0 
248.191132 3561.0 
254.126007 95729.0 
256.139984 3877.0 
278.413635 3661.0 
311.131226 3697.0 
444.809723 3663.0 
455.676819 4061.0 
458.131775 2178100.0 
458.20459 5424919.0 
460.753204 4963.0 
556.495422 3298.0 
END IONS

BEGIN IONS
NAME=9-methyl-8-{[3-(trifluoromethyl)phenyl]methylthio}hydropurin-6-one CollisionEnergy:102040 M+Na
PRECURSOR_MZ=363.05
INCHI="InChI=1S/C14H11F3N4OS/c1-21-11-10(12(22)19-7-18-11)20-13(21)23-6-8-3-2-4-9(5-8)14(15,16)17/h2-5,7H,6H2,1H3,(H,18,19,22)"
SMILES=Cn1c(SCc2cccc(C(F)(F)F)c2)nc2c(O)ncnc21
SPECTRUMID=CCMSLIB00010110273
50.380089 2567.0 
54.566818 2848.0 
68.335037 2653.0 
72.813477 2435.0 
92.38607 3016.0 
104.298866 2401.0 
122.159912 2917.0 
127.376556 2684.0 
130.196106 2985.0 
204.00737 166327.0 
272.739105 2987.0 
363.049042 3332819.0 
END IONS

BEGIN IONS
NAME=4-hydroxy-6-methyl-3-nitrochromen-2-one CollisionEnergy:205060 M+H
PRECURSOR_MZ=222.04
INCHI="InChI=1S/C10H7NO5/c1-5-2-3-7-6(4-5)9(12)8(11(14)15)10(13)16-7/h2-4,12H,1H3"
SMILES=Cc1ccc2oc(=O)c([N+](=O)[O-])c(O)c2c1
SPECTRUMID=CCMSLIB00010116550
50.015652 4245.0 
51.023392 18944.0 
53.039089 167916.0 
55.018269 4422.0 
57.245411 2131.0 
63.02322 12383.0 
65.039101 3101.0 
69.770149 2444.0 
69.992752 266765.0 
77.038857 26573.0 
78.033836 3756.0 
78.046692 77393.0 
79.054367 2957.0 
80.062523 3074.0 
81.033699 18663.0 
87.058113 2547.0 
89.038757 383310.0 
90.033783 3003.0 
90.046379 12646.0 
91.534843 2384.0 
95.049187 61218.0 
95.059517 2504.0 
96.044228 24142.0 
102.046249 13171.0 
104.049423 105013.0 
105.0336 32137.0 
105.044533 18218.0 
106.040977 4981.0 
107.049072 21515.0 
116.049438 45764.0 
118.658379 2921.0 
130.065598 3265.0 
132.044434 4738.0 
134.036102 147620.0 
134.06015 3477.0 
152.046417 14424.0 
159.263412 2103.0 
160.039032 36677.0 
192.04097 12892.0 
195.616455 2270.0 
204.029022 517446.0 
222.039642 63622.0 
END IONS

BEGIN IONS
NAME=6-chloro-2-(trichloromethyl)chromen-4-one CollisionEnergy:102040 M-H+Cl]
PRECURSOR_MZ=164.929
INCHI="InChI=1S/C10H4Cl4O2/c11-5-1-2-8-6(3-5)7(15)4-9(16-8)10(12,13)14/h1-4H"
SMILES=O=c1cc(C(Cl)(Cl)Cl)oc2ccc(Cl)cc12
SPECTRUMID=CCMSLIB00010111547
56.778271 1799.0 
60.530991 2346.0 
66.74791 1941.0 
69.447273 1936.0 
72.776993 1822.0 
89.749619 1965.0 
108.937576 8428.0 
121.029373 3104.0 
127.937477 2055.0 
136.932007 250418.0 
164.836426 38912.0 
164.895782 2772.0 
164.926865 40472.0 
185.412994 2278.0 
END IONS

BEGIN IONS
NAME=2-[6-hydroxy-2-(4-hydroxy-3-methoxyphenyl)-3-azabicyclo[4.4.0]dec-3-yl]-N-naph thylacetamide CollisionEnergy:102040 M+formate
PRECURSOR_MZ=505.234
INCHI="InChI=1S/C28H32N2O4/c1-34-25-17-20(12-13-24(25)31)27-22-10-4-5-14-28(22,33)15-16-30(27)18-26(32)29-23-11-6-8-19-7-2-3-9-21(19)23/h2-3,6-9,11-13,17,22,27,31,33H,4-5,10,14-16,18H2,1H3,(H,29,32)"
SMILES=COc1cc(C2C3CCCCC3(O)CCN2CC(O)=Nc2cccc3ccccc23)ccc1O
SPECTRUMID=CCMSLIB00010106830
76.022079 2421.0 
85.795326 2445.0 
88.716827 2137.0 
92.407928 3906.0 
123.045708 4391.0 
125.047981 2804.0 
130.188553 2488.0 
139.390778 2479.0 
164.928558 3223.0 
199.088028 244415.0 
208.458008 12657.0 
259.135193 9715.0 
317.164612 18605.0 
335.177124 29691.0 
368.888336 3436.0 
459.229309 218351.0 
495.511322 2952.0 
END IONS

BEGIN IONS
NAME="N-(2-methyl-3-oxo(2H,4H-benzo[3,4-e]1,4-oxazin-6-yl))(3,4,5-trimethoxyphenyl)c arboxamide CollisionEnergy:205060" M-H
PRECURSOR_MZ=371.125
INCHI="InChI=1S/C19H20N2O6/c1-10-18(22)21-13-9-12(5-6-14(13)27-10)20-19(23)11-7-15(24-2)17(26-4)16(8-11)25-3/h5-10H,1-4H3,(H,20,23)(H,21,22)"
SMILES=COc1cc(C(O)=Nc2ccc3c(c2)N=C(O)C(C)O3)cc(OC)c1OC
SPECTRUMID=CCMSLIB00010119467
61.007069 3255.0 
65.002968 16845.0 
65.039223 3197.0 
67.018883 3435.0 
72.01046 3093.0 
75.119987 2739.0 
79.018547 3499.0 
79.952217 2821.0 
81.034309 14970.0 
92.382301 3137.0 
93.034637 11030.0 
95.013893 31623.0 
97.048073 2676.0 
104.28862 2996.0 
105.022507 3305.0 
109.029533 39891.0 
111.006561 3366.0 
117.046257 3122.0 
119.025398 5279.0 
120.009331 51588.0 
120.993156 16275.0 
121.040916 16241.0 
122.024727 3179.0 
122.048782 4422.0 
123.008827 26872.0 
125.024597 4918.0 
125.201141 2902.0 
132.033005 25983.0 
134.024246 3358.0 
135.032578 61185.0 
137.02449 88038.0 
148.028 14537.0 
148.064484 59645.0 
149.036346 22087.0 
153.019775 29076.0 
153.056931 3661.0 
155.034775 7354.0 
157.976074 3614.0 
159.019974 4224.0 
159.056427 3963.0 
160.040405 114322.0 
161.035706 127387.0 
162.019424 4313.0 
163.999023 27961.0 
166.924011 3741.0 
170.048492 4342.0 
175.014862 5036.0 
175.051682 54023.0 
176.059128 125706.0 
185.035553 4186.0 
192.067093 5922.0 
198.043747 5356.0 
199.02774 4110.0 
203.046524 262188.0 
209.939148 6383.0 
211.028015 3183.0 
212.048126 12963.0 
214.052826 4905.0 
215.020264 5513.0 
215.037384 5787.0 
218.05896 3681.0 
227.02211 10418.0 
227.046051 3646.0 
227.071426 5301.0 
228.0672 20114.0 
229.061935 3946.0 
230.045532 28694.0 
239.046021 6620.0 
240.042816 6256.0 
241.026642 14717.0 
241.062347 4914.0 
242.009552 4415.0 
242.047607 71781.0 
243.01738 91613.0 
245.069595 21116.0 
253.026917 6925.0 
253.062607 27333.0 
254.046814 27432.0 
255.039322 4430.0 
255.067078 123788.0 
256.061157 4758.0 
257.061005 30055.0 
258.040588 48038.0 
266.0448 20180.0 
266.983948 5648.0 
267.041168 56157.0 
267.072845 5255.0 
268.054901 5402.0 
269.029846 10394.0 
269.058075 58595.0 
270.028229 81382.0 
270.0784 28645.0 
271.074188 22501.0 
273.064423 19599.0 
280.059784 12927.0 
281.058868 14274.0 
282.037842 7441.0 
282.067841 5046.0 
283.048401 86096.0 
284.057953 32008.0 
284.090851 5449.0 
285.052338 235496.0 
285.087982 37788.0 
286.059143 29016.0 
295.0784 3387.0 
297.051514 140567.0 
298.072205 190767.0 
299.067871 19204.0 
300.074707 28274.0 
308.045807 3875.0 
309.052155 5642.0 
311.031189 28961.0 
311.067108 6160.0 
312.088837 21830.0 
313.09375 123167.0 
315.098785 373196.0 
323.066681 46885.0 
325.046631 28894.0 
326.05481 208332.0 
327.098907 5288.0 
328.118958 165356.0 
339.063202 5689.0 
340.072418 32005.0 
341.077942 319880.0 
343.130371 5677.0 
355.092804 18914.0 
356.101349 227322.0 
371.125092 2479399.0 
END IONS

BEGIN IONS
NAME=N-[2-(5-methoxyindol-3-yl)ethyl]-2-(1-methyl-2-phenylindol-3-yl)-2-oxoacetamid e CollisionEnergy:205060 M+H
PRECURSOR_MZ=452.197
INCHI="InChI=1S/C28H25N3O3/c1-31-24-11-7-6-10-21(24)25(26(31)18-8-4-3-5-9-18)27(32)28(33)29-15-14-19-17-30-23-13-12-20(34-2)16-22(19)23/h3-13,16-17,30H,14-15H2,1-2H3,(H,29,33)"
SMILES=COc1ccc2[nH]cc(CCNC(=O)C(=O)c3c(-c4ccccc4)n(C)c4ccccc34)c2c1
SPECTRUMID=CCMSLIB00010119010
63.44738 3123.0 
65.807671 3064.0 
73.943176 5719.0 
74.463074 3505.0 
79.946548 3511.0 
91.054291 5851.0 
95.349792 3316.0 
101.1325 3981.0 
128.04953 26941.0 
131.072449 15439.0 
143.072952 21788.0 
144.079865 5745.0 
146.059784 29650.0 
158.059158 4290.0 
159.067978 85785.0 
159.843246 3578.0 
165.069794 69284.0 
174.091217 291387.0 
178.077637 95167.0 
179.08548 125925.0 
189.100708 5523.0 
191.07283 97721.0 
193.067291 11252.0 
193.088531 43766.0 
204.080658 112678.0 
205.088531 228158.0 
205.110062 8203.0 
206.09613 215698.0 
208.111984 116971.0 
217.097488 38257.0 
218.096573 5516.0 
219.067673 278146.0 
227.081314 5102.0 
233.082932 32396.0 
234.09111 8930704.0 
244.053467 4187.0 
244.110672 4002.0 
299.059692 7815.0 
420.678497 3489.0 
424.201843 6852.0 
434.184662 62288.0 
452.196228 67339.0 
END IONS

BEGIN IONS
NAME=indole-3-acetic acid CollisionEnergy:205060 M+H
PRECURSOR_MZ=176.071
INCHI="InChI=1S/C10H9NO2/c12-10(13)5-7-6-11-9-4-2-1-3-8(7)9/h1-4,6,11H,5H2,(H,12,13)"
SMILES=O=C(O)Cc1c[nH]c2ccccc12
SPECTRUMID=CCMSLIB00010123003
53.383831 2575.0 
63.023178 3109.0 
77.038918 5773.0 
78.997238 3665.0 
85.38855 2602.0 
97.007858 24480.0 
103.054161 206703.0 
106.991661 14296.0 
117.057953 20987.0 
118.689957 3561.0 
125.002708 32570.0 
128.049545 11050.0 
129.056931 5082.0 
129.682648 4079.0 
130.065109 9486969.0 
130.449173 6636.0 
131.068451 36609.0 
132.081284 4832.0 
134.059692 3752.0 
146.060364 3709.0 
148.075653 13476.0 
158.002487 4047.0 
161.08374 4392.0 
171.091629 16064.0 
176.070496 619131.0 
END IONS

BEGIN IONS
NAME=L-Rhamnose CollisionEnergy:102040 M+acetate
PRECURSOR_MZ=223.082
INCHI="InChI=1S/C6H12O5/c1-2-3(7)4(8)5(9)6(10)11-2/h2-10H,1H3/t2-,3-,4+,5+,6?/m0/s1"
SMILES=C[C@@H]1OC(O)[C@H](O)[C@H](O)[C@H]1O
SPECTRUMID=CCMSLIB00010102593
51.679699 1869.329956 
82.433296 2115.860107 
119.012001 4208.799805 
119.399002 1896.02002 
136.264008 2219.939941 
139.018005 2755.72998 
158.033997 2908.800049 
159.024002 12411.799805 
163.001999 3282.26001 
184.460007 1945.680054 
203.014008 9169.889648 
204.962006 2500.219971 
223.028 22859.5 
223.132996 3016.070068 
END IONS

BEGIN IONS
NAME=nicotinic acid CollisionEnergy:205060 M+H
PRECURSOR_MZ=124.039
INCHI="InChI=1S/C6H5NO2/c8-6(9)5-2-1-3-7-4-5/h1-4H,(H,8,9)"
SMILES=O=C(O)c1cccnc1
SPECTRUMID=CCMSLIB00010118718
53.039291 436789.0 
57.226521 183396.0 
68.050049 950877.0 
74.576981 201020.0 
76.019524 240903.0 
78.034531 4500667.0 
80.050056 29385402.0 
85.699959 186983.0 
96.044823 17198766.0 
104.270576 201986.0 
104.281479 210343.0 
106.028923 248105.0 
116.027733 212136.0 
122.023354 286667.0 
124.039467 171106688.0 
136.190826 207652.0 
140.034409 1033665.0 
141.958221 226792.0 
END IONS

BEGIN IONS
NAME="8-((1E)-4-(2H-benzo[d]1,3-dioxolan-5-yloxy)-2-azabut-1-enyl)-2-[8-((1E)-4-(2H- benzo[d]1,3-dioxolan-5-yloxy)-2-azabut-1-enyl)-1,6,7-trihydroxy-3-methyl-5-(me thylethyl)(2-naphthyl)]-3-methyl-5-(methylethyl)naphthalene-1,6,7-triol CollisionEnergy:205060" M+2H]
PRECURSOR_MZ=423.168
INCHI="InChI=1S/C48H48N2O12/c1-23(2)37-29-15-25(5)39(45(53)41(29)31(43(51)47(37)55)19-49-11-13-57-27-7-9-33-35(17-27)61-21-59-33)40-26(6)16-30-38(24(3)4)48(56)44(52)32(42(30)46(40)54)20-50-12-14-58-28-8-10-34-36(18-28)62-22-60-34/h7-10,15-20,23-24,51-56H,11-14,21-22H2,1-6H3/b49-19+,50-20+"
SMILES=Cc1cc2c(C(C)C)c(O)c(O)c(C=NCCOc3ccc4c(c3)OCO4)c2c(O)c1-c1c(C)cc2c(C(C)C)c(O)c(O)c(C=NCCOc3ccc4c(c3)OCO4)c2c1O
SPECTRUMID=CCMSLIB00010126042
61.98558 2485.0 
66.970032 2241.0 
79.05439 3017.0 
84.389511 2315.0 
104.29467 2672.0 
107.049004 10198.0 
109.028107 11335.0 
116.811928 2399.0 
117.886482 2384.0 
135.043732 17892.0 
137.023178 16256.0 
138.030884 74135.0 
139.038315 5731.0 
141.482239 2427.0 
165.054291 10054.0 
182.08078 15630.0 
214.062653 3642.0 
219.051224 2602.0 
227.069427 5644.0 
236.089493 3382.0 
242.093002 5269.0 
242.589752 3517.0 
252.101639 3649.0 
256.101959 3699.0 
263.611664 2456.0 
296.674438 2659.0 
332.630737 18580.0 
423.166565 349616.0 
423.668793 83716.0 
453.133545 6157.0 
467.148773 12287.0 
468.154907 5579.0 
469.164368 3437.0 
483.180695 21249.0 
510.231506 3287.0 
664.252075 14613.0 
END IONS

BEGIN IONS
NAME="3-[2-(diethylamino)ethyl]-2-(3,4,5-trimethoxyphenyl)-1,2,3-trihydroquinazolin- 4-one CollisionEnergy:102040" M+Cl
PRECURSOR_MZ=448.201
INCHI="InChI=1S/C23H31N3O4/c1-6-25(7-2)12-13-26-22(24-18-11-9-8-10-17(18)23(26)27)16-14-19(28-3)21(30-5)20(15-16)29-4/h8-11,14-15,22,24H,6-7,12-13H2,1-5H3"
SMILES=CCN(CC)CCN1C(=O)c2ccccc2NC1c1cc(OC)c(OC)c(OC)c1
SPECTRUMID=CCMSLIB00010104239
53.967941 2177.0 
82.401108 2771.0 
86.059601 2312.0 
104.470573 2540.0 
113.67878 2689.0 
123.568222 2887.0 
208.22113 11479.0 
215.840897 2696.0 
261.894073 2550.0 
303.23349 5473.0 
311.851135 3215.0 
371.975647 2540.0 
END IONS

BEGIN IONS
NAME=2-{3-[4-(tert-butyl)phenoxy]-4-oxochromen-7-yloxy}-N-(4-methylphenyl)acetamide CollisionEnergy:102040 M-H
PRECURSOR_MZ=456.182
INCHI="InChI=1S/C28H27NO5/c1-18-5-9-20(10-6-18)29-26(30)17-32-22-13-14-23-24(15-22)33-16-25(27(23)31)34-21-11-7-19(8-12-21)28(2,3)4/h5-16H,17H2,1-4H3,(H,29,30)"
SMILES=Cc1ccc(NC(=O)COc2ccc3c(=O)c(Oc4ccc(C(C)(C)C)cc4)coc3c2)cc1
SPECTRUMID=CCMSLIB00010111148
63.71051 2864.0 
65.445229 2753.0 
73.419907 2891.0 
73.965042 3168.0 
104.302696 3348.0 
106.065887 3371.0 
107.050621 21827.0 
115.964653 3021.0 
122.476929 3019.0 
131.096115 3036.0 
170.094925 2760.0 
208.037354 5606.0 
208.058899 17329.0 
290.101074 3606.0 
291.631165 3042.0 
293.083374 6160.0 
293.119293 3551.0 
296.090668 3495.0 
309.113525 2587465.0 
323.129486 12730.0 
326.082397 3359.0 
337.105927 3746.0 
348.124512 3605.0 
349.10791 106891.0 
368.063568 2953.0 
382.704132 3206.0 
398.176514 299242.0 
456.18219 1138614.0 
END IONS

BEGIN IONS
NAME=Flindersine CollisionEnergy:102040 M+Na
PRECURSOR_MZ=250.084
INCHI="InChI=1S/C14H13NO2/c1-14(2)8-7-10-12(17-14)9-5-3-4-6-11(9)15-13(10)16/h3-8H,1-2H3,(H,15,16)"
SMILES=CC1(C)C=Cc2c(O)nc3ccccc3c2O1
SPECTRUMID=CCMSLIB00010104225
71.608688 2766.0 
74.092911 2750.0 
79.574959 2623.0 
82.433693 2862.0 
92.418259 3385.0 
93.608391 2504.0 
134.032089 3029.0 
158.039459 2827.0 
185.927917 12962.0 
203.93811 30486.0 
208.943436 42066.0 
224.927185 2577.0 
226.925095 8319.0 
226.953537 70640.0 
250.083481 2874604.0 
250.178162 43899.0 
268.093964 70671.0 
END IONS

BEGIN IONS
NAME=Isoreserpine CollisionEnergy:102040 M+Na
PRECURSOR_MZ=631.263
INCHI="InChI=1S/C33H40N2O9/c1-38-19-7-8-20-21-9-10-35-16-18-13-27(44-32(36)17-11-25(39-2)30(41-4)26(12-17)40-3)31(42-5)28(33(37)43-6)22(18)15-24(35)29(21)34-23(20)14-19/h7-8,11-12,14,18,22,24,27-28,31,34H,9-10,13,15-16H2,1-6H3/t18-,22+,24+,27-,28+,31+/m1/s1"
SMILES=COC(=O)C1C2CC3c4[nH]c5cc(OC)ccc5c4CCN3CC2CC(OC(=O)c2cc(OC)c(OC)c(OC)c2)C1OC
SPECTRUMID=CCMSLIB00010108902
90.848061 3394.0 
138.278824 3848.0 
153.473419 3535.0 
174.090927 35146.0 
192.101257 8291.0 
235.056946 26801.0 
236.128113 15041.0 
397.213196 42223.0 
419.193054 899955.0 
616.237671 20288.0 
631.261414 5437875.0 
END IONS

BEGIN IONS
NAME="N-(4-(2H-benzo[3,4-d]1,3-dioxolan-5-yl)(1Z,3Z)-2-methyl-1-azabuta-1,3-dienyl)( 5-bromo(3-pyridyl))carboxamide CollisionEnergy:102040" M+H
PRECURSOR_MZ=388.029
INCHI="InChI=1S/C17H14BrN3O3/c1-11(20-21-17(22)13-7-14(18)9-19-8-13)2-3-12-4-5-15-16(6-12)24-10-23-15/h2-9H,10H2,1H3,(H,21,22)/b3-2-,20-11-"
SMILES=CC(C=Cc1ccc2c(c1)OCO2)=NN=C(O)c1cncc(Br)c1
SPECTRUMID=CCMSLIB00010109653
74.348312 9753.0 
79.054253 121022.0 
79.734947 9429.0 
82.438004 12785.0 
89.038612 1045636.0 
91.054123 105384.0 
96.044121 23987.0 
103.054001 42578.0 
106.064857 135171.0 
111.031487 17365.0 
115.054024 1620828.0 
117.033234 566943.0 
117.069557 72468.0 
120.031593 16499.0 
130.064896 468116.0 
131.049011 21024.0 
131.072769 13365.0 
132.080719 151375.0 
134.059875 195875.0 
135.04393 117805.0 
137.034744 76682.0 
143.048935 3018894.0 
145.075989 16705.0 
147.043777 4650296.0 
154.823914 11034.0 
155.944046 664073.0 
157.959732 3190377.0 
158.035553 16345.0 
158.059586 311652.0 
160.075287 157021.0 
162.053375 10368.0 
173.059448 30286610.0 
173.648438 15187.0 
173.954483 337455.0 
174.054337 47220.0 
174.648727 12498.0 
176.070511 13021.0 
182.954651 43577.0 
183.938934 8481792.0 
184.07486 23496.0 
185.954391 332565.0 
186.054337 15911.0 
188.070175 2578380.0 
188.94194 61652.0 
196.97023 146978.0 
197.966049 48532.0 
198.949707 293259.0 
200.965591 80579.0 
201.949402 49716.0 
203.081177 462761.0 
207.968689 11707.0 
209.536819 31949.0 
214.969696 20292.0 
215.976196 442521.0 
216.01088 12110.0 
231.075684 145011.0 
239.975952 1131147.0 
245.558578 10953.0 
265.991608 2998370.0 
355.994659 13139.0 
388.027985 14773887.0 
END IONS

BEGIN IONS
NAME="1,2,6,6,10,17,20-heptamethyl-17-[(2-methylcyclohexyl)oxycarbonyl]-12-oxopentac yclo[12.8.0.0<2,11>.0<5,10>.0<15,20>]docos-13-en-7-yl acetate CollisionEnergy:205060" M+H
PRECURSOR_MZ=609.451
INCHI="InChI=1S/C39H60O5/c1-24-12-10-11-13-29(24)44-33(42)36(6)19-18-35(5)20-21-38(8)26(27(35)23-36)22-28(41)32-37(7)16-15-31(43-25(2)40)34(3,4)30(37)14-17-39(32,38)9/h22,24,27,29-32H,10-21,23H2,1-9H3"
SMILES=CC(=O)OC1CCC2(C)C(CCC3(C)C2C(=O)C=C2C4CC(C)(C(=O)OC5CCCCC5C)CCC4(C)CCC23C)C1(C)C
SPECTRUMID=CCMSLIB00010125959
53.039169 3349.0 
55.054729 183574.0 
63.156891 2730.0 
67.054611 17728.0 
68.808197 2685.0 
69.033669 4177.0 
69.070267 48742.0 
72.092667 3231.0 
79.0252 3032.0 
79.05442 15459.0 
81.070137 61575.0 
83.049522 21676.0 
83.085823 6643.0 
91.054352 13796.0 
92.374603 3060.0 
93.070007 42705.0 
95.04937 3742.0 
95.078743 4785.0 
95.085701 119500.0 
97.064796 4245.0 
97.101257 149052.0 
104.286957 3319.0 
105.069923 43411.0 
107.085472 99076.0 
109.064713 6155.0 
109.101227 39093.0 
111.080582 5221.0 
119.085533 85194.0 
119.094139 4372.0 
121.064774 5345.0 
121.101242 83313.0 
123.116966 23537.0 
129.802933 3232.0 
131.085892 14085.0 
133.101227 55443.0 
135.080353 22907.0 
135.116821 75065.0 
137.132996 4864.0 
139.111053 4589.0 
145.101105 29119.0 
147.116531 38461.0 
149.096039 88938.0 
149.132477 15343.0 
157.101288 16497.0 
159.116821 21434.0 
161.096283 14149.0 
161.132355 29442.0 
163.148453 5493.0 
169.101761 3615.0 
171.115982 11058.0 
173.132492 35835.0 
175.147568 43426.0 
177.128693 3532.0 
177.163315 12145.0 
183.93425 3361.0 
185.13327 5465.0 
187.148697 13960.0 
189.127655 3072.0 
189.163742 61562.0 
191.179214 5948.0 
197.132919 7216.0 
199.1483 19383.0 
201.163437 4799.0 
213.163849 3951.0 
215.143326 19907.0 
217.158569 19454.0 
227.178482 4659.0 
235.1689 16426.0 
243.21106 3773.0 
245.19104 3620.0 
253.196136 13385.0 
271.205933 6339.0 
317.211975 5076.0 
381.693512 3193.0 
407.331116 14858.0 
435.327606 11619.0 
453.336945 44669.0 
467.350769 5107.0 
493.354034 3327.0 
513.3573 189652.0 
609.450928 707798.0 
END IONS

BEGIN IONS
NAME=(2Z)-2-[(2-bromophenyl)carbonylamino]-N-[2-(2-methylindol-3-yl)ethyl]-3-phenyl prop-2-enamide CollisionEnergy:102040 M+H
PRECURSOR_MZ=502.112
INCHI="InChI=1S/C27H24BrN3O2/c1-18-20(21-11-6-8-14-24(21)30-18)15-16-29-27(33)25(17-19-9-3-2-4-10-19)31-26(32)22-12-5-7-13-23(22)28/h2-14,17,30H,15-16H2,1H3,(H,29,33)(H,31,32)/b25-17-"
SMILES=Cc1[nH]c2ccccc2c1CCN=C(O)C(=Cc1ccccc1)N=C(O)c1ccccc1Br
SPECTRUMID=CCMSLIB00010112041
69.988258 4378.0 
72.900002 4466.0 
73.967903 5791.0 
92.394852 4579.0 
115.054802 5263.0 
130.065247 7293.0 
136.236191 5027.0 
143.072906 62163.0 
144.08017 7599.0 
154.950378 6527.0 
157.088058 60948.0 
157.571106 5062.0 
158.096481 10872066.0 
158.610443 9868.0 
159.10022 6544.0 
162.054947 189778.0 
173.107193 17294.0 
174.527161 6696.0 
175.123016 5187842.0 
182.307266 4779.0 
182.944046 4470505.0 
184.941528 39526.0 
190.050064 136700.0 
206.071915 7428.0 
219.550415 6100.0 
230.346863 4791.0 
248.070557 25439.0 
249.078033 17434.0 
300.001648 16191.0 
315.236908 4920.0 
327.996552 5852917.0 
329.0 7053.0 
329.536133 5386.0 
329.994202 67413.0 
423.281952 4451.0 
455.422211 4602.0 
484.098053 7944.0 
501.612366 78664.0 
502.112152 1028339.0 
502.610596 25544.0 
END IONS

BEGIN IONS
NAME=3-Hydroxy-5-methoxyflavone CollisionEnergy:102040 M+H
PRECURSOR_MZ=269.081
INCHI="InChI=1S/C16H12O4/c1-19-11-8-5-9-12-13(11)14(17)15(18)16(20-12)10-6-3-2-4-7-10/h2-9,18H,1H3"
SMILES=COc1cccc2oc(-c3ccccc3)c(O)c(=O)c12
SPECTRUMID=CCMSLIB00010107851
105.033592 4231.0 
137.242844 2772.0 
142.554413 2687.0 
176.297836 2897.0 
198.097702 2604.0 
253.049393 92903.0 
254.025604 5322.0 
254.057083 456948.0 
269.080505 3026502.0 
END IONS

BEGIN IONS
NAME=N-Acetyl-D-Mannosamine CollisionEnergy:102040 M+Na
PRECURSOR_MZ=244.079
INCHI="InChI=1S/C8H15NO6/c1-3(11)9-5-7(13)6(12)4(2-10)15-8(5)14/h4-8,10,12-14H,2H2,1H3,(H,9,11)/t4-,5+,6-,7-,8?/m1/s1"
SMILES=CC(O)=N[C@@H]1C(O)O[C@H](CO)[C@@H](O)[C@@H]1O
SPECTRUMID=CCMSLIB00010103113
55.855999 20807.800781 
59.315601 21408.699219 
63.7463 23786.699219 
66.758499 30024.800781 
67.565598 26710.900391 
92.4011 36298.300781 
93.387001 23605.0 
124.037003 201908.0 
143.031006 163143.0 
148.037003 36421.898438 
148.753998 27198.199219 
214.128998 27048.5 
226.067993 1108740.0 
244.078995 11447800.0 
END IONS

BEGIN IONS
NAME=Lumazine CollisionEnergy:102040 M-H
PRECURSOR_MZ=163.026
INCHI="InChI=1S/C6H4N4O2/c11-5-3-4(8-2-1-7-3)9-6(12)10-5/h1-2H,(H2,8,9,10,11,12)"
SMILES=Oc1nc(O)c2nccnc2n1
SPECTRUMID=CCMSLIB00010114145
53.403111 4335.0 
54.606892 3928.0 
67.988121 4192.0 
104.296219 4899.0 
119.035507 8257.0 
120.020271 274610.0 
120.030067 10922.0 
121.303886 4845.0 
137.371536 4035.0 
162.893692 28528.0 
163.026047 3400300.0 
END IONS

BEGIN IONS
NAME="2-(acetylamino)-N-{[N-(2,6-dimethylphenyl)carbamoyl]cyclohexyl}-N-(2-indol-3-y lethyl)acetamide CollisionEnergy:205060" M+formate
PRECURSOR_MZ=533.277
INCHI="InChI=1S/C29H36N4O3/c1-20-10-9-11-21(2)27(20)32-28(36)29(15-7-4-8-16-29)33(26(35)19-30-22(3)34)17-14-23-18-31-25-13-6-5-12-24(23)25/h5-6,9-13,18,31H,4,7-8,14-17,19H2,1-3H3,(H,30,34)(H,32,36)"
SMILES=CC(O)=NCC(=O)N(CCc1c[nH]c2ccccc12)C1(C(O)=Nc2c(C)cccc2C)CCCCC1
SPECTRUMID=CCMSLIB00010122776
53.806721 2645.0 
81.224358 2370.0 
82.446136 3583.0 
85.75502 2253.0 
96.92025 3033.0 
98.0242 5889.0 
104.664917 3091.0 
120.081497 34002.0 
125.232231 2392.0 
150.014038 2489.0 
159.092087 38153.0 
162.091553 5662.0 
181.062378 3906.0 
181.097504 10518.0 
193.971573 3158.0 
223.108353 3310.0 
239.155457 6108.0 
245.165268 126572.0 
323.767334 2489.0 
324.171783 34622.0 
344.197937 12992.0 
366.184174 19720.0 
388.238922 40413.0 
445.260712 17156.0 
487.270691 27712.0 
END IONS

BEGIN IONS
NAME="N'-[(1E)-2-(3,4,5-trimethoxyphenyl)-1-azavinyl]-N-(2-methylphenyl)butane-1,4-d iamide CollisionEnergy:205060" M-H
PRECURSOR_MZ=398.172
INCHI="InChI=1S/C21H25N3O5/c1-14-7-5-6-8-16(14)23-19(25)9-10-20(26)24-22-13-15-11-17(27-2)21(29-4)18(12-15)28-3/h5-8,11-13H,9-10H2,1-4H3,(H,23,25)(H,24,26)/b22-13+"
SMILES=COc1cc(C=NN=C(O)CCC(O)=Nc2ccccc2C)cc(OC)c1OC
SPECTRUMID=CCMSLIB00010122548
52.71217 2763.0 
78.973503 2381.0 
98.025093 10517.0 
106.066277 63794.0 
119.02523 23060.0 
120.009247 2548.0 
136.016663 51771.0 
147.020096 96260.0 
148.004349 3201.0 
148.028259 27033.0 
149.035812 43977.0 
151.003937 3355.0 
151.039902 2859.0 
158.060867 2844.0 
160.076996 119640.0 
163.014725 3208.0 
163.029037 3834.0 
164.022934 81976.0 
164.037384 4350.0 
178.038223 44276.0 
178.051727 2797.0 
179.046371 214836.0 
188.071823 210332.0 
192.698944 2705.0 
193.06221 60260.0 
194.069763 260115.0 
209.093338 184580.0 
211.216019 3920.0 
253.083984 4868.0 
291.100464 21512.0 
END IONS

BEGIN IONS
NAME=(2-chloro-5-nitrophenyl)-N-[2-(2-methylindol-3-yl)ethyl]carboxamide CollisionEnergy:205060 M+formate
PRECURSOR_MZ=402.086
INCHI="InChI=1S/C18H16ClN3O3/c1-11-13(14-4-2-3-5-17(14)21-11)8-9-20-18(23)15-10-12(22(24)25)6-7-16(15)19/h2-7,10,21H,8-9H2,1H3,(H,20,23)"
SMILES=Cc1[nH]c2ccccc2c1CCN=C(O)c1cc([N+](=O)[O-])ccc1Cl
SPECTRUMID=CCMSLIB00010122108
50.228531 2167.0 
61.988178 5148.0 
66.75219 2274.0 
82.408653 3379.0 
83.466583 2165.0 
86.077263 2429.0 
92.38736 2902.0 
129.975388 3282.0 
155.985199 19866.0 
199.087708 58636.0 
199.975235 2245.0 
206.561218 2268.0 
210.876877 2401.0 
291.120514 2678.0 
356.080688 60514.0 
401.989441 3716.0 
402.489349 2358.0 
END IONS

BEGIN IONS
NAME=(2E)-3-(1-ethyl-3-methylpyrazol-4-yl)-1-(4-hydroxyphenyl)prop-2-en-1-one CollisionEnergy:205060 M+Na
PRECURSOR_MZ=279.11
INCHI="InChI=1S/C15H16N2O2/c1-3-17-10-13(11(2)16-17)6-9-15(19)12-4-7-14(18)8-5-12/h4-10,18H,3H2,1-2H3/b9-6+"
SMILES=CCn1cc(C=CC(=O)c2ccc(O)cc2)c(C)n1
SPECTRUMID=CCMSLIB00010115660
67.339821 2133.0 
73.955002 2104.0 
75.193878 2098.0 
80.948021 3285.0 
84.95961 4346.0 
136.073929 2301.0 
139.425095 1982.0 
149.02269 17480.0 
191.104538 2715.0 
226.451721 2145.0 
279.110596 99231.0 
279.154846 9029.0 
291.787567 2281.0 
END IONS

BEGIN IONS
NAME="6,7-Dimethyl-4-hydroxycoumarin CollisionEnergy:102040" M+Na
PRECURSOR_MZ=213.052
INCHI="InChI=1S/C11H10O3/c1-6-3-8-9(12)5-11(13)14-10(8)4-7(6)2/h3-5,12H,1-2H3"
SMILES=Cc1cc2oc(=O)cc(O)c2cc1C
SPECTRUMID=CCMSLIB00010105410
56.343071 1941.0 
65.386276 1950.0 
69.699913 2337.0 
70.517593 2255.0 
74.637253 2137.0 
88.075912 30822.0 
104.310661 2108.0 
107.321251 2194.0 
158.007355 2482.0 
159.572327 2202.0 
190.056335 2373.0 
195.137375 2468.0 
213.051895 148760.0 
213.160034 22267.0 
231.062561 3576.0 
END IONS

BEGIN IONS
NAME=hypotaurine CollisionEnergy:102040 M+H
PRECURSOR_MZ=110.027
INCHI="InChI=1S/C2H7NO2S/c3-1-2-6(4)5/h1-3H2,(H,4,5)"
SMILES=NCCS(=O)O
SPECTRUMID=CCMSLIB00010126616
54.4701 14656.299805 
62.797001 14127.0 
73.966103 16478.800781 
92.016899 813981.0 
110.018997 20937.800781 
110.027 511980.0 
END IONS

BEGIN IONS
NAME="4-methyl-7-[3,4,5-trihydroxy-6-(hydroxymethyl)(2H-3,4,5,6-tetrahydropyran-2-yl oxy)]chromen-2-one CollisionEnergy:102040" M+Cl
PRECURSOR_MZ=373.07
INCHI="InChI=1S/C16H18O8/c1-7-4-12(18)23-10-5-8(2-3-9(7)10)22-16-15(21)14(20)13(19)11(6-17)24-16/h2-5,11,13-17,19-21H,6H2,1H3"
SMILES=Cc1cc(=O)oc2cc(OC3OC(CO)C(O)C(O)C3O)ccc12
SPECTRUMID=CCMSLIB00010112442
53.632401 2637.0 
74.592102 2020.0 
75.049011 2293.0 
77.028137 2438.0 
82.412338 2789.0 
87.41597 2018.0 
92.394043 2490.0 
97.526176 2369.0 
98.077553 2514.0 
103.966637 2728.0 
174.956009 14296.0 
175.039612 324938.0 
192.98967 2375.0 
208.446182 4972.0 
218.046844 2687.0 
304.913361 25991.0 
373.069611 100846.0 
END IONS

BEGIN IONS
NAME=lipoamide CollisionEnergy:102040 M+Na
PRECURSOR_MZ=228.049
INCHI="InChI=1S/C8H15NOS2/c9-8(10)4-2-1-3-7-5-6-11-12-7/h7H,1-6H2,(H2,9,10)"
SMILES=N=C(O)CCCCC1CCSS1
SPECTRUMID=CCMSLIB00010112638
52.478661 13576.0 
60.954929 10640.0 
78.402184 12508.0 
81.28595 12388.0 
81.397713 13905.0 
95.574249 12259.0 
104.257561 12589.0 
127.311523 12229.0 
228.048447 3979922.0 
228.231613 80588.0 
END IONS

BEGIN IONS
NAME="2-[5-(5-bromo-2-oxo(1H-benzo[d]azolin-3-ylidene))-4-oxo-2-thioxo(1,3-thiazolid in-3-yl)]-3-phenylpropanoic acid CollisionEnergy:205060" M+H
PRECURSOR_MZ=488.957
INCHI="InChI=1S/C20H13BrN2O4S2/c21-11-6-7-13-12(9-11)15(17(24)22-13)16-18(25)23(20(28)29-16)14(19(26)27)8-10-4-2-1-3-5-10/h1-7,9,14H,8H2,(H,22,24)(H,26,27)/b16-15-"
SMILES=O=C(O)C(Cc1ccccc1)N1C(=O)C(=C2C(O)=Nc3ccc(Br)cc32)SC1=S
SPECTRUMID=CCMSLIB00010125659
69.315369 2897.0 
79.054543 29690.0 
82.532738 2646.0 
91.054367 3079.0 
103.054314 211784.0 
107.048981 43769.0 
118.654449 2843.0 
128.049698 27487.0 
130.065399 13746.0 
131.049026 37074.0 
146.059982 51754.0 
147.013702 13346.0 
147.118423 2541.0 
150.49408 2443.0 
153.810913 2798.0 
162.037033 37573.0 
175.008347 60519.0 
181.958694 3009.0 
222.362854 2761.0 
225.932037 110701.0 
253.926834 496069.0 
270.03299 3159.0 
281.920807 15144.0 
330.078369 2712.0 
339.56778 3131.0 
340.903503 22203.0 
436.978668 2781.0 
442.895386 3055.0 
442.951324 129831.0 
470.94696 52733.0 
488.956726 231976.0 
END IONS

BEGIN IONS
NAME=(3-bromophenyl)-N-{2-[2-methyl-5-(phenylmethoxy)indol-3-yl]ethyl}carboxamide CollisionEnergy:205060 M-H
PRECURSOR_MZ=461.087
INCHI="InChI=1S/C25H23BrN2O2/c1-17-22(12-13-27-25(29)19-8-5-9-20(26)14-19)23-15-21(10-11-24(23)28-17)30-16-18-6-3-2-4-7-18/h2-11,14-15,28H,12-13,16H2,1H3,(H,27,29)"
SMILES=Cc1[nH]c2ccc(OCc3ccccc3)cc2c1CCN=C(O)c1cccc(Br)c1
SPECTRUMID=CCMSLIB00010123838
58.435959 2585.0 
68.995377 4991.0 
73.972389 3547.0 
78.918633 2178790.0 
79.602341 2555.0 
80.916672 12204.0 
92.401337 3378.0 
104.312531 2898.0 
106.458458 3306.0 
108.02224 2873.0 
117.03447 5949.0 
118.684013 3324.0 
144.045395 136963.0 
145.05365 12970.0 
158.061157 328937.0 
159.056366 3312.0 
159.068527 29566.0 
161.048813 6248.0 
162.05632 5953.0 
171.068634 15637.0 
173.048477 46015.0 
174.054733 5999.0 
184.582535 2984.0 
188.03569 21555.0 
191.058899 5002.0 
197.956375 26111.0 
210.964264 13149.0 
242.953705 240544.0 
262.124054 4359.0 
265.403931 3134.0 
354.981415 5674.0 
360.265137 2994.0 
370.03241 1396408.0 
393.803345 3122.0 
403.522217 3009.0 
418.375183 2936.0 
460.985413 16534.0 
461.088013 93819.0 
END IONS

BEGIN IONS
NAME=thiamine CollisionEnergy:102040 M-2H
PRECURSOR_MZ=263.097
INCHI="InChI=1S/C12H17N4OS/c1-8-11(3-4-17)18-7-16(8)6-10-5-14-9(2)15-12(10)13/h5,7,17H,3-4,6H2,1-2H3,(H2,13,14,15)/q+1"
SMILES=Cc1ncc(C[n+]2csc(CCO)c2C)c(=N)[nH]1
SPECTRUMID=CCMSLIB00010126333
51.5816 53351.898438 
55.8172 49429.101562 
60.5495 76581.296875 
74.493401 47813.5 
80.690399 47707.898438 
87.026802 75389.703125 
100.314003 62378.101562 
122.836998 50060.601562 
136.231995 62158.398438 
147.067993 17924400.0 
168.093994 50171.898438 
233.087006 5745800.0 
263.096985 827522.0 
END IONS

BEGIN IONS
NAME="8-{[5-methyl-2-(2-methylphenyl)(1,3-oxazol-4-yl)]methylthio}-9-(4-methylphenyl )hydropurin-6-one CollisionEnergy:102040" M+H
PRECURSOR_MZ=444.149
INCHI="InChI=1S/C24H21N5O2S/c1-14-8-10-17(11-9-14)29-21-20(22(30)26-13-25-21)28-24(29)32-12-19-16(3)31-23(27-19)18-7-5-4-6-15(18)2/h4-11,13H,12H2,1-3H3,(H,25,26,30)"
SMILES=Cc1ccc(-n2c(SCc3nc(-c4ccccc4C)oc3C)nc3c(O)ncnc32)cc1
SPECTRUMID=CCMSLIB00010104907
58.150902 2933.0 
60.53624 3440.0 
68.576759 3319.0 
69.03363 5516.0 
98.897797 2657.0 
118.064957 277313.0 
185.847183 3051.0 
186.09111 2799369.0 
227.117935 7120.0 
259.064209 91869.0 
300.171936 2925.0 
373.558807 3167.0 
444.147888 1313197.0 
END IONS

BEGIN IONS
NAME=(2S)-2-[(fluoren-9-ylmethoxy)carbonylamino]-3-indol-3-ylpropanoic acid CollisionEnergy:102040 M+H
PRECURSOR_MZ=427.165
INCHI="InChI=1S/C26H22N2O4/c29-25(30)24(13-16-14-27-23-12-6-5-7-17(16)23)28-26(31)32-15-22-20-10-3-1-8-18(20)19-9-2-4-11-21(19)22/h1-12,14,22,24,27H,13,15H2,(H,28,31)(H,29,30)/t24-/m0/s1"
SMILES=O=C(O)C(Cc1c[nH]c2ccccc12)N=C(O)OCC1c2ccccc2-c2ccccc21
SPECTRUMID=CCMSLIB00010111024
56.938629 3612.0 
60.940491 3059.0 
92.397118 4834.0 
103.971764 3241.0 
104.306686 3680.0 
117.057861 4036.0 
118.065147 28692.0 
119.08503 6440.0 
130.065201 72429.0 
132.080658 67023.0 
144.080704 78554.0 
146.060028 508696.0 
148.6595 3391.0 
159.09166 340405.0 
160.076874 4271.0 
169.075943 22181.0 
170.059891 42903.0 
171.604828 3338.0 
178.077698 107832.0 
179.085495 4043049.0 
185.070999 13368.0 
187.086685 81772.0 
188.070511 2470918.0 
201.076965 4227.0 
203.081329 19570.0 
205.097107 1380290.0 
211.278748 4903.0 
229.568253 3817.0 
231.075974 91562.0 
249.086746 394964.0 
293.589203 14487.0 
308.142731 7950.0 
310.159973 3700.0 
337.17218 5449.0 
366.148132 89742.0 
381.159576 4628.0 
383.174591 89285.0 
388.843109 3567.0 
427.164276 625005.0 
427.664062 16786.0 
END IONS

BEGIN IONS
NAME=Lambdamycin CollisionEnergy:102040 M-H
PRECURSOR_MZ=639.172
INCHI="InChI=1S/C32H32O14/c1-10-8-9-15-18-16(10)29(38)45-26-17-13(23(35)20(19(18)26)30(39)43-15)6-5-7-14(17)44-32-28(24(36)21(33)11(2)42-32)46-31-25(37)27(40-4)22(34)12(3)41-31/h5-9,11-12,21-22,24-25,27-28,31-37H,1-4H3/t11-,12-,21+,22+,24+,25-,27+,28-,31-,32+/m1/s1"
SMILES=COC1C(O)C(C)OC(OC2C(Oc3cccc4c(O)c5c(=O)oc6ccc(C)c7c(=O)oc(c34)c5c67)OC(C)C(O)C2O)C1O
SPECTRUMID=CCMSLIB00010113560
67.523041 3037.0 
73.95919 3871.0 
92.387962 3796.0 
210.336792 7058.0 
275.291077 3395.0 
289.049927 5362.0 
304.038544 6542.0 
332.032837 2031706.0 
333.040802 139840.0 
333.08606 4808.0 
357.039703 33920.0 
479.099548 19000.0 
530.605713 3863.0 
639.172852 4067907.0 
640.172119 7852.0 
END IONS

BEGIN IONS
NAME=methyl (2Z)-3-(4-acetyloxy-3-methoxyphenyl)-2-cyanoprop-2-enoate CollisionEnergy:102040 M+K
PRECURSOR_MZ=314.043
INCHI="InChI=1S/C14H13NO5/c1-9(16)20-12-5-4-10(7-13(12)18-2)6-11(8-15)14(17)19-3/h4-7H,1-3H3/b11-6-"
SMILES=COC(=O)C(C#N)=Cc1ccc(OC(C)=O)c(OC)c1
SPECTRUMID=CCMSLIB00010107029
53.56567 3533.0 
55.01833 18833.0 
79.493698 4116.0 
83.012756 7913.0 
84.9599 7368.0 
89.375229 3179.0 
91.054237 6830.0 
97.027893 4810.0 
98.035851 5195.0 
98.999611 8276.0 
111.959351 3320.0 
113.014771 6152.0 
114.994957 5129.0 
126.994843 6426.0 
128.027588 4093.0 
129.0103 9092.0 
132.044357 7226.0 
133.052155 5872.0 
138.067078 8433.0 
141.009888 25989.0 
142.989456 9136.0 
143.026382 5799.0 
144.020905 16938.0 
154.005875 4638.0 
156.020889 6551.0 
157.005157 26589.0 
159.020203 7273.0 
162.054535 5474.0 
163.039505 4590.0 
164.070709 6732.0 
166.990189 8080.0 
167.033539 3415.0 
167.057434 6776.0 
168.020508 6730.0 
169.00473 7429.0 
170.983978 18410.0 
171.020996 18840.0 
172.999969 6827.0 
173.037262 8665.0 
177.041199 4433.0 
178.049576 7257.0 
180.040436 4298.0 
181.99939 8046.0 
182.04393 7397.0 
183.007843 7154.0 
184.999451 13702.0 
186.007675 21254.0 
186.030624 5167.0 
189.041794 7854.0 
190.050385 14389.0 
191.057098 17186.0 
192.044632 3766.0 
192.064972 24103.0 
194.043259 6492.0 
195.008224 8558.0 
195.065018 21583.0 
195.995758 5637.0 
196.014801 30316.0 
197.000885 36086.0 
197.020584 4959.0 
197.994492 6008.0 
198.030365 7815.0 
198.981842 7111.0 
199.00206 30590.0 
199.018906 12730.0 
199.987228 78867.0 
200.995407 94847.0 
201.030792 9286.0 
201.989105 76317.0 
202.024628 7609.0 
202.997665 5926.0 
205.035706 9187.0 
206.045029 15604.0 
207.051788 4514.0 
208.013641 6173.0 
208.06041 7114.0 
209.995529 18523.0 
210.030945 16735.0 
210.076233 8367.0 
210.957718 7272.0 
210.980087 152002.0 
211.002609 35041.0 
212.011734 14739.0 
213.017838 16879.0 
214.002289 157628.0 
214.02626 103561.0 
214.975571 5543.0 
215.011398 64137.0 
216.020462 274323.0 
217.012924 8904.0 
217.03569 7395.0 
218.043427 27946.0 
219.052109 24815.0 
220.060699 87905.0 
221.067764 24270.0 
221.994949 23646.0 
222.039215 15220.0 
223.002411 23035.0 
224.010468 49795.0 
225.01828 8268.0 
225.98912 108599.0 
226.026367 20215.0 
226.994675 47494.0 
227.981369 8304.0 
228.002426 54422.0 
228.041504 6773.0 
229.025406 143241.0 
229.997833 4470.0 
230.021713 15951.0 
231.005768 4833.0 
231.029495 62969.0 
232.03714 7715.0 
232.059967 5154.0 
233.066696 7945.0 
234.040939 8000.0 
235.047836 7065.0 
236.012146 11571.0 
236.054596 25290.0 
237.018311 98040.0 
237.060379 28700.0 
237.986938 34441.0 
238.026321 35562.0 
238.998322 21041.0 
240.005081 254956.0 
241.013306 2424968.0 
241.983109 27693.0 
242.02063 43980.0 
242.993118 22249.0 
244.012329 7455.0 
244.03598 60005.0 
246.04071 28043.0 
247.046402 33230.0 
248.055573 44609.0 
249.989853 22888.0 
250.070602 19333.0 
250.997162 16492.0 
252.003845 54117.0 
252.977737 30299.0 
253.013336 250741.0 
254.021332 74797.0 
255.029022 115989.0 
256.00235 19789.0 
256.03653 351104.0 
257.008118 25209.0 
259.000763 5285.0 
259.036041 15604.0 
260.055603 5775.0 
261.061768 15473.0 
264.006683 14561.0 
264.050049 61984.0 
265.013428 158757.0 
265.993805 20762.0 
266.022949 8939.0 
267.005585 5842.0 
268.000549 2542295.0 
269.017395 7219.0 
270.01413 35599.0 
278.064392 74464.0 
279.073486 140486.0 
281.008209 212668.0 
281.043091 8299.0 
283.024017 41843.0 
283.994751 56215.0 
284.031403 103056.0 
296.032562 49094.0 
298.013947 5378.0 
299.018677 1027985.0 
312.602478 8693.0 
314.042084 11352059.0 
315.489471 15482.0 
330.514923 4970.0 
END IONS

BEGIN IONS
NAME="(2S)-1-{[3-amino-6-methyl-4-(trifluoromethyl)thiopheno[2,3-b]pyridin-2-yl]carb onyl}pyrrolidine-2-carboxylic acid CollisionEnergy:205060" 2M-H
PRECURSOR_MZ=745.134
INCHI="InChI=1S/C15H14F3N3O3S/c1-6-5-7(15(16,17)18)9-10(19)11(25-12(9)20-6)13(22)21-4-2-3-8(21)14(23)24/h5,8H,2-4,19H2,1H3,(H,23,24)/t8-/m0/s1"
SMILES=Cc1cc(C(F)(F)F)c2c(N)c(C(=O)N3CCCC3C(=O)O)sc2n1
SPECTRUMID=CCMSLIB00010120851
57.975189 19872.0 
58.037251 3062.0 
73.973824 3964.0 
129.675522 3615.0 
162.417175 3081.0 
173.018402 7495.0 
181.02478 6082.0 
187.931915 3273.0 
191.007935 16909.0 
208.998718 3525.0 
212.0233 15984.0 
217.005463 85500.0 
219.002701 4091.0 
220.01178 3431.0 
230.012939 3967.0 
231.020935 35659.0 
236.437592 3004.0 
240.06015 14964.0 
260.03302 3417.0 
260.065979 21171.0 
268.05481 16291.0 
308.065857 21580.0 
328.073975 81672.0 
372.063538 208701.0 
409.274628 3699.0 
END IONS

BEGIN IONS
NAME="N-[(3,4-dimethoxyphenyl)methyl](4-oxo(3-hydrophthalazinyl))carboxamide CollisionEnergy:102040" M-H
PRECURSOR_MZ=338.115
INCHI="InChI=1S/C18H17N3O4/c1-24-14-8-7-11(9-15(14)25-2)10-19-18(23)16-12-5-3-4-6-13(12)17(22)21-20-16/h3-9H,10H2,1-2H3,(H,19,23)(H,21,22)"
SMILES=COc1ccc(CNC(=O)c2nnc(O)c3ccccc23)cc1OC
SPECTRUMID=CCMSLIB00010112242
50.85524 2236.0 
55.040199 2608.0 
56.450932 2449.0 
62.987518 2383.0 
82.428673 3356.0 
102.034767 17453.0 
107.495827 2371.0 
117.045509 3950.0 
117.443817 2759.0 
118.695473 2436.0 
126.492119 2505.0 
145.040741 918979.0 
150.056046 15379.0 
189.030579 6253.0 
214.651154 2666.0 
308.068268 12899.0 
323.090118 6086.0 
338.114746 1685061.0 
END IONS

BEGIN IONS
NAME=5-Methoxyuridine CollisionEnergy:102040 M+Na
PRECURSOR_MZ=297.069
INCHI="InChI=1S/C10H14N2O7/c1-18-4-2-12(10(17)11-8(4)16)9-7(15)6(14)5(3-13)19-9/h2,5-7,9,13-15H,3H2,1H3,(H,11,16,17)"
SMILES=COc1cn(C2OC(CO)C(O)C2O)c(=O)nc1O
SPECTRUMID=CCMSLIB00010114495
56.066231 2350.0 
61.010941 12875.0 
73.047157 10493.0 
79.021446 25476.0 
83.410591 2381.0 
85.178703 2279.0 
91.057404 11480.0 
99.238472 2675.0 
104.288773 2244.0 
133.405029 2739.0 
155.031448 18591.0 
165.026917 346748.0 
212.056503 2723.0 
218.97261 29549.0 
225.041519 3489.0 
227.911972 2498.0 
234.988068 24362.0 
236.983505 565115.0 
265.018097 4123.0 
266.999939 19241.0 
281.050323 39185.0 
283.03009 73158.0 
296.951324 28815.0 
296.986938 219150.0 
297.068481 377410.0 
299.061066 606632.0 
314.883698 5485.0 
END IONS

BEGIN IONS
NAME=glutathione CollisionEnergy:102040 M+H
PRECURSOR_MZ=308.091
INCHI="InChI=1S/C10H17N3O6S/c11-5(10(18)19)1-2-7(14)13-6(4-20)9(17)12-3-8(15)16/h5-6,20H,1-4,11H2,(H,12,17)(H,13,14)(H,15,16)(H,18,19)/t5-,6-/m0/s1"
SMILES=N[C@@H](CCC(O)=N[C@@H](CS)C(O)=NCC(=O)O)C(=O)O
SPECTRUMID=CCMSLIB00010126676
53.177799 2100.100098 
57.9342 2627.719971 
58.995602 23260.5 
63.343899 2385.090088 
76.022102 333769.0 
76.039803 3756.149902 
82.4133 2823.820068 
84.0448 75321.703125 
86.990799 3054.199951 
102.056 2664.129883 
104.302002 2930.030029 
116.016998 51456.800781 
118.675003 3141.51001 
125.903 2671.780029 
130.039001 4002.070068 
130.050003 75988.0 
142.031998 27145.099609 
144.011002 55185.101562 
158.007004 2893.320068 
162.022003 315909.0 
170.026993 17284.699219 
179.048004 624418.0 
183.442993 2296.709961 
187.054001 11011.099609 
204.380005 2508.840088 
205.063995 3374.699951 
215.048004 22013.800781 
233.057999 188551.0 
245.059006 33219.0 
290.079987 14945.299805 
291.062988 25953.900391 
308.089996 200074.0 
END IONS

BEGIN IONS
NAME=dinoprost CollisionEnergy:102040 2M-H
PRECURSOR_MZ=707.474
INCHI="InChI=1S/C20H34O5/c1-2-3-6-9-15(21)12-13-17-16(18(22)14-19(17)23)10-7-4-5-8-11-20(24)25/h4,7,12-13,15-19,21-23H,2-3,5-6,8-11,14H2,1H3,(H,24,25)/b7-4-,13-12+/t15-,16+,17+,18-,19+/m0/s1"
SMILES=CCCCCC(O)C=CC1C(O)CC(O)C1CC=CCCCC(=O)O
SPECTRUMID=CCMSLIB00010110523
60.863289 3346.0 
72.982788 4665.0 
88.252457 2875.0 
92.388977 4929.0 
104.299637 4316.0 
111.081062 5447.0 
113.096489 3727.0 
118.670013 3382.0 
128.23735 3777.0 
137.92308 3079.0 
141.524368 3238.0 
165.127884 6836.0 
171.102386 13596.0 
173.133591 3687.0 
191.144714 3433.0 
193.123077 34259.0 
193.15863 6739.0 
209.117844 17853.0 
221.117447 5136.0 
247.206131 25222.0 
255.211578 4314.0 
263.202148 5979.0 
273.221405 6622.0 
291.195709 32147.0 
299.201843 5595.0 
309.207153 77095.0 
317.213348 13673.0 
335.221954 4824.0 
353.233032 1358631.0 
466.229431 3769.0 
506.858917 3235.0 
508.995667 3196.0 
614.618469 4410.0 
END IONS

BEGIN IONS
NAME=2-(9-ethyl-6-oxohydropurin-8-ylthio)-N-phenyl-N-prop-2-enylacetamide CollisionEnergy:102040 M-H
PRECURSOR_MZ=368.119
INCHI="InChI=1S/C18H19N5O2S/c1-3-10-23(13-8-6-5-7-9-13)14(24)11-26-18-21-15-16(22(18)4-2)19-12-20-17(15)25/h3,5-9,12H,1,4,10-11H2,2H3,(H,19,20,25)"
SMILES=C=CCN(C(=O)CSc1nc2c(O)ncnc2n1CC)c1ccccc1
SPECTRUMID=CCMSLIB00010107855
55.26395 2520.0 
57.975101 5110.0 
58.67717 2948.0 
72.66909 2690.0 
73.955063 2559.0 
82.40168 3702.0 
109.035973 2770.0 
121.042267 2967.0 
135.031006 45333.0 
163.062576 443620.0 
173.047501 21058.0 
175.062485 5308.0 
179.003586 75536.0 
192.023438 6734.0 
194.026932 2095265.0 
195.033829 3960.0 
205.989624 3840.0 
207.034821 168594.0 
208.042664 3856.0 
208.600296 3187.0 
208.619232 6972.0 
210.004654 2845.0 
235.029709 1682748.0 
259.106354 4318.0 
285.081696 40433.0 
325.112488 66559.0 
368.118896 1160121.0 
END IONS

BEGIN IONS
NAME=forskolin CollisionEnergy:102040 M-H
PRECURSOR_MZ=409.223
INCHI="InChI=1S/C22H34O7/c1-8-19(5)11-14(25)22(27)20(6)13(24)9-10-18(3,4)16(20)15(26)17(28-12(2)23)21(22,7)29-19/h8,13,15-17,24,26-27H,1,9-11H2,2-7H3/t13-,15-,16-,17-,19-,20-,21+,22-/m0/s1"
SMILES=C=CC1(C)CC(=O)C2(O)C(C)(O1)C(OC(C)=O)C(O)C1C(C)(C)CCC(O)C12C
SPECTRUMID=CCMSLIB00010105168
54.358089 2421.0 
54.55825 2362.0 
57.03418 2593.0 
59.013401 513676.0 
62.587471 2545.0 
75.228813 2345.0 
81.00354 3277.0 
92.368752 2828.0 
93.953773 2404.0 
100.556427 2435.0 
104.272163 2864.0 
117.19101 2405.0 
120.192093 2375.0 
123.045624 3544.0 
139.040207 3286.0 
153.092773 4581.0 
159.589401 2264.0 
177.210266 2447.0 
181.084229 3013.0 
185.369965 2931.0 
191.941452 2583.0 
226.053848 2256.0 
271.169891 4831.0 
275.166016 21235.0 
291.16037 11703.0 
299.444672 2471.0 
299.762512 2412.0 
313.17923 17114.0 
331.1922 36284.0 
349.202179 58936.0 
367.212799 38515.0 
377.111725 2571.0 
409.2229 142332.0 
END IONS

BEGIN IONS
NAME=Stachyose CollisionEnergy:102040 M-H
PRECURSOR_MZ=665.215
INCHI="InChI=1S/C24H42O21/c25-1-6-10(28)14(32)17(35)21(41-6)39-3-8-11(29)15(33)18(36)22(42-8)40-4-9-12(30)16(34)19(37)23(43-9)45-24(5-27)20(38)13(31)7(2-26)44-24/h6-23,25-38H,1-5H2/t6-,7-,8-,9-,10+,11+,12-,13-,14+,15+,16+,17-,18-,19-,20+,21+,22+,23-,24+/m1/s1"
SMILES=OC[C@H]1O[C@@](CO)(O[C@H]2O[C@H](CO[C@H]3O[C@H](CO[C@H]4O[C@H](CO)[C@H](O)[C@H](O)[C@H]4O)[C@H](O)[C@H](O)[C@H]3O)[C@@H](O)[C@H](O)[C@H]2O)[C@@H](O)[C@@H]1O
SPECTRUMID=CCMSLIB00010126170
50.424599 2922.189941 
54.552399 2628.929932 
59.013302 21873.099609 
71.013603 34126.601562 
73.028999 3265.649902 
73.969002 3176.659912 
87.008598 16241.400391 
89.0242 80174.0 
93.142403 2782.129883 
101.024002 47344.699219 
107.539001 3095.870117 
113.025002 24229.800781 
118.681 4515.799805 
119.035004 16212.700195 
125.024002 4975.370117 
142.647003 2938.100098 
143.035004 18858.699219 
161.046005 16003.5 
179.056 75994.203125 
190.559998 3134.48999 
203.054993 4658.209961 
221.065994 15773.400391 
281.085999 3356.139893 
323.100006 4007.649902 
341.109009 38728.101562 
383.118988 101653.0 
443.141998 15996.700195 
485.153992 24309.699219 
489.257996 3566.820068 
665.213989 167355.0 
END IONS

BEGIN IONS
NAME=Hesperidin CollisionEnergy:205060 M+Cl
PRECURSOR_MZ=645.159
INCHI="InChI=1S/C28H34O15/c1-10-21(32)23(34)25(36)27(40-10)39-9-19-22(33)24(35)26(37)28(43-19)41-12-6-14(30)20-15(31)8-17(42-18(20)7-12)11-3-4-16(38-2)13(29)5-11/h3-7,10,17,19,21-30,32-37H,8-9H2,1-2H3"
SMILES=COc1ccc(C2CC(=O)c3c(O)cc(OC4OC(COC5OC(C)C(O)C(O)C5O)C(O)C(O)C4O)cc3O2)cc1O
SPECTRUMID=CCMSLIB00010120689
53.182869 2641.0 
55.066051 3194.0 
65.002777 4938.0 
80.713203 2933.0 
83.013786 4961.0 
87.1978 3328.0 
97.743019 3181.0 
99.062561 2966.0 
107.013962 19793.0 
108.021797 5961.0 
124.434158 2859.0 
125.024353 25274.0 
134.037659 34533.0 
136.016769 13909.0 
136.203842 3136.0 
143.649765 2982.0 
149.060532 7083.0 
151.003769 65210.0 
158.03746 7057.0 
160.700729 2961.0 
164.011673 34658.0 
167.044434 2757.0 
173.059967 3725.0 
174.032516 21648.0 
187.039062 3820.0 
193.446533 2706.0 
196.001373 87653.0 
198.032059 3146.0 
199.040482 27464.0 
200.048416 12918.0 
201.019592 27459.0 
214.063751 5284.0 
215.034866 6093.0 
216.042618 3452.0 
217.0513 5922.0 
227.03392 5596.0 
241.051132 13737.0 
242.058731 38624.0 
257.082611 18427.0 
258.053802 6668.0 
268.03656 11738.0 
272.396759 3086.0 
283.058624 4045.0 
285.041107 6269.0 
286.048767 44540.0 
301.071808 510137.0 
304.916016 4183.0 
355.46521 3678.0 
363.624146 3573.0 
609.183044 187533.0 
END IONS

BEGIN IONS
NAME="N-(2,3-dimethylphenyl)-2-(9-ethyl-6-oxohydropurin-8-ylthio)acetamide CollisionEnergy:102040" M+Na
PRECURSOR_MZ=380.115
INCHI="InChI=1S/C17H19N5O2S/c1-4-22-15-14(16(24)19-9-18-15)21-17(22)25-8-13(23)20-12-7-5-6-10(2)11(12)3/h5-7,9H,4,8H2,1-3H3,(H,20,23)(H,18,19,24)"
SMILES=CCn1c(SCC(O)=Nc2cccc(C)c2C)nc2c(O)ncnc21
SPECTRUMID=CCMSLIB00010109772
63.709 3181.0 
82.386528 2869.0 
87.496231 2770.0 
118.635292 3011.0 
136.194794 3861.0 
179.750626 3570.0 
187.059021 29729.0 
188.745651 2913.0 
216.045593 6057.0 
218.023071 159704.0 
219.031464 3707.0 
227.053284 6555.0 
231.031097 12636.0 
244.361298 3026.0 
259.025818 87598.0 
314.431915 3423.0 
378.207977 5192.0 
380.114624 5265491.0 
382.035248 6410.0 
END IONS

BEGIN IONS
NAME=2-{1-[(4-chlorophenyl)carbonyl]-5-methoxy-2-methylindol-3-yl}-N-[2-(4-chloroph enoxy)ethyl]acetamide CollisionEnergy:205060 M+formate
PRECURSOR_MZ=555.109
INCHI="InChI=1S/C27H24Cl2N2O4/c1-17-23(16-26(32)30-13-14-35-21-9-7-20(29)8-10-21)24-15-22(34-2)11-12-25(24)31(17)27(33)18-3-5-19(28)6-4-18/h3-12,15H,13-14,16H2,1-2H3,(H,30,32)"
SMILES=COc1ccc2c(c1)c(CC(O)=NCCOc1ccc(Cl)cc1)c(C)n2C(=O)c1ccc(Cl)cc1
SPECTRUMID=CCMSLIB00010123172
58.591412 2967.0 
65.786797 2610.0 
66.776657 2832.0 
92.425636 3576.0 
98.113876 2337.0 
118.712639 2920.0 
126.995537 342216.0 
141.285614 3170.0 
154.990784 6065.0 
371.11853 22192.0 
END IONS

BEGIN IONS
NAME="(3,4-dimethoxyphenyl)-N-[2-(4-methylphenoxy)ethyl]carboxamide CollisionEnergy:205060" M+Cl
PRECURSOR_MZ=350.116
INCHI="InChI=1S/C18H21NO4/c1-13-4-7-15(8-5-13)23-11-10-19-18(20)14-6-9-16(21-2)17(12-14)22-3/h4-9,12H,10-11H2,1-3H3,(H,19,20)"
SMILES=COc1ccc(C(O)=NCCOc2ccc(C)cc2)cc1OC
SPECTRUMID=CCMSLIB00010118257
73.955208 3207.0 
82.398697 2347.0 
92.381447 2629.0 
93.034393 2805.0 
95.013931 4993.0 
98.008774 2405.0 
104.288094 2891.0 
112.68663 2470.0 
121.029602 24057.0 
122.024803 9861.0 
123.00885 8734.0 
123.614258 2362.0 
152.0354 9148.0 
153.00679 5185.0 
170.033463 26088.0 
196.025085 4081.0 
278.019409 3776.0 
293.042023 36218.0 
350.063263 85740.0 
END IONS

BEGIN IONS
NAME=2-[9-(4-methylphenyl)-6-oxohydropurin-8-ylthio]-N-(3-methylthiophenyl)acetamid e CollisionEnergy:205060 M-H
PRECURSOR_MZ=436.091
INCHI="InChI=1S/C21H19N5O2S2/c1-13-6-8-15(9-7-13)26-19-18(20(28)23-12-22-19)25-21(26)30-11-17(27)24-14-4-3-5-16(10-14)29-2/h3-10,12H,11H2,1-2H3,(H,24,27)(H,22,23,28)"
SMILES=CSc1cccc(N=C(O)CSc2nc3c(O)ncnc3n2-c2ccc(C)cc2)c1
SPECTRUMID=CCMSLIB00010124175
57.975159 101323.0 
61.931019 2613.0 
63.99818 2777.0 
65.014069 113894.0 
65.998108 61704.0 
66.138893 2849.0 
68.013657 3706.0 
73.953888 3250.0 
75.865898 2516.0 
84.136421 2532.0 
92.025383 67093.0 
93.009392 6596.0 
95.978279 3254.0 
96.986237 3870.0 
131.061111 6746.0 
135.030594 3452.0 
136.210037 3516.0 
155.061478 688868.0 
156.056717 12193.0 
157.968246 3012.0 
162.001892 55417.0 
182.072647 41469.0 
187.033371 35439.0 
193.973251 24878.0 
194.981644 134523.0 
197.059402 48679.0 
198.067474 18880.0 
208.614792 3000.0 
210.005203 148224.0 
214.044739 6779.0 
220.199677 3046.0 
223.062683 2756.0 
225.078125 523588.0 
228.023087 19871.0 
228.060211 3713.0 
230.039032 4872.0 
235.057419 3121.0 
236.069839 5880.0 
241.073837 16590.0 
255.004089 6130.0 
255.0345 189702.0 
256.042542 228091.0 
257.050171 194343.0 
269.05014 24542.0 
271.066101 48808.0 
297.044647 42279.0 
346.07663 23552.0 
347.08551 32394.0 
362.107483 62360.0 
436.090363 409907.0 
END IONS

BEGIN IONS
NAME=ABSCISIC ACID GLUCOSYL ESTER CollisionEnergy:102040 2M-H
PRECURSOR_MZ=851.371
INCHI="InChI=1S/C21H30O9/c1-11(5-6-21(28)12(2)8-13(23)9-20(21,3)4)7-15(24)30-19-18(27)17(26)16(25)14(10-22)29-19/h5-8,14,16-19,22,25-28H,9-10H2,1-4H3/b6-5+,11-7-/t14-,16-,17+,18-,19+,21-/m1/s1"
SMILES=CC1=CC(=O)CC([C@]1(/C=C/C(=C\C(=O)O[C@H]2[C@@H]([C@H]([C@@H]([C@H](O2)CO)O)O)O)/C)O)(C)C
SPECTRUMID=CCMSLIB00010102037
60.56868 5386.450195 
65.61985 4949.725098 
122.836296 5298.443359 
125.036301 4814.663086 
139.07608 8572.49707 
151.07637 25721.712891 
152.083649 12793.483398 
161.045685 6457.892578 
179.05423 6359.574219 
194.180573 5470.911621 
201.128494 9221.286133 
204.116058 7650.195801 
204.536133 6077.362305 
219.139023 19634.423828 
245.117981 15350.989258 
263.128845 169071.25 
287.127838 8219.717773 
305.139557 34910.332031 
318.324402 6817.186523 
425.122833 4103.807129 
425.181366 116599.6875 
689.316528 7266.506836 
745.506592 6447.137695 
END IONS

BEGIN IONS
NAME="(3,5-dimethoxyphenyl)-N-(2,3-dimethylquinoxalin-6-yl)carboxamide CollisionEnergy:102040" M+Cl
PRECURSOR_MZ=372.112
INCHI="InChI=1S/C19H19N3O3/c1-11-12(2)21-18-9-14(5-6-17(18)20-11)22-19(23)13-7-15(24-3)10-16(8-13)25-4/h5-10H,1-4H3,(H,22,23)"
SMILES=COc1cc(OC)cc(C(O)=Nc2ccc3nc(C)c(C)nc3c2)c1
SPECTRUMID=CCMSLIB00010103759
54.975052 2536.0 
59.967258 2089.0 
62.16185 2196.0 
82.426666 2560.0 
99.928543 2052.0 
103.919899 3877.0 
128.530014 2161.0 
145.058289 2422.0 
153.813538 2094.0 
167.621048 2153.0 
209.676697 3237.0 
235.925629 35584.0 
257.948212 2455.0 
281.008759 2610.0 
292.692169 2555.0 
336.134674 105834.0 
END IONS

BEGIN IONS
NAME=2-methoxyethyl 5-hydroxy-2-methyl-1-(2-{[2-nitro-4-(trifluoromethyl)phenyl]ami no}ethyl)benzo[g]indole-3-carboxylate CollisionEnergy:102040 M+H
PRECURSOR_MZ=532.169
INCHI="InChI=1S/C26H24F3N3O6/c1-15-23(25(34)38-12-11-37-2)19-14-22(33)17-5-3-4-6-18(17)24(19)31(15)10-9-30-20-8-7-16(26(27,28)29)13-21(20)32(35)36/h3-8,13-14,30,33H,9-12H2,1-2H3"
SMILES=COCCOC(=O)c1c(C)n(CCNc2ccc(C(F)(F)F)cc2[N+](=O)[O-])c2c1cc(O)c1ccccc12
SPECTRUMID=CCMSLIB00010112813
61.80294 2879.0 
81.58284 2706.0 
92.3815 3073.0 
92.387154 3053.0 
104.292358 3254.0 
115.216393 3057.0 
134.04689 10999.0 
136.219727 3283.0 
140.030334 3616.0 
148.036316 12276.0 
160.037109 4488.0 
165.069885 2975.0 
167.041367 12144.0 
175.047333 30102.0 
183.035995 20085.0 
186.039642 16780.0 
187.046585 51161.0 
196.076462 7078.0 
203.041855 48530.0 
208.387085 5067.0 
208.40625 8184.0 
210.090607 18493.0 
222.053986 4447.0 
223.062927 11902.0 
224.07019 493125.0 
233.05278 101667.0 
313.12561 4015.0 
369.072327 3964.0 
380.101013 3073.0 
384.093109 3512.0 
394.112396 12190.0 
456.115601 2221390.0 
477.536621 3432.0 
532.163391 51488.0 
536.233643 3804.0 
END IONS

BEGIN IONS
NAME=N-(3-chloro-4-fluorophenyl)-2-[4-(morpholin-4-ylcarbonyl)-2-oxohydroquinolyl]a cetamide CollisionEnergy:102040 M+H
PRECURSOR_MZ=444.112
INCHI="InChI=1S/C22H19ClFN3O4/c23-17-11-14(5-6-18(17)24)25-20(28)13-27-19-4-2-1-3-15(19)16(12-21(27)29)22(30)26-7-9-31-10-8-26/h1-6,11-12H,7-10,13H2,(H,25,28)"
SMILES=O=C(c1cc(=O)n(CC(O)=Nc2ccc(F)c(Cl)c2)c2ccccc12)N1CCOCC1
SPECTRUMID=CCMSLIB00010112550
70.029137 5044.0 
75.07 2631.0 
79.393143 2955.0 
88.830681 2603.0 
98.05938 2680.0 
100.075722 46295.0 
114.054893 41346.0 
130.065933 3599.0 
147.232925 3191.0 
156.043945 5935.0 
156.080124 3770.0 
158.061142 3950.0 
186.055008 45163.0 
227.11734 16600.0 
243.113647 3167.0 
259.10733 158591.0 
271.1073 756808.0 
299.102142 2301308.0 
312.133881 28099.0 
END IONS

BEGIN IONS
NAME=Untitled CollisionEnergy:205060 M+Na
PRECURSOR_MZ=335.089
INCHI="InChI=1S/C18H16O5/c1-20-12-6-4-11(5-7-12)14-10-23-15-9-17(22-3)16(21-2)8-13(15)18(14)19/h4-10H,1-3H3"
SMILES=COc1ccc(-c2coc3cc(OC)c(OC)cc3c2=O)cc1
SPECTRUMID=CCMSLIB00010116657
60.053131 2413.0 
60.466171 2174.0 
71.505089 2585.0 
79.266457 2613.0 
82.425652 3056.0 
88.974991 2336.0 
89.672791 2157.0 
114.086014 2600.0 
131.015228 2287.0 
136.252228 2438.0 
335.088928 1717790.0 
353.101562 4547.0 
END IONS

BEGIN IONS
NAME="8-((1E)-4-cyclohex-1-enyl-2-azabut-1-enyl)-2-[8-((1E)-4-cyclohex-1-enyl-2-azab ut-1-enyl)-1,6,7-trihydroxy-3-methyl-5-(methylethyl)(2-naphthyl)]-3-methyl-5-( methylethyl)naphthalene-1,6,7-triol CollisionEnergy:205060" M+2H]
PRECURSOR_MZ=367.214
INCHI="InChI=1S/C46H56N2O6/c1-25(2)35-31-21-27(5)37(43(51)39(31)33(41(49)45(35)53)23-47-19-17-29-13-9-7-10-14-29)38-28(6)22-32-36(26(3)4)46(54)42(50)34(40(32)44(38)52)24-48-20-18-30-15-11-8-12-16-30/h13,15,21-26,49-54H,7-12,14,16-20H2,1-6H3/b47-23+,48-24+"
SMILES=Cc1cc2c(C(C)C)c(O)c(O)c(C=NCCC3=CCCCC3)c2c(O)c1-c1c(C)cc2c(C(C)C)c(O)c(O)c(C=NCCC3=CCCCC3)c2c1O
SPECTRUMID=CCMSLIB00010125316
53.46254 2344.0 
55.054562 5809.0 
62.98214 2493.0 
65.038818 4615.0 
67.05455 214473.0 
68.057823 4626.0 
68.388023 2224.0 
69.069847 11047.0 
79.015892 2665.0 
79.054268 5285.0 
80.309471 2658.0 
81.069977 38364.0 
82.41848 2609.0 
83.08564 3851.0 
84.335953 2834.0 
95.084923 3417.0 
103.569809 2405.0 
107.08567 3841.0 
109.100998 45807.0 
109.108856 4169.0 
129.987137 4308.0 
185.44754 2968.0 
192.771301 2435.0 
214.061905 5384.0 
219.090027 3134.0 
227.070267 11788.0 
233.603622 3470.0 
234.582748 11397.0 
242.09346 15842.0 
249.095078 19982.0 
256.605865 36237.0 
271.119568 30611.0 
271.621277 2581.0 
304.654144 2736.0 
319.166229 97335.0 
319.666901 20433.0 
331.674866 3224.0 
337.352966 2604.0 
367.213257 470152.0 
367.371277 15787.0 
367.715179 112340.0 
393.248962 3077.0 
441.166992 2745.0 
453.134369 9877.0 
465.168915 6010.0 
468.153687 32253.0 
469.160309 3685.0 
470.178558 3293.0 
483.178772 118093.0 
483.258301 4246.0 
484.181274 20264.0 
500.208008 13120.0 
512.201477 4027.0 
542.058105 2766.0 
683.999756 2892.0 
END IONS

BEGIN IONS
NAME=N-Acetyl-L-alanine CollisionEnergy:205060 M-H
PRECURSOR_MZ=130.051
INCHI="InChI=1S/C5H9NO3/c1-3(5(8)9)6-4(2)7/h3H,1-2H3,(H,6,7)(H,8,9)/t3-/m0/s1"
SMILES=CC(O)=NC(C)C(=O)O
SPECTRUMID=CCMSLIB00010124755
52.32349 31025.0 
57.393139 28783.0 
59.316292 25779.0 
69.603867 28433.0 
70.218979 26843.0 
70.805138 25188.0 
73.949364 26853.0 
86.736229 26811.0 
88.040283 7904815.0 
111.248329 28600.0 
122.999336 27991.0 
130.050873 305060.0 
END IONS

BEGIN IONS
NAME="9-chloro-4-oxo-5-oxatricyclo[4.2.1.0<3,7>]nonane-2-carboxylic acid CollisionEnergy:205060" M-H
PRECURSOR_MZ=215.012
INCHI="InChI=1S/C9H9ClO4/c10-6-2-1-3-5(4(2)8(11)12)9(13)14-7(3)6/h2-7H,1H2,(H,11,12)"
SMILES=O=C(O)C1C2CC3C(OC(=O)C31)C2Cl
SPECTRUMID=CCMSLIB00010125798
53.746601 1913.0 
77.786278 2068.0 
79.04068 1950.0 
79.988541 1939.0 
92.374184 2392.0 
122.894402 3456.0 
136.203842 2464.0 
144.009308 4720.0 
157.863022 10219.0 
215.010468 48287.0 
215.090881 2690.0 
219.539963 2058.0 
END IONS

BEGIN IONS
NAME=3-phenyl-2-pyrrolylpropanoic acid CollisionEnergy:102040 M-H
PRECURSOR_MZ=214.087
INCHI="InChI=1S/C13H13NO2/c15-13(16)12(14-8-4-5-9-14)10-11-6-2-1-3-7-11/h1-9,12H,10H2,(H,15,16)"
SMILES=O=C(O)C(Cc1ccccc1)n1cccc1
SPECTRUMID=CCMSLIB00010110202
50.398121 2207.0 
65.996986 3896.0 
66.0345 2712462.0 
68.947403 2570.0 
76.532059 2447.0 
81.903831 2452.0 
82.438622 2459.0 
104.337799 2785.0 
106.508453 2385.0 
119.050667 4805.0 
139.270737 2460.0 
147.04509 432117.0 
149.530731 2684.0 
159.660339 2490.0 
198.994614 12980.0 
214.018936 14504.0 
214.087463 563664.0 
214.34877 2775.0 
233.113098 2619.0 
END IONS

BEGIN IONS
NAME=3-ethyl-4-hydroxy-1-benzylhydroquinolin-2-one CollisionEnergy:205060 M+H
PRECURSOR_MZ=280.133
INCHI="InChI=1S/C18H17NO2/c1-2-14-17(20)15-10-6-7-11-16(15)19(18(14)21)12-13-8-4-3-5-9-13/h3-11,20H,2,12H2,1H3"
SMILES=CCc1c(O)c2ccccc2n(Cc2ccccc2)c1=O
SPECTRUMID=CCMSLIB00010115512
55.325039 3174.0 
58.915531 3122.0 
65.038963 143441.0 
66.590401 3341.0 
66.735992 3363.0 
78.944901 2684.0 
81.481689 2699.0 
82.390343 4002.0 
91.054337 6229536.0 
92.370392 3428.0 
95.623627 3208.0 
99.187767 3175.0 
108.777634 3450.0 
128.141022 2613.0 
132.080521 5657.0 
146.05983 3662.0 
188.069763 22780.0 
202.085693 30482.0 
267.069458 3007.0 
280.132782 1756850.0 
END IONS

BEGIN IONS
NAME=Esculin CollisionEnergy:205060 M-H
PRECURSOR_MZ=339.072
INCHI="InChI=1S/C15H16O9/c16-5-10-12(19)13(20)14(21)15(24-10)23-9-3-6-1-2-11(18)22-8(6)4-7(9)17/h1-4,10,12-17,19-21H,5H2/t10-,12-,13+,14-,15-/m1/s1"
SMILES=C1=CC(=O)OC2=CC(=C(C=C21)O[C@H]3[C@@H]([C@H]([C@@H]([C@H](O3)CO)O)O)O)O
SPECTRUMID=CCMSLIB00010102056
77.039497 5091.527832 
81.034264 19280.558594 
86.373123 4286.634766 
89.039558 93534.539062 
93.034683 7198.508789 
95.049919 8685.407227 
104.026787 29555.310547 
105.034561 159914.71875 
107.014099 6975.350098 
121.029259 5787.549805 
133.029419 467508.34375 
148.016449 41222.265625 
149.024246 50129.519531 
176.011551 68679.523438 
177.019302 3813523.0 
178.022736 9803.151367 
230.249954 4997.887207 
333.557251 3907.625732 
339.07196 396458.09375 
END IONS

BEGIN IONS
NAME=mycophenolic acid CollisionEnergy:102040 2M-H
PRECURSOR_MZ=639.245
INCHI="InChI=1S/C17H20O6/c1-9(5-7-13(18)19)4-6-11-15(20)14-12(8-23-17(14)21)10(2)16(11)22-3/h4,20H,5-8H2,1-3H3,(H,18,19)/b9-4+"
SMILES=COc1c(C)c2c(c(O)c1CC=C(C)CCC(=O)O)C(=O)OC2
SPECTRUMID=CCMSLIB00010106507
59.49638 2959.0 
63.6726 2551.0 
66.620583 2835.0 
66.742561 2720.0 
71.433357 2953.0 
82.397942 4349.0 
104.285133 3361.0 
152.662231 2763.0 
157.322006 3162.0 
230.754044 2897.0 
264.511963 2764.0 
280.797607 2563.0 
297.463837 3064.0 
319.119446 50726.0 
END IONS

BEGIN IONS
NAME=6-Hydroxynicotinic acid CollisionEnergy:102040 M+H
PRECURSOR_MZ=140.034
INCHI="InChI=1S/C6H5NO3/c8-5-2-1-4(3-7-5)6(9)10/h1-3H,(H,7,8)(H,9,10)"
SMILES=O=C(O)c1ccc(O)nc1
SPECTRUMID=CCMSLIB00010113184
70.942627 52666.0 
78.03437 47378.0 
86.635452 43690.0 
92.363861 34981.0 
96.044937 68384.0 
111.968681 47474.0 
112.039261 141334.0 
116.972214 50771.0 
131.281891 39338.0 
140.034271 28087422.0 
211.485352 33085.0 
236.419495 34905.0 
260.238647 35372.0 
END IONS

BEGIN IONS
NAME="5-[(1-methylindol-3-yl)methylene]-1-(3-methylphenyl)-1,3-dihydropyrimidine-2,4 ,6-trione CollisionEnergy:102040" M-H
PRECURSOR_MZ=358.12
INCHI="InChI=1S/C21H17N3O3/c1-13-6-5-7-15(10-13)24-20(26)17(19(25)22-21(24)27)11-14-12-23(2)18-9-4-3-8-16(14)18/h3-12H,1-2H3,(H,22,25,27)/b17-11+"
SMILES=Cc1cccc(N2C(=O)N=C(O)C(=Cc3cn(C)c4ccccc34)C2=O)c1
SPECTRUMID=CCMSLIB00010108451
68.96701 2039.0 
73.623741 2153.0 
73.696678 2271.0 
73.96447 2002.0 
92.389893 2444.0 
99.164253 2471.0 
100.627434 2270.0 
108.821068 2081.0 
176.529785 2475.0 
203.374161 2528.0 
220.668884 2937.0 
261.404297 2819.0 
317.986481 2644.0 
337.991516 4058.0 
358.000366 2592.0 
358.119904 22483.0 
END IONS

BEGIN IONS
NAME=Palatinose CollisionEnergy:102040 M+Cl
PRECURSOR_MZ=377.086
INCHI="InChI=1S/C12H22O11/c13-1-4-6(15)8(17)9(18)11(22-4)21-2-5-7(16)10(19)12(20,3-14)23-5/h4-11,13-20H,1-3H2/t4-,5-,6-,7-,8+,9-,10+,11+,12?/m1/s1"
SMILES=OC[C@H]1O[C@H](OC[C@H]2OC(O)(CO)[C@@H](O)[C@@H]2O)[C@H](O)[C@@H](O)[C@@H]1O
SPECTRUMID=CCMSLIB00010102625
52.300499 7339.77002 
58.0868 6206.410156 
59.013401 60448.398438 
66.643501 6648.859863 
71.013496 57157.898438 
89.024399 187478.0 
101.024002 137691.0 
104.318001 7957.850098 
113.025002 43576.398438 
118.693001 9400.150391 
119.035004 88786.796875 
131.035995 8706.019531 
143.035004 28107.0 
149.046005 7879.370117 
161.046005 60608.5 
170.940994 7569.350098 
179.056 524883.0 
193.460999 8110.27002 
193.524002 6246.370117 
211.522995 15331.700195 
221.065994 93403.101562 
224.804001 8177.470215 
309.786987 6658.399902 
323.097992 6998.509766 
341.109009 52280.398438 
377.085999 167473.0 
END IONS

BEGIN IONS
NAME="2-[4-(N,N-diethylcarbamoyl)-2-oxohydroquinolyl]-N-(4-bromophenyl)acetamide CollisionEnergy:205060" M-H
PRECURSOR_MZ=454.077
INCHI="InChI=1S/C22H22BrN3O3/c1-3-25(4-2)22(29)18-13-21(28)26(19-8-6-5-7-17(18)19)14-20(27)24-16-11-9-15(23)10-12-16/h5-13H,3-4,14H2,1-2H3,(H,24,27)"
SMILES=CCN(CC)C(=O)c1cc(=O)n(CC(=O)Nc2ccc(Br)cc2)c2ccccc12
SPECTRUMID=CCMSLIB00010124915
73.960968 4237.0 
78.918663 278128.0 
80.916458 4948.0 
87.248993 3127.0 
102.412643 3103.0 
116.050499 15820.0 
128.050659 672255.0 
130.066223 24041.0 
131.038406 22361.0 
131.048126 3395.0 
136.224808 3905.0 
142.066345 52826.0 
144.045563 115259.0 
144.081268 3942.0 
146.061325 61131.0 
155.037643 14823.0 
156.045746 132190.0 
156.081696 5049.0 
157.053497 287845.0 
158.024887 14188.0 
158.061356 16691.0 
158.098221 3073.0 
159.032608 7288.0 
169.961243 144786.0 
170.061752 3507.0 
172.040558 166014.0 
172.076263 5541.0 
174.056366 68122.0 
176.035309 17637.0 
183.032562 6868.0 
184.040527 774539.0 
185.048721 21711.0 
186.092102 5341.0 
196.064438 19167.0 
197.072037 4114.0 
199.088425 17013.0 
201.103699 11309.0 
202.04953 4741.0 
212.035553 6335.0 
213.140167 4115.0 
214.124283 20734.0 
215.082687 18515.0 
215.119034 54088.0 
225.103714 40933.0 
227.119339 6416.0 
229.134933 80043.0 
231.114532 7396.0 
241.097961 12132.0 
243.113953 662676.0 
254.070496 3411.0 
255.07933 5217.0 
255.110123 3994.0 
257.129944 154905.0 
259.109161 85970.0 
283.108917 217426.0 
355.013367 3832.0 
454.077698 1775381.0 
END IONS

