BEGIN IONS
NAME=p-Nitrophenyl-alpha-galactopyranoside CollisionEnergy:205060 M+Cl
PRECURSOR_MZ=336.049
INCHI="InChI=1S/C12H15NO8/c14-5-8-9(15)10(16)11(17)12(21-8)20-7-3-1-6(2-4-7)13(18)19/h1-4,8-12,14-17H,5H2"
SMILES=O=[N+]([O-])c1ccc(OC2OC(CO)C(O)C(O)C2O)cc1
SPECTRUMID=CCMSLIB00010125117
66.257492 2117.0 
77.804764 3021.0 
82.397789 2370.0 
97.18354 2130.0 
97.222687 2754.0 
108.021889 9475.0 
112.31842 2415.0 
124.025162 2332.0 
136.210831 2427.0 
138.019852 310611.0 
157.969849 2461.0 
178.138657 2294.0 
181.898193 4539.0 
226.800095 2395.0 
238.899277 2303.0 
243.880264 40162.0 
250.069321 2448.0 
261.890717 77541.0 
261.919922 4149.0 
279.902374 2634.0 
289.887299 10100.0 
295.946472 2596.0 
307.89743 9856.0 
322.099213 2407.0 
336.049164 3246.0 
396.52124 2602.0 
542.391479 2259.0 
END IONS

BEGIN IONS
NAME=5-Methoxy-5-oxopentanoic acid CollisionEnergy:102040 M+H-H2O
PRECURSOR_MZ=129.055
INCHI="InChI=1S/C6H10O4/c1-10-6(9)4-2-3-5(7)8/h2-4H2,1H3,(H,7,8)"
SMILES=COC(=O)CCCC(=O)O
SPECTRUMID=CCMSLIB00010126860
53.0392 2741.639893 
55.018501 33205.0 
55.054901 67573.601562 
57.034199 22684.900391 
61.029099 13381.0 
63.8027 2454.77002 
65.039299 4960.680176 
67.054703 3561.25 
69.0298 3929.639893 
69.034103 103367.0 
69.461899 2570.98999 
71.0495 23649.699219 
73.0289 2756.850098 
81.033997 2860.080078 
82.417 3226.399902 
83.049599 170008.0 
85.0289 121128.0 
99.044403 12830.599609 
104.309998 2522.070068 
111.043999 49002.699219 
129.054993 20312.099609 
129.102997 5128.259766 
END IONS

BEGIN IONS
NAME=Pterin CollisionEnergy:102040 2M+H
PRECURSOR_MZ=327.106
INCHI="InChI=1S/C6H5N5O/c7-6-10-4-3(5(12)11-6)8-1-2-9-4/h1-2H,(H3,7,9,10,11,12)"
SMILES=N=c1nc(O)c2nccnc2[nH]1
SPECTRUMID=CCMSLIB00010103268
73.978203 3951.870117 
75.309898 3919.75 
75.977402 4289.799805 
78.4179 3499.090088 
89.060097 4300.669922 
91.9217 3727.449951 
92.405296 4682.299805 
92.412102 3585.830078 
98.984398 24982.5 
104.319 5125.390137 
164.056 160470.0 
172.459 3783.600098 
174.992004 6747.25 
251.001007 4793.330078 
327.076996 19276.400391 
327.118988 6013.870117 
327.380005 18263.599609 
328.136993 4119.419922 
END IONS

BEGIN IONS
NAME=N-(2-fluorophenyl)-2-[2-oxo-4-(N-propylcarbamoyl)hydroquinolyl]acetamide CollisionEnergy:102040 M+H
PRECURSOR_MZ=382.156
INCHI="InChI=1S/C21H20FN3O3/c1-2-11-23-21(28)15-12-20(27)25(18-10-6-3-7-14(15)18)13-19(26)24-17-9-5-4-8-16(17)22/h3-10,12H,2,11,13H2,1H3,(H,23,28)(H,24,26)"
SMILES=CCCN=C(O)c1cc(=O)n(CC(O)=Nc2ccccc2F)c2ccccc12
SPECTRUMID=CCMSLIB00010111657
52.748501 2665.0 
71.43631 2301.0 
76.14827 2140.0 
77.050362 2424.0 
87.178726 2387.0 
92.371201 3228.0 
119.53801 2361.0 
125.705994 2438.0 
130.065033 34283.0 
136.596344 2381.0 
144.045029 3042.0 
146.059952 39255.0 
158.059921 64162.0 
186.05426 3944.0 
201.06575 11066.0 
210.950455 4123.0 
215.118347 5096.0 
226.143051 2909.0 
231.112839 71042.0 
243.112534 318018.0 
271.107269 983431.0 
284.139374 5996.0 
350.194824 24402.0 
382.22052 97322.0 
END IONS

BEGIN IONS
NAME=UDP-GlcNAc CollisionEnergy:102040 M+Na
PRECURSOR_MZ=630.071
INCHI="InChI=1S/C17H27N3O17P2/c1-6(22)18-10-13(26)11(24)7(4-21)35-16(10)36-39(31,32)37-38(29,30)33-5-8-12(25)14(27)15(34-8)20-3-2-9(23)19-17(20)28/h2-3,7-8,10-16,21,24-27H,4-5H2,1H3,(H,18,22)(H,29,30)(H,31,32)(H,19,23,28)/t7-,8-,10-,11-,12-,13-,14-,15-,16-/m1/s1"
SMILES=CC(O)=N[C@H]1[C@@H](OP(=O)(O)OP(=O)(O)OC[C@H]2O[C@@H](n3ccc(O)nc3=O)[C@H](O)[C@@H]2O)O[C@H](CO)[C@@H](O)[C@@H]1O
SPECTRUMID=CCMSLIB00010126808
52.9235 2887.419922 
53.574001 2888.959961 
58.273102 2599.969971 
60.4366 2775.860107 
62.632401 2764.469971 
66.710602 3340.47998 
66.759102 3665.139893 
73.969498 3890.159912 
82.639999 2699.389893 
89.764801 3797.23999 
92.398003 3686.429932 
93.854202 3024.179932 
94.562202 2756.780029 
97.028503 14887.200195 
100.110001 2955.159912 
119.010002 6980.799805 
120.966003 9697.0 
135.016006 5186.799805 
166.048996 4348.209961 
173.615005 2926.75 
183.666 3493.860107 
184.061005 5891.52002 
200.932007 91174.5 
216.987 15624.0 
227.065994 7222.850098 
234.996994 5699.919922 
249.048004 40809.300781 
296.951996 23174.300781 
314.963013 16318.0 
329.015015 31911.599609 
347.023987 46197.398438 
349.992004 3547.290039 
383.981995 3675.870117 
426.98999 641636.0 
599.031006 2916.97998 
629.948975 11047.0 
630.06897 51972.398438 
END IONS

BEGIN IONS
NAME="N-(2,6-dimethylphenyl)-2-{2-oxo-4-[N-benzylcarbamoyl]hydroquinolyl}acetamide CollisionEnergy:205060" M+Na
PRECURSOR_MZ=462.179
INCHI="InChI=1S/C27H25N3O3/c1-18-9-8-10-19(2)26(18)29-24(31)17-30-23-14-7-6-13-21(23)22(15-25(30)32)27(33)28-16-20-11-4-3-5-12-20/h3-15H,16-17H2,1-2H3,(H,28,33)(H,29,31)"
SMILES=Cc1cccc(C)c1N=C(O)Cn1c(=O)cc(C(O)=NCc2ccccc2)c2ccccc21
SPECTRUMID=CCMSLIB00010121488
52.882309 3279.0 
58.336559 2887.0 
66.73513 3269.0 
70.989067 2880.0 
82.388519 3655.0 
91.054337 88766.0 
91.060837 3712.0 
92.057579 3351.0 
92.366402 4236.0 
93.256332 2937.0 
104.272629 3590.0 
106.037376 2937.0 
111.054497 2878.0 
130.065308 5094.0 
157.951706 3627.0 
169.010376 3294.0 
176.324219 3414.0 
218.096954 3794.0 
245.591919 3175.0 
319.106812 6193.0 
341.092102 6989.0 
444.167053 7960.0 
462.178101 7516278.0 
480.188324 6565.0 
END IONS

BEGIN IONS
NAME=N-Acetyl-5-hydroxytryptamine CollisionEnergy:102040 2M+H
PRECURSOR_MZ=437.218
INCHI="InChI=1S/C12H14N2O2/c1-8(15)13-5-4-9-7-14-12-3-2-10(16)6-11(9)12/h2-3,6-7,14,16H,4-5H2,1H3,(H,13,15)"
SMILES=CC(O)=NCCc1c[nH]c2ccc(O)cc12
SPECTRUMID=CCMSLIB00010106987
56.643559 3425.0 
86.060463 6160.0 
104.280403 3208.0 
132.081024 5832.0 
160.075836 1453446.0 
177.102234 17032.0 
190.08696 3076.0 
201.102112 44319.0 
202.06926 3078.0 
202.086426 87861.0 
219.112976 1965171.0 
343.411926 2769.0 
437.214813 4649.0 
END IONS

BEGIN IONS
NAME="N-[3,5-bis(trifluoromethyl)phenyl]-2-(2-1,2,3,4-tetrahydroisoquinolyl)acetamid e CollisionEnergy:102040" M+Cl
PRECURSOR_MZ=437.086
INCHI="InChI=1S/C19H16F6N2O/c20-18(21,22)14-7-15(19(23,24)25)9-16(8-14)26-17(28)11-27-6-5-12-3-1-2-4-13(12)10-27/h1-4,7-9H,5-6,10-11H2,(H,26,28)"
SMILES=OC(CN1CCc2ccccc2C1)=Nc1cc(C(F)(F)F)cc(C(F)(F)F)c1
SPECTRUMID=CCMSLIB00010103695
59.119518 2944.0 
69.323547 2988.0 
74.645332 2847.0 
89.955231 3044.0 
92.388809 3156.0 
93.212624 2655.0 
112.601753 2696.0 
130.065552 2735.0 
135.899521 2749.0 
146.097763 16597.0 
164.926804 6614.0 
165.226288 2666.0 
174.9561 3590.0 
210.204376 5091.0 
228.02562 469982.0 
232.915054 5440.0 
266.986328 4569.0 
268.019287 26650.0 
297.047028 12199.0 
332.980713 4338.0 
401.10965 2967785.0 
436.986664 5477.0 
437.087006 118210.0 
END IONS

BEGIN IONS
NAME=5-Hydroxybenzo[a]phenazine CollisionEnergy:205060 M+H
PRECURSOR_MZ=247.087
INCHI="InChI=1S/C16H10N2O/c19-15-9-14-16(11-6-2-1-5-10(11)15)18-13-8-4-3-7-12(13)17-14/h1-9,19H"
SMILES=C1=CC=C2C(=C1)C(=CC3=NC4=CC=CC=C4N=C23)O
SPECTRUMID=CCMSLIB00010102378
53.364975 62349.777344 
71.376961 63226.734375 
72.889137 74293.382812 
82.262985 62607.464844 
91.054222 242310.1875 
111.165901 72315.65625 
116.049706 535715.625 
118.718834 85318.984375 
130.029022 107607.632812 
130.572433 77501.789062 
158.053391 77595.40625 
185.498001 78933.210938 
215.593018 65174.058594 
218.083755 1809668.5 
219.091537 7828530.0 
229.075684 478460.90625 
246.077515 99641.125 
247.085861 37652912.0 
END IONS

BEGIN IONS
NAME=2-(2-furylcarbonylamino)-3-indol-3-ylpropanoic acid CollisionEnergy:102040 M-H
PRECURSOR_MZ=297.088
INCHI="InChI=1S/C16H14N2O4/c19-15(14-6-3-7-22-14)18-13(16(20)21)8-10-9-17-12-5-2-1-4-11(10)12/h1-7,9,13,17H,8H2,(H,18,19)(H,20,21)"
SMILES=O=C(NC(Cc1c[nH]c2ccccc12)C(=O)O)c1ccco1
SPECTRUMID=CCMSLIB00010108054
63.708672 2378.0 
67.018532 35041.0 
67.476479 2138.0 
68.995399 5053.0 
69.034233 9787.0 
82.408989 2338.0 
91.680794 2315.0 
92.92765 3188.0 
100.003609 2687.0 
110.024803 89784.0 
112.985687 75919.0 
116.050484 34715.0 
118.664879 4531.0 
119.979301 2581.0 
123.455116 2281.0 
124.040604 58974.0 
142.066605 3009.0 
149.608963 2194.0 
150.019516 18503.0 
159.092926 2473.0 
166.923737 2703.0 
168.030441 351467.0 
183.056625 2613.0 
185.07222 14729.0 
186.0569 4218.0 
253.098587 95946.0 
259.718231 2530.0 
297.088226 1061946.0 
319.013977 3151.0 
END IONS

BEGIN IONS
NAME="2-[(4-methoxy-3,5-dimethyl-2-pyridyl)methylthio]quinazolin-4-ol CollisionEnergy:102040" M+Na
PRECURSOR_MZ=350.093
INCHI="InChI=1S/C17H17N3O2S/c1-10-8-18-14(11(2)15(10)22-3)9-23-17-19-13-7-5-4-6-12(13)16(21)20-17/h4-8H,9H2,1-3H3,(H,19,20,21)"
SMILES=COc1c(C)cnc(CSc2nc(O)c3ccccc3n2)c1C
SPECTRUMID=CCMSLIB00010106011
60.519772 2244.0 
60.529911 2980.0 
68.794746 2624.0 
80.149513 2245.0 
81.216461 2799.0 
81.503761 2249.0 
90.102409 2612.0 
124.592163 2595.0 
132.873688 2912.0 
162.311066 2409.0 
263.543243 2488.0 
289.546295 2631.0 
349.367249 2526.0 
350.093109 2213616.0 
END IONS

BEGIN IONS
NAME=kinetin riboside CollisionEnergy:102040 2M-H
PRECURSOR_MZ=693.239
INCHI="InChI=1S/C15H17N5O5/c21-5-9-11(22)12(23)15(25-9)20-7-19-10-13(17-6-18-14(10)20)16-4-8-2-1-3-24-8/h1-3,6-7,9,11-12,15,21-23H,4-5H2,(H,16,17,18)/t9-,11-,12-,15-/m1/s1"
SMILES=C1=COC(=C1)CNC2=C3C(=NC=N2)N(C=N3)[C@H]4[C@@H]([C@@H]([C@H](O4)CO)O)O
SPECTRUMID=CCMSLIB00010102017
50.519218 4757.120605 
133.039352 50769.40625 
134.04744 63224.832031 
136.292496 5240.995605 
170.047546 8971.551758 
186.077591 5723.306641 
196.063461 40114.382812 
214.073822 1905902.625 
269.70462 5051.351562 
313.192993 4991.392578 
346.115875 691061.5625 
360.488525 5416.575195 
479.372559 4877.019043 
589.764038 5115.291992 
646.858154 5143.621094 
693.236145 16018.321289 
END IONS

BEGIN IONS
NAME=CHLOROGENIC ACID CollisionEnergy:102040 M+H
PRECURSOR_MZ=355.102
INCHI="InChI=1S/C16H18O9/c17-9-3-1-8(5-10(9)18)2-4-13(20)25-12-7-16(24,15(22)23)6-11(19)14(12)21/h1-5,11-12,14,17-19,21,24H,6-7H2,(H,22,23)/b4-2+/t11-,12-,14-,16+/m1/s1"
SMILES=O=C(C=Cc1ccc(O)c(O)c1)OC1CC(O)(C(=O)O)CC(O)C1O
SPECTRUMID=CCMSLIB00010113651
77.725212 2500.0 
89.038361 4490.0 
92.386978 3593.0 
99.822006 2317.0 
117.033478 12237.0 
135.043808 39963.0 
145.028076 63873.0 
155.244522 2335.0 
163.038818 1707095.0 
165.183472 2312.0 
181.049942 4438.0 
337.089386 5303.0 
355.097565 4893.0 
END IONS

BEGIN IONS
NAME="3,5-Diiodo-L-thyronine CollisionEnergy:205060" M+Cl
PRECURSOR_MZ=559.863
INCHI="InChI=1S/C15H13I2NO4/c16-11-5-8(7-13(18)15(20)21)6-12(17)14(11)22-10-3-1-9(19)2-4-10/h1-6,13,19H,7,18H2,(H,20,21)/t13-/m0/s1"
SMILES=NC(Cc1cc(I)c(Oc2ccc(O)cc2)c(I)c1)C(=O)O
SPECTRUMID=CCMSLIB00010119855
52.913471 3124.0 
54.291698 3075.0 
57.553139 3665.0 
59.54697 3590.0 
66.171204 2877.0 
72.008888 32780.0 
73.936111 3880.0 
76.647713 2974.0 
81.853363 3127.0 
82.052567 2990.0 
85.104736 2919.0 
126.905067 767355.0 
152.502274 3268.0 
206.283615 3069.0 
207.368912 15356.0 
303.446564 4715.0 
412.234009 3515.0 
506.860382 55867.0 
523.886475 230950.0 
527.08374 3642.0 
END IONS

BEGIN IONS
NAME=3-acetyl-2-methylquinoline-4-carboxylic acid CollisionEnergy:102040 M+H
PRECURSOR_MZ=230.081
INCHI="InChI=1S/C13H11NO3/c1-7-11(8(2)15)12(13(16)17)9-5-3-4-6-10(9)14-7/h3-6H,1-2H3,(H,16,17)"
SMILES=CC(=O)c1c(C)nc2ccccc2c1C(=O)O
SPECTRUMID=CCMSLIB00010103596
58.788841 3535.0 
71.938721 3196.0 
93.46933 3931.0 
104.049492 4066.0 
104.297897 3485.0 
110.365463 3784.0 
118.063766 3551.0 
119.073112 4542.0 
126.722603 2994.0 
142.064468 7223.0 
143.073837 21255.0 
144.080612 78016.0 
144.092514 6188.0 
147.067184 4317.0 
158.059311 6225.0 
158.095932 42638.0 
168.080429 16477.0 
175.062042 17530.0 
177.704987 4122.0 
184.075211 103139.0 
186.091003 1771783.0 
188.070068 33756.0 
202.085678 83486.0 
211.971222 7953.0 
212.070068 251811.0 
229.157822 4046.0 
229.182098 16619.0 
230.080704 13694080.0 
230.985489 16736.0 
END IONS

BEGIN IONS
NAME="4,7-diamino-5-(3-fluorophenyl)-2-prop-2-ynylthio-5H-pyrano[2,3-d]pyrimidine-6- carbonitrile CollisionEnergy:102040" M+Na
PRECURSOR_MZ=376.064
INCHI="InChI=1S/C17H12FN5OS/c1-2-6-25-17-22-14(20)13-12(9-4-3-5-10(18)7-9)11(8-19)15(21)24-16(13)23-17/h1,3-5,7,12H,6,21H2,(H2,20,22,23)"
SMILES=C#CCSc1nc(N)c2c(n1)OC(N)=C(C#N)C2c1cccc(F)c1
SPECTRUMID=CCMSLIB00010104656
54.0075 2200.0 
86.536232 2381.0 
104.304192 4316.0 
139.720901 2655.0 
187.097916 3412.0 
208.378769 2453.0 
252.032532 4670.0 
331.041595 5834.0 
333.058899 16498.0 
358.052979 148343.0 
376.063873 1728870.0 
END IONS

BEGIN IONS
NAME="2-amino-4-(7-methoxy(2H-benzo[3,4-d]1,3-dioxolan-5-yl))-5-oxo-4H-6,7,8-trihydr ochromene-3-carbonitrile CollisionEnergy:102040" M+H
PRECURSOR_MZ=341.113
INCHI="InChI=1S/C18H16N2O5/c1-22-13-5-9(6-14-17(13)24-8-23-14)15-10(7-19)18(20)25-12-4-2-3-11(21)16(12)15/h5-6,15H,2-4,8,20H2,1H3"
SMILES=COc1cc(C2C(C#N)=C(N)OC3=C2C(=O)CCC3)cc2c1OCO2
SPECTRUMID=CCMSLIB00010114042
55.018639 3586.0 
55.352951 2428.0 
82.404259 3038.0 
135.595596 2718.0 
144.043823 3894.0 
147.055038 105644.0 
151.038269 4379.0 
153.054169 6302.0 
161.070557 4170.0 
189.065536 2952303.0 
229.059753 11113.0 
256.096619 4183.0 
264.062531 4172.0 
275.090393 17313.0 
284.077576 11092.0 
285.082458 38945.0 
286.069 2956.0 
301.093781 37319.0 
309.085327 6400.0 
310.089722 95399.0 
311.099823 4040.0 
313.075012 23183.0 
314.101471 178080.0 
323.10083 19276.0 
324.08551 17284.0 
326.085022 22132.0 
340.099976 15853.0 
341.112274 878744.0 
END IONS

BEGIN IONS
NAME=Phlorizin CollisionEnergy:205060 M-H
PRECURSOR_MZ=435.13
INCHI="InChI=1S/C21H24O10/c22-9-16-18(27)19(28)20(29)21(31-16)30-15-8-12(24)7-14(26)17(15)13(25)6-3-10-1-4-11(23)5-2-10/h1-2,4-5,7-8,16,18-24,26-29H,3,6,9H2/t16-,18-,19+,20-,21-/m1/s1"
SMILES=O=C(CCc1ccc(O)cc1)c1c(O)cc(O)cc1OC1OC(CO)C(O)C(O)C1O
SPECTRUMID=CCMSLIB00010121639
55.77293 2359.0 
57.0341 17486.0 
59.013199 2621.0 
59.76749 2329.0 
59.97747 2297.0 
65.002876 5638.0 
81.034286 124143.0 
82.408508 3802.0 
83.013557 48021.0 
92.388359 3088.0 
93.034363 85268.0 
95.013451 2853.0 
95.04998 3790.0 
99.045547 2905.0 
107.013634 11835.0 
119.050217 122710.0 
122.25988 2554.0 
122.827789 2462.0 
123.045151 392556.0 
124.585678 3163.0 
125.024422 146063.0 
135.045197 18502.0 
146.961319 5850.0 
149.024582 19448.0 
151.003647 42454.0 
153.579163 2752.0 
157.992554 3169.0 
166.026917 3458.0 
167.034973 633382.0 
174.955429 3735.0 
179.034729 79407.0 
187.077133 6267.0 
189.055389 22250.0 
211.075409 5008.0 
255.065414 11222.0 
273.076752 821717.0 
304.914795 3179.0 
315.086151 3115.0 
350.207733 3423.0 
435.130493 14885.0 
END IONS

BEGIN IONS
NAME=adipic acid CollisionEnergy:102040 M-H
PRECURSOR_MZ=145.051
INCHI="InChI=1S/C6H10O4/c7-5(8)3-1-2-4-6(9)10/h1-4H2,(H,7,8)(H,9,10)"
SMILES=O=C(O)CCCCC(=O)O
SPECTRUMID=CCMSLIB00010112700
55.482632 54349.0 
73.959152 68240.0 
81.034378 608994.0 
83.050133 5994379.0 
83.745743 50816.0 
86.917877 56111.0 
89.453613 55813.0 
92.386208 67045.0 
101.06086 6215263.0 
115.56588 60601.0 
115.921028 55774.0 
118.6661 73928.0 
127.040459 473540.0 
145.050659 2686300.0 
END IONS

BEGIN IONS
NAME=camalexin CollisionEnergy:205060 M-H
PRECURSOR_MZ=199.034
INCHI="InChI=1S/C11H8N2S/c1-2-4-10-8(3-1)9(7-13-10)11-12-5-6-14-11/h1-7,13H"
SMILES=C1=CC=C2C(=C1)C(=CN2)C3=NC=CS3
SPECTRUMID=CCMSLIB00010102323
61.987816 8333.424805 
62.58009 3653.73291 
66.070976 3520.566895 
68.048073 3116.117432 
78.51899 3279.789062 
81.241737 3391.042969 
82.456398 3738.368652 
89.241753 4007.53418 
92.440758 4566.127441 
92.489563 3364.222412 
104.362183 5266.241699 
131.518158 3202.264404 
136.303909 4257.503906 
141.045425 1280067.375 
142.048599 9334.005859 
167.060516 5228.228516 
199.033035 771453.5 
200.036133 6096.768066 
END IONS

BEGIN IONS
NAME=2'-deoxyadenosine CollisionEnergy:205060 M+Na
PRECURSOR_MZ=274.091
INCHI="InChI=1S/C10H13N5O3/c11-9-8-10(13-3-12-9)15(4-14-8)7-1-5(17)6(2-16)18-7/h3-7,16-17H,1-2H2,(H2,11,12,13)/t5-,6+,7+/m0/s1"
SMILES=Nc1ncnc2c1ncn2C1CC(O)C(CO)O1
SPECTRUMID=CCMSLIB00010124741
73.051941 3519.0 
98.12867 3624.0 
106.038406 3393.0 
122.915558 3148.0 
139.036774 3500.0 
139.260788 3037.0 
158.044128 36549.0 
166.50415 3238.0 
191.637222 4661.0 
215.494385 3062.0 
251.756226 3312.0 
274.090881 793812.0 
END IONS

BEGIN IONS
NAME=isocitric acid CollisionEnergy:102040 M-H
PRECURSOR_MZ=191.02
INCHI="InChI=1S/C6H8O7/c7-3(8)1-2(5(10)11)4(9)6(12)13/h2,4,9H,1H2,(H,7,8)(H,10,11)(H,12,13)"
SMILES=O=C(O)CC(C(=O)O)C(O)C(=O)O
SPECTRUMID=CCMSLIB00010126280
53.228699 42444.300781 
57.034 58636.699219 
61.320202 48177.699219 
63.699501 40245.398438 
67.018799 45454.800781 
72.988503 74704.0 
72.992897 1379110.0 
73.029198 1002510.0 
77.267502 33939.398438 
82.426903 48625.800781 
83.013901 47941.0 
85.029404 3286100.0 
87.008698 69012.296875 
92.410103 49261.199219 
94.803398 49988.101562 
96.041 38785.800781 
99.008698 226633.0 
101.024002 182574.0 
103.040001 162059.0 
111.009003 10122700.0 
117.018997 2401560.0 
118.698997 43805.199219 
129.018997 1343830.0 
154.998993 2274130.0 
173.009003 3299060.0 
190.195999 53413.101562 
191.020004 1997320.0 
END IONS

BEGIN IONS
NAME=D-.alpha.-Tocopherol Succinate CollisionEnergy:205060 M+Na
PRECURSOR_MZ=553.386
INCHI="InChI=1S/C33H54O5/c1-22(2)12-9-13-23(3)14-10-15-24(4)16-11-20-33(8)21-19-28-27(7)31(25(5)26(6)32(28)38-33)37-30(36)18-17-29(34)35/h22-24H,9-21H2,1-8H3,(H,34,35)/t23-,24-,33-/m1/s1"
SMILES=Cc1c(C)c2c(c(C)c1OC(=O)CCC(=O)O)CCC(C)(CCCC(C)CCCC(C)CCCC(C)C)O2
SPECTRUMID=CCMSLIB00010125273
70.488693 2921.0 
92.357529 3959.0 
92.519211 3103.0 
117.810089 3283.0 
123.004936 5677.0 
160.189072 2891.0 
209.621368 4177.0 
263.196075 3981.0 
313.180206 139793.0 
437.390747 3198.0 
453.36969 41794.0 
553.386353 962432.0 
END IONS

BEGIN IONS
NAME=5-oxopentadecanoic acid CollisionEnergy:102040 M+H
PRECURSOR_MZ=257.211
INCHI="InChI=1S/C15H28O3/c1-2-3-4-5-6-7-8-9-11-14(16)12-10-13-15(17)18/h2-13H2,1H3,(H,17,18)"
SMILES=CCCCCCCCCCC(=O)CCCC(=O)O
SPECTRUMID=CCMSLIB00010113358
50.21957 2463.0 
55.054909 14965.0 
57.070339 37527.0 
57.66716 2350.0 
66.743843 3339.0 
67.054626 41122.0 
69.070251 101995.0 
70.582451 2148.0 
71.049477 119271.0 
71.085922 33261.0 
79.054916 2538.0 
79.674423 2411.0 
81.070129 103645.0 
83.049583 4054.0 
83.08577 83796.0 
83.091583 2910.0 
85.06514 17142.0 
85.10141 31355.0 
91.054329 5177.0 
93.07016 5901.0 
95.085678 114152.0 
97.0653 10774.0 
97.101242 74630.0 
99.043694 2690.0 
99.080559 10233.0 
104.28804 3283.0 
105.069771 10595.0 
107.085297 18248.0 
109.101059 90442.0 
111.080177 3761.0 
111.116707 55006.0 
114.15554 2459.0 
115.07547 5601.0 
117.070587 3172.0 
119.08519 25922.0 
121.101501 35996.0 
123.08036 11667.0 
123.116707 54122.0 
125.095963 15345.0 
125.132538 15721.0 
127.005203 2811.0 
127.075302 5036.0 
129.090973 4465.0 
133.101089 47201.0 
135.116943 17457.0 
137.096146 29224.0 
137.132446 62360.0 
139.111832 27719.0 
140.068436 12746.0 
141.091812 4574.0 
143.107071 3306.0 
147.116608 42199.0 
149.132401 10281.0 
151.111816 39350.0 
151.148575 5335.0 
153.128036 3405.0 
155.106476 5899.0 
157.121536 4890.0 
161.132126 17467.0 
163.148346 5137.0 
165.127579 24532.0 
169.158737 12436.0 
175.148041 12304.0 
177.16394 10057.0 
179.142868 10375.0 
179.179123 29546.0 
183.137573 5083.0 
193.19487 3001.0 
203.157379 4693.0 
203.179306 205695.0 
211.205536 1367223.0 
221.18985 126949.0 
236.513107 2645.0 
239.200272 710170.0 
242.151917 4388.0 
257.146515 3998.0 
257.177002 44524.0 
279.027252 2664.0 
299.257355 12827.0 
312.29303 2849.0 
348.679474 2865.0 
387.771332 3177.0 
END IONS

BEGIN IONS
NAME="5-{5-[(4,5-diphenylimidazol-2-ylthio)methyl](1,3,4-oxadiazol-2-yl)}-1,2,3-trim ethoxybenzene CollisionEnergy:102040" 2M-H
PRECURSOR_MZ=999.296
INCHI="InChI=1S/C27H24N4O4S/c1-32-20-14-19(15-21(33-2)25(20)34-3)26-31-30-22(35-26)16-36-27-28-23(17-10-6-4-7-11-17)24(29-27)18-12-8-5-9-13-18/h4-15H,16H2,1-3H3,(H,28,29)"
SMILES=COc1cc(-c2nnc(CSc3nc(-c4ccccc4)c(-c4ccccc4)[nH]3)o2)cc(OC)c1OC
SPECTRUMID=CCMSLIB00010106779
82.398399 4580.0 
104.281754 4774.0 
112.986221 3842.0 
128.652466 3908.0 
249.04924 44330.0 
250.056686 151974.0 
250.085678 5392.0 
251.065475 17244.0 
289.066589 6317.0 
499.144867 399103.0 
684.064148 4136.0 
764.822693 5829.0 
END IONS

BEGIN IONS
NAME="1,2,3,4,5,6,7,8,9,10-decahydrobenzo[a][12]annulen-12-yl-N-[6-(1,2,3,4,5,6,7,8, 9,10-decahydrobenzo[a][12]annulen-12-ylcarbonylamino)hexyl]carboxamide CollisionEnergy:102040" M+Cl
PRECURSOR_MZ=651.269
INCHI="InChI=1S/C32H44N2O10/c35-31(25-5-7-27-29(23-25)43-21-17-39-13-11-37-15-19-41-27)33-9-3-1-2-4-10-34-32(36)26-6-8-28-30(24-26)44-22-18-40-14-12-38-16-20-42-28/h5-8,23-24H,1-4,9-22H2,(H,33,35)(H,34,36)"
SMILES=OC(=NCCCCCCN=C(O)c1ccc2c(c1)OCCOCCOCCO2)c1ccc2c(c1)OCCOCCOCCO2
SPECTRUMID=CCMSLIB00010111322
104.293228 3814.0 
117.488663 2706.0 
136.219833 4097.0 
145.325729 2738.0 
174.955872 17236.0 
223.411957 3638.0 
225.301117 3255.0 
242.944611 3775.0 
310.931671 4213.0 
378.91748 11998.0 
566.829773 2855.0 
651.269409 456031.0 
END IONS

BEGIN IONS
NAME="N-(2H-benzo[3,4-d]1,3-dioxolen-5-yl)-2-{2-oxo-4-[N-benzylcarbamoyl]hydroquinol yl}acetamide CollisionEnergy:205060" M+formate
PRECURSOR_MZ=500.146
INCHI="InChI=1S/C26H21N3O5/c30-24(28-18-10-11-22-23(12-18)34-16-33-22)15-29-21-9-5-4-8-19(21)20(13-25(29)31)26(32)27-14-17-6-2-1-3-7-17/h1-13H,14-16H2,(H,27,32)(H,28,30)"
SMILES=O=c1cc(C(O)=NCc2ccccc2)c2ccccc2n1CC(O)=Nc1ccc2c(c1)OCO2
SPECTRUMID=CCMSLIB00010123625
59.013771 2845.0 
65.998192 3462.0 
68.479279 2875.0 
72.623558 3379.0 
74.857986 2879.0 
85.487587 2443.0 
94.030006 11184.0 
105.356903 2743.0 
108.045303 22667.0 
115.055557 5139.0 
116.05072 19668.0 
120.04425 2703.0 
122.024727 88275.0 
128.050552 41401.0 
130.066147 37889.0 
134.025162 14196.0 
136.040497 21358.0 
142.066696 4255.0 
144.045547 96636.0 
148.040314 5043.0 
156.069168 4945.0 
158.048401 21445.0 
158.061539 57373.0 
160.040665 3761.0 
169.078156 3081.0 
172.040161 5740.0 
176.072845 5977.0 
184.040634 17502.0 
198.055786 35825.0 
220.649826 2954.0 
231.092926 4398.0 
247.124084 32947.0 
255.546249 2475.0 
261.103973 17218.0 
270.398621 2691.0 
277.098969 22641.0 
291.114594 5081.0 
317.093079 10497.0 
321.088226 39697.0 
323.103241 33801.0 
409.171112 2814.0 
409.328735 3240.0 
454.14093 402354.0 
END IONS

BEGIN IONS
NAME="N-(4-(2H-benzo[3,4-d]1,3-dioxolan-5-yl)(1Z,3Z)-2-methyl-1-azabuta-1,3-dienyl)( 5-bromo(3-pyridyl))carboxamide CollisionEnergy:205060" M+H
PRECURSOR_MZ=388.029
INCHI="InChI=1S/C17H14BrN3O3/c1-11(20-21-17(22)13-7-14(18)9-19-8-13)2-3-12-4-5-15-16(6-12)24-10-23-15/h2-9H,10H2,1H3,(H,21,22)/b3-2-,20-11-"
SMILES=CC(C=Cc1ccc2c(c1)OCO2)=NN=C(O)c1cncc(Br)c1
SPECTRUMID=CCMSLIB00010120994
50.015831 21224.0 
62.01543 20285.0 
63.023121 165386.0 
65.038887 158324.0 
65.041679 11144.0 
73.988457 15367.0 
76.018158 134810.0 
78.033951 87719.0 
79.041946 146017.0 
79.049088 23276.0 
79.054382 646868.0 
80.049278 19715.0 
81.021263 13425.0 
81.044937 11832.0 
82.02877 86336.0 
82.439598 12918.0 
83.036797 19333.0 
89.038643 8202060.0 
91.054222 754305.0 
91.060783 24642.0 
92.036819 63401.0 
92.424294 14171.0 
93.033432 20785.0 
95.049217 17088.0 
96.044357 342847.0 
102.046677 28312.0 
103.054031 782026.0 
104.049538 14998.0 
104.332977 12683.0 
104.933289 58384.0 
105.033974 22093.0 
105.928391 23500.0 
106.06498 521469.0 
107.048897 62676.0 
111.031242 393048.0 
115.054077 6699621.0 
117.033287 2824451.0 
117.05706 121826.0 
117.069473 188884.0 
118.06488 28994.0 
119.023918 59473.0 
119.048782 62684.0 
120.031548 309270.0 
126.527061 12576.0 
128.93338 50701.0 
130.06488 1380913.0 
131.049332 103511.0 
131.061371 16683.0 
131.072601 227156.0 
132.080551 553939.0 
132.928329 18830.0 
133.051849 15248.0 
134.059799 819680.0 
135.043839 765445.0 
137.034439 375203.0 
142.065094 23548.0 
143.048935 5641304.0 
145.075317 145588.0 
145.959351 25443.0 
146.059418 52164.0 
147.043808 7266437.0 
148.075897 16670.0 
152.021347 124417.0 
155.944031 3930529.0 
157.959732 6568529.0 
158.059952 472643.0 
159.067337 15133.0 
160.075272 299015.0 
161.05925 25463.0 
162.054077 16158.0 
172.038071 56279.0 
172.053207 18089.0 
173.059464 20188782.0 
173.954529 3024039.0 
174.054428 194462.0 
176.070526 13786.0 
182.954361 285747.0 
183.938919 8718692.0 
184.075165 24585.0 
185.954453 321255.0 
186.054321 28593.0 
187.06279 19141.0 
188.070175 2478116.0 
188.941467 391917.0 
190.049576 23793.0 
190.085403 16333.0 
193.047775 17640.0 
196.97052 530403.0 
197.966446 139559.0 
198.94989 546146.0 
200.965424 249431.0 
201.949783 66870.0 
203.08107 389238.0 
212.965668 16230.0 
214.969818 14684.0 
215.975876 197580.0 
226.943787 20819.0 
231.075623 123949.0 
239.97612 962453.0 
265.991638 1742632.0 
367.186249 14228.0 
388.027832 5396862.0 
END IONS

BEGIN IONS
NAME="N-(4-chlorophenyl)-2-[2-oxo-4-(2-1,2,3,4-tetrahydroisoquinolylcarbonyl)hydroqu inolyl]acetamide CollisionEnergy:102040" M+H
PRECURSOR_MZ=472.142
INCHI="InChI=1S/C27H22ClN3O3/c28-20-9-11-21(12-10-20)29-25(32)17-31-24-8-4-3-7-22(24)23(15-26(31)33)27(34)30-14-13-18-5-1-2-6-19(18)16-30/h1-12,15H,13-14,16-17H2,(H,29,32)"
SMILES=O=C(Cn1c(=O)cc(C(=O)N2CCc3ccccc3C2)c2ccccc21)Nc1ccc(Cl)cc1
SPECTRUMID=CCMSLIB00010113258
53.46666 2863.0 
60.534931 3835.0 
62.962021 3429.0 
69.912163 2864.0 
71.977913 3402.0 
82.393311 3071.0 
95.234932 2930.0 
111.903961 2949.0 
125.435577 2930.0 
130.065186 47414.0 
132.080872 665480.0 
135.116974 3065.0 
146.09639 58763.0 
146.480865 2873.0 
156.045166 4202.0 
157.052933 3195.0 
158.060104 180888.0 
160.075775 43368.0 
186.054916 182507.0 
188.137177 2976.0 
208.014755 12061.0 
270.967804 2940.0 
271.123199 3804.0 
273.137756 10283.0 
289.13385 53746.0 
299.139618 3859.0 
305.128174 162092.0 
315.111755 3767.0 
317.128204 531041.0 
327.134064 4818.0 
343.108765 14530.0 
345.12323 2372992.0 
358.154266 18089.0 
387.008972 3129.0 
472.142212 247412.0 
472.210968 8427.0 
485.766937 3677.0 
END IONS

BEGIN IONS
NAME=6-Methylpurine CollisionEnergy:205060 M+Na
PRECURSOR_MZ=157.048
INCHI="InChI=1S/C6H6N4/c1-4-5-6(9-2-7-4)10-3-8-5/h2-3H,1H3,(H,7,8,9,10)"
SMILES=Cc1ncnc2[nH]cnc12
SPECTRUMID=CCMSLIB00010119519
53.939579 65082.0 
54.419689 2061.0 
60.081379 1835.0 
63.92749 2176.0 
68.281036 2071.0 
68.963181 2088.0 
69.934196 3189.0 
70.94223 21665.0 
74.937897 27445.0 
79.021843 2547.0 
86.973213 7915.0 
87.944656 3080.0 
88.952461 13173.0 
92.373642 2695.0 
92.948181 11257.0 
97.937363 2183.0 
103.939507 2993.0 
105.955322 10599.0 
112.172752 1906.0 
115.964149 43428.0 
118.650726 2284.0 
121.950363 3504.0 
123.965927 4054.0 
126.955429 35137.0 
129.920288 2223.0 
133.949829 18307.0 
133.974335 12908.0 
144.965637 25048.0 
151.960831 15360.0 
155.975769 3337.0 
157.048386 34374.0 
212.57431 2708.0 
270.59726 2193.0 
END IONS

BEGIN IONS
NAME="7-hydroxy-6-methoxy-8-[3,4,5-trihydroxy-6-(hydroxymethyl)(2H-3,4,5,6-tetrahydr opyran-2-yl)oxy]chromen-2-one CollisionEnergy:205060" 2M-H
PRECURSOR_MZ=739.173
INCHI="InChI=1S/C16H18O10/c1-23-7-4-6-2-3-9(18)25-14(6)15(11(7)20)26-16-13(22)12(21)10(19)8(5-17)24-16/h2-4,8,10,12-13,16-17,19-22H,5H2,1H3"
SMILES=COc1cc2ccc(=O)oc2c(OC2OC(CO)C(O)C(O)C2O)c1O
SPECTRUMID=CCMSLIB00010121777
53.13924 2736.0 
58.69698 3082.0 
80.571487 3129.0 
82.979874 2887.0 
92.383926 3712.0 
104.291512 3964.0 
105.759361 3343.0 
163.003754 4557.0 
190.998581 31342.0 
192.006241 44337.0 
206.021469 6009.0 
207.030075 28978.0 
369.031097 3809.0 
369.083038 82519.0 
401.43924 3320.0 
444.183258 3101.0 
513.669067 3417.0 
END IONS

BEGIN IONS
NAME=D-Xylose CollisionEnergy:102040 M-H
PRECURSOR_MZ=149.046
INCHI="InChI=1S/C5H10O5/c6-2-1-10-5(9)4(8)3(2)7/h2-9H,1H2/t2-,3+,4-,5?/m1/s1"
SMILES=OC1OC[C@@H](O)[C@H](O)[C@H]1O
SPECTRUMID=CCMSLIB00010102583
76.969902 7428.180176 
94.980499 3371.120117 
104.334999 2501.820068 
144.733002 2048.959961 
148.973007 3023.899902 
149.059998 2670.610107 
END IONS

BEGIN IONS
NAME=N-(4-fluorophenyl)-2-[2-oxo-4-(N-propylcarbamoyl)hydroquinolyl]acetamide CollisionEnergy:205060 M+formate
PRECURSOR_MZ=426.147
INCHI="InChI=1S/C21H20FN3O3/c1-2-11-23-21(28)17-12-20(27)25(18-6-4-3-5-16(17)18)13-19(26)24-15-9-7-14(22)8-10-15/h3-10,12H,2,11,13H2,1H3,(H,23,28)(H,24,26)"
SMILES=CCCN=C(O)c1cc(=O)n(CC(=O)Nc2ccc(F)cc2)c2ccccc12
SPECTRUMID=CCMSLIB00010124773
59.013329 3772.0 
59.499401 2378.0 
62.21069 3060.0 
62.99313 2347.0 
72.223747 3251.0 
92.376572 2526.0 
94.95858 2480.0 
100.076477 3324.0 
110.04097 35044.0 
116.050537 28655.0 
127.157944 3004.0 
128.050461 123883.0 
130.066162 127454.0 
132.045105 5176.0 
142.029816 3696.0 
142.065155 9963.0 
144.045258 105869.0 
144.081299 4393.0 
148.777374 2697.0 
156.045303 5387.0 
156.069046 13842.0 
157.077118 13237.0 
158.048111 64786.0 
158.061127 115107.0 
160.040512 21820.0 
172.04007 26134.0 
174.055847 10277.0 
176.071686 35975.0 
181.177032 2590.0 
183.092499 3684.0 
184.040451 24180.0 
197.107895 20032.0 
199.104431 4779.0 
199.124313 72506.0 
201.103622 6144.0 
202.05069 25790.0 
213.102982 84144.0 
215.118759 12300.0 
227.274887 2534.0 
229.098328 70560.0 
230.329681 2652.0 
234.861359 2535.0 
243.114029 5673.0 
245.093491 6414.0 
251.766159 3406.0 
269.093903 30111.0 
275.103577 5856.0 
295.089111 57552.0 
380.141541 659126.0 
398.215759 2731.0 
END IONS

BEGIN IONS
NAME=nicotinic acid CollisionEnergy:205060 M-H
PRECURSOR_MZ=122.025
INCHI="InChI=1S/C6H5NO2/c8-6(9)5-2-1-3-7-4-5/h1-4H,(H,8,9)"
SMILES=O=C(O)c1cccnc1
SPECTRUMID=CCMSLIB00010118723
57.297821 15479.0 
66.743973 16756.0 
70.15387 14537.0 
74.142731 14070.0 
76.269272 14288.0 
78.034767 169973.0 
79.849136 15834.0 
94.029953 141662.0 
99.942932 13978.0 
122.02475 279043.0 
134.527954 14144.0 
136.211792 18657.0 
END IONS

BEGIN IONS
NAME=2-methoxyethyl 5-hydroxy-2-methyl-1-benzylbenzo[g]indole-3-carboxylate CollisionEnergy:205060 M+formate
PRECURSOR_MZ=434.161
INCHI="InChI=1S/C24H23NO4/c1-16-22(24(27)29-13-12-28-2)20-14-21(26)18-10-6-7-11-19(18)23(20)25(16)15-17-8-4-3-5-9-17/h3-11,14,26H,12-13,15H2,1-2H3"
SMILES=COCCOC(=O)c1c(C)n(Cc2ccccc2)c2c1cc(O)c1ccccc12
SPECTRUMID=CCMSLIB00010121098
66.348923 2596.0 
66.75087 2093.0 
73.974701 3086.0 
78.472931 2428.0 
81.130989 2473.0 
82.426468 2804.0 
290.63855 2210.0 
297.099091 9382.0 
297.900574 2576.0 
END IONS

BEGIN IONS
NAME=3-(2-Thienyl)-dl-alanine CollisionEnergy:102040 M+H
PRECURSOR_MZ=172.043
INCHI="InChI=1S/C7H9NO2S/c8-6(7(9)10)4-5-2-1-3-11-5/h1-3,6H,4,8H2,(H,9,10)"
SMILES=NC(Cc1cccs1)C(=O)O
SPECTRUMID=CCMSLIB00010112495
61.91124 5418.0 
65.039093 27714.0 
67.054581 11425.0 
74.023972 1227877.0 
77.977814 6205.0 
80.049637 27057.0 
82.065392 10010.0 
84.959908 36175.0 
85.010696 114001.0 
89.940033 55821.0 
92.049789 6109.0 
92.385696 7140.0 
93.05088 12980.0 
93.05732 301265.0 
97.01062 272919.0 
99.026291 1857213.0 
107.95063 39221.0 
109.010521 101237.0 
111.026192 413943.0 
112.020897 9632.0 
113.005463 3034371.0 
116.971764 7611.0 
126.037086 24374642.0 
126.403023 6954.0 
127.021759 21451.0 
130.966461 124983.0 
137.005386 161922.0 
148.976959 274515.0 
155.015915 6155214.0 
172.04245 2149816.0 
172.152679 10365.0 
END IONS

BEGIN IONS
NAME=Glycocholic acid CollisionEnergy:102040 2M+H
PRECURSOR_MZ=931.625
INCHI="InChI=1S/C26H43NO6/c1-14(4-7-22(31)27-13-23(32)33)17-5-6-18-24-19(12-21(30)26(17,18)3)25(2)9-8-16(28)10-15(25)11-20(24)29/h14-21,24,28-30H,4-13H2,1-3H3,(H,27,31)(H,32,33)/t14-,15+,16-,17-,18+,19+,20-,21+,24+,25+,26-/m1/s1"
SMILES=C[C@H](CCC(O)=NCC(=O)O)[C@H]1CC[C@H]2[C@H]3[C@H](C[C@H](O)[C@@]21C)[C@@]1(C)CC[C@@H](O)C[C@H]1C[C@H]3O
SPECTRUMID=CCMSLIB00010126682
67.411903 4288.22998 
76.035599 6413.939941 
76.039902 142379.0 
79.054497 5941.310059 
81.069901 21474.300781 
82.4216 5195.209961 
83.086098 4887.47998 
85.065002 11529.700195 
91.054199 6413.700195 
93.07 17486.099609 
94.177299 5117.080078 
95.085403 9562.269531 
105.07 23760.900391 
107.085999 33456.398438 
109.100998 10912.599609 
117.069 5587.040039 
119.084999 24543.5 
121.100998 11257.799805 
123.080002 7363.490234 
123.115997 8150.439941 
125.096001 6851.430176 
131.085007 10057.599609 
133.100998 21655.400391 
135.115997 11954.799805 
143.085007 9220.549805 
145.100006 25636.199219 
147.115997 23179.900391 
149.095001 6743.97998 
157.100006 26463.699219 
158.080994 122642.0 
159.117004 52182.101562 
161.132004 16520.599609 
163.110992 6632.259766 
169.100006 11833.799805 
171.115997 27282.599609 
173.132004 26594.699219 
175.110992 6149.140137 
175.147995 7362.109863 
177.126999 6058.669922 
183.115997 29472.900391 
184.097 10701.700195 
185.132004 30837.599609 
187.110992 7843.27002 
187.147995 11614.900391 
189.126999 5340.680176 
189.162994 7508.939941 
197.130997 19968.099609 
198.112 18016.0 
199.147995 72122.101562 
201.162994 32976.199219 
209.110992 8198.139648 
209.132004 170199.0 
210.110992 5603.220215 
211.147995 50808.101562 
212.126999 6516.779785 
212.854996 6866.330078 
213.126007 6198.259766 
213.162994 110446.0 
215.179001 18582.699219 
223.147995 36116.101562 
225.162994 44570.601562 
227.141998 128849.0 
227.179001 72891.898438 
229.156998 25862.0 
237.162994 22131.599609 
239.179001 21911.800781 
241.156998 28515.900391 
241.195007 56441.300781 
243.173004 26255.300781 
249.162003 8889.730469 
251.179993 8525.269531 
253.197006 5910.640137 
255.173004 20290.800781 
263.178986 19764.300781 
265.192993 8133.649902 
267.177002 6001.640137 
277.192993 10527.700195 
279.209015 7592.689941 
281.188995 8852.290039 
291.210999 9072.139648 
293.225006 33237.800781 
295.204987 24213.300781 
295.240997 28212.699219 
299.945007 5174.97998 
302.174011 5058.200195 
304.19101 7505.609863 
309.256012 23800.599609 
318.205994 19899.0 
319.199005 8682.44043 
319.240997 239266.0 
337.251007 525651.0 
355.263 8643.610352 
365.89801 5326.189941 
370.235992 7588.100098 
394.27301 20548.800781 
412.28299 1564360.0 
430.294006 1267080.0 
448.304993 674242.0 
448.378998 8100.879883 
466.315002 1730840.0 
583.853027 5300.180176 
634.560974 6965.410156 
656.677002 4772.910156 
772.302002 5202.279785 
913.606018 7251.279785 
931.622986 464865.0 
END IONS

BEGIN IONS
NAME="{6-[(2S)-5-acetyloxy-2-(4-acetyloxyphenyl)-4-oxochroman-7-yloxy]-3,4,5-triacet yloxy-2H-3,4,5,6-tetrahydropyran-2-yl}methyl (2E)-3-(4-acetyloxyphenyl)prop-2- enoate CollisionEnergy:102040" M+H
PRECURSOR_MZ=833.229
INCHI="InChI=1S/C42H40O18/c1-21(43)52-29-12-7-27(8-13-29)9-16-37(50)51-20-36-39(55-24(4)46)40(56-25(5)47)41(57-26(6)48)42(60-36)58-31-17-34(54-23(3)45)38-32(49)19-33(59-35(38)18-31)28-10-14-30(15-11-28)53-22(2)44/h7-18,33,36,39-42H,19-20H2,1-6H3/b16-9+/t33-,36?,39?,40?,41?,42?/m0/s1"
SMILES=CC(=O)Oc1ccc(C=CC(=O)OCC2OC(Oc3cc(OC(C)=O)c4c(c3)OC(c3ccc(OC(C)=O)cc3)CC4=O)C(OC(C)=O)C(OC(C)=O)C2OC(C)=O)cc1
SPECTRUMID=CCMSLIB00010113972
58.69434 4444.0 
59.54591 3880.0 
64.514999 3845.0 
72.461113 4173.0 
73.953552 4197.0 
81.033737 7868.0 
85.028572 8429.0 
91.054321 16898.0 
92.375122 3911.0 
106.423767 4038.0 
109.028343 56542.0 
119.049004 64450.0 
127.038918 58285.0 
146.036255 6501.0 
147.043777 3006543.0 
153.017975 27925.0 
164.56897 5317.0 
169.048752 57350.0 
171.02832 6283.0 
189.054199 3272255.0 
195.029587 4523.0 
211.061279 6113.0 
211.77684 4459.0 
229.070129 4579.0 
243.028168 5182.0 
273.074677 55701.0 
293.912842 5019.0 
315.085266 348057.0 
326.637665 4613.0 
357.09552 39979.0 
405.097198 8026.0 
417.118103 17871.0 
419.115173 6240.0 
461.12323 16910.0 
465.118408 7444.0 
477.138062 739047.0 
700.593689 5312.0 
791.216614 36707.0 
833.2052 8104.0 
END IONS

BEGIN IONS
NAME=Jasmonoyl-S-Isoleucine CollisionEnergy:205060 2M-H
PRECURSOR_MZ=645.412
INCHI="InChI=1S/C18H29NO4/c1-4-6-7-8-14-13(9-10-15(14)20)11-16(21)19-17(18(22)23)12(3)5-2/h6-7,12-14,17H,4-5,8-11H2,1-3H3,(H,19,21)(H,22,23)/b7-6-/t12-,13-,14-,17-/m0/s1"
SMILES=CC/C=C\C[C@H]1[C@@H](CCC1=O)CC(=O)N[C@@H]([C@@H](C)CC)C(=O)O
SPECTRUMID=CCMSLIB00010102001
56.992657 67451.867188 
58.029408 551629.9375 
58.538948 73881.109375 
66.780289 95070.1875 
68.744789 64308.890625 
94.221756 76427.054688 
102.808983 70398.328125 
104.344604 89418.523438 
109.065933 133458.84375 
114.77298 70459.578125 
127.869774 69843.546875 
128.108154 1785763.125 
130.087402 21394640.0 
172.097855 545188.4375 
322.202637 24394960.0 
323.207336 92054.554688 
END IONS

BEGIN IONS
NAME="N-(2,6-dimethylphenyl)(3,4,5-triethoxyphenyl)carboxamide CollisionEnergy:102040" M-H
PRECURSOR_MZ=356.187
INCHI="InChI=1S/C21H27NO4/c1-6-24-17-12-16(13-18(25-7-2)20(17)26-8-3)21(23)22-19-14(4)10-9-11-15(19)5/h9-13H,6-8H2,1-5H3,(H,22,23)"
SMILES=CCOc1cc(C(O)=Nc2c(C)cccc2C)cc(OCC)c1OCC
SPECTRUMID=CCMSLIB00010104673
50.385609 2276.0 
54.33802 2518.0 
67.722321 2258.0 
68.707626 2305.0 
73.955818 3533.0 
75.66172 2473.0 
84.990593 5984.0 
101.559013 2641.0 
101.566833 2529.0 
104.290962 2964.0 
111.918671 2767.0 
123.00914 3052.0 
125.432793 2618.0 
130.074158 2396.0 
146.061371 3283.0 
151.040283 13462.0 
153.054993 3596.0 
156.692032 2598.0 
167.036072 3951.0 
169.002319 2399.0 
169.050674 12674.0 
181.087463 17591.0 
199.614151 2459.0 
201.105881 2501.0 
209.184174 10361.0 
252.065994 4773.0 
254.082474 17701.0 
269.069794 49311.0 
270.0802 7219.0 
270.112976 16410.0 
280.098602 12841.0 
282.116852 2890.0 
283.08432 6086.0 
298.108673 373369.0 
299.15329 5225.0 
312.123779 39069.0 
326.139679 4120.0 
327.14798 106845.0 
338.176453 4375.0 
355.984863 17119.0 
356.187195 1450036.0 
END IONS

BEGIN IONS
NAME=puromycin CollisionEnergy:102040 M+Cl
PRECURSOR_MZ=506.192
INCHI="InChI=1S/C22H29N7O5/c1-28(2)19-17-20(25-10-24-19)29(11-26-17)22-18(31)16(15(9-30)34-22)27-21(32)14(23)8-12-4-6-13(33-3)7-5-12/h4-7,10-11,14-16,18,22,30-31H,8-9,23H2,1-3H3,(H,27,32)/t14-,15+,16+,18+,22+/m0/s1"
SMILES=COc1ccc(CC(N)C(O)=NC2C(CO)OC(n3cnc4c(N(C)C)ncnc43)C2O)cc1
SPECTRUMID=CCMSLIB00010109068
50.519939 2324.0 
55.048439 2844.0 
60.547649 3807.0 
69.619553 2653.0 
75.31691 2671.0 
75.927277 2907.0 
81.815033 2682.0 
92.39183 4029.0 
94.733772 3609.0 
96.954872 3083.0 
104.301643 3345.0 
162.07843 757708.0 
185.081665 2683.0 
268.967987 3114.0 
307.128296 4827.0 
470.215363 556109.0 
506.191833 223214.0 
END IONS

BEGIN IONS
NAME=6-aminochromen-2-one CollisionEnergy:102040 M+H
PRECURSOR_MZ=162.055
INCHI="InChI=1S/C9H7NO2/c10-7-2-3-8-6(5-7)1-4-9(11)12-8/h1-5H,10H2"
SMILES=Nc1ccc2oc(=O)ccc2c1
SPECTRUMID=CCMSLIB00010107206
58.943161 14368.0 
65.399727 14194.0 
68.013443 218558.0 
73.96373 13569.0 
74.937637 26205.0 
79.054497 145498.0 
84.959877 271725.0 
89.038887 18894.0 
89.939537 18158.0 
91.05423 199949.0 
95.049049 133367.0 
98.962143 18200.0 
102.970589 19119.0 
106.065063 4342298.0 
107.048798 18175.0 
107.949593 21279.0 
112.000526 14574.0 
113.127457 13483.0 
114.956017 251770.0 
115.963638 111540.0 
116.048897 121660.0 
116.971832 187026.0 
117.033279 17255.0 
117.056976 55971.0 
117.979591 58621.0 
118.065063 683443.0 
120.043663 18162.0 
132.96698 93243.0 
133.054153 18274.0 
133.974655 24893.0 
134.059921 10617789.0 
143.997116 18427.0 
144.043655 124054.0 
161.047455 73581.0 
161.521744 59152.0 
162.054764 64180092.0 
162.590866 30302.0 
END IONS

BEGIN IONS
NAME=2-(2-aminopropanoylamino)pentanoic acid CollisionEnergy:205060 M+Na
PRECURSOR_MZ=211.105
INCHI="InChI=1S/C8H16N2O3/c1-3-4-6(8(12)13)10-7(11)5(2)9/h5-6H,3-4,9H2,1-2H3,(H,10,11)(H,12,13)"
SMILES=CCCC(N=C(O)C(C)N)C(=O)O
SPECTRUMID=CCMSLIB00010117196
58.080318 1994.0 
63.73983 2392.0 
66.746178 2614.0 
82.401802 2510.0 
84.959969 11908.0 
85.985771 1962.0 
95.030884 1923.0 
98.563538 2266.0 
104.288307 2629.0 
112.036957 8777.0 
112.906982 2090.0 
117.256897 1941.0 
157.979462 2410.0 
187.938263 2015.0 
210.951736 2032.0 
211.10495 61316.0 
END IONS

BEGIN IONS
NAME="2-purin-6-ylthio-N-(1,1,3,3-tetramethylbutyl)acetamide CollisionEnergy:102040" 2M-H
PRECURSOR_MZ=641.317
INCHI="InChI=1S/C15H23N5OS/c1-14(2,3)7-15(4,5)20-10(21)6-22-13-11-12(17-8-16-11)18-9-19-13/h8-9H,6-7H2,1-5H3,(H,20,21)(H,16,17,18,19)"
SMILES=CC(C)(C)CC(C)(C)N=C(O)CSc1ncnc2[nH]cnc12
SPECTRUMID=CCMSLIB00010105108
50.721809 2746.0 
104.310463 2924.0 
106.662292 2794.0 
130.878021 3120.0 
133.361786 3023.0 
143.315262 2820.0 
191.003525 103678.0 
234.672287 2728.0 
246.172119 4668.0 
320.15509 490351.0 
437.080231 3705.0 
604.820251 3000.0 
END IONS

BEGIN IONS
NAME=Limocitrin CollisionEnergy:205060 M-H
PRECURSOR_MZ=345.062
INCHI="InChI=1S/C17H14O8/c1-23-11-5-7(3-4-8(11)18)15-14(22)13(21)12-9(19)6-10(20)16(24-2)17(12)25-15/h3-6,18-20,22H,1-2H3"
SMILES=COc1cc(-c2oc3c(OC)c(O)cc(O)c3c(=O)c2O)ccc1O
SPECTRUMID=CCMSLIB00010123145
63.023121 3123.0 
64.40551 3341.0 
65.002922 84330.0 
65.006477 6268.0 
68.997177 15507.0 
72.992126 11841.0 
75.772362 2862.0 
82.40242 3273.0 
92.380341 3248.0 
92.997391 11598.0 
93.033997 6115.0 
95.013641 5585.0 
96.992264 18499.0 
107.013359 6057.0 
108.992409 4975.0 
109.028419 4475.0 
110.000847 181962.0 
111.007973 17606.0 
118.660851 2756.0 
120.992218 6297.0 
121.029251 24119.0 
123.008797 22062.0 
124.987343 5766.0 
133.029053 6092.0 
133.999863 12135.0 
135.007904 13337.0 
136.987808 102739.0 
137.023544 3327.0 
137.984665 3861.0 
137.995728 80631.0 
139.003433 147835.0 
139.039932 74896.0 
141.990509 54385.0 
143.049545 6238.0 
145.028671 4127.0 
147.008026 5668.0 
148.015442 3385.0 
149.024109 280378.0 
149.995529 53396.0 
151.003418 29569.0 
155.050003 3344.0 
159.044388 17637.0 
161.023697 13156.0 
163.03894 7194.0 
164.982635 355241.0 
165.990463 195542.0 
166.997726 6428.0 
168.058029 3498.0 
171.044922 80150.0 
172.015472 13514.0 
173.02359 14872.0 
174.031464 4415.0 
175.003876 32056.0 
175.039398 18891.0 
177.990677 48324.0 
178.998016 38422.0 
185.023575 4964.0 
185.055222 3056.0 
187.039856 131426.0 
189.018845 52088.0 
191.03421 6460.0 
192.977448 12465.0 
193.985458 35491.0 
197.023682 15087.0 
198.031479 4633.0 
199.039688 110478.0 
201.018173 19049.0 
203.035049 37212.0 
204.042313 31776.0 
205.98526 50829.0 
208.276993 13409.0 
213.019135 9885.0 
214.027557 9919.0 
215.03476 117937.0 
217.013336 15457.0 
219.028976 16457.0 
225.018707 18019.0 
226.025497 3269.0 
227.035904 20583.0 
229.013962 21775.0 
229.052277 3874.0 
231.029861 90875.0 
232.037903 42059.0 
233.043762 4717.0 
236.031982 90577.0 
241.012924 14909.0 
242.021866 66835.0 
243.02977 229605.0 
244.000534 33636.0 
245.009201 16665.0 
245.044525 7139.0 
246.052917 70334.0 
247.024033 4828.0 
253.013824 4521.0 
257.04541 13139.0 
258.016876 67378.0 
259.024628 123356.0 
269.00885 18478.0 
270.016296 57185.0 
271.024567 114661.0 
273.040253 40871.0 
274.047394 15980.0 
276.88681 6847.0 
285.040619 26344.0 
286.012878 37000.0 
286.047394 5526.0 
287.019531 158793.0 
301.035309 30821.0 
302.042725 3785.0 
315.014465 409275.0 
330.038116 1281338.0 
345.061523 1584032.0 
END IONS

BEGIN IONS
NAME="6-methoxypurine, oxamethane CollisionEnergy:102040" M+Na
PRECURSOR_MZ=173.043
INCHI="InChI=1S/C6H6N4O/c1-11-6-4-5(8-2-7-4)9-3-10-6/h2-3H,1H3,(H,7,8,9,10)"
SMILES=COc1ncnc2[nH]cnc12
SPECTRUMID=CCMSLIB00010105154
51.94046 9006.0 
62.20715 2657.0 
72.937271 3051.0 
73.944344 2617.0 
80.150047 2802.0 
83.011627 2020.0 
83.930206 22048.0 
84.937843 2616.0 
89.940033 3815.0 
90.903389 94820.0 
90.941422 2172.0 
90.94799 3848.0 
99.003372 3046.0 
101.940231 2687.0 
102.948029 8569.0 
107.950203 4608.0 
108.913933 12010.0 
113.940277 4909.0 
116.564857 2098.0 
117.935204 8181.0 
118.943123 23365.0 
119.951027 14217.0 
122.019333 45908.0 
125.963814 29221.0 
128.951111 9705.0 
130.966492 11579.0 
131.929764 213508.0 
131.949402 23122.0 
131.968277 11798.0 
132.003754 19298.0 
140.95105 15718.0 
143.975021 4945.0 
146.961258 4509.0 
146.974014 4004.0 
148.976196 15237.0 
149.591095 2096.0 
149.940369 406830.0 
149.960129 35201.0 
149.978409 26206.0 
150.014069 92607.0 
155.975769 3264.0 
167.951218 26399.0 
167.971619 8735.0 
172.956421 29518.0 
172.977249 16999.0 
172.992615 2708.0 
173.043518 126934.0 
173.077911 17584.0 
173.107544 12433.0 
190.988113 2608.0 
191.986832 2361.0 
204.551163 2054.0 
248.773499 2215.0 
249.528748 2073.0 
272.589844 2031.0 
347.851685 2044.0 
END IONS

BEGIN IONS
NAME="ethyl 2-amino-4-(2,4-dichlorophenyl)-6-(hydroxymethyl)-8-oxo-4H-pyrano[3,2-b]p yran-3-carboxylate CollisionEnergy:102040" M-H
PRECURSOR_MZ=410.02
INCHI="InChI=1S/C18H15Cl2NO6/c1-2-25-18(24)14-13(10-4-3-8(19)5-11(10)20)16-15(27-17(14)21)12(23)6-9(7-22)26-16/h3-6,13,22H,2,7,21H2,1H3"
SMILES=CCOC(=O)C1=C(N)Oc2c(oc(CO)cc2=O)C1c1ccc(Cl)cc1Cl
SPECTRUMID=CCMSLIB00010112738
52.35807 2314.0 
57.81308 2508.0 
65.998253 213711.0 
66.748993 3019.0 
82.404243 3173.0 
84.008957 3307.0 
84.90506 2406.0 
112.040466 914726.0 
141.01947 87212.0 
154.006226 2605.0 
155.060699 2393.0 
208.765457 7947.0 
276.98468 2516.0 
296.97287 4829.0 
297.013855 3228.0 
305.986633 12507.0 
363.98053 3864.0 
392.009674 5590.0 
410.020966 68477.0 
END IONS

BEGIN IONS
NAME=tert-butyl 1-(2-furylmethyl)-5-hydroxy-2-methylbenzo[g]indole-3-carboxylate CollisionEnergy:102040 M-e
PRECURSOR_MZ=377.162
INCHI="InChI=1S/C23H23NO4/c1-14-20(22(26)28-23(2,3)4)18-12-19(25)16-9-5-6-10-17(16)21(18)24(14)13-15-8-7-11-27-15/h5-12,25H,13H2,1-4H3"
SMILES=Cc1c(C(=O)OC(C)(C)C)c2cc(O)c3ccccc3c2n1Cc1ccco1
SPECTRUMID=CCMSLIB00010114278
53.039101 27096.0 
57.070499 5579.0 
60.537529 2845.0 
81.033768 2035969.0 
82.037003 71248.0 
82.041702 7709.0 
87.801514 2807.0 
92.376289 3460.0 
143.459839 3254.0 
239.057251 19007.0 
240.06514 100136.0 
248.106491 4326.0 
276.101929 13526.0 
277.108643 39678.0 
292.096497 4468.0 
302.077698 3625.0 
320.091278 86351.0 
321.098999 2311901.0 
331.076904 6147.0 
354.033752 12661.0 
377.078156 98732.0 
377.110901 103019.0 
377.161011 1447795.0 
611.43042 3421.0 
END IONS

BEGIN IONS
NAME="2-(4-chlorophenyl)-2-oxoethyl 2-[(3,4-dimethoxyphenyl)carbonylamino]benzoate CollisionEnergy:205060" M-H
PRECURSOR_MZ=452.091
INCHI="InChI=1S/C24H20ClNO6/c1-30-21-12-9-16(13-22(21)31-2)23(28)26-19-6-4-3-5-18(19)24(29)32-14-20(27)15-7-10-17(25)11-8-15/h3-13H,14H2,1-2H3,(H,26,28)"
SMILES=COc1ccc(C(O)=Nc2ccccc2C(=O)OCC(=O)c2ccc(Cl)cc2)cc1OC
SPECTRUMID=CCMSLIB00010121075
65.345337 2189.0 
67.018692 2595.0 
69.03405 3766.0 
77.815247 2105.0 
82.659538 2534.0 
92.050499 20726.0 
92.386391 3036.0 
95.013802 4883.0 
104.297722 3195.0 
105.021988 38892.0 
105.578796 2710.0 
105.601219 2389.0 
107.014107 10303.0 
111.000908 4784.0 
121.029587 4149.0 
123.009033 10121.0 
123.045303 18104.0 
131.037827 12474.0 
132.045853 15142.0 
134.024704 15960.0 
136.04071 20368.0 
136.221878 2781.0 
139.003937 2717.0 
154.990814 17679.0 
169.006577 23941.0 
181.051208 29197.0 
209.573425 6617.0 
209.592941 3163.0 
218.024231 2299.0 
226.042999 25224.0 
239.060104 4508.0 
242.04213 2782.0 
254.083511 3289.0 
257.070892 3953.0 
270.032837 62039.0 
272.092285 10512.0 
316.083221 12050.0 
333.057404 5300.0 
350.061005 4120.0 
358.025269 2686.0 
360.044678 4485.0 
362.061218 5794.0 
364.074615 4392.0 
374.06015 10114.0 
377.046387 44597.0 
378.054688 69502.0 
392.069244 37909.0 
393.076782 4540.0 
408.101898 72423.0 
452.091217 276921.0 
END IONS

BEGIN IONS
NAME=(2Z)-2-[(4-butoxyphenyl)carbonylamino]-3-(4-chlorophenyl)-N-[2-(2-methylindol- 3-yl)ethyl]prop-2-enamide CollisionEnergy:102040 M+H
PRECURSOR_MZ=530.221
INCHI="InChI=1S/C31H32ClN3O3/c1-3-4-19-38-25-15-11-23(12-16-25)30(36)35-29(20-22-9-13-24(32)14-10-22)31(37)33-18-17-26-21(2)34-28-8-6-5-7-27(26)28/h5-16,20,34H,3-4,17-19H2,1-2H3,(H,33,37)(H,35,36)/b29-20-"
SMILES=CCCCOc1ccc(C(=O)NC(=Cc2ccc(Cl)cc2)C(O)=NCCc2c(C)[nH]c3ccccc23)cc1
SPECTRUMID=CCMSLIB00010111094
50.124771 3702.0 
53.843689 3852.0 
54.416729 3641.0 
56.183769 4633.0 
57.070358 6533.0 
65.038963 21551.0 
72.757652 4358.0 
73.955833 4981.0 
85.618431 4187.0 
91.734497 3616.0 
118.656288 5213.0 
121.02845 2417116.0 
130.065201 4494.0 
143.072983 43249.0 
145.086395 4106.0 
150.009918 5761.0 
157.088776 43787.0 
157.581268 4329.0 
158.096466 8388006.0 
173.108765 6592.0 
175.123001 4575138.0 
177.090988 3405517.0 
185.40654 3908.0 
196.015991 40871.0 
224.010895 54757.0 
282.031891 16773.0 
300.042084 72125.0 
356.104431 2853038.0 
358.102478 22153.0 
463.360352 4403.0 
512.211121 8720.0 
530.220215 920788.0 
END IONS

BEGIN IONS
NAME=Pachycarpine CollisionEnergy:205060 M+H
PRECURSOR_MZ=235.217
INCHI="InChI=1S/C15H26N2/c1-3-7-16-11-13-9-12(14(16)5-1)10-17-8-4-2-6-15(13)17/h12-15H,1-11H2/t12-,13-,14-,15+/m1/s1"
SMILES=C1CCN2CC3CC(CN4CCCCC34)C2C1
SPECTRUMID=CCMSLIB00010124313
58.961021 10744.0 
61.011101 30296.0 
70.065468 3851.0 
73.512833 2716.0 
79.021553 36281.0 
84.081093 16065.0 
89.26004 3236.0 
98.096443 680114.0 
110.096657 3093.0 
116.761917 3414.0 
134.096481 24489.0 
152.142899 7159.0 
156.974869 5906.0 
164.144867 2819.0 
174.984863 78000.0 
190.159363 4028.0 
211.613754 3684.0 
216.977631 19721.0 
233.20108 486440.0 
234.952682 34282.0 
234.987961 134093.0 
235.216629 7723500.0 
END IONS

BEGIN IONS
NAME="N-[(1E)-2-(2-hydroxynaphthyl)-1-azavinyl]-2-(3,5-dioxo(2H,4H-1,2,4-triazin-6-y l))acetamide CollisionEnergy:102040" M-H
PRECURSOR_MZ=338.089
INCHI="InChI=1S/C16H13N5O4/c22-13-6-5-9-3-1-2-4-10(9)11(13)8-17-20-14(23)7-12-15(24)18-16(25)21-19-12/h1-6,8,22H,7H2,(H,20,23)(H2,18,21,24,25)/b17-8+"
SMILES=OC(Cc1nnc(O)nc1O)=NN=Cc1c(O)ccc2ccccc12
SPECTRUMID=CCMSLIB00010108779
66.743263 3270.0 
68.108162 2060.0 
73.951553 2434.0 
91.957642 2156.0 
92.375969 2352.0 
98.02459 10353.0 
118.652252 3015.0 
126.030861 28499.0 
136.213715 3083.0 
152.010269 152296.0 
152.024277 6162.0 
157.066071 63175.0 
168.028763 3501.0 
168.045349 4643.0 
185.07251 44039.0 
185.504547 2450.0 
194.032181 3516.0 
269.906158 2636.0 
294.962891 2725.0 
295.085083 2935.0 
306.050629 3109.0 
338.089905 222795.0 
END IONS

BEGIN IONS
NAME=cAMP CollisionEnergy:102040 M-H
PRECURSOR_MZ=328.045
INCHI="InChI=1S/C10H12N5O6P/c11-8-5-9(13-2-12-8)15(3-14-5)10-6(16)7-4(20-10)1-19-22(17,18)21-7/h2-4,6-7,10,16H,1H2,(H,17,18)(H2,11,12,13)/t4-,6-,7-,10-/m1/s1"
SMILES=Nc1ncnc2c1ncn2[C@@H]1O[C@@H]2COP(=O)(O)O[C@H]2[C@H]1O
SPECTRUMID=CCMSLIB00010102732
50.504101 63335.5 
51.6092 47333.5 
55.953701 57044.800781 
60.8675 52561.601562 
74.841698 54566.101562 
78.953796 80852.796875 
78.9589 2197600.0 
82.427299 59270.699219 
96.969597 226056.0 
97.107903 52762.898438 
113.764999 67215.601562 
118.697998 66130.101562 
134.046997 9605280.0 
134.985992 212364.0 
192.988998 85541.398438 
238.539001 60727.398438 
246.992004 57081.601562 
250.839005 62544.398438 
286.269989 61036.601562 
327.18399 55886.5 
328.045013 17287100.0 
END IONS

BEGIN IONS
NAME="2H-chromen-3-yl-N-(3,5-dimethylphenyl)carboxamide CollisionEnergy:205060" M-H
PRECURSOR_MZ=278.119
INCHI="InChI=1S/C18H17NO2/c1-12-7-13(2)9-16(8-12)19-18(20)15-10-14-5-3-4-6-17(14)21-11-15/h3-10H,11H2,1-2H3,(H,19,20)"
SMILES=Cc1cc(C)cc(N=C(O)C2=Cc3ccccc3OC2)c1
SPECTRUMID=CCMSLIB00010117178
53.523201 2077.0 
66.763893 3938.0 
87.983063 2033.0 
93.034157 3365.0 
103.055267 2984.0 
117.03492 16738.0 
120.081993 28821.0 
130.042328 39111.0 
131.050232 1032838.0 
143.490509 3030.0 
145.02948 4159.0 
146.648865 2199.0 
147.045135 5733.0 
172.076828 3858.0 
185.454559 3452.0 
206.162949 2618.0 
260.108765 2944.0 
261.988281 2668.0 
278.118561 372047.0 
END IONS

BEGIN IONS
NAME="N-[2-(3,4-dimethoxyphenyl)ethyl]-3-(2-hydroxyphenyl)propanamide CollisionEnergy:205060" M+H
PRECURSOR_MZ=330.17
INCHI="InChI=1S/C19H23NO4/c1-23-17-9-7-14(13-18(17)24-2)11-12-20-19(22)10-8-15-5-3-4-6-16(15)21/h3-7,9,13,21H,8,10-12H2,1-2H3,(H,20,22)"
SMILES=COc1ccc(CCN=C(O)CCc2ccccc2O)cc1OC
SPECTRUMID=CCMSLIB00010116115
52.512428 2842.0 
53.039268 5108.0 
55.018341 37125.0 
58.47546 3818.0 
65.039017 3378.0 
66.046944 4081.0 
66.742149 3958.0 
67.054268 4145.0 
73.95285 2980.0 
77.038918 6492.0 
78.046707 3367.0 
79.054466 234156.0 
82.778809 3323.0 
91.05423 102670.0 
92.062027 4055.0 
93.033607 4485.0 
93.070053 118209.0 
95.049133 22150.0 
98.060501 5462.0 
103.054153 243114.0 
104.061897 26234.0 
104.284019 3753.0 
105.069847 524552.0 
107.049057 1897312.0 
107.085373 18566.0 
108.057114 5573.0 
109.064621 17315.0 
115.054153 6182.0 
118.041298 81457.0 
119.048927 52373.0 
120.056953 78886.0 
121.064697 1397332.0 
122.072456 38611.0 
123.043579 15649.0 
123.080566 17680.0 
131.048935 24567.0 
132.05661 8633.0 
133.064728 437237.0 
134.07251 310099.0 
135.043976 183077.0 
135.055634 4946.0 
135.068649 6612.0 
135.080307 207789.0 
137.059937 7205.0 
137.09584 14611.0 
138.067444 156469.0 
138.078796 6964.0 
149.048813 5037.0 
149.05954 304779.0 
150.067444 1977021.0 
164.544571 6831.0 
165.090897 7951098.0 
165.640167 5661.0 
180.099747 3376.0 
182.117371 1995437.0 
209.353271 5774.0 
312.156769 13507.0 
313.142609 5367.0 
321.641541 4379.0 
330.16922 1004635.0 
END IONS

BEGIN IONS
NAME="N-[(1E)-2-(4-hydroxy-3-methoxyphenyl)-1-azavinyl]-2-[(3,5-dioxo(2H,4H-1,2,4-tr iazin-6-yl))amino]acetamide CollisionEnergy:205060" M-H
PRECURSOR_MZ=333.095
INCHI="InChI=1S/C13H14N6O5/c1-24-9-4-7(2-3-8(9)20)5-15-17-10(21)6-14-11-12(22)16-13(23)19-18-11/h2-5,20H,6H2,1H3,(H,14,18)(H,17,21)(H2,16,19,22,23)/b15-5+"
SMILES=COc1cc(C=NN=C(O)CNc2nnc(O)nc2O)ccc1O
SPECTRUMID=CCMSLIB00010124241
58.97887 2023.0 
60.54554 2500.0 
69.008949 3827.0 
70.434097 3054.0 
73.963997 1986.0 
79.017258 3641.0 
80.025291 16413.0 
80.676842 2600.0 
82.408318 2476.0 
84.020157 23905.0 
87.24334 2307.0 
96.020767 5165.0 
98.035927 130132.0 
104.299431 2763.0 
105.021942 48749.0 
111.020233 3624.0 
112.014999 2462.0 
124.015022 5039.0 
127.02597 5559.0 
133.005569 5178.0 
133.016907 123541.0 
134.024765 64133.0 
135.032455 31746.0 
136.040222 12842.0 
139.026108 27953.0 
140.033615 2871.0 
141.041672 13573.0 
148.040268 10316.0 
150.042908 10307.0 
150.056 10500.0 
153.055115 2914.0 
161.575974 2508.0 
165.066116 3815.0 
167.021057 55553.0 
177.03038 5112.0 
181.03714 13003.0 
184.047897 5184.0 
198.06337 10610.0 
212.41449 3058.0 
216.483322 2318.0 
220.666443 2616.0 
247.082932 3756.0 
248.933243 3070.0 
262.998657 2218.0 
290.089661 41428.0 
333.095551 277653.0 
END IONS

BEGIN IONS
NAME=N-formylmethionylleucylphenylalanine CollisionEnergy:102040 M+Na
PRECURSOR_MZ=460.188
INCHI="InChI=1S/C21H31N3O5S/c1-14(2)11-17(23-19(26)16(22-13-25)9-10-30-3)20(27)24-18(21(28)29)12-15-7-5-4-6-8-15/h4-8,13-14,16-18H,9-12H2,1-3H3,(H,22,25)(H,23,26)(H,24,27)(H,28,29)"
SMILES=CSCCC(N=CO)C(O)=NC(CC(C)C)C(O)=NC(Cc1ccccc1)C(=O)O
SPECTRUMID=CCMSLIB00010107395
56.116409 4208.0 
73.938309 4796.0 
76.063217 4552.0 
79.978409 4165.0 
82.378571 4796.0 
86.096733 28153.0 
92.357323 5337.0 
104.052528 4116.0 
104.265739 4556.0 
108.078468 5462.0 
120.080803 31222.0 
126.03466 10315.0 
136.182938 6632.0 
140.917252 4915.0 
142.062195 9381.0 
154.084229 56881.0 
172.040588 28562.0 
181.039627 11653.0 
182.024292 35316.0 
184.114365 4898.0 
188.068192 285269.0 
199.052597 6774.0 
200.035187 2952291.0 
267.113373 637369.0 
277.098236 9317.0 
295.108459 370743.0 
301.150635 18058.0 
311.136688 6587.0 
312.133728 23687.0 
313.118896 3985041.0 
321.726135 6426.0 
414.176758 15472.0 
442.176392 99616.0 
445.165222 37685.0 
460.187256 27818266.0 
END IONS

BEGIN IONS
NAME="2',3'-O-Isopropylideneuridine CollisionEnergy:102040" M+formate
PRECURSOR_MZ=329.099
INCHI="InChI=1S/C12H16N2O6/c1-12(2)19-8-6(5-15)18-10(9(8)20-12)14-4-3-7(16)13-11(14)17/h3-4,6,8-10,15H,5H2,1-2H3,(H,13,16,17)/t6-,8-,9-,10-/m1/s1"
SMILES=CC1(C)OC2C(CO)OC(n3ccc(O)nc3=O)C2O1
SPECTRUMID=CCMSLIB00010111510
53.915531 1929.0 
59.881409 2008.0 
74.412903 1937.0 
90.933693 7975.0 
134.303207 2919.0 
136.036896 2284.0 
136.234436 2468.0 
146.92392 4278.0 
158.002228 2779.0 
185.433792 2294.0 
192.928772 2683.0 
240.088272 8613.0 
283.093719 12813.0 
290.028107 2674.0 
310.512177 2636.0 
END IONS

BEGIN IONS
NAME=isoliquiritigenin CollisionEnergy:205060 M+H
PRECURSOR_MZ=257.081
INCHI="InChI=1S/C15H12O4/c16-11-4-1-10(2-5-11)3-8-14(18)13-7-6-12(17)9-15(13)19/h1-9,16-17,19H/b8-3+"
SMILES=O=C(C=Cc1ccc(O)cc1)c1ccc(O)cc1O
SPECTRUMID=CCMSLIB00010117570
51.088188 3116.0 
53.03912 13833.0 
55.018318 4851.0 
55.344452 2853.0 
65.039001 28616.0 
68.997429 72200.0 
69.033836 22849.0 
81.033722 292222.0 
89.0383 5424.0 
91.054329 261302.0 
95.01252 5746.0 
95.049118 83468.0 
96.020576 38884.0 
107.049026 72589.0 
109.028503 41553.0 
111.007721 15407.0 
111.043694 26939.0 
117.033371 153219.0 
117.042763 5454.0 
117.912498 2960.0 
119.04908 845322.0 
121.028358 7100.0 
123.044037 130085.0 
123.054092 6017.0 
127.039291 27568.0 
131.084946 4251.0 
135.043823 23342.0 
137.023254 4487313.0 
141.06955 23423.0 
145.02829 3759.0 
145.064194 3800.0 
147.043915 1292819.0 
153.069565 20264.0 
155.033401 40607.0 
155.08522 27194.0 
159.080856 4826.0 
163.03891 82476.0 
165.069778 96961.0 
169.063919 27789.0 
171.080017 20919.0 
172.051315 4306.0 
173.059433 15480.0 
177.069382 6136.0 
181.064255 16866.0 
183.064026 3623.0 
183.080444 52145.0 
187.074921 15509.0 
193.06337 6448.0 
194.072617 3792.0 
197.060165 34280.0 
209.56015 3298.0 
210.066406 6667.0 
211.075378 119177.0 
211.141785 4312.0 
215.071182 4722.0 
221.059738 4564.0 
239.069733 113707.0 
242.057251 64057.0 
257.080383 3209382.0 
END IONS

BEGIN IONS
NAME="4-{[4-(2,5-dimethylphenyl)piperazinyl]methyl}-6-ethylchromen-2-one CollisionEnergy:205060" M+Na
PRECURSOR_MZ=399.204
INCHI="InChI=1S/C24H28N2O2/c1-4-19-7-8-23-21(14-19)20(15-24(27)28-23)16-25-9-11-26(12-10-25)22-13-17(2)5-6-18(22)3/h5-8,13-15H,4,9-12,16H2,1-3H3"
SMILES=CCc1ccc2oc(=O)cc(CN3CCN(c4cc(C)ccc4C)CC3)c2c1
SPECTRUMID=CCMSLIB00010116574
55.75742 2395.0 
64.977463 3027.0 
82.115433 2332.0 
82.405243 2846.0 
92.384979 2757.0 
116.731018 2539.0 
120.051003 2554.0 
136.221161 2797.0 
191.692551 2541.0 
209.059586 10186.0 
219.689209 2321.0 
228.024658 2780.0 
262.919861 2101.0 
399.2034 132022.0 
END IONS

BEGIN IONS
NAME="methyl 4-(4-hydroxy-3-methoxyphenyl)-2-methyl-5-oxo-1,4,6,7,8-pentahydroquinol ine-3-carboxylate CollisionEnergy:205060" M-H
PRECURSOR_MZ=342.135
INCHI="InChI=1S/C19H21NO5/c1-10-16(19(23)25-3)17(11-7-8-13(21)15(9-11)24-2)18-12(20-10)5-4-6-14(18)22/h7-9,17,20-21H,4-6H2,1-3H3"
SMILES=COC(=O)C1=C(C)NC2=C(C(=O)CCC2)C1c1ccc(O)c(OC)c1
SPECTRUMID=CCMSLIB00010121150
63.023392 2800.0 
65.002823 33913.0 
71.013397 2401.0 
77.13401 2205.0 
83.013687 11361.0 
91.018753 96194.0 
92.412842 3410.0 
95.013832 18483.0 
106.005753 2856.0 
108.021667 64557.0 
109.028664 5530.0 
111.00885 39100.0 
123.009148 20213.0 
123.045158 72058.0 
124.016617 52350.0 
134.060898 2717.0 
139.003479 10698.0 
142.06665 3224.0 
146.060883 11043.0 
148.040344 17597.0 
148.076324 20067.0 
149.04808 13799.0 
158.06105 54261.0 
160.076752 40174.0 
162.032013 4041.0 
162.055801 22903.0 
164.047791 3093.0 
164.072037 13742.0 
174.056229 23004.0 
174.092422 4126.0 
186.055435 5799.0 
188.03476 3245.0 
190.088562 3533.0 
191.058899 5836.0 
203.059067 36187.0 
216.06781 2981.0 
218.082352 165140.0 
223.048965 4713.0 
235.048706 28011.0 
266.082642 17791.0 
268.097809 97603.0 
270.076843 26959.0 
278.080383 9361.0 
280.061188 39007.0 
294.078156 30533.0 
295.083069 5616.0 
297.395386 2819.0 
310.108124 5533.0 
312.088654 23887.0 
327.11142 10714.0 
342.134644 823690.0 
END IONS

BEGIN IONS
NAME=L-alanine CollisionEnergy:102040 M-H
PRECURSOR_MZ=88.0404
INCHI="InChI=1S/C3H7NO2/c1-2(4)3(5)6/h2H,4H2,1H3,(H,5,6)/t2-/m0/s1"
SMILES=C[C@H](N)C(=O)O
SPECTRUMID=CCMSLIB00010102450
51.0933 1854.119995 
67.579201 1946.400024 
73.965103 2102.419922 
82.410202 1946.22998 
84.755699 1829.920044 
88.040398 186684.0 
END IONS

BEGIN IONS
NAME="2-ethylthioethyl 4-(3-bromo-4-hydroxy-5-methoxyphenyl)-2-methyl-5-oxo-1,4,6,7, 8-pentahydroquinoline-3-carboxylate CollisionEnergy:102040" M+H
PRECURSOR_MZ=496.079
INCHI="InChI=1S/C22H26BrNO5S/c1-4-30-9-8-29-22(27)18-12(2)24-15-6-5-7-16(25)20(15)19(18)13-10-14(23)21(26)17(11-13)28-3/h10-11,19,24,26H,4-9H2,1-3H3"
SMILES=CCSCCOC(=O)C1=C(C)NC2=C(C(=O)CCC2)C1c1cc(Br)c(O)c(OC)c1
SPECTRUMID=CCMSLIB00010110743
55.054871 5913.0 
60.512169 2625.0 
61.011131 302702.0 
64.395447 2912.0 
68.185654 3719.0 
74.040367 2991.0 
79.461288 2741.0 
89.04216 3417489.0 
104.290314 3406.0 
109.521362 3177.0 
112.719597 3196.0 
157.974503 4449.0 
162.091309 7563.0 
175.994003 3234.0 
188.070251 6729.0 
206.0811 344242.0 
232.09726 7546.0 
234.112686 37030.0 
235.998566 3281.0 
266.084564 149190.0 
280.095795 5026.0 
294.115387 1516047.0 
295.083923 15200.0 
296.091736 15776.0 
310.10675 26925.0 
346.009064 3811.0 
358.00708 19820.0 
359.985596 4337.0 
374.002045 10943.0 
375.008453 34166.0 
390.033081 963999.0 
496.074829 84869.0 
END IONS

BEGIN IONS
NAME=6-methoxy-2-oxo-2H-chromen-7-yl 2-O-acetyl-6-O-(6-deoxyhexopyranosyl)hexopyranoside CollisionEnergy:205060 M+Na
PRECURSOR_MZ=565.153
INCHI="InChI=1S/C24H30O14/c1-9-17(27)19(29)21(31)23(34-9)33-8-15-18(28)20(30)22(35-10(2)25)24(38-15)37-14-7-12-11(6-13(14)32-3)4-5-16(26)36-12/h4-7,9,15,17-24,27-31H,8H2,1-3H3"
SMILES=COc1cc2ccc(=O)oc2cc1OC1OC(COC2OC(C)C(O)C(O)C2O)C(O)C(O)C1OC(C)=O
SPECTRUMID=CCMSLIB00010123088
55.149071 3368.0 
57.033958 53645.0 
66.730164 4289.0 
69.0336 24514.0 
69.744919 3696.0 
71.012787 4269.0 
71.049461 272118.0 
71.333878 3242.0 
73.028557 7604.0 
75.043877 17716.0 
75.786072 3975.0 
81.033508 3849.0 
82.382233 4976.0 
83.04908 19662.0 
85.028549 285947.0 
87.044052 6186.0 
97.027946 7230.0 
99.043694 7081.0 
104.264923 4165.0 
109.027634 17942.0 
111.043648 5842.0 
127.038353 6129.0 
129.053802 13203.0 
129.983826 3402.0 
136.182739 4137.0 
200.008881 6658.0 
203.590012 3895.0 
208.732132 4069.0 
213.373749 4003.0 
215.03125 456818.0 
227.051407 20876.0 
313.08847 6923.0 
315.103729 19140.0 
354.806 4230.0 
373.109833 1708760.0 
419.092377 35175.0 
505.125488 13221.0 
561.683044 4867.0 
565.152161 8364121.0 
568.640442 5745.0 
END IONS

BEGIN IONS
NAME=histamine CollisionEnergy:102040 M+H
PRECURSOR_MZ=112.087
INCHI="InChI=1S/C5H9N3/c6-2-1-5-3-7-4-8-5/h3-4H,1-2,6H2,(H,7,8)"
SMILES=NCCc1cnc[nH]1
SPECTRUMID=CCMSLIB00010126761
64.870201 105836.0 
68.050201 3502060.0 
82.412399 157739.0 
83.056297 120902.0 
83.060898 7758190.0 
95.060898 85164704.0 
104.306999 124157.0 
112.086998 19016600.0 
END IONS

BEGIN IONS
NAME=cyclopentyl(2-piperazinylquinazolin-4-yl)amine CollisionEnergy:102040 M+2H]
PRECURSOR_MZ=149.605
INCHI="InChI=1S/C17H23N5/c1-2-6-13(5-1)19-16-14-7-3-4-8-15(14)20-17(21-16)22-11-9-18-10-12-22/h3-4,7-8,13,18H,1-2,5-6,9-12H2,(H,19,20,21)"
SMILES=c1ccc2c(=NC3CCCC3)[nH]c(N3CCNCC3)nc2c1
SPECTRUMID=CCMSLIB00010104234
53.002739 17021.0 
63.539139 2538.0 
67.054588 35472.0 
67.935402 4456.0 
69.07032 2013374.0 
69.803337 2775.0 
70.065567 128660.0 
70.073532 70282.0 
72.937721 5646.0 
87.091614 22302.0 
90.903473 12241.0 
94.052643 28414.0 
99.003563 17020.0 
107.060417 257992.0 
107.562073 27402.0 
113.963913 17880.0 
115.573723 2046359.0 
116.075394 180396.0 
122.019287 51647.0 
122.968964 5610.0 
124.578957 66830.0 
131.930069 13953.0 
132.003494 20560.0 
136.086792 25191.0 
140.951797 5605.0 
144.055038 7005.0 
149.023087 3583.0 
149.604965 383713.0 
149.940781 23481.0 
149.978851 3208.0 
150.014206 77603.0 
150.026642 6281.0 
150.106277 46969.0 
158.610413 13950.0 
161.082138 401032.0 
162.066177 11639.0 
162.085831 22870.0 
170.118378 4485.0 
173.082703 5402.0 
182.347397 2686.0 
185.082382 38316.0 
187.097794 1781350.0 
188.101135 117390.0 
213.11348 175950.0 
214.116516 20674.0 
228.125153 3613.0 
230.139908 1822046.0 
231.143082 168608.0 
235.31192 4116.0 
255.160965 20114.0 
END IONS

BEGIN IONS
NAME=520-36-5 CollisionEnergy:205060 2M-H
PRECURSOR_MZ=539.098
INCHI="InChI=1S/C15H10O5/c16-9-3-1-8(2-4-9)13-7-12(19)15-11(18)5-10(17)6-14(15)20-13/h1-7,16-18H"
SMILES=O=c1cc(-c2ccc(O)cc2)oc2cc(O)cc(O)c12
SPECTRUMID=CCMSLIB00010117476
117.035004 3350.0 
149.024994 3644.0 
157.816025 2503.0 
203.142426 2533.0 
269.045593 39885.0 
327.067932 3515.0 
413.801117 2959.0 
544.073669 2978.0 
END IONS

BEGIN IONS
NAME="8-[(2,6-dimethylmorpholin-4-yl)methyl]-7-hydroxy-3-(2-methoxyphenyl)-2-(triflu oromethyl)chromen-4-one CollisionEnergy:102040" M-H
PRECURSOR_MZ=462.153
INCHI="InChI=1S/C24H24F3NO5/c1-13-10-28(11-14(2)32-13)12-17-18(29)9-8-16-21(30)20(15-6-4-5-7-19(15)31-3)23(24(25,26)27)33-22(16)17/h4-9,13-14,29H,10-12H2,1-3H3"
SMILES=COc1ccccc1-c1c(C(F)(F)F)oc2c(CN3CC(C)OC(C)C3)c(O)ccc2c1=O
SPECTRUMID=CCMSLIB00010103718
60.54895 3531.0 
64.219841 3600.0 
68.995293 6780.0 
76.528397 3319.0 
82.416153 3688.0 
84.219063 3501.0 
84.67054 3492.0 
104.304611 4418.0 
136.015778 30126.0 
208.96048 12793.0 
260.048035 4684.0 
261.053101 14454.0 
265.050476 161969.0 
279.066925 80155.0 
288.042175 5444.0 
289.04837 26882.0 
297.036743 7025.0 
304.072144 7250.0 
305.041809 32579.0 
317.04126 29260.0 
319.05719 13391.0 
333.038055 243819.0 
335.53241 3875.0 
347.054291 34052.0 
348.061218 241263.0 
349.068848 89273.0 
362.141876 6538.0 
366.034119 5766.0 
376.080536 6979.0 
378.134064 22744.0 
380.051422 1256397.0 
382.056335 4604.0 
388.080292 46088.0 
462.153961 7900310.0 
END IONS

BEGIN IONS
NAME="3,6-DIMETHOXYFLAVONE CollisionEnergy:205060" M+Na
PRECURSOR_MZ=305.078
INCHI="InChI=1S/C17H14O4/c1-19-12-8-9-14-13(10-12)15(18)17(20-2)16(21-14)11-6-4-3-5-7-11/h3-10H,1-2H3"
SMILES=COc1ccc2oc(-c3ccccc3)c(OC)c(=O)c2c1
SPECTRUMID=CCMSLIB00010114912
59.783661 3598.0 
64.179237 3513.0 
79.156326 3116.0 
82.392433 4673.0 
91.053658 4686.0 
116.432327 3345.0 
136.203827 4056.0 
151.038116 7039.0 
200.856232 3636.0 
209.530289 6894.0 
290.054901 70594.0 
304.068512 7001.0 
305.078003 4399493.0 
323.088989 51284.0 
END IONS

BEGIN IONS
NAME=2-(4-hydroxyquinazolin-2-ylthio)-N-[(3-methoxyphenyl)methyl]acetamide CollisionEnergy:205060 M+H
PRECURSOR_MZ=356.106
INCHI="InChI=1S/C18H17N3O3S/c1-24-13-6-4-5-12(9-13)10-19-16(22)11-25-18-20-15-8-3-2-7-14(15)17(23)21-18/h2-9H,10-11H2,1H3,(H,19,22)(H,20,21,23)"
SMILES=COc1cccc(CN=C(O)CSc2nc(O)c3ccccc3n2)c1
SPECTRUMID=CCMSLIB00010121280
53.039108 15980.0 
65.038979 12308.0 
78.046677 6679.0 
81.966759 3144.0 
82.392067 3108.0 
91.054291 136360.0 
95.04908 5513.0 
104.049377 20175.0 
105.033577 17846.0 
106.041344 12053.0 
109.064842 17833.0 
121.064697 1209587.0 
132.044327 2189991.0 
137.059769 4706.0 
138.091248 306013.0 
145.040146 5433.0 
150.054825 510868.0 
162.000732 19936.0 
177.588608 2696.0 
191.027084 480485.0 
212.355026 3342.0 
219.022003 1791819.0 
224.04541 3160.0 
274.752838 3071.0 
356.105377 77092.0 
END IONS

BEGIN IONS
NAME="3-(2-hydroxy-3-methoxyphenyl)-5-(methylethyl)-1-(2-methylthioethyl)-4,6-dioxo- 1,2,3,5,3a,6a-hexahydro-2,5-diazapentalenecarboxylic acid CollisionEnergy:205060" M+Na
PRECURSOR_MZ=445.14
INCHI="InChI=1S/C20H26N2O6S/c1-10(2)22-17(24)13-14(18(22)25)20(19(26)27,8-9-29-4)21-15(13)11-6-5-7-12(28-3)16(11)23/h5-7,10,13-15,21,23H,8-9H2,1-4H3,(H,26,27)"
SMILES=COc1cccc(C2NC(CCSC)(C(=O)O)C3C(=O)N(C(C)C)C(=O)C23)c1O
SPECTRUMID=CCMSLIB00010118765
56.090359 2678.0 
56.952099 2648.0 
61.011051 163289.0 
68.82589 2565.0 
72.798569 2911.0 
90.185783 2747.0 
92.376457 3998.0 
95.060349 22074.0 
133.051575 2943.0 
136.212753 3285.0 
140.049789 3822.0 
143.063446 46492.0 
144.044708 12936.0 
147.067902 4601.0 
159.041382 180758.0 
161.046936 58736.0 
176.070236 182534.0 
184.039734 3011.0 
185.110428 5657.0 
192.045517 11396.0 
194.783478 2759.0 
199.036209 286515.0 
207.092331 66653.0 
214.083923 12679.0 
217.046936 3224.0 
218.117386 17857.0 
225.102707 509157.0 
240.066849 4136.0 
240.098709 101979.0 
244.056961 3431.0 
258.07666 4735.0 
258.109131 66687.0 
262.086731 15260.0 
265.098663 15909.0 
277.097809 16417.0 
280.216736 3078.0 
298.105682 11885.0 
306.076019 48529.0 
321.088776 5741.0 
353.146301 81071.0 
373.154968 20040.0 
399.134094 5915.0 
401.14978 223207.0 
427.128693 19263.0 
445.139221 1518928.0 
END IONS

BEGIN IONS
NAME=N-(3-chlorophenyl)-2-{2-oxo-4-[N-benzylcarbamoyl]hydroquinolyl}acetamide CollisionEnergy:205060 M+formate
PRECURSOR_MZ=490.118
INCHI="InChI=1S/C25H20ClN3O3/c26-18-9-6-10-19(13-18)28-23(30)16-29-22-12-5-4-11-20(22)21(14-24(29)31)25(32)27-15-17-7-2-1-3-8-17/h1-14H,15-16H2,(H,27,32)(H,28,30)"
SMILES=O=c1cc(C(O)=NCc2ccccc2)c2ccccc2n1CC(O)=Nc1cccc(Cl)c1
SPECTRUMID=CCMSLIB00010123982
97.21254 2457.0 
104.289886 2713.0 
116.050728 21807.0 
118.65168 3107.0 
126.011276 37165.0 
128.050522 44912.0 
130.066193 48748.0 
132.045105 3374.0 
136.210907 2941.0 
142.066071 4327.0 
143.061661 3141.0 
144.045425 67995.0 
144.081467 3187.0 
156.045715 9944.0 
158.048462 18039.0 
158.061462 73351.0 
160.040802 5934.0 
169.077637 11890.0 
172.040436 6483.0 
176.072311 11047.0 
183.247421 2817.0 
184.040833 28127.0 
202.05188 4171.0 
212.156555 3881.0 
215.924591 2773.0 
231.093414 3062.0 
245.108368 4286.0 
247.12352 33313.0 
261.103912 17577.0 
277.098145 26724.0 
311.058563 33757.0 
317.094788 10009.0 
323.104828 11651.0 
444.11203 376488.0 
449.765106 2893.0 
END IONS

BEGIN IONS
NAME="N-(2H,3H-benzo[3,4-e]1,4-dioxan-6-yl)-2-{1-[(4-chlorophenyl)carbonyl]-5-methox y-2-methylindol-3-yl}acetamide CollisionEnergy:102040" M+Na
PRECURSOR_MZ=513.119
INCHI="InChI=1S/C27H23ClN2O5/c1-16-21(15-26(31)29-19-7-10-24-25(13-19)35-12-11-34-24)22-14-20(33-2)8-9-23(22)30(16)27(32)17-3-5-18(28)6-4-17/h3-10,13-14H,11-12,15H2,1-2H3,(H,29,31)"
SMILES=COc1ccc2c(c1)c(CC(O)=Nc1ccc3c(c1)OCCO3)c(C)n2C(=O)c1ccc(Cl)cc1
SPECTRUMID=CCMSLIB00010111512
58.079369 3319.0 
73.959328 3854.0 
145.407013 3906.0 
208.253311 16234.0 
279.834015 3410.0 
342.654388 3037.0 
409.399292 3473.0 
498.0979 5620.0 
510.116943 4460.0 
513.11792 6774953.0 
516.144897 3643.0 
END IONS

BEGIN IONS
NAME=(2S)-2-[(fluoren-9-ylmethoxy)carbonylamino]-3-indol-3-ylpropanoic acid CollisionEnergy:205060 2M-H
PRECURSOR_MZ=851.309
INCHI="InChI=1S/C26H22N2O4/c29-25(30)24(13-16-14-27-23-12-6-5-7-17(16)23)28-26(31)32-15-22-20-10-3-1-8-18(20)19-9-2-4-11-21(19)22/h1-12,14,22,24,27H,13,15H2,(H,28,31)(H,29,30)/t24-/m0/s1"
SMILES=O=C(O)C(Cc1c[nH]c2ccccc12)N=C(O)OCC1c2ccccc2-c2ccccc21
SPECTRUMID=CCMSLIB00010122361
61.102509 3789.0 
72.008812 250095.0 
73.973572 4374.0 
74.024483 240128.0 
86.967361 4465.0 
100.003838 51067.0 
116.05069 892442.0 
118.688011 4935.0 
130.06636 128089.0 
132.081787 5783.0 
142.066269 1001187.0 
157.076904 8247.0 
159.09288 142745.0 
161.048615 9536.0 
185.071747 8755.0 
186.055984 146210.0 
203.082779 2489223.0 
221.415207 4156.0 
229.061874 729878.0 
254.901199 4396.0 
259.647644 4396.0 
272.10437 4240.0 
364.29361 3831.0 
477.662262 5009.0 
743.045532 4768.0 
END IONS

BEGIN IONS
NAME=2-Fluoro-dl-phenylalanine CollisionEnergy:102040 M-H
PRECURSOR_MZ=182.062
INCHI="InChI=1S/C9H10FNO2/c10-7-4-2-1-3-6(7)5-8(11)9(12)13/h1-4,8H,5,11H2,(H,12,13)"
SMILES=NC(Cc1ccccc1F)C(=O)O
SPECTRUMID=CCMSLIB00010113374
66.743019 2615.0 
67.466263 2001.0 
70.065598 1891.0 
72.008789 2526.0 
75.385696 2207.0 
77.869629 1924.0 
87.925194 15481.0 
92.381447 2440.0 
103.920242 4834.0 
104.286537 3087.0 
106.923637 2528.0 
107.05027 20249.0 
107.504898 1953.0 
116.050636 3095.0 
118.066551 3334.0 
119.050613 4740.0 
121.045723 3478.0 
124.580803 1968.0 
125.942017 4904.0 
134.061249 56245.0 
137.986633 3428.0 
143.324219 2062.0 
157.979202 2117.0 
160.040543 18281.0 
162.056183 40533.0 
165.035873 23201.0 
169.907043 2047.0 
181.897491 12656.0 
182.062866 13079.0 
260.093048 2091.0 
293.796967 2112.0 
END IONS

BEGIN IONS
NAME=2-[4-(morpholin-4-ylcarbonyl)-2-oxohydroquinolyl]-N-[3-(trifluoromethyl)phenyl ]acetamide CollisionEnergy:102040 M+formate
PRECURSOR_MZ=504.139
INCHI="InChI=1S/C23H20F3N3O4/c24-23(25,26)15-4-3-5-16(12-15)27-20(30)14-29-19-7-2-1-6-17(19)18(13-21(29)31)22(32)28-8-10-33-11-9-28/h1-7,12-13H,8-11,14H2,(H,27,30)"
SMILES=O=C(c1cc(=O)n(CC(O)=Nc2cccc(C(F)(F)F)c2)c2ccccc12)N1CCOCC1
SPECTRUMID=CCMSLIB00010110318
92.388153 2683.0 
160.039047 3640.0 
167.509872 2406.0 
184.041046 4465.0 
215.135895 2471.0 
220.940201 3079.0 
230.442505 2649.0 
257.095062 5877.0 
271.110229 5646.0 
297.088562 4074.0 
341.355896 2839.0 
458.134613 94352.0 
END IONS

BEGIN IONS
NAME=trehalose CollisionEnergy:102040 M-H
PRECURSOR_MZ=341.109
INCHI="InChI=1S/C12H22O11/c13-1-3-5(15)7(17)9(19)11(21-3)23-12-10(20)8(18)6(16)4(2-14)22-12/h3-20H,1-2H2/t3-,4-,5-,6-,7+,8+,9-,10-,11-,12-/m1/s1"
SMILES=OC[C@H]1O[C@H](O[C@H]2O[C@H](CO)[C@@H](O)[C@H](O)[C@H]2O)[C@H](O)[C@@H](O)[C@@H]1O
SPECTRUMID=CCMSLIB00010126386
58.0056 18535.300781 
59.013401 345908.0 
71.013603 302659.0 
72.992897 31307.800781 
73.029198 11334.700195 
75.341698 6898.990234 
83.013802 14028.900391 
85.029297 29277.400391 
85.254402 6646.529785 
86.012199 7436.660156 
87.008499 38416.101562 
89.0243 827253.0 
101.025002 302382.0 
104.318001 11966.400391 
105.964996 7313.209961 
113.025002 214777.0 
119.035004 454534.0 
131.035004 53780.800781 
143.035004 95014.296875 
149.046005 45845.898438 
161.046005 124180.0 
179.042007 17428.5 
179.056 602928.0 
341.109009 1117100.0 
END IONS

BEGIN IONS
NAME=4-[(2E)-3-(3-chlorophenyl)prop-2-enoyl]phenyl 3-nitrobenzoate CollisionEnergy:102040 M-H
PRECURSOR_MZ=406.049
INCHI=InChI=1S/C22H14ClNO5/c23-18-5-1-3-15(13-18)7-12-21(25)16-8-10-20(11-9-16)29-22(26)17-4-2-6-19(14-17)24(27)28/h1-14H/b12-7+
SMILES=O=C(C=Cc1cccc(Cl)c1)c1ccc(OC(=O)c2cccc([N+](=O)[O-])c2)cc1
SPECTRUMID=CCMSLIB00010114231
56.260799 2326.0 
61.319832 2379.0 
66.750397 3365.0 
73.962479 2560.0 
122.024384 3495.0 
136.181793 2393.0 
138.579529 2397.0 
139.178757 2590.0 
166.01445 4906.0 
198.032318 4093.0 
214.027557 4096.0 
240.03064 21772.0 
328.068481 2317.0 
331.055084 10038.0 
352.180969 2386.0 
359.048737 23649.0 
375.043732 20770.0 
378.053619 5096.0 
389.638489 2993.0 
406.048706 1164122.0 
428.219818 2547.0 
END IONS

BEGIN IONS
NAME=6-Hydroxy-7-methoxyflavone CollisionEnergy:102040 M-2H]
PRECURSOR_MZ=133.03
INCHI="InChI=1S/C16H12O4/c1-19-16-9-15-11(7-13(16)18)12(17)8-14(20-15)10-5-3-2-4-6-10/h2-9,18H,1H3"
SMILES=COc1cc2oc(-c3ccccc3)cc(=O)c2cc1O
SPECTRUMID=CCMSLIB00010113314
84.472801 2438.0 
88.837219 2012.0 
92.385597 2230.0 
96.815964 2034.0 
132.857086 3906.0 
132.867813 74689.0 
133.029861 4221.0 
207.55069 8730.0 
207.574905 3383.0 
240.894379 1804.0 
END IONS

BEGIN IONS
NAME=glucosamine 6-sulfate CollisionEnergy:102040 M+H
PRECURSOR_MZ=260.043
INCHI="InChI=1S/C6H13NO8S/c7-3-5(9)4(8)2(15-6(3)10)1-14-16(11,12)13/h2-6,8-10H,1,7H2,(H,11,12,13)/t2-,3-,4-,5-,6-/m1/s1"
SMILES=N[C@H]1[C@H](O)O[C@H](COS(=O)(=O)O)[C@@H](O)[C@@H]1O
SPECTRUMID=CCMSLIB00010103165
56.050201 5690.580078 
60.045101 47176.101562 
65.469902 2416.449951 
68.050102 5097.669922 
69.034203 3270.889893 
70.065697 12994.799805 
72.044998 92187.0 
79.1595 3502.639893 
80.050003 5140.390137 
80.055298 2606.919922 
81.033798 5285.529785 
82.4114 3040.709961 
84.044899 111689.0 
85.028999 23433.0 
87.991898 2190.600098 
96.044601 14639.299805 
96.9963 2944.469971 
97.028603 11221.799805 
98.060303 38281.800781 
108.043999 15952.700195 
108.263 2586.350098 
114.055 5559.149902 
116.07 2715.350098 
125.643997 3060.919922 
126.055 36335.898438 
127.039001 5095.959961 
144.065002 37939.699219 
147.695999 2554.050049 
154.292999 2848.209961 
162.076004 224956.0 
166.016006 3381.030029 
179.253006 2596.600098 
206.011002 3906.149902 
224.022003 19145.5 
226.175003 2702.429932 
242.031998 324473.0 
260.041992 26401.199219 
END IONS

BEGIN IONS
NAME=N-(4-{N-[2-(5-methylindol-3-yl)ethyl]carbamoyl}phenyl)acetamide CollisionEnergy:205060 M-H
PRECURSOR_MZ=334.156
INCHI="InChI=1S/C20H21N3O2/c1-13-3-8-19-18(11-13)16(12-22-19)9-10-21-20(25)15-4-6-17(7-5-15)23-14(2)24/h3-8,11-12,22H,9-10H2,1-2H3,(H,21,25)(H,23,24)"
SMILES=CC(O)=Nc1ccc(C(=O)NCCc2c[nH]c3ccc(C)cc23)cc1
SPECTRUMID=CCMSLIB00010118844
55.693661 2670.0 
61.98782 28371.0 
92.050392 68570.0 
94.029633 2992.0 
98.080688 2992.0 
104.304657 2722.0 
117.045067 3627.0 
122.024681 11891.0 
129.975433 18034.0 
130.066162 37404.0 
134.02449 5466.0 
134.061005 114802.0 
134.071884 5737.0 
135.056351 1166653.0 
136.039993 2915.0 
136.229828 3185.0 
142.066406 5660.0 
144.081726 36528.0 
147.056473 11122.0 
156.082428 4937.0 
160.289093 3043.0 
173.108368 92280.0 
177.066925 172986.0 
189.066818 40953.0 
199.088318 2867.0 
228.751938 2759.0 
238.279404 2814.0 
267.014435 3295.0 
292.145508 1562902.0 
334.155975 1354564.0 
END IONS

BEGIN IONS
NAME=3-(4-fluorophenyl)-6-methoxychromen-2-one CollisionEnergy:102040 M+H
PRECURSOR_MZ=271.077
INCHI="InChI=1S/C16H11FO3/c1-19-13-6-7-15-11(8-13)9-14(16(18)20-15)10-2-4-12(17)5-3-10/h2-9H,1H3"
SMILES=COc1ccc2oc(=O)c(-c3ccc(F)cc3)cc2c1
SPECTRUMID=CCMSLIB00010107285
50.792561 3139.0 
52.081951 3049.0 
58.048698 2701.0 
62.008709 2728.0 
66.904373 3279.0 
92.365837 4972.0 
109.044662 121649.0 
130.065018 28009.0 
136.190414 3684.0 
146.059799 14870.0 
152.062454 4051.0 
158.059158 26213.0 
159.060364 12865.0 
165.069199 24235.0 
167.086227 7463.0 
172.068283 26610.0 
183.060104 69604.0 
184.067917 76523.0 
185.075424 36804.0 
187.090897 72817.0 
195.060699 20620.0 
195.080582 29796.0 
196.068085 13259.0 
197.075912 24088.0 
199.055115 13498.0 
200.06282 229360.0 
201.069702 5043.0 
208.051498 36124.0 
211.066238 5118.0 
212.063553 54073.0 
213.071426 7468.0 
214.07901 5174.0 
215.08638 947753.0 
223.07457 3869.0 
225.081848 5118.0 
227.08667 26235.0 
228.057419 21309.0 
231.112946 48483.0 
236.046799 17209.0 
243.081268 159780.0 
243.112579 142443.0 
251.069962 109030.0 
256.051086 26442.0 
269.9245 8759.0 
271.07605 8558719.0 
271.101379 366599.0 
272.234253 6828.0 
284.139496 11976.0 
END IONS

BEGIN IONS
NAME=5-Iodouracil CollisionEnergy:205060 M+H
PRECURSOR_MZ=238.931
INCHI="InChI=1S/C4H3IN2O2/c5-2-1-6-4(9)7-3(2)8/h1H,(H2,6,7,8,9)"
SMILES=Oc1ncc(I)c(O)n1
SPECTRUMID=CCMSLIB00010125267
51.054729 2068.0 
66.021469 3413.0 
66.755951 2298.0 
68.013397 4290.0 
69.021187 5746.0 
70.029259 2901.0 
71.108902 3067.0 
72.99852 2321.0 
73.047081 9096.0 
80.037079 3008.0 
84.031914 4300.0 
84.959824 15500.0 
87.031609 3850.0 
91.057373 13234.0 
92.393517 3309.0 
99.018883 136060.0 
100.026756 5619.0 
112.026604 3475.0 
115.277451 2210.0 
127.013718 64229.0 
129.029663 3617.0 
142.01619 2444.0 
148.359009 2609.0 
165.914673 171108.0 
167.92955 24430.0 
168.913651 3057.0 
192.925278 3733.0 
193.909393 45758.0 
195.925125 141179.0 
220.920303 84880.0 
221.085266 4124.0 
221.904419 389000.0 
238.930817 1342255.0 
239.094299 21016.0 
END IONS

BEGIN IONS
NAME="2-{[1-(4-methylphenyl)-5-phenyl-1,2,4-triazol-3-yl]carbonylamino}acetic acid CollisionEnergy:205060" M+H
PRECURSOR_MZ=337.13
INCHI="InChI=1S/C18H16N4O3/c1-12-7-9-14(10-8-12)22-17(13-5-3-2-4-6-13)20-16(21-22)18(25)19-11-15(23)24/h2-10H,11H2,1H3,(H,19,25)(H,23,24)"
SMILES=Cc1ccc(-n2nc(C(=O)NCC(=O)O)nc2-c2ccccc2)cc1
SPECTRUMID=CCMSLIB00010118194
53.002609 4331.0 
53.039162 33097.0 
55.018318 34747.0 
55.054459 3564.0 
65.038933 261397.0 
66.731773 3640.0 
67.054588 142599.0 
73.942558 3889.0 
75.728813 3056.0 
77.039017 13505.0 
79.054443 266401.0 
81.033478 8332.0 
86.454117 3453.0 
89.038696 6262.0 
91.05426 375286.0 
92.36335 4233.0 
94.040939 4311.0 
95.049187 66010.0 
96.044456 6345.0 
103.05407 134555.0 
104.049316 164118.0 
105.044609 13217.0 
107.048981 127428.0 
108.020157 3789.0 
109.064682 223641.0 
109.073112 7885.0 
116.049133 13552.0 
116.285789 3840.0 
119.06028 356865.0 
125.059723 4640.0 
129.044601 317573.0 
131.060226 3198508.0 
132.044403 3911.0 
144.044296 7380.0 
159.055206 104016.0 
194.095169 46709.0 
234.101547 20317.0 
236.095795 4737.0 
261.112518 6098.0 
262.095673 37196.0 
275.127991 6470.0 
280.107452 4518299.0 
282.113098 4587.0 
284.38797 3753.0 
291.123199 341928.0 
319.118591 17907.0 
337.128632 3683819.0 
END IONS

BEGIN IONS
NAME=e-64c CollisionEnergy:102040 M+Na
PRECURSOR_MZ=337.173
INCHI="InChI=1S/C15H26N2O5/c1-8(2)5-6-16-13(18)10(7-9(3)4)17-14(19)11-12(22-11)15(20)21/h8-12H,5-7H2,1-4H3,(H,16,18)(H,17,19)(H,20,21)/t10-,11-,12-/m0/s1"
SMILES=CC(C)CCN=C(O)C(CC(C)C)N=C(O)C1OC1C(=O)O
SPECTRUMID=CCMSLIB00010114101
69.659973 2131.0 
79.42601 2203.0 
91.594421 2478.0 
92.833328 2391.0 
107.160927 2462.0 
128.38588 2469.0 
137.331909 2837.0 
138.950912 2167.0 
207.856583 2433.0 
223.177887 341643.0 
233.160034 3082.0 
241.190018 9406.0 
263.17157 24358.0 
293.184723 4094.0 
309.177551 18555.0 
337.172852 835979.0 
END IONS

BEGIN IONS
NAME=N-(3-fluoro-4-methylphenyl)-2-[4-(N-methylcarbamoyl)-2-oxohydroquinolyl]acetam ide CollisionEnergy:205060 M-H
PRECURSOR_MZ=366.126
INCHI="InChI=1S/C20H18FN3O3/c1-12-7-8-13(9-16(12)21)23-18(25)11-24-17-6-4-3-5-14(17)15(10-19(24)26)20(27)22-2/h3-10H,11H2,1-2H3,(H,22,27)(H,23,25)"
SMILES=CN=C(O)c1cc(=O)n(CC(O)=Nc2ccc(C)c(F)c2)c2ccccc12
SPECTRUMID=CCMSLIB00010124784
58.02916 7896.0 
59.013279 27878.0 
72.045067 19039.0 
73.955727 4092.0 
86.492767 3372.0 
87.92498 4589.0 
91.393929 3432.0 
92.050217 14632.0 
92.377907 3870.0 
93.034279 3508.0 
103.919937 6501.0 
104.050491 4852.0 
104.098396 3591.0 
106.030838 3521.0 
115.055122 29830.0 
116.050507 225953.0 
118.065804 13793.0 
120.917503 3064.0 
124.056709 199797.0 
124.066963 6827.0 
128.050568 727513.0 
130.066162 690034.0 
130.075104 10531.0 
131.037613 7093.0 
132.045258 21270.0 
141.045181 5026.0 
142.029785 12465.0 
142.066193 72973.0 
143.061127 41453.0 
144.045456 1706119.0 
146.024002 7440.0 
146.061462 24720.0 
150.384232 3238.0 
156.045853 80214.0 
156.069122 122776.0 
157.052841 6496.0 
158.048248 530596.0 
158.061264 461429.0 
160.040329 267016.0 
164.051498 42675.0 
167.061707 37425.0 
169.077087 124139.0 
171.092804 472750.0 
172.040405 159487.0 
172.076523 13324.0 
173.07196 366051.0 
174.056046 52766.0 
174.956253 7626.0 
176.071579 114161.0 
182.048828 31573.0 
183.056412 4768.0 
184.040527 94918.0 
185.072037 356724.0 
186.055832 7046.0 
187.087646 57519.0 
188.035309 4452.0 
197.07164 21440.0 
201.067032 546168.0 
202.051025 157462.0 
215.082581 124973.0 
215.104965 6135.0 
217.061798 240167.0 
228.030304 7108.0 
241.061966 234084.0 
247.073364 6133.0 
257.071503 3202.0 
259.072662 15165.0 
263.11908 4712.0 
277.098389 4623.0 
282.765839 3381.0 
289.098358 194486.0 
296.356537 3383.0 
297.89679 4786.0 
303.074127 3904.0 
309.104523 294565.0 
366.126038 1264006.0 
END IONS

BEGIN IONS
NAME="2-{7-[(2-fluorophenyl)methyl]-1,3-dimethyl-2,6-dioxo(1,3,7-trihydropurin-8-ylt hio)}-N-[4-(trifluoromethoxy)phenyl]acetamide CollisionEnergy:102040" M+formate
PRECURSOR_MZ=582.108
INCHI="InChI=1S/C23H19F4N5O4S/c1-30-19-18(20(34)31(2)22(30)35)32(11-13-5-3-4-6-16(13)24)21(29-19)37-12-17(33)28-14-7-9-15(10-8-14)36-23(25,26)27/h3-10H,11-12H2,1-2H3,(H,28,33)"
SMILES=Cn1c(=O)c2c(nc(SCC(=O)Nc3ccc(OC(F)(F)F)cc3)n2Cc2ccccc2F)n(C)c1=O
SPECTRUMID=CCMSLIB00010110419
56.5415 2602.0 
63.679352 2409.0 
67.240059 2727.0 
73.973381 2354.0 
109.001671 3194.0 
179.752991 2695.0 
207.794434 10780.0 
247.99913 3962.0 
277.950653 2687.0 
299.060394 44185.0 
319.066345 51654.0 
353.073975 5036.0 
462.120728 32263.0 
536.101379 103449.0 
END IONS

BEGIN IONS
NAME="2-[(1,1-dioxobenzo[d]1,2-thiazolin-3-yl)(2-chlorophenyl)amino]ethyl (2E)-3-phe nylprop-2-enoate CollisionEnergy:205060" M+Na
PRECURSOR_MZ=489.065
INCHI="InChI=1S/C24H19ClN2O4S/c25-20-11-5-6-12-21(20)27(24-19-10-4-7-13-22(19)32(29,30)26-24)16-17-31-23(28)15-14-18-8-2-1-3-9-18/h1-15H,16-17H2/b15-14+"
SMILES=O=C(C=Cc1ccccc1)OCCN(C1=NS(=O)(=O)c2ccccc21)c1ccccc1Cl
SPECTRUMID=CCMSLIB00010121334
61.693119 2642.0 
66.743362 2477.0 
66.748154 2812.0 
71.441528 3012.0 
80.58799 3027.0 
80.947594 11203.0 
82.401466 3245.0 
86.999931 3171.0 
90.976387 6610.0 
92.379318 3456.0 
99.061882 2663.0 
103.053886 4272.0 
116.048477 2999.0 
117.057259 35750.0 
118.064781 17649.0 
125.014771 14371.0 
131.048859 24632.0 
137.391754 2858.0 
138.010651 37775.0 
152.025986 12887.0 
153.033585 39142.0 
172.819733 2924.0 
175.076035 19523.0 
178.064041 3189.0 
179.073059 3253.0 
189.909088 2653.0 
196.07486 4634.0 
205.075287 6237.0 
210.05426 4331.0 
216.921539 5454.0 
217.416031 2735.0 
219.091385 236253.0 
224.75351 2812.0 
226.950043 4176.0 
230.036224 11475.0 
235.086411 108109.0 
236.092987 5149.0 
240.043564 3346.0 
253.052475 4731.0 
255.067596 14710.0 
260.694946 2730.0 
269.04361 2751.0 
271.062561 18582.0 
319.029572 732637.0 
405.182983 2840.0 
489.063995 978427.0 
END IONS

BEGIN IONS
NAME="(3,4-dimethoxyphenyl)-N-[2-(2,7-dimethylindol-3-yl)ethyl]carboxamide CollisionEnergy:102040" M+formate
PRECURSOR_MZ=397.177
INCHI="InChI=1S/C21H24N2O3/c1-13-6-5-7-17-16(14(2)23-20(13)17)10-11-22-21(24)15-8-9-18(25-3)19(12-15)26-4/h5-9,12,23H,10-11H2,1-4H3,(H,22,24)"
SMILES=COc1ccc(C(O)=NCCc2c(C)[nH]c3c(C)cccc23)cc1OC
SPECTRUMID=CCMSLIB00010110174
50.683552 2092.0 
56.598949 2483.0 
67.163498 2438.0 
68.995369 3169.0 
73.606178 2461.0 
89.768867 2377.0 
90.933563 4859.0 
92.382332 3044.0 
104.293716 2315.0 
112.985649 11342.0 
174.283401 2391.0 
180.066605 86579.0 
192.929352 10998.0 
193.410629 2489.0 
209.8414 5019.0 
213.633987 2626.0 
226.0345 2661.0 
260.916351 4664.0 
283.045105 2282.0 
303.237701 2932.0 
314.765564 2565.0 
351.171631 385158.0 
370.350433 2471.0 
396.973572 8367.0 
END IONS

BEGIN IONS
NAME=Vanillylmandelic acid CollisionEnergy:205060 M-H
PRECURSOR_MZ=197.046
INCHI="InChI=1S/C9H10O5/c1-14-7-4-5(2-3-6(7)10)8(11)9(12)13/h2-4,8,10-11H,1H3,(H,12,13)"
SMILES=COc1cc(C(O)C(=O)O)ccc1O
SPECTRUMID=CCMSLIB00010125208
68.419632 2914.0 
82.418007 3376.0 
93.034348 3871.0 
108.021759 6853.0 
109.028999 3747.0 
116.372711 2753.0 
117.535347 2855.0 
121.029167 6849.0 
135.046371 2600.0 
136.016495 85534.0 
136.604691 5282.0 
136.615189 2607.0 
137.024277 6589554.0 
137.446732 6688.0 
151.039444 48700.0 
153.055191 58235.0 
161.769821 3078.0 
165.481659 3425.0 
197.04541 1656176.0 
212.638596 5239.0 
END IONS

BEGIN IONS
NAME="2-(7-ethyl-3-methyl-2,6-dioxo-1,3,7-trihydropurin-8-ylthio)acetic acid CollisionEnergy:205060" 2M-H
PRECURSOR_MZ=567.109
INCHI="InChI=1S/C10H12N4O4S/c1-3-14-6-7(11-10(14)19-4-5(15)16)13(2)9(18)12-8(6)17/h3-4H2,1-2H3,(H,15,16)(H,12,17,18)"
SMILES=CCn1c(SCC(=O)O)nc2c1c(O)nc(=O)n2C
SPECTRUMID=CCMSLIB00010123969
52.491482 2674.0 
55.593121 2550.0 
57.97514 2659.0 
69.577293 3190.0 
92.024521 2896.0 
92.394592 3915.0 
100.640877 2641.0 
118.676773 3275.0 
122.035759 5429.0 
136.052048 6842.0 
138.067734 5593.0 
150.018295 3652.0 
165.041916 512655.0 
168.230438 2884.0 
177.042252 11480.0 
179.057953 62829.0 
180.02916 25694.0 
181.036591 4549.0 
187.780991 2987.0 
193.073151 48737.0 
196.0056 5193.0 
197.013672 14970.0 
205.074234 11462.0 
209.014969 12849.0 
209.068268 317957.0 
210.021561 4566.0 
211.030685 28036.0 
225.045044 89171.0 
237.063141 13163.0 
239.06102 161643.0 
265.112915 3235.0 
276.294891 2800.0 
283.050995 26901.0 
583.471558 3691.0 
END IONS

BEGIN IONS
NAME=(2E)-3-(4-methoxyphenyl)-1-(2-thienyl)prop-2-en-1-one CollisionEnergy:102040 M+H
PRECURSOR_MZ=245.063
INCHI="InChI=1S/C14H12O2S/c1-16-12-7-4-11(5-8-12)6-9-13(15)14-3-2-10-17-14/h2-10H,1H3/b9-6+"
SMILES=COc1ccc(C=CC(=O)c2cccs2)cc1
SPECTRUMID=CCMSLIB00010105868
52.866409 2282.0 
62.56303 2580.0 
92.362961 4017.0 
104.272636 2654.0 
110.989807 453168.0 
133.064743 104380.0 
137.006149 4107.0 
137.059509 10389.0 
150.672287 2722.0 
161.059555 980042.0 
171.079895 2446.0 
182.04921 2598.0 
194.504547 2449.0 
194.607132 2740.0 
217.068954 2568.0 
227.051636 17560.0 
245.062668 2060074.0 
END IONS

BEGIN IONS
NAME="4-Benzyloxy-2',3,4',6'-tetramethoxychalcone CollisionEnergy:102040" M+Na
PRECURSOR_MZ=457.162
INCHI="InChI=1S/C26H26O6/c1-28-20-15-24(30-3)26(25(16-20)31-4)21(27)12-10-18-11-13-22(23(14-18)29-2)32-17-19-8-6-5-7-9-19/h5-16H,17H2,1-4H3/b12-10+"
SMILES=COc1cc(OC)c(C(=O)C=Cc2ccc(OCc3ccccc3)c(OC)c2)c(OC)c1
SPECTRUMID=CCMSLIB00010114671
50.16272 2289.0 
74.487053 2126.0 
81.33213 2619.0 
82.336617 2344.0 
88.124207 2745.0 
92.367027 3132.0 
103.557297 2459.0 
104.270348 2323.0 
118.642128 2441.0 
121.832817 2507.0 
130.306671 2694.0 
195.064621 3308.0 
218.075775 2684.0 
251.408081 3381.0 
337.103699 5309.0 
344.919525 3300.0 
365.099365 20408.0 
366.106873 89838.0 
449.663879 2770.0 
457.161407 669228.0 
END IONS

BEGIN IONS
NAME=L-ornithine CollisionEnergy:102040 M+H-H2O
PRECURSOR_MZ=115.087
INCHI="InChI=1S/C5H12N2O2/c6-3-1-2-4(7)5(8)9/h4H,1-3,6-7H2,(H,8,9)/t4-/m0/s1"
SMILES=NCCC[C@H](N)C(=O)O
SPECTRUMID=CCMSLIB00010126994
50.4762 5333.689941 
51.447701 4794.430176 
68.050003 10384.299805 
70.065804 5804760.0 
70.999496 5803.97998 
74.9739 4749.569824 
87.0924 50138.0 
92.396698 6774.450195 
97.076401 338460.0 
98.0606 27021.099609 
115.086998 826041.0 
END IONS

BEGIN IONS
NAME="N-[((9S,10S,14R)-9-acetyl-10,14-dimethylpentacyclo[11.8.0.0<2,10>.0<4,9>.0<14, 19>]henicos-18-en-17-ylidene)azamethyl]ethoxycarboxamide CollisionEnergy:205060" M+H
PRECURSOR_MZ=455.327
INCHI="InChI=1S/C28H42N2O3/c1-5-33-25(32)30-29-21-11-14-26(3)19(16-21)9-10-22-23(26)12-15-27(4)24(22)17-20-8-6-7-13-28(20,27)18(2)31/h16,20,22-24H,5-15,17H2,1-4H3,(H,30,32)/b29-21+/t20?,22?,23?,24?,26-,27-,28-/m0/s1"
SMILES=CCOC(O)=NN=C1C=C2CCC3C(CCC4(C)C3CC3CCCCC34C(C)=O)C2(C)CC1
SPECTRUMID=CCMSLIB00010114993
50.01564 132767.0 
50.63599 98973.0 
53.039219 117957.0 
55.054829 381195.0 
56.049999 191485.0 
57.070251 114834.0 
59.024361 124324.0 
59.049541 134037.0 
62.024029 798255.0 
65.03891 959323.0 
67.054649 10514629.0 
68.049957 197065.0 
69.070267 1313780.0 
70.065407 759075.0 
77.034737 193512.0 
77.039299 119314.0 
79.054527 11777165.0 
80.049828 1938435.0 
81.057716 137720.0 
81.070168 5873240.0 
82.065399 832906.0 
83.049248 448322.0 
83.085716 721075.0 
85.065071 211020.0 
85.076157 166215.0 
91.048401 185788.0 
91.05439 3577570.0 
91.060913 146733.0 
93.057404 198277.0 
93.069992 6665689.0 
94.065247 16357654.0 
95.049294 252164.0 
95.073509 885554.0 
95.085602 4899633.0 
96.044342 245275.0 
96.08078 1947943.0 
97.039841 213167.0 
97.076012 208725.0 
97.101189 162896.0 
98.060059 210465.0 
103.054314 117497.0 
104.049583 125149.0 
105.069977 6920160.0 
106.065117 14141001.0 
107.073143 790679.0 
107.08548 5438430.0 
108.04454 1152857.0 
108.080727 2932273.0 
109.064728 221265.0 
109.088509 1365410.0 
109.101143 2966993.0 
109.109016 103952.0 
110.096039 828874.0 
110.192436 100635.0 
111.055107 604838.0 
111.09182 872443.0 
112.075706 3909238.0 
117.069962 1293405.0 
118.064941 520895.0 
119.08548 5302788.0 
120.080757 4442984.0 
121.075783 117964.0 
121.088654 1041743.0 
121.101067 3792736.0 
122.05957 129157.0 
122.096321 3227938.0 
123.05529 3619372.0 
123.081284 191166.0 
123.091553 1541925.0 
123.104088 1542361.0 
123.116562 571539.0 
124.075638 2142152.0 
125.096008 1634397.0 
128.061905 140466.0 
129.070175 774667.0 
130.077362 115879.0 
131.074265 159060.0 
131.085419 3627968.0 
132.08078 947098.0 
133.089859 286447.0 
133.101013 6335723.0 
134.08493 170362.0 
134.096191 2881684.0 
135.080429 110011.0 
135.093094 136594.0 
135.104584 449182.0 
135.116669 6632021.0 
135.128525 216049.0 
136.111923 2259061.0 
136.203049 104219.0 
137.070953 29027318.0 
137.107422 622922.0 
138.091293 147750.0 
139.122513 163097.0 
141.065796 2744617.0 
142.07785 448435.0 
143.085495 1496401.0 
145.089813 232225.0 
145.101135 4720839.0 
146.096283 1226951.0 
147.10585 479360.0 
147.11673 13017718.0 
148.112106 1355106.0 
148.124176 155188.0 
149.070908 30841976.0 
149.132401 4629169.0 
150.12764 154820.0 
151.086548 705537.0 
151.111435 641252.0 
151.122925 384556.0 
153.239151 124328.0 
155.081436 18314912.0 
157.100937 2594564.0 
158.096054 512843.0 
158.10936 475421.0 
159.104218 252679.0 
159.116684 5552560.0 
160.111862 1368926.0 
161.120636 278267.0 
161.132462 5266786.0 
162.127304 1139363.0 
163.086517 3506712.0 
163.111099 392845.0 
163.14801 551805.0 
165.102036 252528.0 
165.127197 505323.0 
167.081406 21749068.0 
169.097687 2553301.0 
170.109406 154975.0 
171.117035 1914518.0 
172.112091 777436.0 
173.132507 5859816.0 
174.127502 2137131.0 
175.111877 160813.0 
175.132156 743546.0 
175.150162 952189.0 
176.143158 2919363.0 
177.102493 220715.0 
177.127167 528371.0 
179.118011 99799.0 
181.097198 2408400.0 
182.107056 170825.0 
183.112839 19105442.0 
185.132645 1941929.0 
186.127655 612782.0 
187.14827 1708802.0 
188.142578 1007644.0 
189.127106 254377.0 
189.163895 454176.0 
190.159302 523966.0 
191.118744 115540.0 
195.112762 27129630.0 
196.12442 121394.0 
197.13205 1450690.0 
198.127228 208103.0 
199.148193 2150620.0 
200.142349 895628.0 
201.165451 1266471.0 
202.158752 190244.0 
203.116852 182532.0 
205.133102 218962.0 
207.113647 155637.0 
209.128708 2969063.0 
211.148056 1041697.0 
212.142212 201529.0 
213.163559 1160471.0 
214.158386 552497.0 
215.179153 602786.0 
217.133469 584564.0 
219.149109 250024.0 
221.130661 178277.0 
223.147324 681446.0 
225.163467 881273.0 
226.158859 181074.0 
227.17926 800949.0 
228.175201 1125567.0 
231.149689 212568.0 
235.145538 225642.0 
237.162659 224095.0 
239.17804 261978.0 
241.193283 177082.0 
242.18988 159796.0 
249.161118 222518.0 
251.178299 258953.0 
253.193207 261525.0 
255.211044 261409.0 
263.17569 401260.0 
265.19455 197489.0 
267.210876 249062.0 
269.226135 202517.0 
271.179962 161981.0 
281.223724 173917.0 
285.196411 125385.0 
293.225555 188392.0 
294.222626 149786.0 
307.242493 614888.0 
308.237457 166368.0 
309.256836 411383.0 
310.251099 833818.0 
322.253326 883333.0 
324.26825 2275003.0 
339.279449 459082.0 
341.294128 213493.0 
348.268311 386697.0 
352.262939 1968473.0 
365.258453 573522.0 
366.276703 1191681.0 
367.278656 2334277.0 
383.309906 1119797.0 
385.285828 600768.0 
391.271881 165118.0 
409.284363 4151143.0 
411.299408 510369.0 
413.31543 1147988.0 
427.294861 2747214.0 
452.822479 157028.0 
455.326263 253134416.0 
457.849091 207864.0 
END IONS

BEGIN IONS
NAME="3-(3,4-Dimethoxyphenyl)-6-hydroxy-4-methylcoumarin CollisionEnergy:205060" M+H
PRECURSOR_MZ=313.107
INCHI="InChI=1S/C18H16O5/c1-10-13-9-12(19)5-7-14(13)23-18(20)17(10)11-4-6-15(21-2)16(8-11)22-3/h4-9,19H,1-3H3"
SMILES=COc1ccc(-c2c(C)c3cc(O)ccc3oc2=O)cc1OC
SPECTRUMID=CCMSLIB00010118561
50.17392 4262.0 
55.018181 18798.0 
55.934669 4211.0 
65.038849 8248.0 
66.74836 3534.0 
67.054352 4163.0 
73.95874 4154.0 
75.044243 4344.0 
79.054314 18124.0 
80.062202 3491.0 
81.069847 6505.0 
91.054207 161919.0 
95.049004 29047.0 
103.054283 32952.0 
105.06971 36296.0 
107.048927 332425.0 
108.056808 8066.0 
109.028343 6507.0 
109.064697 14013.0 
115.054092 21865.0 
117.069557 6867.0 
119.048973 332364.0 
120.056381 5979.0 
121.028122 17686.0 
121.064636 39154.0 
123.043854 77198.0 
124.051552 16113.0 
130.040939 4844.0 
131.048996 77528.0 
132.056808 5409.0 
133.064484 54551.0 
134.035995 19141.0 
135.043625 28893.0 
135.079819 17959.0 
136.051773 47483.0 
136.224304 4091.0 
137.022461 6670.0 
137.059525 68416.0 
138.067291 145104.0 
139.075027 15517.0 
141.069733 6396.0 
143.049393 5336.0 
143.084656 4238.0 
145.06424 24816.0 
146.036392 6055.0 
147.043808 381454.0 
148.051376 103939.0 
149.023193 17057.0 
149.059326 7566.0 
151.039276 3459.0 
151.075073 115125.0 
152.061829 5954.0 
153.069763 22072.0 
155.085403 6763.0 
157.063889 4407.0 
158.071869 5492.0 
160.051437 98541.0 
161.022888 3432.0 
161.059479 60401.0 
162.068039 4710.0 
163.03891 68721.0 
163.074905 138170.0 
165.054108 28774.0 
165.06958 70401.0 
166.077011 16071.0 
167.084961 42707.0 
168.057114 5544.0 
169.064743 13402.0 
171.080246 14578.0 
175.038788 16151.0 
175.075043 144137.0 
176.046387 24322.0 
176.082794 26184.0 
177.05423 7166.0 
177.069183 7242.0 
178.077698 16393.0 
179.085571 37341.0 
181.064453 94947.0 
182.07222 67285.0 
183.079895 57408.0 
184.051697 6232.0 
185.060104 7872.0 
189.054199 21881.0 
191.068878 12469.0 
193.064178 28898.0 
194.072571 56227.0 
195.079956 124708.0 
196.050766 4335.0 
196.088043 23789.0 
197.060333 29761.0 
197.095322 130818.0 
198.067444 5649.0 
199.075058 86584.0 
205.064987 6790.0 
206.072647 6172.0 
207.080154 62433.0 
208.087326 14793.0 
209.05928 110413.0 
209.095947 18189.0 
210.067093 126730.0 
210.102753 5318.0 
211.07486 221339.0 
212.082474 4968.0 
213.054504 28854.0 
213.090469 43168.0 
214.096939 6742.0 
218.07399 3999.0 
221.059341 67618.0 
222.067673 30761.0 
223.074814 335291.0 
224.045883 19181.0 
224.082489 80436.0 
225.054153 7818.0 
225.090668 125230.0 
226.062149 7316.0 
226.070053 6049.0 
226.098434 123111.0 
227.069595 192398.0 
227.107834 5972.0 
234.066406 7361.0 
235.075089 71197.0 
236.084091 4946.0 
237.054031 389933.0 
237.08876 14136.0 
238.062088 97631.0 
238.097366 44884.0 
239.069702 341632.0 
239.104416 13907.0 
240.078217 24743.0 
240.881561 4620.0 
241.085922 36164.0 
242.092239 52546.0 
250.062378 7553.0 
251.069611 618753.0 
252.077438 395638.0 
253.050735 17797.0 
253.084854 174679.0 
254.093033 547074.0 
255.064468 342623.0 
257.08606 5288.0 
257.116669 148221.0 
263.068237 7978.0 
265.048798 669731.0 
266.056885 84821.0 
267.064514 72845.0 
267.099457 14640.0 
268.037506 5265.0 
269.080078 279909.0 
270.087738 296702.0 
279.064453 130791.0 
280.072113 76050.0 
281.079895 223389.0 
282.05127 23891.0 
282.087646 18471.0 
283.059418 495924.0 
285.112122 57996.0 
297.07489 567329.0 
298.082794 126909.0 
311.676819 5505.0 
313.10614 5433181.0 
314.546356 5338.0 
END IONS

BEGIN IONS
NAME="2,3,4-trihydrobeta-carbolin-1-one CollisionEnergy:205060" M+H
PRECURSOR_MZ=187.087
INCHI="InChI=1S/C11H10N2O/c14-11-10-8(5-6-12-11)7-3-1-2-4-9(7)13-10/h1-4,13H,5-6H2,(H,12,14)"
SMILES=OC1=NCCc2c1[nH]c1ccccc21
SPECTRUMID=CCMSLIB00010117283
55.05471 5095.0 
55.93483 55665.0 
55.993481 2559.0 
56.94252 4339.0 
60.938641 3600.0 
71.929779 2864.0 
72.937447 17066.0 
74.863907 2669.0 
74.953262 3595.0 
77.941368 3480.0 
83.08577 48777.0 
84.959862 11838.0 
88.021584 148356.0 
90.947884 27308.0 
92.09156 2668.0 
103.054108 4425.0 
105.069946 3156.0 
105.934647 11221.0 
113.963707 5203.0 
115.054108 117980.0 
116.049507 5191.0 
116.951469 14864.0 
117.057312 91112.0 
117.069359 37646.0 
117.959503 12064.0 
118.065086 33938.0 
118.942703 11802.0 
118.967278 30311.0 
123.945587 16496.0 
128.950714 15475.0 
130.064987 345942.0 
131.072968 5102.0 
131.977005 2809.0 
132.080643 1554805.0 
134.962051 7126.0 
135.945099 6724.0 
136.953812 4019.0 
137.267502 2988.0 
140.049423 4691.0 
142.065033 304979.0 
143.072357 31676.0 
144.080612 471207.0 
145.063934 2691.0 
146.961075 12264.0 
153.955963 3890.0 
157.075684 30415.0 
158.060501 152949.0 
158.083572 310663.0 
159.091522 2157666.0 
160.075455 227532.0 
163.940552 27264.0 
169.075806 124179.0 
169.092316 3804.0 
170.059875 83534.0 
181.950195 11421.0 
187.086334 3152537.0 
188.070312 36328.0 
END IONS

BEGIN IONS
NAME="{6-[3,5-dihydroxy-2-(4-hydroxy-3-methoxyphenyl)-8-methoxy-4-oxochromen-7-yloxy ]-3,4-dihydroxy-5-(3,4,5-trihydroxy-6-methyl(2H-3,4,5,6-tetrahydropyran-2-yl)o xy)-2H-3,4,5,6-tetrahydropyran-2-yl}methyl acetate CollisionEnergy:205060" M+H
PRECURSOR_MZ=697.197
INCHI="InChI=1S/C31H36O18/c1-10-19(35)22(38)25(41)30(45-10)49-29-23(39)20(36)17(9-44-11(2)32)47-31(29)46-16-8-14(34)18-21(37)24(40)26(48-28(18)27(16)43-4)12-5-6-13(33)15(7-12)42-3/h5-8,10,17,19-20,22-23,25,29-31,33-36,38-41H,9H2,1-4H3"
SMILES=COc1cc(-c2oc3c(OC)c(OC4OC(COC(C)=O)C(O)C(O)C4OC4OC(C)C(O)C(O)C4O)cc(O)c3c(=O)c2O)ccc1O
SPECTRUMID=CCMSLIB00010126004
53.03915 4708.0 
55.054569 4537.0 
57.033951 21045.0 
61.029079 4647.0 
61.770821 2750.0 
64.285797 3098.0 
66.738998 3996.0 
69.03373 30235.0 
71.013107 4823.0 
71.049492 127420.0 
73.028664 13151.0 
75.044121 4834.0 
81.033737 32575.0 
83.049187 24267.0 
85.02858 193485.0 
86.689049 3550.0 
92.366432 3573.0 
97.028427 14504.0 
99.044037 7256.0 
103.039062 24173.0 
109.027992 33089.0 
111.044037 22018.0 
123.04464 4220.0 
127.038689 53686.0 
129.054321 54483.0 
137.05925 5004.0 
145.049683 5899.0 
146.035156 4165.0 
147.043488 7477.0 
147.065094 5629.0 
151.03862 25239.0 
165.055023 3956.0 
168.005859 3501.0 
169.014404 24044.0 
169.048355 23779.0 
171.064835 5189.0 
174.682297 3290.0 
183.028885 11682.0 
186.016418 3796.0 
187.059982 38223.0 
205.070541 22195.0 
216.040665 4874.0 
237.075562 15755.0 
244.035812 19091.0 
245.043472 7850.0 
255.085938 5432.0 
261.039703 27024.0 
266.950836 3994.0 
272.031372 45262.0 
273.038055 32019.0 
286.046478 5676.0 
287.054718 23929.0 
289.033936 75001.0 
300.02536 67890.0 
301.033508 192779.0 
303.049377 13339.0 
315.04953 56530.0 
316.056976 5851.0 
317.027649 33685.0 
331.044495 16273.0 
332.051788 578910.0 
347.075378 768016.0 
401.02829 3609.0 
492.816376 4029.0 
551.137451 28518.0 
END IONS

BEGIN IONS
NAME="3',4'-Dihydroxy-.beta.-naphthoflavone CollisionEnergy:205060" M+H
PRECURSOR_MZ=305.081
INCHI="InChI=1S/C19H12O4/c20-14-7-5-12(9-15(14)21)18-10-16(22)19-13-4-2-1-3-11(13)6-8-17(19)23-18/h1-10,20-21H"
SMILES=O=c1cc(-c2ccc(O)c(O)c2)oc2ccc3ccccc3c12
SPECTRUMID=CCMSLIB00010116900
59.966549 3514.0 
60.416592 3668.0 
63.02359 5401.0 
68.997513 52047.0 
71.013184 4370.0 
79.054581 35132.0 
81.033813 16003.0 
82.39653 4622.0 
89.03891 116127.0 
102.047081 5142.0 
103.054283 190981.0 
105.034088 9350.0 
107.049026 45381.0 
109.028633 8850.0 
115.054359 1817622.0 
117.033607 98574.0 
117.070358 6238.0 
126.751831 3616.0 
127.053993 51428.0 
127.789223 4035.0 
128.062363 17446.0 
130.041733 9457.0 
131.050125 5540.0 
133.027939 5324.0 
134.036209 6907.0 
135.044159 949045.0 
136.207047 5643.0 
137.023483 194561.0 
137.034393 12569.0 
139.05452 9355.0 
143.013931 27547.0 
143.049316 627484.0 
144.056946 7529.0 
145.064865 179847.0 
149.023621 5798.0 
155.049866 8107.0 
155.060699 163165.0 
161.023438 2114926.0 
165.070251 5095.0 
167.048965 15243.0 
168.056717 13212.0 
169.064621 4355.0 
171.044144 1507902.0 
178.078186 8027.0 
179.085999 17177.0 
189.054657 1217392.0 
190.078522 4396.0 
191.084991 34460.0 
193.10144 7235.0 
202.077713 160444.0 
203.085678 715879.0 
205.066666 4553.0 
206.072327 6492.0 
207.08075 18387.0 
207.628708 18863.0 
213.069244 28260.0 
215.085678 139857.0 
217.06485 17115.0 
218.072342 17875.0 
219.080917 30562.0 
221.096573 7993.0 
230.071823 6545.0 
231.080368 761118.0 
232.088531 9625.0 
234.067444 21634.0 
235.075302 18264.0 
241.06543 20067.0 
242.072891 9169.0 
243.081726 8754.0 
245.059387 16030.0 
248.081451 4358.0 
249.090988 190165.0 
258.066833 8047.0 
259.074951 160197.0 
260.083099 24317.0 
262.063721 8256.0 
263.071808 6996.0 
276.07843 9002.0 
277.08606 38294.0 
287.070374 97073.0 
303.704865 5377.0 
304.07312 21917.0 
305.080627 14321001.0 
306.463745 6366.0 
END IONS

BEGIN IONS
NAME=strychnine CollisionEnergy:205060 M+H
PRECURSOR_MZ=335.175
INCHI="InChI=1S/C21H22N2O2/c24-18-10-16-19-13-9-17-21(6-7-22(17)11-12(13)5-8-25-16)14-3-1-2-4-15(14)23(18)20(19)21/h1-5,13,16-17,19-20H,6-11H2/t13-,16-,17-,19-,20-,21+/m0/s1"
SMILES=O=C1CC2OCC=C3CN4CCC56c7ccccc7N1C5C2C3CC46
SPECTRUMID=CCMSLIB00010119004
55.01836 21490.0 
56.049889 20702.0 
67.054466 12285.0 
68.049782 7556.0 
69.033722 4157.0 
70.0653 5670.0 
71.049316 3485.0 
79.054283 20915.0 
80.049538 14409.0 
81.070007 21389.0 
82.06514 4051.0 
91.054153 20122.0 
93.057373 4637.0 
93.070137 24233.0 
94.065231 17815.0 
95.049057 19230.0 
96.08062 13347.0 
98.263702 3013.0 
104.282333 3240.0 
105.069962 12077.0 
106.064987 16679.0 
108.080902 39190.0 
109.06427 4272.0 
117.069473 3955.0 
118.065071 13264.0 
118.649048 4337.0 
119.085068 5342.0 
120.080643 3442.0 
121.064667 11815.0 
122.059868 31241.0 
122.096153 6587.0 
124.075691 23953.0 
129.069321 12974.0 
130.065063 21407.0 
131.08551 3885.0 
132.080231 4692.0 
136.214218 3057.0 
138.091202 3330.0 
142.064194 3401.0 
144.080673 70251.0 
154.064362 4844.0 
156.080582 128886.0 
168.080536 28864.0 
169.075424 11087.0 
170.060471 4992.0 
170.096054 15384.0 
171.091324 12535.0 
172.0746 4470.0 
180.080338 19483.0 
181.088776 4239.0 
182.060562 6507.0 
182.096649 19224.0 
183.067261 6931.0 
184.0755 616943.0 
184.11171 14003.0 
194.059769 14745.0 
194.095871 58125.0 
196.075302 43809.0 
198.091171 56267.0 
200.070435 5948.0 
204.080811 6523.0 
205.088989 4443.0 
206.095963 20909.0 
208.074951 4533.0 
208.112305 4247.0 
210.09166 25211.0 
212.070145 6832.0 
212.106155 13211.0 
213.356323 3654.0 
214.085312 7239.0 
217.087814 5600.0 
218.096085 16785.0 
220.075531 87388.0 
220.11171 26433.0 
221.081863 12661.0 
222.090973 176573.0 
222.126343 10465.0 
224.107651 4673.0 
230.097244 4881.0 
232.111893 11497.0 
233.083252 3711.0 
234.090775 85916.0 
234.12735 15840.0 
235.136154 3528.0 
236.106293 15000.0 
236.142792 4885.0 
237.100784 5584.0 
238.085693 5743.0 
244.110703 14266.0 
246.092056 25617.0 
246.127045 20187.0 
247.098358 4158.0 
248.106339 46500.0 
248.138168 5860.0 
250.08345 3661.0 
250.122864 5399.0 
257.083405 6139.0 
259.098877 4560.0 
260.10614 12688.0 
260.140869 3640.0 
261.113892 16743.0 
262.122223 88047.0 
264.101349 291532.0 
264.133728 16295.0 
266.118286 35260.0 
272.106323 59281.0 
274.121979 34130.0 
278.118591 4846.0 
278.1539 6071.0 
280.134399 4060.0 
280.522888 3276.0 
288.138855 6071.0 
289.132446 18678.0 
290.117371 43511.0 
290.149994 6434.0 
292.132111 20428.0 
306.149475 21465.0 
307.143829 96846.0 
335.174713 6166318.0 
END IONS

BEGIN IONS
NAME=phenylmethyl (2S)-3-hydroxy-2-[(phenylmethoxy)carbonylamino]propanoate CollisionEnergy:205060 M+Na
PRECURSOR_MZ=352.116
INCHI="InChI=1S/C18H19NO5/c20-11-16(17(21)23-12-14-7-3-1-4-8-14)19-18(22)24-13-15-9-5-2-6-10-15/h1-10,16,20H,11-13H2,(H,19,22)/t16-/m0/s1"
SMILES=O=C(OCc1ccccc1)C(CO)N=C(O)OCc1ccccc1
SPECTRUMID=CCMSLIB00010122502
62.099442 2760.0 
79.678917 2586.0 
91.054298 60256.0 
99.810448 2586.0 
172.073318 14369.0 
209.620667 5744.0 
286.570679 2742.0 
308.123657 20371.0 
334.105347 3992.0 
336.260742 2874.0 
352.114929 2209505.0 
END IONS

BEGIN IONS
NAME=4-[(2E)-3-(3-chlorophenyl)prop-2-enoyl]phenyl 3-nitrobenzoate CollisionEnergy:102040 M-H
PRECURSOR_MZ=406.049
INCHI=InChI=1S/C22H14ClNO5/c23-18-5-1-3-15(13-18)7-12-21(25)16-8-10-20(11-9-16)29-22(26)17-4-2-6-19(14-17)24(27)28/h1-14H/b12-7+
SMILES=O=C(C=Cc1cccc(Cl)c1)c1ccc(OC(=O)c2cccc([N+](=O)[O-])c2)cc1
SPECTRUMID=CCMSLIB00010114232
51.696121 2640.0 
55.099689 2294.0 
59.232971 2180.0 
66.933853 2432.0 
67.337051 2350.0 
70.781288 2651.0 
83.58445 2875.0 
84.183281 2469.0 
92.386101 2730.0 
107.796242 2912.0 
133.946671 2568.0 
177.964828 2351.0 
240.029343 4654.0 
294.007019 2625.0 
328.073425 4241.0 
359.04837 5195.0 
378.054169 3158.0 
406.04892 442604.0 
END IONS

BEGIN IONS
NAME="9-{2-[(2-chlorophenyl)methoxy]phenyl}-3,3,6,6-tetramethyl-2,3,4,5,6,7,9,10-oct ahydroacridine-1,8-dione CollisionEnergy:205060" M+H
PRECURSOR_MZ=490.214
INCHI="InChI=1S/C30H32ClNO3/c1-29(2)13-21-27(23(33)15-29)26(28-22(32-21)14-30(3,4)16-24(28)34)19-10-6-8-12-25(19)35-17-18-9-5-7-11-20(18)31/h5-12,26,32H,13-17H2,1-4H3"
SMILES=CC1(C)CC(=O)C2=C(C1)NC1=C(C(=O)CC(C)(C)C1)C2c1ccccc1OCc1ccccc1Cl
SPECTRUMID=CCMSLIB00010117804
50.136551 3697.0 
53.942471 3471.0 
57.617432 3442.0 
58.960812 3687.0 
60.999371 3400.0 
62.93544 3277.0 
68.278809 3289.0 
89.038612 9159.0 
92.372803 4442.0 
98.999443 4194.0 
125.015251 397608.0 
132.044281 5539.0 
144.080673 5748.0 
156.786346 4683.0 
160.039124 34087.0 
188.106857 791654.0 
189.96936 3738.0 
214.12178 5239.0 
216.101868 2302318.0 
228.138855 15686.0 
242.11795 24997.0 
254.152985 24654.0 
256.131744 16382.0 
271.007721 15109.0 
272.164185 12419342.0 
273.328308 19385.0 
273.359161 4671.0 
279.124847 26134.0 
339.449493 4696.0 
346.098846 4520.0 
348.191833 5226.0 
364.188965 4888.0 
490.206207 35926.0 
END IONS

BEGIN IONS
NAME=CHEMBL357497 CollisionEnergy:205060 M+H
PRECURSOR_MZ=609.281
INCHI="InChI=1S/C33H40N2O9/c1-38-19-7-8-20-21-9-10-35-16-18-13-27(44-32(36)17-11-25(39-2)30(41-4)26(12-17)40-3)31(42-5)28(33(37)43-6)22(18)15-24(35)29(21)34-23(20)14-19/h7-8,11-12,14,18,22,24,27-28,31,34H,9-10,13,15-16H2,1-6H3"
SMILES=COC(=O)C1C2CC3c4[nH]c5cc(OC)ccc5c4CCN3CC2CC(OC(=O)c2cc(OC)c(OC)c(OC)c2)C1OC
SPECTRUMID=CCMSLIB00010116390
50.01564 7373.0 
53.039139 23888.0 
55.018261 22361.0 
55.054691 10660.0 
56.04998 62747.0 
58.06572 8094.0 
65.039032 95392.0 
66.046783 28521.0 
66.729553 6127.0 
67.018356 6209.0 
67.05471 78556.0 
68.026016 13073.0 
68.049873 37749.0 
68.99749 7754.0 
69.033836 24498.0 
70.065437 58326.0 
71.049477 132437.0 
75.044441 89677.0 
77.039017 20258.0 
78.046837 20951.0 
79.054497 518935.0 
80.049759 105145.0 
80.062363 6348.0 
81.033699 267585.0 
81.058037 6965.0 
81.070129 260930.0 
82.041634 11896.0 
82.065422 45463.0 
83.012779 5539.0 
83.049316 30499.0 
85.028633 45322.0 
85.06501 11565.0 
91.054314 356072.0 
92.026131 25084.0 
92.049553 26006.0 
93.033546 36664.0 
93.051376 5908.0 
93.057449 32718.0 
93.069687 47611.0 
94.041351 92224.0 
94.065193 214613.0 
95.049156 99125.0 
96.05703 192990.0 
97.028679 7175.0 
97.064529 54402.0 
98.036568 6865.0 
99.044197 9751.0 
101.059921 30307.0 
102.054947 7594.0 
103.054268 68153.0 
104.048828 7579.0 
105.033524 33067.0 
105.044533 8889.0 
105.069893 87695.0 
106.040993 6851.0 
106.064949 117152.0 
107.049088 70359.0 
107.072693 48991.0 
107.085533 6469.0 
108.056847 130545.0 
108.080963 71943.0 
109.028381 55220.0 
109.064743 425447.0 
111.043953 211155.0 
111.080292 112397.0 
112.07547 7784.0 
113.023438 76219.0 
113.059547 80767.0 
115.054092 205944.0 
116.062233 60830.0 
117.05706 79531.0 
117.069794 138617.0 
118.041473 6911.0 
118.064941 157641.0 
118.989143 5291.0 
119.048981 28686.0 
119.07325 10025.0 
119.085358 30684.0 
120.080681 177830.0 
121.028313 56675.0 
121.064728 130039.0 
122.036171 287884.0 
122.072243 29012.0 
123.044029 29904.0 
123.080162 58449.0 
124.051826 495419.0 
124.075417 22799.0 
125.059181 10987.0 
126.09156 9233.0 
127.039284 8293.0 
128.046707 144336.0 
128.061676 32302.0 
129.069504 78648.0 
130.065018 271785.0 
130.076157 10032.0 
131.04985 49871.0 
131.072937 779059.0 
131.085052 56797.0 
132.044022 25066.0 
132.056824 61079.0 
132.080704 306933.0 
133.052231 26384.0 
133.064789 43912.0 
133.088501 9125.0 
134.060074 43070.0 
135.044235 46816.0 
135.07991 60530.0 
136.075653 58254.0 
137.023041 100775.0 
137.059021 51371.0 
139.075272 855236.0 
141.018127 144596.0 
141.054886 22656.0 
142.06514 145664.0 
143.049362 34890.0 
143.072815 878216.0 
144.058044 55158.0 
144.080673 356121.0 
145.052124 39257.0 
145.064789 47845.0 
145.088364 89715.0 
146.060074 114124.0 
146.072372 10342.0 
146.096313 49159.0 
147.067612 95518.0 
147.080399 279716.0 
148.075607 252530.0 
149.059692 103234.0 
149.082962 6587.0 
149.095444 11924.0 
150.09137 49876.0 
151.038544 108609.0 
151.075516 9569.0 
152.046677 1045124.0 
154.063629 52728.0 
155.034622 8715.0 
155.048904 20832.0 
155.072479 25718.0 
156.041611 278227.0 
156.080338 44238.0 
157.088821 52918.0 
158.059906 103743.0 
158.072922 14350.0 
158.096191 25781.0 
159.06778 2038913.0 
159.079285 72470.0 
159.958771 6477.0 
160.075546 628673.0 
161.060394 67967.0 
161.083313 249848.0 
161.097855 12617.0 
162.090988 145194.0 
163.075134 27964.0 
163.09935 19350.0 
164.07103 11930.0 
164.106735 59717.0 
165.05394 7115.0 
166.086273 11698.0 
167.07077 43086.0 
168.080658 26658.0 
169.087845 44131.0 
170.059433 54422.0 
171.067276 29684.0 
172.075348 149349.0 
173.083344 284903.0 
174.091263 7787919.0 
175.075668 54911.0 
175.099609 11006.0 
176.069427 7925.0 
176.106979 69148.0 
178.085785 64034.0 
179.069901 29565.0 
180.041061 21222.0 
180.08046 12088.0 
181.087479 39194.0 
182.060013 12460.0 
182.096466 13155.0 
183.067368 24229.0 
183.104874 8279.0 
184.036682 91061.0 
184.075775 101112.0 
185.082657 184627.0 
186.09137 271215.0 
187.079376 8582.0 
187.099335 97713.0 
188.070786 7797.0 
188.106979 275664.0 
189.078323 11889.0 
190.085678 87767.0 
191.094437 5947.0 
192.101669 334848.0 
193.087616 30961.0 
195.065079 7161154.0 
196.075287 31825.0 
197.083572 69772.0 
198.091385 164329.0 
199.084473 49196.0 
199.099564 75421.0 
200.089981 8525.0 
200.107605 236209.0 
201.100815 71625.0 
202.08609 7816.0 
204.080688 12824.0 
204.101593 188818.0 
205.08815 9425.0 
206.096558 8318.0 
206.11705 13552.0 
206.91626 5944.0 
207.102982 30040.0 
208.076202 10415.0 
209.082779 22180.0 
210.091537 97924.0 
210.112488 9502.0 
211.099442 62815.0 
212.110184 73168.0 
213.101089 48820.0 
214.108246 70942.0 
215.117325 105406.0 
216.102661 7942.0 
217.08844 11900.0 
218.097092 13165.0 
219.105942 7981.0 
220.077225 6898.0 
221.083191 24475.0 
222.09082 56803.0 
222.112762 28898.0 
223.101105 49043.0 
224.106476 136454.0 
224.128448 90297.0 
225.101196 11554.0 
226.085709 10517.0 
226.124084 49274.0 
227.11702 105383.0 
228.125 8911.0 
229.131912 5690.0 
230.095749 10025.0 
231.10405 20723.0 
232.074295 12385.0 
232.113892 6021.0 
233.082626 10750.0 
233.119537 12966.0 
234.090408 62792.0 
235.09845 53590.0 
236.105484 72825.0 
236.128723 238597.0 
237.113632 60506.0 
238.084442 8372.0 
238.123978 109905.0 
239.114105 49928.0 
242.117172 8240.0 
243.10173 8488.0 
244.112274 11302.0 
245.119843 25710.0 
246.090576 46130.0 
247.09874 75922.0 
248.106384 124148.0 
249.112274 36604.0 
250.085083 9697.0 
250.1203 77288.0 
251.117157 219874.0 
252.131714 9589.0 
253.133408 82248.0 
257.120636 20537.0 
258.091827 23889.0 
259.09967 12795.0 
260.106934 83467.0 
261.114502 91450.0 
262.088898 8800.0 
262.122162 158980.0 
263.126801 25582.0 
264.100098 25395.0 
264.129944 45766.0 
265.133209 170779.0 
266.141327 42680.0 
267.149445 21446.0 
272.104706 10487.0 
273.114563 58500.0 
274.086487 20995.0 
274.122253 97535.0 
275.128387 25545.0 
276.102081 25540.0 
276.138031 142373.0 
277.140686 35253.0 
278.116425 19814.0 
278.150452 9785.0 
279.116913 10165.0 
279.150299 10201.0 
280.130737 8444.0 
286.086609 8796.0 
286.119751 9597.0 
287.129974 6503.0 
288.101227 8771.0 
288.137848 83624.0 
289.108673 23750.0 
289.140076 11206.0 
290.116608 32624.0 
290.14798 9955.0 
291.148438 31934.0 
294.111389 5662.0 
302.118073 6521.0 
304.130157 58285.0 
305.165466 43400.0 
306.111176 18355.0 
308.127136 13181.0 
308.165222 11679.0 
316.132111 25726.0 
318.141174 7496.0 
320.127319 22651.0 
333.161774 43291.0 
336.159515 79042.0 
337.19046 11756.0 
348.158234 29695.0 
349.154449 22763.0 
350.161621 62135.0 
365.18515 305802.0 
366.167816 7736.0 
367.165802 8560.0 
368.18689 22257.0 
380.18161 7920.0 
381.180573 12917.0 
382.187866 24881.0 
397.211456 1563376.0 
413.204163 21576.0 
434.181335 21509.0 
436.194672 88531.0 
448.195587 316967.0 
497.622375 6429.0 
577.253174 110161.0 
591.269714 8347.0 
592.253601 13439.0 
594.256104 29452.0 
609.279419 7893899.0 
END IONS

BEGIN IONS
NAME="N-(2H,3H-benzo[3,4-e]1,4-dioxin-6-yl)-2-[2-oxo-4-(2-1,2,3,4-tetrahydroisoquino lylcarbonyl)hydroquinolyl]acetamide CollisionEnergy:102040" M+formate
PRECURSOR_MZ=540.178
INCHI="InChI=1S/C29H25N3O5/c33-27(30-21-9-10-25-26(15-21)37-14-13-36-25)18-32-24-8-4-3-7-22(24)23(16-28(32)34)29(35)31-12-11-19-5-1-2-6-20(19)17-31/h1-10,15-16H,11-14,17-18H2,(H,30,33)"
SMILES=O=C(c1cc(=O)n(CC(O)=Nc2ccc3c(c2)OCCO3)c2ccccc12)N1CCc2ccccc2C1
SPECTRUMID=CCMSLIB00010114454
62.199169 2147.0 
88.436081 2355.0 
92.386673 3922.0 
186.056335 10881.0 
317.130951 3241.0 
357.414368 2627.0 
395.983398 2905.0 
494.173035 101471.0 
END IONS

BEGIN IONS
NAME=N-(3-chloro-2-methylphenyl)-2-(9-methyl-6-oxohydropurin-8-ylthio)acetamide CollisionEnergy:205060 M+Na
PRECURSOR_MZ=386.045
INCHI="InChI=1S/C15H14ClN5O2S/c1-8-9(16)4-3-5-10(8)19-11(22)6-24-15-20-12-13(21(15)2)17-7-18-14(12)23/h3-5,7H,6H2,1-2H3,(H,19,22)(H,17,18,23)"
SMILES=Cc1c(Cl)cccc1N=C(O)CSc1nc2c(O)ncnc2n1C
SPECTRUMID=CCMSLIB00010123582
52.072071 2634.0 
58.239979 2386.0 
76.191772 2940.0 
92.377602 3013.0 
118.659653 3881.0 
134.21286 2978.0 
136.214462 3103.0 
164.194885 2943.0 
173.042969 11514.0 
181.01799 4084.0 
195.0336 11877.0 
204.007675 70838.0 
223.027313 3130.0 
245.010178 19415.0 
257.682892 3099.0 
385.534119 15451.0 
386.044403 4565202.0 
END IONS

BEGIN IONS
NAME=(2-chloro(3-pyridyl))-N-{2-[2-methyl-5-(trifluoromethoxy)indol-3-yl]ethyl}carb oxamide CollisionEnergy:102040 M+H
PRECURSOR_MZ=398.088
INCHI="InChI=1S/C18H15ClF3N3O2/c1-10-12(6-8-24-17(26)13-3-2-7-23-16(13)19)14-9-11(27-18(20,21)22)4-5-15(14)25-10/h2-5,7,9,25H,6,8H2,1H3,(H,24,26)"
SMILES=Cc1[nH]c2ccc(OC(F)(F)F)cc2c1CCN=C(O)c1cccnc1Cl
SPECTRUMID=CCMSLIB00010108009
51.57428 2882.0 
66.761887 3389.0 
92.384239 4039.0 
106.028641 4016.0 
112.039146 14188.0 
118.658173 4128.0 
118.66684 3578.0 
129.069504 17172.0 
130.166992 3988.0 
139.989822 135871.0 
141.987 38544.0 
141.999481 3121.0 
142.0047 4211.0 
150.5914 2911.0 
156.080704 34076.0 
157.015869 25501.0 
157.088654 19142.0 
161.063889 4240.0 
176.086884 18127.0 
183.031952 80435.0 
192.057724 22879.0 
214.047577 7287.0 
216.064468 5420.0 
227.054932 83210.0 
240.063385 7661.0 
241.069839 5368.0 
242.078537 6227977.0 
247.086151 4822.0 
248.096207 4540.0 
256.079193 4444.0 
268.039917 4591.0 
269.04715 132476.0 
276.113373 35858.0 
283.064117 22292.0 
312.089966 97459.0 
342.103577 39886.0 
362.111145 4321.0 
381.058319 4427.0 
398.087494 2069582.0 
END IONS

BEGIN IONS
NAME=L-histidinol CollisionEnergy:102040 M+Na
PRECURSOR_MZ=164.079
INCHI="InChI=1S/C6H11N3O/c7-5(3-10)1-6-2-8-4-9-6/h2,4-5,10H,1,3,7H2,(H,8,9)/t5-/m0/s1"
SMILES=N[C@H](CO)Cc1cnc[nH]1
SPECTRUMID=CCMSLIB00010126551
60.023899 9116.650391 
61.988602 9255.889648 
82.417702 9267.049805 
110.213997 9845.209961 
164.078995 1455940.0 
END IONS

BEGIN IONS
NAME=Galangin CollisionEnergy:205060 2M-H
PRECURSOR_MZ=539.098
INCHI="InChI=1S/C15H10O5/c16-9-6-10(17)12-11(7-9)20-15(14(19)13(12)18)8-4-2-1-3-5-8/h1-7,16-17,19H"
SMILES=O=c1c(O)c(-c2ccccc2)oc2cc(O)cc(O)c12
SPECTRUMID=CCMSLIB00010118872
61.176281 2879.0 
66.752213 2443.0 
75.896347 2766.0 
85.966743 3288.0 
91.546661 2518.0 
92.396797 2824.0 
94.419777 2496.0 
133.146622 3257.0 
136.226685 3191.0 
157.991913 3153.0 
208.851791 5148.0 
208.872498 4996.0 
225.888824 2622.0 
269.045868 23001.0 
288.046936 2788.0 
303.417419 3921.0 
356.19278 2841.0 
429.451019 3101.0 
END IONS

BEGIN IONS
NAME="N-{2-[(2-methylpiperidyl)carbonyl]phenyl}(2,3,4-trimethoxyphenyl)carboxamide CollisionEnergy:102040" M+Na
PRECURSOR_MZ=435.189
INCHI="InChI=1S/C23H28N2O5/c1-15-9-7-8-14-25(15)23(27)16-10-5-6-11-18(16)24-22(26)17-12-13-19(28-2)21(30-4)20(17)29-3/h5-6,10-13,15H,7-9,14H2,1-4H3,(H,24,26)"
SMILES=COc1ccc(C(O)=Nc2ccccc2C(=O)N2CCCCC2C)c(OC)c1OC
SPECTRUMID=CCMSLIB00010107651
73.947281 3322.0 
82.39238 3655.0 
86.724243 3071.0 
120.078056 3375.0 
172.849472 3210.0 
186.999603 13298.0 
198.727356 3769.0 
201.015503 14443.0 
203.030899 26044.0 
219.047775 9770.0 
220.614334 4162.0 
224.104889 7910.0 
239.115768 22115.0 
240.123123 7535.0 
241.13089 279977.0 
248.065979 4928.0 
276.062561 14865.0 
288.922699 5488.0 
294.074463 26764.0 
305.064087 4899.0 
323.078369 3871.0 
336.083099 41502.0 
373.149017 4986.0 
377.146851 7550.0 
389.150024 5109.0 
391.163452 23139.0 
401.147919 3913.0 
405.141876 60083.0 
419.15564 30810.0 
420.165619 26669.0 
432.844269 5806.0 
435.188446 7436564.0 
437.552338 5462.0 
476.213226 13846.0 
627.00177 4177.0 
763.263916 4964.0 
END IONS

BEGIN IONS
NAME="2-{2-[(2E)-3-(3,4,5-trimethoxyphenyl)-1,2-diazabut-2-enylidene]-4-oxo-1,3-thia zolidin-5-yl}acetic acid CollisionEnergy:205060" M+H
PRECURSOR_MZ=382.107
INCHI="InChI=1S/C16H19N3O6S/c1-8(9-5-10(23-2)14(25-4)11(6-9)24-3)18-19-16-17-15(22)12(26-16)7-13(20)21/h5-6,12H,7H2,1-4H3,(H,20,21)(H,17,19,22)/b18-8+"
SMILES=COc1cc(C(C)=NN=C2N=C(O)C(CC(=O)O)S2)cc(OC)c1OC
SPECTRUMID=CCMSLIB00010121076
50.015659 24815.0 
51.023449 33130.0 
53.038952 58273.0 
55.01841 26558.0 
55.05471 11791.0 
57.03392 7150.0 
57.987598 8405.0 
58.99543 322867.0 
59.049568 7421.0 
59.990582 9529.0 
65.038933 215255.0 
66.046783 95964.0 
67.018143 7090.0 
67.054604 107122.0 
68.026077 25013.0 
68.062363 7998.0 
68.997437 36865.0 
69.008438 6276.0 
69.033882 50858.0 
70.028816 11904.0 
71.013191 20852.0 
71.049507 28270.0 
74.006187 248223.0 
74.990211 97082.0 
75.001282 54040.0 
75.044182 55701.0 
77.038818 37336.0 
78.046654 91025.0 
79.054459 1141600.0 
80.013557 7961.0 
80.062431 8874.0 
81.033699 978506.0 
81.070091 500472.0 
82.041328 44817.0 
83.012962 9570.0 
83.049583 40053.0 
84.974609 10615.0 
85.028526 38239.0 
86.990059 73690.0 
90.03373 5491.0 
91.054367 95756.0 
92.025787 60783.0 
92.062347 22540.0 
93.033531 76554.0 
93.069977 23473.0 
94.041298 229967.0 
94.064774 6003.0 
95.049133 275329.0 
96.056961 572437.0 
97.028549 8399.0 
97.064934 22215.0 
98.023697 47356.0 
99.007843 6411.0 
99.044037 27818.0 
100.021362 8294.0 
101.016647 90453.0 
102.000763 325949.0 
102.984703 359681.0 
102.995872 89668.0 
105.033363 38735.0 
105.044838 33408.0 
105.069931 7421.0 
105.630913 5699.0 
106.041283 68589.0 
107.012703 43849.0 
107.04908 98040.0 
108.05677 247862.0 
109.02829 213297.0 
109.064743 644178.0 
110.036034 24556.0 
110.072884 8919.0 
111.043983 51807.0 
111.08033 131796.0 
113.023163 49319.0 
113.059517 122936.0 
116.027473 40282.0 
118.065269 22179.0 
119.049393 7582.0 
120.080963 24873.0 
121.028236 197660.0 
121.064911 34101.0 
122.036102 656580.0 
123.04393 90585.0 
124.051773 1024164.0 
125.023262 7171.0 
125.05957 73808.0 
126.996361 45741.0 
127.03878 10490.0 
128.04657 100614.0 
129.011444 65322.0 
130.980011 6474.0 
132.044525 34082.0 
132.081421 5611.0 
133.028671 6613.0 
133.064651 9464.0 
133.088287 40282.0 
134.059906 40270.0 
134.070618 5889.0 
134.096375 37235.0 
135.043381 39559.0 
136.039459 12221.0 
136.051361 11400.0 
136.076248 10858.0 
137.023163 427575.0 
137.059448 66204.0 
138.066696 35659.0 
139.075211 1078373.0 
141.018082 117660.0 
141.054871 12381.0 
142.044128 10860.0 
143.07045 29211.0 
145.006454 249474.0 
146.060806 5869.0 
147.044586 11895.0 
148.039352 25233.0 
148.05188 145932.0 
148.075394 185577.0 
149.05957 25828.0 
150.055206 19219.0 
150.09166 22702.0 
151.038788 463550.0 
151.062073 21702.0 
152.046616 1959366.0 
153.05452 34911.0 
154.0625 32985.0 
154.991562 8730.0 
155.033661 9312.0 
156.041473 207965.0 
157.006439 95949.0 
160.038132 5841.0 
162.054626 126017.0 
162.067337 15384.0 
162.091019 200773.0 
162.105637 9356.0 
163.039017 23862.0 
164.070282 201956.0 
164.084869 11328.0 
165.054947 42655.0 
165.078247 30142.0 
166.049789 27054.0 
166.062775 19996.0 
166.086044 32189.0 
167.070572 23768.0 
168.022476 52138.0 
168.036819 6535.0 
170.057846 9013.0 
171.065262 8106.0 
174.054977 24356.0 
175.017014 12115.0 
175.063034 19320.0 
176.070236 90606.0 
177.053848 11169.0 
177.079315 7848.0 
178.03186 6506.0 
178.049286 164770.0 
178.065674 8577.0 
178.086014 254523.0 
180.065231 21439.0 
180.08017 6239.0 
180.102051 32201.0 
181.058594 6965.0 
181.085785 344592.0 
184.03627 80986.0 
185.079895 59436.0 
192.064392 43894.0 
193.072144 39298.0 
193.089798 62507.0 
194.080948 561465.0 
195.087372 70345.0 
207.076385 26196.0 
208.096527 3595095.0 
209.051788 5751.0 
209.10463 187060.0 
210.112122 25991.0 
214.027664 422040.0 
220.107788 5481.0 
234.087067 6554.0 
244.070068 5496.0 
250.118317 53928.0 
267.079834 9061.0 
322.08905 7053.0 
336.100616 26667.0 
364.095276 208011.0 
364.147736 6651.0 
367.078888 5527.0 
382.105865 8216564.0 
END IONS

BEGIN IONS
NAME=N-(3-chloro-4-fluorophenyl)-2-[6-oxo-9-(oxolan-2-ylmethyl)hydropurin-8-ylthio] acetamide CollisionEnergy:205060 M-H
PRECURSOR_MZ=436.065
INCHI="InChI=1S/C18H17ClFN5O3S/c19-12-6-10(3-4-13(12)20)23-14(26)8-29-18-24-15-16(21-9-22-17(15)27)25(18)7-11-2-1-5-28-11/h3-4,6,9,11H,1-2,5,7-8H2,(H,23,26)(H,21,22,27)"
SMILES=OC(CSc1nc2c(O)ncnc2n1CC1CCCO1)=Nc1ccc(F)c(Cl)c1
SPECTRUMID=CCMSLIB00010121624
53.351711 2609.0 
57.975109 26223.0 
60.534889 2579.0 
65.014023 5337.0 
72.952133 2351.0 
75.54335 2571.0 
89.936394 2584.0 
92.025238 9755.0 
94.42849 2745.0 
96.466942 2766.0 
118.644073 3684.0 
135.03125 106722.0 
136.198746 3464.0 
137.005005 5901.0 
147.031921 3171.0 
149.072296 27832.0 
165.995544 95403.0 
167.003403 84299.0 
168.996643 10281.0 
179.003479 218590.0 
179.992477 30089.0 
180.009949 7790.0 
182.989517 59831.0 
187.974106 12102.0 
191.004227 4072.0 
215.968887 53199.0 
217.072495 9715.0 
219.034637 14573.0 
219.088867 66198.0 
221.050095 4069.0 
222.070526 5283.0 
235.018845 2873.0 
235.082397 10802.0 
250.052795 107003.0 
251.060822 238455.0 
263.060455 17664.0 
265.076324 44706.0 
277.016571 5346.0 
278.024872 35282.0 
291.056183 22713.0 
362.082733 42596.0 
436.065063 292738.0 
END IONS

BEGIN IONS
NAME="2-amino-4-(3,5-dimethoxyphenyl)-5-oxo-4H-6,7,8-trihydrochromene-3-carbonitrile CollisionEnergy:102040" M+H
PRECURSOR_MZ=327.134
INCHI="InChI=1S/C18H18N2O4/c1-22-11-6-10(7-12(8-11)23-2)16-13(9-19)18(20)24-15-5-3-4-14(21)17(15)16/h6-8,16H,3-5,20H2,1-2H3"
SMILES=COc1cc(OC)cc(C2C(C#N)=C(N)OC3=C2C(=O)CCC3)c1
SPECTRUMID=CCMSLIB00010109438
58.05862 2875.0 
62.724781 3008.0 
70.065376 3361.0 
92.389328 3066.0 
98.984169 31360.0 
139.075211 19962.0 
143.54863 3064.0 
147.055222 48962.0 
164.07077 3110.0 
170.461884 3121.0 
174.991714 19190.0 
189.065552 2730087.0 
203.093567 6250.0 
215.081161 58279.0 
216.088654 3967.0 
243.099976 9748.0 
250.085678 21340.0 
250.999054 4693.0 
264.088287 37195.0 
268.096191 21460.0 
272.092682 3412.0 
272.126007 4409.0 
281.091766 3499.0 
282.110046 4202.0 
286.106415 5981.0 
287.114685 95593.0 
292.095917 5239.0 
294.098846 5275.0 
295.107056 134198.0 
296.114471 57081.0 
300.122253 343230.0 
303.186035 7549.0 
309.122589 40454.0 
310.106689 62547.0 
312.108765 4205.0 
327.133179 2763603.0 
328.109985 35870.0 
494.303131 3296.0 
END IONS

BEGIN IONS
NAME=2-{4-[(7-methyl-2-oxochromen-4-yl)methyl]piperazinyl}ethanenitrile CollisionEnergy:205060 M+Na
PRECURSOR_MZ=320.137
INCHI="InChI=1S/C17H19N3O2/c1-13-2-3-15-14(11-17(21)22-16(15)10-13)12-20-8-6-19(5-4-18)7-9-20/h2-3,10-11H,5-9,12H2,1H3"
SMILES=Cc1ccc2c(CN3CCN(CC#N)CC3)cc(=O)oc2c1
SPECTRUMID=CCMSLIB00010118263
54.346661 2243.0 
56.021721 2485.0 
56.049889 16756.0 
58.065521 4080.0 
66.741867 2975.0 
70.062012 3020.0 
70.065491 44885.0 
73.95089 2417.0 
74.401428 2892.0 
77.51136 2558.0 
82.05249 4258.0 
84.959763 2600.0 
92.375923 3254.0 
97.07605 203533.0 
118.654823 2634.0 
120.065453 2332.0 
122.969131 2429.0 
138.685471 2142.0 
156.423416 2842.0 
214.085388 4410.0 
228.1017 9370.0 
271.143005 32320.0 
293.125641 70321.0 
311.136475 12696.0 
320.136353 745653.0 
334.151459 3441.0 
END IONS

BEGIN IONS
NAME=pyrocatechol CollisionEnergy:102040 M-H
PRECURSOR_MZ=109.029
INCHI="InChI=1S/C6H6O2/c7-5-3-1-2-4-6(5)8/h1-4,7-8H"
SMILES=Oc1ccccc1O
SPECTRUMID=CCMSLIB00010114667
50.44643 1942.0 
50.44899 1924.0 
54.638191 1865.0 
71.800079 2091.0 
73.942612 2240.0 
73.94709 2321.0 
78.180832 1994.0 
81.034554 13252.0 
91.018883 8577.0 
94.103142 1961.0 
104.275398 2970.0 
108.02182 61727.0 
109.029587 732904.0 
118.644218 2563.0 
END IONS

BEGIN IONS
NAME=d-Dethiobiotin CollisionEnergy:102040 M+Na
PRECURSOR_MZ=237.121
INCHI="InChI=1S/C10H18N2O3/c1-7-8(12-10(15)11-7)5-3-2-4-6-9(13)14/h7-8H,2-6H2,1H3,(H,13,14)(H2,11,12,15)/t7-,8+/m0/s1"
SMILES=C[C@@H]1N=C(O)N[C@@H]1CCCCCC(=O)O
SPECTRUMID=CCMSLIB00010103368
65.013901 36427.101562 
76.609497 40886.800781 
82.400497 45316.898438 
104.285004 76370.0 
229.925003 38021.300781 
237.119995 15745700.0 
END IONS

BEGIN IONS
NAME=methyl 1-methylbeta-carboline-3-carboxylate CollisionEnergy:102040 M+H
PRECURSOR_MZ=241.097
INCHI="InChI=1S/C14H12N2O2/c1-8-13-10(7-12(15-8)14(17)18-2)9-5-3-4-6-11(9)16-13/h3-7,16H,1-2H3"
SMILES=COC(=O)c1cc2c([nH]c3ccccc32)c(C)n1
SPECTRUMID=CCMSLIB00010103513
66.762543 2929.0 
69.795807 3074.0 
83.643219 3350.0 
87.715157 3162.0 
92.389191 3108.0 
110.868683 3397.0 
122.703682 3092.0 
129.974594 3939.0 
154.064636 7931.0 
163.29921 4123.0 
181.04776 5970.0 
181.075577 214179.0 
182.084763 17282.0 
184.063522 4114.0 
194.047211 3918.0 
197.026886 3568.0 
199.086395 5172079.0 
201.090866 6785.0 
208.443207 18779.0 
209.070587 130712.0 
222.102188 33193.0 
226.202881 4006.0 
227.081207 6526672.0 
229.08667 13737.0 
241.096741 5753019.0 
END IONS

BEGIN IONS
NAME="5-(6-acetyloxy-3,5,7-trimethoxy-4-oxochromen-2-yl)-2-methoxyphenyl acetate CollisionEnergy:205060" M+H
PRECURSOR_MZ=459.129
INCHI="InChI=1S/C23H22O10/c1-11(24)31-15-9-13(7-8-14(15)27-3)20-23(30-6)19(26)18-16(33-20)10-17(28-4)21(22(18)29-5)32-12(2)25/h7-10H,1-6H3"
SMILES=COc1ccc(-c2oc3cc(OC)c(OC(C)=O)c(OC)c3c(=O)c2OC)cc1OC(C)=O
SPECTRUMID=CCMSLIB00010118098
65.796181 4150.0 
67.082893 3822.0 
105.12381 4166.0 
135.044006 19856.0 
137.022995 5366.0 
137.05957 17471.0 
139.039169 4145.0 
141.019196 5391.0 
149.02301 6803.0 
149.05899 5093.0 
151.039185 146530.0 
153.018173 7390.0 
161.05957 6399.0 
163.038864 9504.0 
164.046188 5170.0 
177.054565 7672.0 
178.061386 4952.0 
179.033829 6889.0 
183.029129 54898.0 
197.043594 16026.0 
199.023132 7935.0 
201.053772 6070.0 
213.053085 5188.0 
215.069717 20276.0 
217.04982 43012.0 
225.054047 7915.0 
227.06926 9095.0 
228.041748 4084.0 
229.048981 17267.0 
236.046005 6333.0 
239.033722 5075.0 
241.049637 4899.0 
242.056595 5212.0 
243.065201 48908.0 
246.052155 6939.0 
253.048706 21057.0 
254.056519 9499.0 
255.063614 30273.0 
256.036041 21148.0 
256.072662 25489.0 
257.044739 19402.0 
257.079742 8487.0 
261.076233 48243.0 
264.043945 4946.0 
267.029175 5756.0 
267.06366 6720.0 
268.072632 20102.0 
269.043945 27251.0 
269.077026 14223.0 
270.022675 4648.0 
270.05246 21879.0 
271.059845 260777.0 
272.067719 6105.0 
273.076447 9919.0 
274.047028 51496.0 
281.044312 21868.0 
282.053162 30649.0 
283.060059 162789.0 
284.030914 37981.0 
284.067902 66321.0 
285.039154 30650.0 
285.07486 198047.0 
286.082947 24880.0 
288.062073 5172.0 
289.070465 113351.0 
295.024719 6169.0 
295.059296 6215.0 
296.031189 7636.0 
296.067596 88439.0 
297.039093 8326.0 
297.075348 140341.0 
298.046692 6534.0 
299.05481 1563219.0 
300.063782 6943.0 
301.068848 30742.0 
302.042053 115762.0 
303.04895 6173.0 
303.085663 5712.0 
309.041382 5650.0 
310.046783 26834.0 
311.05484 374580.0 
312.025818 53756.0 
312.06308 51513.0 
313.03653 8672.0 
313.070404 238256.0 
314.078156 510934.0 
315.047943 9816.0 
315.086884 7968.0 
316.057281 58126.0 
317.065399 2653261.0 
324.062775 64795.0 
325.070526 362756.0 
326.040863 8967.0 
327.04953 366504.0 
328.057373 9441.0 
329.06543 198017.0 
330.037415 70406.0 
330.074371 8983.0 
331.042175 4894.0 
331.081421 75664.0 
332.053253 6404.0 
341.065277 435852.0 
342.073212 1510496.0 
343.082428 55645.0 
344.051208 79485.0 
345.060272 1657513.0 
359.075745 1109551.0 
360.083618 582293.0 
374.098389 6741.0 
375.107086 1610634.0 
402.091461 6892.0 
417.117615 6322857.0 
459.128937 5986.0 
END IONS

BEGIN IONS
NAME="2,9-Dihydroxy-1,10-dimethoxyaporphine CollisionEnergy:102040" M-H
PRECURSOR_MZ=326.14
INCHI="InChI=1S/C19H21NO4/c1-20-5-4-10-7-15(22)19(24-3)18-12-9-16(23-2)14(21)8-11(12)6-13(20)17(10)18/h7-9,13,21-22H,4-6H2,1-3H3"
SMILES=COc1cc2c(cc1O)CC1c3c(cc(O)c(OC)c3-2)CCN1C
SPECTRUMID=CCMSLIB00010104814
54.97636 2176.0 
59.727669 2046.0 
63.774059 2193.0 
70.248512 1978.0 
72.756104 2298.0 
101.237289 2234.0 
104.29953 3634.0 
110.524559 2055.0 
133.000732 2197.0 
136.23024 3155.0 
145.941757 2384.0 
189.931549 2860.0 
208.086716 5787.0 
208.109543 4837.0 
212.428391 2674.0 
239.901474 2166.0 
257.912079 4899.0 
267.065735 19844.0 
268.069458 2324.0 
279.858368 8545.0 
283.085358 15033.0 
296.093048 110259.0 
298.10968 4837.0 
311.116486 203760.0 
326.103851 14529.0 
326.140289 168605.0 
END IONS

BEGIN IONS
NAME=2-(4-chlorophenyl)quinoline-4-carboxylic acid CollisionEnergy:205060 2M-H
PRECURSOR_MZ=565.073
INCHI="InChI=1S/C16H10ClNO2/c17-11-7-5-10(6-8-11)15-9-13(16(19)20)12-3-1-2-4-14(12)18-15/h1-9H,(H,19,20)"
SMILES=O=C(O)c1cc(-c2ccc(Cl)cc2)nc2ccccc12
SPECTRUMID=CCMSLIB00010116089
55.234058 2359.0 
69.323334 2140.0 
77.79332 2192.0 
90.895012 2667.0 
92.378593 4039.0 
101.398628 2605.0 
102.913193 2473.0 
118.657043 2577.0 
156.570221 2755.0 
207.605225 14123.0 
238.04274 94604.0 
256.053497 59196.0 
263.587952 2979.0 
282.032471 119093.0 
END IONS

BEGIN IONS
NAME="3-hydroxy-1-(naphthylmethyl)-3-[2-oxo-2-(3,4,5-trimethoxyphenyl)ethyl]indolin- 2-one CollisionEnergy:102040" M+Na
PRECURSOR_MZ=520.173
INCHI="InChI=1S/C30H27NO6/c1-35-26-15-21(16-27(36-2)28(26)37-3)25(32)17-30(34)23-13-6-7-14-24(23)31(29(30)33)18-20-11-8-10-19-9-4-5-12-22(19)20/h4-16,34H,17-18H2,1-3H3"
SMILES=COc1cc(C(=O)CC2(O)C(=O)N(Cc3cccc4ccccc34)c3ccccc32)cc(OC)c1OC
SPECTRUMID=CCMSLIB00010111991
51.157219 2802.0 
54.320831 2942.0 
60.542561 2872.0 
73.956802 3071.0 
79.796967 2758.0 
83.521927 3028.0 
208.090302 4814.0 
208.109131 6033.0 
233.077362 11800.0 
310.083069 1080238.0 
328.095612 6848.0 
351.109467 30168.0 
520.17218 1901210.0 
END IONS

BEGIN IONS
NAME=Asiaticoside CollisionEnergy:102040 M+formate
PRECURSOR_MZ=1003.51
INCHI="InChI=1S/C48H78O19/c1-20-10-13-48(15-14-46(6)23(29(48)21(20)2)8-9-28-44(4)16-24(51)39(60)45(5,19-50)27(44)11-12-47(28,46)7)43(61)67-42-36(58)33(55)31(53)26(65-42)18-62-40-37(59)34(56)38(25(17-49)64-40)66-41-35(57)32(54)30(52)22(3)63-41/h8,20-22,24-42,49-60H,9-19H2,1-7H3"
SMILES=CC1CCC2(C(=O)OC3OC(COC4OC(CO)C(OC5OC(C)C(O)C(O)C5O)C(O)C4O)C(O)C(O)C3O)CCC3(C)C(=CCC4C5(C)CC(O)C(O)C(C)(CO)C5CCC43C)C2C1C
SPECTRUMID=CCMSLIB00010112971
71.013496 804356.0 
72.992661 61452.0 
73.029167 418360.0 
73.947929 7636.0 
81.034286 56301.0 
83.013573 241960.0 
85.029312 255031.0 
87.008499 141055.0 
87.044983 10125.0 
89.024277 403906.0 
95.013718 76158.0 
97.029457 363640.0 
99.008842 67163.0 
99.045097 38906.0 
101.024399 3008333.0 
103.040039 181535.0 
104.276939 6636.0 
111.008507 14989.0 
113.015587 10672.0 
113.024498 388786.0 
115.039978 148309.0 
119.034813 175512.0 
125.024406 891114.0 
127.04023 39211.0 
131.035019 296068.0 
133.050842 12550.0 
139.039993 13260.0 
141.018997 33365.0 
143.035004 699942.0 
145.050552 148199.0 
155.036667 14237.0 
159.030075 13143.0 
161.0457 1640481.0 
163.061356 774378.0 
166.002151 8790.0 
166.516342 7544.0 
167.034897 39600.0 
179.056183 63079.0 
185.045578 31919.0 
203.055984 17833.0 
205.071869 426823.0 
210.836914 12995.0 
221.066833 288666.0 
229.073517 11710.0 
245.06665 90337.0 
247.082367 1150350.0 
263.078064 66913.0 
264.124847 9610.0 
265.092682 162421.0 
289.093445 17951.0 
305.090668 10229.0 
307.106506 10263.0 
323.098419 727784.0 
325.114227 159798.0 
349.11441 39408.0 
367.124603 803678.0 
391.126068 18689.0 
409.135315 421257.0 
427.142059 11974.0 
451.148468 101356.0 
468.449036 9590.0 
469.156403 9534681.0 
470.156494 9905.0 
487.34314 12870590.0 
488.346893 11804.0 
490.183197 10373.0 
795.445557 11465.0 
837.472412 12258.0 
885.483765 9250.0 
939.5047 13331.0 
949.765869 11842.0 
957.50769 14490814.0 
965.323425 10863.0 
1003.512878 6700845.0 
END IONS

BEGIN IONS
NAME=N-(4-bromophenyl)-2-[4-(N-methylcarbamoyl)-2-oxohydroquinolyl]acetamide CollisionEnergy:205060 M+Na
PRECURSOR_MZ=436.027
INCHI="InChI=1S/C19H16BrN3O3/c1-21-19(26)15-10-18(25)23(16-5-3-2-4-14(15)16)11-17(24)22-13-8-6-12(20)7-9-13/h2-10H,11H2,1H3,(H,21,26)(H,22,24)"
SMILES=CN=C(O)c1cc(=O)n(CC(=O)Nc2ccc(Br)cc2)c2ccccc12
SPECTRUMID=CCMSLIB00010124761
60.544559 2586.0 
66.748367 2697.0 
130.064529 4348.0 
134.292511 2548.0 
215.080475 2640.0 
347.506226 2622.0 
418.01712 3607.0 
436.026215 442935.0 
END IONS

BEGIN IONS
NAME=Octanedioic acid CollisionEnergy:102040 M+H
PRECURSOR_MZ=175.097
INCHI="InChI=1S/C8H14O4/c9-7(10)5-3-1-2-4-6-8(11)12/h1-6H2,(H,9,10)(H,11,12)"
SMILES=O=C(O)CCCCCCC(=O)O
SPECTRUMID=CCMSLIB00010109431
54.126541 4282.0 
55.05505 34326.0 
69.070633 32851.0 
82.379913 5012.0 
83.086159 201238.0 
88.022293 16791.0 
92.900208 5221.0 
109.827927 4585.0 
111.080917 83615.0 
129.09079 9081.0 
130.032227 8093.0 
133.927429 9949.0 
136.231781 4498.0 
139.075455 8690.0 
151.938461 22680.0 
157.086105 33613.0 
167.582275 4232.0 
174.985016 5822.0 
175.096756 68895.0 
END IONS

BEGIN IONS
NAME="5-({[2-(5-methoxy-2-methylindol-3-yl)ethyl]amino}sulfonyl)-6-methyl-1,3-dihydr opyrimidine-2,4-dione CollisionEnergy:102040" M-H
PRECURSOR_MZ=391.108
INCHI="InChI=1S/C17H20N4O5S/c1-9-12(13-8-11(26-3)4-5-14(13)19-9)6-7-18-27(24,25)15-10(2)20-17(23)21-16(15)22/h4-5,8,18-19H,6-7H2,1-3H3,(H2,20,21,22,23)"
SMILES=COc1ccc2[nH]c(C)c(CCNS(=O)(=O)c3c(C)nc(O)nc3O)c2c1
SPECTRUMID=CCMSLIB00010109615
57.97504 5839.0 
63.961979 59388.0 
64.969597 12275.0 
66.742233 3480.0 
70.029167 5712.0 
72.008743 99119.0 
75.985687 4811.0 
76.969856 6913.0 
77.964867 4530.0 
78.985474 5905.0 
79.957031 17165.0 
79.980873 3519.0 
80.400803 2941.0 
83.061081 21038.0 
84.045273 24507.0 
86.024361 16572.0 
91.98082 14370.0 
92.376297 4451.0 
93.176804 3124.0 
96.032761 4096.0 
97.040367 7080.0 
98.55983 3551.0 
104.281731 3177.0 
105.001419 5180.0 
106.980789 161493.0 
106.988922 5496.0 
113.035393 13473.0 
117.996674 19281.0 
118.96804 25989.0 
119.794518 2816.0 
119.976112 119509.0 
119.985947 5508.0 
125.025482 6354.0 
125.035683 169158.0 
132.983597 5268.0 
148.007248 12594.0 
159.994843 34575.0 
160.076721 18470.0 
160.986969 4902.0 
161.002533 128094.0 
171.068665 35241.0 
172.076752 6699.0 
174.956406 3932.0 
186.092361 250299.0 
187.989197 24607.0 
200.095551 6224.0 
201.102982 32219.0 
203.118637 4509.0 
204.008438 13881.0 
209.784119 11851.0 
214.086548 13419.0 
215.118988 12493.0 
225.104141 5750.0 
227.119888 11497.0 
228.090149 35842.0 
229.098129 131411.0 
231.11441 14263.0 
243.113724 31470.0 
256.146149 19382.0 
259.108643 388233.0 
279.082428 6634.0 
300.134552 34085.0 
305.09613 15900.0 
307.075592 285258.0 
348.102173 568077.0 
391.108246 5100165.0 
END IONS

BEGIN IONS
NAME=Bamethan CollisionEnergy:205060 M+H-H2O
PRECURSOR_MZ=192.138
INCHI="InChI=1S/C12H19NO2/c1-2-3-8-13-9-12(15)10-4-6-11(14)7-5-10/h4-7,12-15H,2-3,8-9H2,1H3"
SMILES=CCCCNCC(O)c1ccc(O)cc1
SPECTRUMID=CCMSLIB00010118733
51.023319 8007.0 
53.002701 15591.0 
57.070309 1057221.0 
63.18465 8085.0 
65.038963 30418.0 
72.081131 141987.0 
74.096703 19305.0 
81.070213 13984.0 
85.481537 8819.0 
88.081146 8520.0 
91.054283 6143020.0 
93.056953 8294.0 
93.069962 194333.0 
94.065063 19177.0 
95.049423 12368.0 
103.054153 99881.0 
104.314743 8823.0 
105.069656 33520.0 
107.048859 126950.0 
108.080513 43273.0 
109.064598 160099.0 
117.057373 14614.0 
118.064934 329486.0 
118.696426 9806.0 
119.049019 3678346.0 
120.044037 11860.0 
121.064613 3608952.0 
132.080917 7870.0 
133.064697 109258.0 
134.059891 42259.0 
135.067627 1218022.0 
136.075516 4708810.0 
150.091095 903916.0 
150.105301 9089.0 
192.137924 15841483.0 
END IONS

BEGIN IONS
NAME="(7S)-14-((hydroxyimino)ethyl)-2,15-dimethyltetracyclo[8.7.0.0<2,7>.0<11,15>]he ptadec-13-en-5-yl acetate CollisionEnergy:102040" M+H
PRECURSOR_MZ=374.269
INCHI="InChI=1S/C23H35NO3/c1-14(24-26)19-7-8-20-18-6-5-16-13-17(27-15(2)25)9-11-22(16,3)21(18)10-12-23(19,20)4/h7,16-18,20-21,26H,5-6,8-13H2,1-4H3/b24-14-/t16-,17?,18?,20?,21?,22?,23?/m0/s1"
SMILES=CC(=O)OC1CCC2(C)C(CCC3C4CC=C(C(C)=NO)C4(C)CCC32)C1
SPECTRUMID=CCMSLIB00010103493
54.419628 3336.0 
55.05468 4178.0 
60.044788 41848.0 
67.054588 62999.0 
69.070053 22499.0 
70.065277 21390.0 
74.060173 28877.0 
79.054466 139284.0 
81.064873 7244.0 
81.070068 170892.0 
81.075493 5959.0 
82.065361 3879.0 
83.085457 16126.0 
84.044563 19372.0 
84.080948 166154.0 
86.060303 33566.0 
90.976723 4354.0 
91.054359 63089.0 
93.069893 142250.0 
94.065063 3885.0 
95.085457 105590.0 
96.080627 16769.0 
97.100792 4211.0 
98.096268 4816.0 
100.075691 80042.0 
105.061867 6182.0 
105.069748 145601.0 
107.085388 544003.0 
108.080467 14468.0 
109.101051 74447.0 
110.09626 5882.0 
112.075493 48424.0 
114.091003 6861.0 
115.054047 3618.0 
117.069809 24743.0 
119.085403 345425.0 
120.080643 6369.0 
121.100906 119693.0 
122.09623 4276.0 
123.077904 3951.0 
123.116722 21347.0 
124.075394 46513.0 
126.090927 33911.0 
131.085205 65945.0 
133.101013 155723.0 
134.096375 8390.0 
135.104797 7169.0 
135.116348 90860.0 
136.112091 29736.0 
138.09111 24018.0 
143.085281 22028.0 
145.088318 7895.0 
145.100952 177800.0 
146.095734 3836.0 
147.116486 202428.0 
148.111969 15333.0 
149.120087 9576.0 
149.132217 117850.0 
150.090729 5736.0 
152.106857 14719.0 
154.122574 4376.0 
157.101212 47046.0 
159.104462 4229.0 
159.116592 162862.0 
161.132233 472039.0 
162.127563 7793.0 
163.148529 5888.0 
164.106369 16647.0 
166.121948 17633.0 
169.100906 6492.0 
171.116348 80530.0 
173.116425 6774.0 
173.132324 145588.0 
174.125626 4268.0 
174.140717 14946.0 
175.147949 66311.0 
176.143204 5204.0 
178.122223 37354.0 
180.137802 16362.0 
183.116379 5100.0 
185.131744 72921.0 
187.147964 99089.0 
188.143433 16240.0 
189.149841 13394.0 
190.122162 7538.0 
190.157898 4564.0 
191.166901 18559.0 
192.138611 39731.0 
194.153793 19169.0 
197.133026 6510.0 
199.147659 62446.0 
201.165726 6462.0 
202.159637 7371.0 
203.166855 6790.0 
204.138443 8501.0 
204.174774 5894.0 
206.153336 68977.0 
208.170471 4201.0 
211.14772 17548.0 
213.164093 31294.0 
215.179993 29566.0 
218.154434 27186.0 
220.169144 86334.0 
225.163101 20490.0 
227.178848 23008.0 
229.024475 3935.0 
231.845322 3653.0 
232.169144 8147.0 
234.185272 6307.0 
239.180435 15141.0 
241.194168 18814.0 
253.195663 7061.0 
255.21022 237856.0 
268.205841 6685.0 
272.201141 5745.0 
279.209045 4129.0 
281.225464 80533.0 
282.226349 18683.0 
286.215973 114672.0 
296.238464 41002.0 
297.245819 35482.0 
300.198975 5593.0 
314.246857 526808.0 
315.22995 22426.0 
328.226746 6382.0 
329.235199 6750.0 
332.222809 6497.0 
341.24704 58418.0 
342.241547 65460.0 
346.237 141292.0 
356.256714 24852.0 
357.265259 124921.0 
372.407471 19427.0 
374.267975 11745283.0 
376.147369 8793.0 
END IONS

BEGIN IONS
NAME=phenylacetic acid CollisionEnergy:102040 M-H
PRECURSOR_MZ=135.045
INCHI="InChI=1S/C8H8O2/c9-8(10)6-7-4-2-1-3-5-7/h1-5H,6H2,(H,9,10)"
SMILES=C1=CC=C(C=C1)CC(=O)O
SPECTRUMID=CCMSLIB00010102003
66.92038 3111.436279 
71.329933 2958.075684 
72.177513 3215.771484 
72.993057 5016.035156 
75.008492 18608.539062 
80.443237 2875.849609 
90.719635 3541.537842 
99.925575 29936.857422 
104.405289 3415.569824 
134.865234 598994.3125 
134.894516 1188914.125 
135.030014 8505.472656 
135.044312 5485.590332 
135.894547 44243.722656 
135.970764 5236.538086 
136.299072 3380.97998 
136.309906 4904.540039 
183.144623 3494.094971 
END IONS

BEGIN IONS
NAME="8-((1E)-4-cyclohex-1-enyl-2-azabut-1-enyl)-2-[8-((1E)-4-cyclohex-1-enyl-2-azab ut-1-enyl)-1,6,7-trihydroxy-3-methyl-5-(methylethyl)(2-naphthyl)]-3-methyl-5-( methylethyl)naphthalene-1,6,7-triol CollisionEnergy:102040" M+2H]
PRECURSOR_MZ=367.214
INCHI="InChI=1S/C46H56N2O6/c1-25(2)35-31-21-27(5)37(43(51)39(31)33(41(49)45(35)53)23-47-19-17-29-13-9-7-10-14-29)38-28(6)22-32-36(26(3)4)46(54)42(50)34(40(32)44(38)52)24-48-20-18-30-15-11-8-12-16-30/h13,15,21-26,49-54H,7-12,14,16-20H2,1-6H3/b47-23+,48-24+"
SMILES=Cc1cc2c(C(C)C)c(O)c(O)c(C=NCCC3=CCCCC3)c2c(O)c1-c1c(C)cc2c(C(C)C)c(O)c(O)c(C=NCCC3=CCCCC3)c2c1O
SPECTRUMID=CCMSLIB00010113992
53.638378 2888.0 
55.054489 4374.0 
57.07 3097.0 
65.038773 5092.0 
67.054558 421911.0 
68.057426 4565.0 
69.069931 7604.0 
79.054207 6488.0 
81.070107 66292.0 
82.411903 4717.0 
83.06604 3129.0 
83.085381 5001.0 
104.299057 2965.0 
107.085258 5347.0 
109.101028 248281.0 
110.104103 6169.0 
113.244324 3034.0 
122.096237 4868.0 
124.111839 12252.0 
126.127289 12116.0 
129.987457 6129.0 
162.997818 3757.0 
196.444382 3155.0 
222.891312 2867.0 
227.06987 4893.0 
233.603485 3460.0 
235.583252 3466.0 
242.092972 42927.0 
243.09996 13646.0 
247.599335 3939.0 
249.093658 6042.0 
256.606384 170845.0 
257.107849 21284.0 
257.61441 23627.0 
265.119293 17978.0 
269.614105 7290.0 
271.119659 593286.0 
271.621704 77148.0 
304.149811 4013.0 
304.651306 26422.0 
305.154236 7264.0 
305.660522 14511.0 
319.16629 607774.0 
319.668091 113160.0 
320.171173 4193.0 
350.210815 5597.0 
359.701447 19798.0 
366.205811 4463.0 
366.709229 16354.0 
367.213318 4686052.0 
367.714905 1107136.0 
468.158386 3918.0 
473.194824 13334.0 
483.178986 401976.0 
484.180878 61746.0 
485.192841 37642.0 
500.205383 122748.0 
501.208954 18358.0 
512.206421 38640.0 
513.21106 4144.0 
532.53595 3967.0 
579.273132 4228.0 
608.298706 31132.0 
609.302734 12900.0 
610.318298 3667.0 
END IONS

BEGIN IONS
NAME="(2R)-2-[(2,4-dinitrophenyl)amino]-3-indol-3-ylpropanoic acid CollisionEnergy:102040" M-H
PRECURSOR_MZ=369.084
INCHI="InChI=1S/C17H14N4O6/c22-17(23)15(7-10-9-18-13-4-2-1-3-12(10)13)19-14-6-5-11(20(24)25)8-16(14)21(26)27/h1-6,8-9,15,18-19H,7H2,(H,22,23)"
SMILES=O=C(O)C(Cc1c[nH]c2ccccc12)Nc1ccc([N+](=O)[O-])cc1[N+](=O)[O-]
SPECTRUMID=CCMSLIB00010111920
58.064541 2867.0 
65.013847 2953.0 
65.998169 2725.0 
102.02285 4330.0 
104.038094 4884.0 
104.28627 2645.0 
105.422081 2532.0 
115.029762 11769.0 
116.050728 53868.0 
119.025108 16417.0 
122.024292 3408.0 
130.066406 4859.0 
132.033264 57658.0 
132.044495 7195.0 
136.21405 3435.0 
138.019485 19147.0 
144.033081 5465.0 
144.045471 131133.0 
147.019852 87464.0 
148.027802 98170.0 
149.035446 6630.0 
152.022766 28008.0 
153.030869 21594.0 
154.053986 5141.0 
160.014999 4051.0 
160.028458 4837.0 
162.030914 337153.0 
164.927872 19311.0 
165.030304 37810.0 
165.664642 2816.0 
166.024704 5258.0 
166.038315 5189.0 
168.017593 73392.0 
168.041519 10961.0 
170.987289 3050.0 
174.056046 14705.0 
174.956085 5570.0 
175.038422 14854.0 
177.017868 211116.0 
178.025726 318272.0 
179.046661 5296.0 
190.007309 5025.0 
190.025665 67422.0 
207.027954 27575.0 
209.980423 4716.0 
210.000824 3375.0 
218.071701 19657.0 
231.079453 6718.0 
232.914001 5868.0 
247.152435 3353.0 
254.987198 3700.0 
258.067535 34702.0 
259.075073 54558.0 
260.082916 32799.0 
262.0625 10724.0 
264.991394 4103.0 
279.088623 111976.0 
282.981873 5435.0 
289.073212 968073.0 
290.081085 432158.0 
290.485077 2991.0 
304.982758 22896.0 
307.083344 17111.0 
348.978912 13575.0 
368.978882 97963.0 
369.083496 4342.0 
369.228058 15811.0 
391.57486 2864.0 
END IONS

BEGIN IONS
NAME=ethyl 1-(2-ethylthioethyl)-5-hydroxy-2-methylbenzo[g]indole-3-carboxylate CollisionEnergy:102040 M+H
PRECURSOR_MZ=358.147
INCHI="InChI=1S/C20H23NO3S/c1-4-24-20(23)18-13(3)21(10-11-25-5-2)19-15-9-7-6-8-14(15)17(22)12-16(18)19/h6-9,12,22H,4-5,10-11H2,1-3H3"
SMILES=CCOC(=O)c1c(C)n(CCSCC)c2c1cc(O)c1ccccc12
SPECTRUMID=CCMSLIB00010110497
55.054821 12465.0 
61.011162 471123.0 
62.729771 3407.0 
69.614479 3221.0 
89.042198 5099024.0 
90.04557 3972.0 
91.038208 4167.0 
121.324242 2827.0 
128.609451 2924.0 
132.867126 2679.0 
152.508057 3144.0 
153.776062 2645.0 
162.133133 2922.0 
165.260635 3235.0 
168.004425 3110.0 
185.472839 3454.0 
222.090805 21389.0 
250.086243 81311.0 
296.128632 22065.0 
312.105042 118878.0 
316.451904 2696.0 
358.146606 354790.0 
END IONS

BEGIN IONS
NAME=VITAMIN K1 CollisionEnergy:102040 M+2H]
PRECURSOR_MZ=226.182
INCHI="InChI=1S/C31H46O2/c1-22(2)12-9-13-23(3)14-10-15-24(4)16-11-17-25(5)20-21-27-26(6)30(32)28-18-7-8-19-29(28)31(27)33/h7-8,18-20,22-24H,9-17,21H2,1-6H3/b25-20+"
SMILES=CC(=CCC1=C(C)C(=O)c2ccccc2C1=O)CCCC(C)CCCC(C)CCCC(C)C
SPECTRUMID=CCMSLIB00010112940
55.055038 137720.0 
57.070541 59950.0 
67.054962 803917.0 
69.070511 290581.0 
71.049721 42243.0 
79.054901 405926.0 
81.070503 2361128.0 
82.405243 34924.0 
83.049652 130517.0 
83.086113 521680.0 
85.065178 124202.0 
86.060654 71573.0 
91.054718 218309.0 
93.070503 772982.0 
95.086052 2076666.0 
97.065437 326646.0 
97.101471 213985.0 
99.08078 80459.0 
100.076332 54060.0 
105.070312 201082.0 
107.077957 51282.0 
107.085922 1315079.0 
109.065109 81511.0 
109.101646 379468.0 
111.08062 330913.0 
114.091652 52650.0 
114.728249 29699.0 
117.070107 148277.0 
119.085716 140391.0 
121.101479 540943.0 
123.080528 34867.0 
124.111969 49270.0 
125.096313 136218.0 
127.075539 136806.0 
131.085815 833624.0 
133.100662 114380.0 
135.080536 78386.0 
135.116943 187891.0 
136.510071 33670.0 
145.100677 71312.0 
147.117142 428679.0 
149.096619 35569.0 
149.132706 545404.0 
153.090912 40860.0 
163.147995 1110969.0 
173.132492 2702575.0 
180.174469 286489.0 
181.158127 132315.0 
191.142929 978608.0 
198.184357 115140.0 
208.169861 347494.0 
209.153717 1249490.0 
212.403 48277.0 
226.179993 2265958.0 
227.163727 155231.0 
END IONS

BEGIN IONS
NAME="6-amino-3-ethyl-4-(4-hydroxy-3,5-dimethoxyphenyl)-4H-pyrano[3,2-d]pyrazole-5-c arbonitrile CollisionEnergy:102040" M+H
PRECURSOR_MZ=343.14
INCHI="InChI=1S/C17H18N4O4/c1-4-10-14-13(9(7-18)16(19)25-17(14)21-20-10)8-5-11(23-2)15(22)12(6-8)24-3/h5-6,13,22H,4,19H2,1-3H3,(H,20,21)"
SMILES=CCc1[nH]nc2c1C(c1cc(OC)c(O)c(OC)c1)C(C#N)=C(N)O2
SPECTRUMID=CCMSLIB00010111009
65.614166 3399.0 
71.060593 3967.0 
95.049294 3463.0 
97.986504 3563.0 
104.301231 4065.0 
106.039688 4675.0 
111.055191 3651.0 
113.070869 55775.0 
123.043701 25083.0 
123.054932 27207.0 
125.071198 29873.0 
136.05011 3981.0 
136.227005 4756.0 
138.065781 18029.0 
140.046692 18006.0 
144.019775 6992.0 
153.054428 62047.0 
155.070023 156182.0 
161.04541 52659.0 
162.066513 5543.0 
164.081665 97164.0 
167.069489 4477.0 
170.047104 26197.0 
174.054199 44456.0 
176.071442 3898.0 
180.06514 22243.0 
185.070969 4994.0 
189.076797 2757248.0 
190.080063 16460.0 
197.125397 4184.0 
198.04187 52273.0 
202.072037 8371.0 
206.082474 4749.0 
207.064743 13920.0 
210.866196 3847.0 
215.080704 6604.0 
216.052032 67083.0 
216.08847 12538.0 
217.060165 5707.0 
217.096497 56556.0 
220.108551 19336.0 
222.075745 22904.0 
228.065079 5869.0 
230.081924 62947.0 
231.075958 523812.0 
232.083252 5268.0 
232.915756 4167.0 
233.056137 4335.0 
233.091461 20424.0 
237.088745 4535.0 
244.083801 26917.0 
245.092331 91588.0 
246.075455 14204.0 
247.074402 13885.0 
247.107254 107967.0 
249.086441 40252.0 
249.12175 4004.0 
254.09021 4991.0 
255.073776 3820.0 
255.099655 25597.0 
256.082092 4259.0 
260.08905 37705.0 
261.087341 22466.0 
262.094147 54001.0 
263.101624 25704.0 
265.082245 38285.0 
268.069214 4651.0 
271.070526 25683.0 
271.10321 6028.0 
272.101471 8065.0 
277.117737 4726390.0 
278.125702 100866.0 
283.093384 24445.0 
284.102295 25946.0 
287.126678 22607.0 
288.096924 64419.0 
288.131104 7068.0 
296.064178 5040.0 
297.097931 21067.0 
298.117249 18782.0 
299.074463 12442.0 
301.104645 54283.0 
311.118408 29196.0 
312.123169 24780.0 
316.128357 659732.0 
326.071289 7351.0 
326.112244 93537.0 
327.10733 5214.0 
328.117889 27464.0 
343.139343 5937040.0 
344.797028 3832.0 
END IONS

BEGIN IONS
NAME="5-(5-formyl-2,4-dioxo(1,3-dihydropyrimidinyl))-2-[(4-methylphenylcarbonyloxy)m ethyl]oxolan-3-yl 4-methylbenzoate CollisionEnergy:205060" M+Na
PRECURSOR_MZ=515.142
INCHI="InChI=1S/C26H24N2O8/c1-15-3-7-17(8-4-15)24(31)34-14-21-20(36-25(32)18-9-5-16(2)6-10-18)11-22(35-21)28-12-19(13-29)23(30)27-26(28)33/h3-10,12-13,20-22H,11,14H2,1-2H3,(H,27,30,33)"
SMILES=Cc1ccc(C(=O)OCC2OC(n3cc(C=O)c(O)nc3=O)CC2OC(=O)c2ccc(C)cc2)cc1
SPECTRUMID=CCMSLIB00010124869
53.03915 43954.0 
56.965309 4614.0 
67.974327 2784.0 
81.033836 847405.0 
82.403236 3175.0 
96.135803 3072.0 
100.990623 3677.0 
106.442932 3182.0 
119.049202 13003.0 
126.970131 6060.0 
136.216934 3778.0 
144.98111 22003.0 
159.041992 44913.0 
163.011398 583696.0 
167.997391 3473.0 
204.038528 4072.0 
210.936951 3340.0 
239.067734 825269.0 
249.612366 2817.0 
257.080109 5168.0 
280.093445 28579.0 
335.007355 3971.0 
375.120026 15977.0 
393.038513 4383.0 
429.877228 2800.0 
436.042389 5417.0 
515.051208 31023.0 
533.060486 16668.0 
END IONS

BEGIN IONS
NAME=kaempferol CollisionEnergy:102040 2M-H
PRECURSOR_MZ=571.088
INCHI="InChI=1S/C15H10O6/c16-8-3-1-7(2-4-8)15-14(20)13(19)12-10(18)5-9(17)6-11(12)21-15/h1-6,16-18,20H"
SMILES=O=c1c(O)c(-c2ccc(O)cc2)oc2cc(O)cc(O)c12
SPECTRUMID=CCMSLIB00010106033
52.886181 2504.0 
58.489891 2521.0 
66.752586 3009.0 
104.306084 2682.0 
213.540024 2413.0 
285.040375 47323.0 
434.868744 4257.0 
464.329224 2884.0 
474.481995 2660.0 
END IONS

BEGIN IONS
NAME="3-(acetyloxymethyl)-7-(butanoylamino)-6-oxo-2H,7H,7aH-azetidino[2,1-b]1,3-thia zine-4-carboxylic acid CollisionEnergy:102040" M-H
PRECURSOR_MZ=341.081
INCHI="InChI=1S/C14H18N2O6S/c1-3-4-9(18)15-10-12(19)16-11(14(20)21)8(5-22-7(2)17)6-23-13(10)16/h10,13H,3-6H2,1-2H3,(H,15,18)(H,20,21)"
SMILES=CCCC(O)=NC1C(=O)N2C(C(=O)O)=C(COC(C)=O)CSC12
SPECTRUMID=CCMSLIB00010114388
50.025719 2310.0 
51.459221 2098.0 
52.827801 2130.0 
59.01347 39797.0 
60.553101 2700.0 
69.065292 2480.0 
73.971962 2357.0 
84.849113 2164.0 
93.007072 2361.0 
112.022346 2412.0 
118.682404 2670.0 
124.021873 2500.0 
126.056084 349432.0 
130.276093 2516.0 
133.040482 3035.0 
144.048645 9677.0 
147.771225 2238.0 
150.001846 11091.0 
151.052094 3197.0 
153.066788 5494.0 
153.996155 5455.0 
156.012421 17815.0 
158.006409 2832.0 
167.028458 32555.0 
170.028305 36893.0 
193.080109 2976.0 
203.08342 18697.0 
221.092819 2916.0 
237.070114 42938.0 
247.07251 3540.0 
263.103607 3766.0 
281.060028 16497.0 
300.289124 2379.0 
341.131775 5651.0 
END IONS

BEGIN IONS
NAME="N-(3-pyridyl)(3,4,5-trimethoxyphenyl)carboxamide CollisionEnergy:205060" M+Na
PRECURSOR_MZ=311.1
INCHI="InChI=1S/C15H16N2O4/c1-19-12-7-10(8-13(20-2)14(12)21-3)15(18)17-11-5-4-6-16-9-11/h4-9H,1-3H3,(H,17,18)"
SMILES=COc1cc(C(O)=Nc2cccnc2)cc(OC)c1OC
SPECTRUMID=CCMSLIB00010115922
82.403816 3691.0 
87.779663 2039.0 
92.732773 2319.0 
98.06929 2705.0 
139.736145 2249.0 
140.910782 2058.0 
177.083389 2285.0 
311.100586 9011.0 
END IONS

BEGIN IONS
NAME=cycloheximide CollisionEnergy:205060 M+H
PRECURSOR_MZ=282.17
INCHI="InChI=1S/C15H23NO4/c1-8-3-9(2)15(20)11(4-8)12(17)5-10-6-13(18)16-14(19)7-10/h8-12,17H,3-7H2,1-2H3,(H,16,18,19)/t8-,9-,11-,12+/m0/s1"
SMILES=CC1CC(C)C(=O)C(C(O)CC2CC(=O)N=C(O)C2)C1
SPECTRUMID=CCMSLIB00010122525
55.054588 13507.0 
56.70557 2748.0 
58.424469 2846.0 
60.04451 4202.0 
65.038857 13908.0 
67.054642 25958.0 
69.033684 18421.0 
69.070236 36946.0 
71.049316 5306.0 
79.054482 51530.0 
81.033669 13319.0 
81.070107 63121.0 
82.065712 4214.0 
83.049431 24712.0 
83.085747 20237.0 
84.044281 4879.0 
84.638702 2728.0 
84.959991 44352.0 
85.028351 3034.0 
91.054314 37732.0 
93.033661 21303.0 
93.069939 59882.0 
94.065338 2644.0 
95.043427 4117.0 
95.049263 46156.0 
95.085579 121783.0 
96.044319 16233.0 
97.028427 4715.0 
97.064613 15450.0 
97.101158 23805.0 
98.059624 3115.0 
102.970032 4050.0 
104.266373 3906.0 
105.069878 65395.0 
107.049133 63926.0 
107.085487 223407.0 
109.064613 18963.0 
109.101013 27547.0 
109.657661 2815.0 
110.059914 12827.0 
111.043678 5830.0 
111.08017 5148.0 
112.039513 24620.0 
117.069733 57558.0 
119.076477 4771.0 
119.085518 110604.0 
121.028343 98039.0 
121.064774 74831.0 
121.101288 74356.0 
122.059921 12057.0 
123.044083 35594.0 
123.080307 85917.0 
123.116364 4056.0 
125.059601 16663.0 
125.086449 5026.0 
125.096077 106281.0 
126.055168 20686.0 
129.069809 24927.0 
131.04892 13564.0 
131.085526 77067.0 
133.064957 11287.0 
133.100998 37335.0 
135.043365 14414.0 
135.080017 31312.0 
135.11647 11794.0 
136.075394 3073.0 
137.095917 5090.0 
138.055023 67071.0 
140.070953 23013.0 
141.055328 11851.0 
141.06842 8013.0 
142.049255 4025.0 
142.076874 6868.0 
143.085434 132104.0 
143.098251 4383.0 
144.093018 5328.0 
145.064697 25577.0 
145.101074 79155.0 
147.080673 34916.0 
147.116776 6440.0 
148.075211 4760.0 
149.059921 25097.0 
149.09581 13031.0 
149.132523 14719.0 
150.054901 15830.0 
152.070816 9710.0 
153.054886 21407.0 
155.085114 18727.0 
157.101074 132160.0 
158.108246 4293.0 
159.080597 40922.0 
159.116714 282416.0 
161.096146 48035.0 
161.131714 10577.0 
162.973785 13949.0 
163.074783 18481.0 
163.11145 43293.0 
165.053726 3380.0 
165.090088 14186.0 
168.065765 10287.0 
168.093384 16209.0 
169.10112 80178.0 
170.096115 17580.0 
171.080185 14333.0 
172.088486 4635.0 
173.09581 17683.0 
173.132431 132459.0 
175.111252 16285.0 
175.148407 5893.0 
176.070282 3594.0 
176.144211 3176.0 
177.090836 11450.0 
177.127502 107980.0 
179.106888 3942.0 
180.984436 24053.0 
183.116882 102308.0 
184.111084 4395.0 
185.0961 61060.0 
185.361404 3163.0 
186.127457 14141.0 
187.075943 3897.0 
187.111649 179096.0 
188.106186 3509.0 
189.090103 27356.0 
190.086655 10801.0 
191.14267 16438.0 
193.101913 3875.0 
200.143799 10109.0 
201.127289 191063.0 
203.106735 6271.0 
203.143158 13824.0 
204.137802 14350.0 
205.12236 100796.0 
211.11171 27791.0 
211.131744 3458.0 
218.153915 33842.0 
219.137909 132161.0 
220.132965 13188.0 
221.116943 6784.0 
228.138397 25646.0 
229.122116 170320.0 
234.950241 5028.0 
235.951462 10126.0 
236.164886 19941.0 
237.148209 11180.0 
246.148697 441756.0 
247.132721 305910.0 
249.303589 3397.0 
250.550186 4163.0 
258.966064 4700.0 
264.159119 754447.0 
265.109039 3783.0 
265.143127 251095.0 
282.169708 428697.0 
457.443176 3574.0 
END IONS

BEGIN IONS
NAME=3-acetyl-5-hydroxy-1-(2-hydroxyethyl)-2-methylindole CollisionEnergy:205060 M+formate
PRECURSOR_MZ=278.103
INCHI="InChI=1S/C13H15NO3/c1-8-13(9(2)16)11-7-10(17)3-4-12(11)14(8)5-6-15/h3-4,7,15,17H,5-6H2,1-2H3"
SMILES=CC(=O)c1c(C)n(CCO)c2ccc(O)cc12
SPECTRUMID=CCMSLIB00010119024
62.56213 1901.0 
66.143799 2023.0 
69.705948 2015.0 
73.970047 2449.0 
104.308372 2708.0 
117.076889 2076.0 
118.635918 2175.0 
136.24176 2589.0 
138.205307 2006.0 
177.772247 2202.0 
185.448471 2147.0 
187.064087 11824.0 
208.866028 7644.0 
232.098389 3502.0 
END IONS

BEGIN IONS
NAME=Uridine 5'-monophosphate CollisionEnergy:102040 M+H
PRECURSOR_MZ=325.043
INCHI="InChI=1S/C9H13N2O9P/c12-5-1-2-11(9(15)10-5)8-7(14)6(13)4(20-8)3-19-21(16,17)18/h1-2,4,6-8,13-14H,3H2,(H,10,12,15)(H2,16,17,18)/t4-,6-,7-,8-/m1/s1"
SMILES=O=c1nc(O)ccn1[C@@H]1O[C@H](COP(=O)(O)O)[C@@H](O)[C@H]1O
SPECTRUMID=CCMSLIB00010103309
50.293499 2274.610107 
52.383701 1985.550049 
55.161598 2598.350098 
57.6222 2391.389893 
59.421501 1938.869995 
63.588501 2342.47998 
78.905197 2101.300049 
82.400002 2351.649902 
92.376999 2481.26001 
96.481796 2474.689941 
97.0289 345902.0 
113.035004 15897.599609 
131.964996 2385.469971 
161.701004 2207.459961 
209.820999 2225.899902 
213.014999 9362.639648 
227.065994 9114.419922 
END IONS

BEGIN IONS
NAME="2-[(2,5-dimethyl(3-furyl))carbonylamino]-3-phenylpropanoic acid CollisionEnergy:102040" 2M-H
PRECURSOR_MZ=573.224
INCHI="InChI=1S/C16H17NO4/c1-10-8-13(11(2)21-10)15(18)17-14(16(19)20)9-12-6-4-3-5-7-12/h3-8,14H,9H2,1-2H3,(H,17,18)(H,19,20)"
SMILES=Cc1cc(C(O)=NC(Cc2ccccc2)C(=O)O)c(C)o1
SPECTRUMID=CCMSLIB00010111752
55.1273 2570.0 
77.239403 2432.0 
78.603477 2489.0 
87.449669 2603.0 
88.817001 2612.0 
95.050034 3919.0 
138.056259 6042.0 
147.045685 5758.0 
158.017014 3652.0 
208.985611 5344.0 
227.096146 4943.0 
242.118607 3136.0 
286.108826 194266.0 
330.00705 2678.0 
421.353119 2630.0 
END IONS

BEGIN IONS
NAME="4-[(2E)-3-(2,3,4-trimethoxyphenyl)prop-2-enoyl]phenyl thiophene-2-carboxylate CollisionEnergy:205060" M-H
PRECURSOR_MZ=423.091
INCHI="InChI=1S/C23H20O6S/c1-26-19-13-9-16(21(27-2)22(19)28-3)8-12-18(24)15-6-10-17(11-7-15)29-23(25)20-5-4-14-30-20/h4-14H,1-3H3/b12-8+"
SMILES=COc1ccc(C=CC(=O)c2ccc(OC(=O)c3cccs3)cc2)c(OC)c1OC
SPECTRUMID=CCMSLIB00010115535
52.364182 2239.0 
68.997704 11016.0 
73.959671 2525.0 
76.525932 2440.0 
82.404968 3126.0 
82.995712 18907.0 
92.383812 2627.0 
95.013802 11396.0 
98.001228 2706.0 
103.872253 2291.0 
123.008957 66047.0 
124.560837 2421.0 
126.985313 4045.0 
132.021729 4549.0 
135.045212 15721.0 
145.030182 2537.0 
146.01944 3507.0 
148.01683 32799.0 
149.062363 2882.0 
150.197601 2490.0 
150.986069 28294.0 
161.024475 12007.0 
163.040115 56236.0 
177.00148 3602.0 
177.786148 2449.0 
201.002136 20312.0 
203.017227 27936.0 
204.996735 60886.0 
218.003937 32944.0 
278.041504 5161.0 
281.027649 12088.0 
293.030304 9246.0 
294.03598 21755.0 
297.0224 3106.0 
333.024139 4677.0 
334.029175 5520.0 
347.039795 4833.0 
361.016296 3758.0 
362.02655 27897.0 
363.03302 10600.0 
365.05069 5789.0 
377.050629 3352.0 
378.016113 2968.0 
393.044403 16212.0 
407.056122 3531.0 
408.066711 16411.0 
423.091125 489879.0 
END IONS

BEGIN IONS
NAME=EBELACTONE B CollisionEnergy:102040 M+H-H2O
PRECURSOR_MZ=335.258
INCHI="InChI=1S/C21H36O4/c1-8-13(4)18(22)16(7)19(23)14(5)10-12(3)11-15(6)20-17(9-2)21(24)25-20/h10,13-18,20,22H,8-9,11H2,1-7H3/b12-10+/t13-,14-,15+,16+,17+,18-,20+/m1/s1"
SMILES=CCC(C)C(O)C(C)C(=O)C(C)C=C(C)CC(C)C1OC(=O)C1CC
SPECTRUMID=CCMSLIB00010105950
52.508209 2302.0 
55.05476 47819.0 
56.953861 2873.0 
60.51387 2568.0 
60.927811 2373.0 
69.033989 4274.0 
69.070236 64327.0 
73.064903 3291.0 
74.07019 2866.0 
75.391327 2873.0 
81.070213 27503.0 
83.085693 36735.0 
83.282478 2252.0 
91.425392 2621.0 
93.069817 10082.0 
95.085358 28036.0 
97.101227 156038.0 
99.080368 3127.0 
107.085426 29989.0 
109.064537 2256.0 
109.101112 17018.0 
111.080338 10949.0 
111.116859 24175.0 
112.34948 2635.0 
113.059509 3280.0 
119.085403 5055.0 
121.101158 48949.0 
123.080559 5358.0 
123.116783 17672.0 
124.520653 2904.0 
125.09594 31059.0 
127.075447 19742.0 
127.977501 2425.0 
133.101318 4129.0 
135.116791 90899.0 
137.096024 12246.0 
137.132233 12797.0 
139.100906 2350.0 
139.111633 27437.0 
141.127274 4252.0 
147.116364 3147.0 
149.132706 15191.0 
151.112045 9682.0 
151.147797 4067.0 
153.127136 38535.0 
155.142807 2850.0 
161.132843 4594.0 
163.111771 8779.0 
163.14798 5086.0 
165.163681 4595.0 
167.143021 18493.0 
173.132401 3531.0 
175.14769 17124.0 
177.12677 11445.0 
177.163376 2868.0 
187.145981 2757.0 
189.163589 5145.0 
191.143036 8723.0 
191.179001 3166.0 
192.865448 2307.0 
193.158264 18591.0 
194.931992 2441.0 
195.13736 5284.0 
203.17868 3006.0 
207.174408 3000.0 
209.153549 17931.0 
209.189636 3836.0 
221.191696 3211.0 
229.158051 10110.0 
247.169495 18197.0 
247.204666 13153.0 
265.183228 5582.0 
265.215607 94334.0 
279.231232 28641.0 
289.253113 2820.0 
291.267426 26176.0 
299.236176 5650.0 
317.246063 22197.0 
335.126129 20816.0 
335.217194 33761.0 
335.257599 260271.0 
END IONS

BEGIN IONS
NAME="ethyl 1-(4-methoxy-3-{[4-(2-methoxyphenyl)piperazinyl]methyl}phenyl)-1,2,3,4-t etrahydrobeta-carboline-3-carboxylate CollisionEnergy:102040" M+2H]
PRECURSOR_MZ=278.152
INCHI="InChI=1S/C33H38N4O4/c1-4-41-33(38)27-20-25-24-9-5-6-10-26(24)34-32(25)31(35-27)22-13-14-29(39-2)23(19-22)21-36-15-17-37(18-16-36)28-11-7-8-12-30(28)40-3/h5-14,19,27,31,34-35H,4,15-18,20-21H2,1-3H3"
SMILES=CCOC(=O)C1Cc2c([nH]c3ccccc23)C(c2ccc(OC)c(CN3CCN(c4ccccc4OC)CC3)c2)N1
SPECTRUMID=CCMSLIB00010110495
51.172958 2574.0 
56.04998 12678.0 
59.07045 3290.0 
59.961361 2746.0 
74.023987 751870.0 
75.027382 3166.0 
82.397903 2940.0 
84.044197 3797.0 
88.036507 2840.0 
91.817863 2745.0 
93.20298 3072.0 
95.049431 14477.0 
102.054932 2081528.0 
103.051453 4753.0 
103.058411 30155.0 
116.238152 2787.0 
117.069923 2914.0 
118.065117 21497.0 
120.080994 3852.0 
120.27906 2983.0 
127.538689 2682.0 
130.065048 175171.0 
131.069 3526.0 
134.335953 2789.0 
135.080124 3152.0 
136.075928 12056.0 
142.065903 3380.0 
143.072525 32917.0 
143.85939 2553.0 
144.080521 38237.0 
146.060226 17300.0 
148.075531 116068.0 
150.091309 80718.0 
160.075256 14549.0 
162.091843 5498.0 
170.060379 12665.0 
172.112137 14416.0 
174.091263 101850.0 
174.107651 5329.0 
175.093719 3010.0 
188.06926 3915.0 
190.10968 33763.0 
191.117661 117792.0 
192.125443 20732.0 
193.133957 5648.0 
204.079636 10525.0 
205.089218 3151.0 
213.922958 4787.0 
216.101715 206739.0 
217.086365 4723.0 
217.107697 6676.0 
218.096634 5980.0 
219.103729 11834.0 
220.619736 37489.0 
227.627716 217147.0 
228.130096 24138.0 
230.096039 82938.0 
231.103806 249769.0 
232.076782 34491.0 
232.111023 41168.0 
233.1194 3852.0 
234.130493 37698.0 
241.134354 23586.0 
241.634995 5347.0 
247.098831 547674.0 
248.102249 41655.0 
249.113922 4577.0 
262.122284 817085.0 
263.126343 62515.0 
264.137817 113561.0 
265.142334 6220.0 
269.637482 3923.0 
277.645203 3156.0 
278.152252 31195.0 
327.263702 3070.0 
340.201385 232119.0 
341.205933 16109.0 
357.837158 3376.0 
380.196106 23214.0 
422.223083 11505.0 
426.237946 20705.0 
434.845001 3143.0 
454.248199 947173.0 
455.251282 121980.0 
576.463013 3257.0 
END IONS

BEGIN IONS
NAME=Citramalic acid CollisionEnergy:205060 M+Na
PRECURSOR_MZ=171.026
INCHI="InChI=1S/C5H8O5/c1-5(10,4(8)9)2-3(6)7/h10H,2H2,1H3,(H,6,7)(H,8,9)"
SMILES=CC(O)(CC(=O)O)C(=O)O
SPECTRUMID=CCMSLIB00010125121
51.239281 4398.0 
55.055031 18491.0 
58.957451 4185.0 
61.05024 4654.0 
72.045174 100096.0 
83.086357 21029.0 
89.071716 69617.0 
95.257057 5069.0 
118.637871 4232.0 
125.021217 7930.0 
136.19136 4692.0 
171.013931 8956.0 
171.027115 98766.0 
171.099945 8379.0 
171.149506 74929.0 
END IONS

BEGIN IONS
NAME=Cobadex CollisionEnergy:205060 M+formate
PRECURSOR_MZ=407.208
INCHI="InChI=1S/C21H30O5/c1-19-7-5-13(23)9-12(19)3-4-14-15-6-8-21(26,17(25)11-22)20(15,2)10-16(24)18(14)19/h9,14-16,18,22,24,26H,3-8,10-11H2,1-2H3/t14-,15-,16-,18+,19-,20-,21-/m0/s1"
SMILES=CC12CCC(=O)C=C1CCC1C2C(O)CC2(C)C1CCC2(O)C(=O)CO
SPECTRUMID=CCMSLIB00010119750
60.743992 3038.0 
72.532288 3031.0 
82.564148 3190.0 
95.050003 12435.0 
97.065643 17798.0 
107.050209 50147.0 
109.066063 6316.0 
111.044983 4847.0 
121.066261 3214.0 
123.045174 165542.0 
123.081383 43107.0 
125.060753 262597.0 
135.045242 13669.0 
135.081741 31696.0 
137.060745 27316.0 
145.066101 4578.0 
159.04509 13713.0 
161.060867 15918.0 
161.097504 10493.0 
173.061478 23179.0 
175.076248 7022.0 
189.092255 162785.0 
208.881088 8227.0 
208.900467 4062.0 
241.123444 3733.0 
245.896072 4384.0 
257.157593 3453.0 
267.139709 5518.0 
269.154846 13092.0 
274.893555 54775.0 
279.13913 36274.0 
281.118317 59847.0 
282.126373 858018.0 
283.170441 13551.0 
287.164612 5061.0 
288.88208 5163.0 
289.885254 6694.0 
292.902557 3996.0 
295.133881 17759.0 
297.149689 634075.0 
301.180908 292407.0 
310.915405 12761.0 
311.128052 10706.0 
311.164551 6590.0 
313.180725 34646.0 
315.159882 63302.0 
315.19574 6162.0 
319.1922 5513.0 
329.176147 1342659.0 
331.191498 130219.0 
338.866211 3560.0 
343.192017 50311.0 
345.171082 17612.0 
352.872467 3574.0 
361.201843 45117.0 
363.181763 177225.0 
373.165985 5458.0 
406.904358 12118.0 
407.208649 95552.0 
END IONS

BEGIN IONS
NAME=scopolamine CollisionEnergy:205060 M+H
PRECURSOR_MZ=304.154
INCHI="InChI=1S/C17H21NO4/c1-18-13-7-11(8-14(18)16-15(13)22-16)21-17(20)12(9-19)10-5-3-2-4-6-10/h2-6,11-16,19H,7-9H2,1H3"
SMILES=CN1C2CC(OC(=O)C(CO)c3ccccc3)CC1C1OC12
SPECTRUMID=CCMSLIB00010116612
51.02346 5338.0 
55.018299 4747.0 
55.054569 6973.0 
56.049931 32054.0 
57.033958 26646.0 
57.05785 5674.0 
58.02924 10041.0 
58.065701 15338.0 
59.037029 7784.0 
60.044788 19847.0 
62.019001 26204.0 
64.014679 16060.0 
65.038857 15517.0 
67.042313 14357.0 
67.054588 139039.0 
68.049843 88532.0 
69.033859 4707.0 
69.069946 5671.0 
70.065483 360622.0 
71.049744 4830.0 
72.044746 98396.0 
72.937027 4791.0 
73.028679 34001.0 
73.052208 6614.0 
74.06031 97923.0 
77.038673 12566.0 
79.054497 941897.0 
80.049568 31716.0 
81.03373 317278.0 
81.05761 28624.0 
81.070099 171808.0 
82.065353 433136.0 
83.049332 243049.0 
84.044571 25789.0 
84.080963 380896.0 
86.060097 27790.0 
91.054314 216196.0 
93.057442 7157.0 
93.069923 230477.0 
94.06514 293792.0 
95.049187 52967.0 
95.072937 97574.0 
96.044434 203879.0 
96.080849 250818.0 
97.044899 7576.0 
97.052254 377349.0 
97.064049 68400.0 
98.060051 1008053.0 
102.046257 7878.0 
103.054153 3147425.0 
107.049057 97406.0 
108.080643 121100.0 
109.064468 6829.0 
109.0886 41857.0 
110.059967 365675.0 
110.096359 1389837.0 
112.07547 4598.0 
114.055107 28341.0 
115.062622 39377.0 
120.080673 186058.0 
121.064697 2454887.0 
123.067787 26125.0 
136.075317 6373.0 
136.207596 4789.0 
138.091248 8213761.0 
139.099487 8563.0 
144.080688 8429.0 
154.086136 21941.0 
156.101761 3498328.0 
162.090591 9167.0 
163.111969 9773.0 
171.089249 7801.0 
197.889511 4760.0 
208.883499 6808.0 
223.943069 19369.0 
225.940872 19636.0 
228.137238 6870.0 
274.143951 15945.0 
286.143311 25181.0 
304.153625 6099860.0 
END IONS

BEGIN IONS
NAME="(2E)-1-(2H-benzo[3,4-d]1,3-dioxolan-5-yl)-3-(2,5-dimethoxyphenyl)prop-2-en-1-o ne CollisionEnergy:102040" M+H
PRECURSOR_MZ=313.107
INCHI="InChI=1S/C18H16O5/c1-20-14-5-8-16(21-2)13(9-14)3-6-15(19)12-4-7-17-18(10-12)23-11-22-17/h3-10H,11H2,1-2H3/b6-3+"
SMILES=COc1ccc(OC)c(C=CC(=O)c2ccc3c(c2)OCO3)c1
SPECTRUMID=CCMSLIB00010107016
53.043308 15591.0 
56.94799 13726.0 
58.368149 14558.0 
65.039009 34508.0 
67.018097 15793.0 
68.997177 24468.0 
71.049294 140403.0 
77.038986 17394.0 
79.054657 38303.0 
85.489662 15317.0 
91.054329 24066.0 
92.368393 16328.0 
95.012779 21803.0 
105.069527 28181.0 
123.044342 15646.0 
135.043884 23497322.0 
137.060913 16994.0 
143.380676 19371.0 
147.043411 162759.0 
148.051498 94693.0 
149.023163 11271882.0 
149.492523 17479.0 
153.069839 15837.0 
158.597153 19317.0 
163.074478 59848.0 
165.054214 297123.0 
168.239243 16112.0 
173.058182 36806.0 
174.067978 18757.0 
175.038696 1500514.0 
176.046539 1177681.0 
177.054199 60917.0 
181.064255 65831.0 
185.059921 23960.0 
191.069916 1554879.0 
195.981049 18064.0 
211.074265 31354.0 
211.218338 17106.0 
213.09053 266429.0 
240.077988 36076.0 
241.085617 463860.0 
243.098206 107103.0 
255.065308 62775.0 
256.07251 19911.0 
270.086334 22275.0 
271.095886 27111992.0 
272.603485 18858.0 
280.072571 28029.0 
281.080566 24168.0 
282.084167 95790.0 
285.112396 28452.0 
298.082245 76027.0 
311.677307 20892.0 
313.106171 24961422.0 
314.540619 19458.0 
END IONS

BEGIN IONS
NAME=methyl 2-[(2-chloro-4-nitrophenyl)carbonylamino]acetate CollisionEnergy:205060 M+H
PRECURSOR_MZ=273.027
INCHI="InChI=1S/C10H9ClN2O5/c1-18-9(14)5-12-10(15)7-3-2-6(13(16)17)4-8(7)11/h2-4H,5H2,1H3,(H,12,15)"
SMILES=COC(=O)CN=C(O)c1ccc([N+](=O)[O-])cc1Cl
SPECTRUMID=CCMSLIB00010125494
66.740547 2406.0 
84.959808 4616.0 
92.371628 2892.0 
109.991699 4315.0 
125.986641 445291.0 
137.986984 8782.0 
153.981415 193354.0 
169.976395 277825.0 
179.051758 2442.0 
183.00853 5387.0 
183.979462 995918.0 
194.988358 3720.0 
197.010635 12551.0 
201.989761 21465.0 
213.005859 303786.0 
216.61705 2427.0 
223.542587 2633.0 
227.021484 12224.0 
230.993469 3325.0 
231.015884 26532.0 
241.000717 154727.0 
255.016449 17883.0 
260.628204 2398.0 
273.027985 20977.0 
273.057709 3623.0 
273.109192 2413.0 
273.166534 14702.0 
286.257477 2401.0 
END IONS

BEGIN IONS
NAME=4-[(4-chlorophenyl)methyl]-7-hydroxy-3-phenylchromen-2-one CollisionEnergy:205060 M+Na
PRECURSOR_MZ=385.06
INCHI="InChI=1S/C22H15ClO3/c23-16-8-6-14(7-9-16)12-19-18-11-10-17(24)13-20(18)26-22(25)21(19)15-4-2-1-3-5-15/h1-11,13,24H,12H2"
SMILES=O=c1oc2cc(O)ccc2c(Cc2ccc(Cl)cc2)c1-c1ccccc1
SPECTRUMID=CCMSLIB00010121966
86.909309 2427.0 
125.015221 65895.0 
127.012154 24173.0 
133.478073 2287.0 
163.977951 2254.0 
384.99115 18160.0 
385.059204 225232.0 
END IONS

BEGIN IONS
NAME="4',7-Dimethoxy-3-hydroxyflavone CollisionEnergy:102040" M+H
PRECURSOR_MZ=299.091
INCHI="InChI=1S/C17H14O5/c1-20-11-5-3-10(4-6-11)17-16(19)15(18)13-8-7-12(21-2)9-14(13)22-17/h3-9,19H,1-2H3"
SMILES=COc1ccc(-c2oc3cc(OC)ccc3c(=O)c2O)cc1
SPECTRUMID=CCMSLIB00010104322
57.55798 2997.0 
69.03373 4791.0 
101.00293 15109.0 
107.049232 60254.0 
107.085388 3269.0 
109.064003 5157.0 
121.064743 22570.0 
125.059418 20032.0 
129.054337 4671.0 
135.044083 599731.0 
135.080505 8292.0 
137.059769 206272.0 
151.02562 6674.0 
151.039001 150089.0 
163.039093 69040.0 
181.049103 28217.0 
183.080185 4951.0 
197.06015 4038.0 
197.974594 5556.0 
200.081985 5154.0 
211.075684 7487.0 
212.083664 4125.0 
215.986923 4035.0 
225.089722 5503.0 
227.06868 4070.0 
228.077927 36676.0 
239.069672 32126.0 
243.102722 37080.0 
245.049149 3261.0 
253.085846 4320.0 
255.065216 7688.0 
256.072876 298605.0 
258.07724 5451.0 
266.058258 5032.0 
267.064453 86712.0 
270.088013 7495.0 
271.093842 4474.0 
281.081512 5699.0 
283.058685 5723.0 
284.067474 401487.0 
293.634674 3689.0 
297.076599 5956.0 
298.082428 5113.0 
299.090973 13457987.0 
END IONS

BEGIN IONS
NAME=3-indol-3-yl-N-(3-methylphenyl)-2-(phenoxycarbonylamino)propanamide CollisionEnergy:102040 M+H
PRECURSOR_MZ=414.181
INCHI="InChI=1S/C25H23N3O3/c1-17-8-7-9-19(14-17)27-24(29)23(28-25(30)31-20-10-3-2-4-11-20)15-18-16-26-22-13-6-5-12-21(18)22/h2-14,16,23,26H,15H2,1H3,(H,27,29)(H,28,30)"
SMILES=Cc1cccc(N=C(O)C(Cc2c[nH]c3ccccc23)N=C(O)Oc2ccccc2)c1
SPECTRUMID=CCMSLIB00010111483
77.035652 3525.0 
77.039787 6006.0 
92.379936 4217.0 
95.049133 345450.0 
103.434433 3619.0 
104.288841 4226.0 
105.921379 3113.0 
108.080719 25830.0 
118.064827 80530.0 
119.049248 4000.0 
125.924911 3583.0 
130.065094 87672.0 
132.080399 24899.0 
142.065262 13724.0 
148.039322 5119.0 
157.075912 20446.0 
159.091385 16124.0 
160.076065 4220.0 
163.415482 2900.0 
170.059967 29701.0 
180.447739 3437.0 
185.070679 1503774.0 
186.091049 1460081.0 
193.746384 3208.0 
208.515549 15981.0 
213.043015 6805.0 
213.065521 148521.0 
227.117691 12673.0 
229.020721 239490.0 
236.107941 4372.0 
277.133911 6207.0 
279.112213 3175828.0 
307.106842 1507589.0 
320.138275 21737.0 
414.103729 469617.0 
414.178864 218546.0 
414.275665 14622.0 
705.004272 3530.0 
828.523071 3537.0 
END IONS

BEGIN IONS
NAME="N-[(2-hydroxynaphthyl)phenylmethyl](3,4,5-trimethoxyphenyl)carboxamide CollisionEnergy:102040" M+H
PRECURSOR_MZ=444.181
INCHI="InChI=1S/C27H25NO5/c1-31-22-15-19(16-23(32-2)26(22)33-3)27(30)28-25(18-10-5-4-6-11-18)24-20-12-8-7-9-17(20)13-14-21(24)29/h4-16,25,29H,1-3H3,(H,28,30)"
SMILES=COc1cc(C(O)=NC(c2ccccc2)c2c(O)ccc3ccccc23)cc(OC)c1OC
SPECTRUMID=CCMSLIB00010111164
53.20269 3116.0 
58.68087 2893.0 
63.781368 2794.0 
75.654602 3130.0 
104.289818 4981.0 
109.044769 13336.0 
109.064468 4765.0 
120.765099 2800.0 
139.075302 14491.0 
141.017715 4076.0 
152.046646 12301.0 
154.062393 6725.0 
156.041168 6421.0 
169.086273 6363.0 
191.0849 6703.0 
195.064972 2513497.0 
203.084808 14101.0 
205.100998 21150.0 
208.308426 13902.0 
211.082703 4137.0 
212.090652 6807.0 
215.085297 147655.0 
232.086319 4883.0 
233.095596 343184.0 
241.132858 38089.0 
242.13591 32521.0 
257.116089 3281.0 
300.122406 507371.0 
303.214752 5383.0 
444.215454 137133.0 
444.286163 6427.0 
END IONS

BEGIN IONS
NAME=2-methoxyethyl 1-[2-(4-chloro-2-methylphenoxy)ethyl]-5-hydroxy-2-methylbenzo[g ]indole-3-carboxylate CollisionEnergy:205060 M-H
PRECURSOR_MZ=466.143
INCHI="InChI=1S/C26H26ClNO5/c1-16-14-18(27)8-9-23(16)32-11-10-28-17(2)24(26(30)33-13-12-31-3)21-15-22(29)19-6-4-5-7-20(19)25(21)28/h4-9,14-15,29H,10-13H2,1-3H3"
SMILES=COCCOC(=O)c1c(C)n(CCOc2ccc(Cl)cc2C)c2c1cc(O)c1ccccc12
SPECTRUMID=CCMSLIB00010124287
59.272911 2448.0 
63.180889 2506.0 
65.659378 2591.0 
80.953331 3129.0 
122.809113 2519.0 
135.714645 2885.0 
136.248489 3137.0 
141.011292 111220.0 
166.066467 10498.0 
172.040848 19396.0 
184.040894 5237.0 
184.077332 3516.0 
192.0457 16865.0 
194.061035 258998.0 
195.068924 89821.0 
196.076874 9813.0 
198.018631 2861.0 
208.076675 3793.0 
210.055832 16075.0 
212.071167 24131.0 
221.048813 10608.0 
222.056168 39579.0 
223.06366 27254.0 
226.049606 4173.0 
238.050919 70569.0 
239.058472 29716.0 
266.081543 27223.0 
297.100464 459432.0 
324.122162 21358.0 
466.142731 191293.0 
471.239929 2834.0 
480.356964 2743.0 
END IONS

BEGIN IONS
NAME=alpha-Mangostin CollisionEnergy:205060 M+H
PRECURSOR_MZ=411.18
INCHI="InChI=1S/C24H26O6/c1-12(2)6-8-14-16(25)10-19-21(22(14)27)23(28)20-15(9-7-13(3)4)24(29-5)17(26)11-18(20)30-19/h6-7,10-11,25-27H,8-9H2,1-5H3"
SMILES=COc1c(O)cc2oc3cc(O)c(CC=C(C)C)c(O)c3c(=O)c2c1CC=C(C)C
SPECTRUMID=CCMSLIB00010116825
56.634949 2767.0 
90.706284 3037.0 
107.476097 3298.0 
165.017517 18317.0 
167.034088 3904.0 
183.026993 4138.0 
185.397324 4088.0 
200.046326 6906.0 
215.069687 18032.0 
217.047913 6378.0 
225.054581 25001.0 
226.062927 12851.0 
227.033081 4764.0 
228.041199 57068.0 
229.048889 16823.0 
239.032837 17159.0 
241.047806 6619.0 
242.057449 5013.0 
243.064682 107833.0 
244.073364 22330.0 
245.044189 14669.0 
248.080673 4165.0 
251.069824 4539.0 
253.048828 19469.0 
254.056732 25841.0 
255.028503 28534.0 
255.063873 18908.0 
256.036102 142193.0 
257.043945 66176.0 
259.059875 14014.0 
265.048157 16349.0 
269.042755 15936.0 
270.051483 6753.0 
271.059662 458882.0 
272.067322 132169.0 
276.077332 5686.0 
277.085205 81183.0 
279.065948 37392.0 
280.072174 4824.0 
281.043488 46689.0 
282.051117 48073.0 
283.022278 18680.0 
283.059204 19258.0 
284.031006 885137.0 
285.038696 170182.0 
286.045319 5240.0 
287.053589 90307.0 
291.102264 11668.0 
293.043945 121869.0 
293.078827 12576.0 
294.087616 32268.0 
295.058746 12643.0 
295.096558 14756.0 
296.066772 14790.0 
297.039001 489734.0 
297.074432 35860.0 
298.045166 16774.0 
299.054413 1008909.0 
304.07251 34578.0 
305.08078 56798.0 
306.090485 4071.0 
307.059387 333632.0 
308.067413 24632.0 
309.076141 10654.0 
309.110992 5315.0 
311.053986 192501.0 
312.06192 12217.0 
313.06958 21968.0 
319.095856 62487.0 
321.072327 27047.0 
322.038971 7346.0 
322.082733 247861.0 
323.091736 32364.0 
325.069977 274402.0 
337.106384 309252.0 
339.085938 18079.0 
340.093597 14639.0 
355.116974 2601492.0 
411.179443 649182.0 
411.232269 16000.0 
END IONS

BEGIN IONS
NAME="3-[2-(2-hydroxy-4-methoxyphenyl)-2-oxoethyl]-6,7-dimethoxy-3-hydroisobenzofura n-1-one CollisionEnergy:102040" M+Na
PRECURSOR_MZ=381.094
INCHI="InChI=1S/C19H18O7/c1-23-10-4-5-11(13(20)8-10)14(21)9-16-12-6-7-15(24-2)18(25-3)17(12)19(22)26-16/h4-8,16,20H,9H2,1-3H3"
SMILES=COc1ccc(C(=O)CC2OC(=O)c3c2ccc(OC)c3OC)c(O)c1
SPECTRUMID=CCMSLIB00010107219
55.156921 10313.0 
77.090851 10892.0 
89.38839 9869.0 
102.998367 9615.0 
103.830811 9885.0 
105.994102 10568.0 
112.724411 10301.0 
173.020462 50100.0 
231.062408 16693.0 
293.049561 10565.0 
361.100464 22470.0 
366.07254 70473.0 
379.171722 14778.0 
381.094299 38006400.0 
383.031219 20900.0 
399.104065 53012.0 
END IONS

BEGIN IONS
NAME="1-(6,7-diethoxy(1,2,3,4-tetrahydroisoquinolyl))-2,4-dimethoxybenzene CollisionEnergy:205060" M+H
PRECURSOR_MZ=358.201
INCHI="InChI=1S/C21H27NO4/c1-5-25-19-11-14-9-10-22-21(17(14)13-20(19)26-6-2)16-8-7-15(23-3)12-18(16)24-4/h7-8,11-13,21-22H,5-6,9-10H2,1-4H3"
SMILES=CCOc1cc2c(cc1OCC)C(c1ccc(OC)cc1OC)NCC2
SPECTRUMID=CCMSLIB00010115000
51.02346 4509.0 
53.039089 38221.0 
55.018311 4659.0 
65.039017 62501.0 
67.054604 32714.0 
73.972023 3304.0 
77.038757 5045.0 
78.046654 34757.0 
79.054527 17240.0 
81.033707 8041.0 
81.07045 4536.0 
82.041481 5203.0 
89.038773 4194.0 
91.054314 887352.0 
93.033386 7082.0 
93.069893 72816.0 
95.049133 37815.0 
95.085739 16153.0 
103.054024 8369.0 
105.033737 3508.0 
105.044762 5144.0 
105.070129 7998.0 
106.041077 58091.0 
106.06456 3837.0 
107.049278 13756.0 
108.05687 127337.0 
109.064453 24095.0 
111.044022 6298.0 
118.064857 79432.0 
118.681107 4431.0 
119.049072 140742.0 
119.085732 3773.0 
120.081848 3008.0 
121.06469 2655200.0 
121.327782 3580.0 
122.059921 28782.0 
123.043907 109076.0 
123.080261 748395.0 
124.051987 5780.0 
125.059647 6662.0 
130.041336 15000.0 
130.064636 4457.0 
131.049026 20167.0 
132.080856 4305.0 
133.065018 3876.0 
134.060013 22311.0 
135.067413 5159.0 
136.040054 5029.0 
136.051804 122673.0 
136.075485 38078.0 
137.047089 5535.0 
137.059555 303211.0 
139.075195 682010.0 
145.06485 23711.0 
146.059845 359844.0 
147.043808 90588.0 
147.067139 66531.0 
147.079865 11037.0 
148.075851 4201.0 
149.059296 14345.0 
149.070908 97239.0 
150.05481 124711.0 
150.066925 9015.0 
150.09082 5662.0 
151.075195 3326044.0 
160.075714 5753.0 
161.059387 6298.0 
161.083069 43888.0 
162.054718 59279.0 
162.068649 4790.0 
162.090652 6145.0 
163.06279 16992.0 
164.069916 38684.0 
165.090805 124843.0 
165.106033 6095.0 
165.336578 3229.0 
166.086166 76348.0 
174.067535 24682.0 
174.091431 51385.0 
175.074905 62685.0 
175.098907 440330.0 
176.069778 7018.0 
177.07811 4930.0 
178.086029 202077.0 
179.0923 16769.0 
179.108337 24252.0 
190.086197 21638.0 
191.093277 55886.0 
192.101898 34333.0 
193.121796 28571.0 
203.106323 65783.0 
207.080917 5193.0 
207.124863 100623.0 
208.089157 3745.0 
210.066315 4301.0 
211.076492 4017.0 
217.906433 3411.0 
220.132751 320132.0 
223.074707 5676.0 
224.083344 15928.0 
225.090454 7808.0 
226.063416 4204.0 
227.105896 7087.0 
236.08374 3775.0 
239.106308 13014.0 
240.077698 4142.0 
241.085785 18826.0 
251.071594 3345.0 
252.077637 7149.0 
253.085846 54413.0 
255.065155 4351.0 
255.100494 8047.0 
267.100464 25626.0 
268.10965 5109.0 
269.080566 22823.0 
269.112549 4829.0 
281.117371 23608.0 
283.096924 6180.0 
296.140106 13375.0 
297.112061 5961.0 
297.148529 6609.0 
312.134003 5899.0 
313.143707 7089.0 
329.171448 5920.0 
341.138855 4744.0 
341.17392 245635.0 
358.200439 2842245.0 
371.209717 4056.0 
END IONS

BEGIN IONS
NAME="8-{[2-(5-bromo-2-methoxyphenyl)-5-methyl(1,3-oxazol-4-yl)]methylthio}-9-methyl hydropurin-6-one CollisionEnergy:205060" M-H
PRECURSOR_MZ=460.008
INCHI="InChI=1S/C18H16BrN5O3S/c1-9-12(22-17(27-9)11-6-10(19)4-5-13(11)26-3)7-28-18-23-14-15(24(18)2)20-8-21-16(14)25/h4-6,8H,7H2,1-3H3,(H,20,21,25)"
SMILES=COc1ccc(Br)cc1-c1nc(CSc2nc3c(O)ncnc3n2C)c(C)o1
SPECTRUMID=CCMSLIB00010123994
57.97517 66241.0 
65.99807 5924.0 
66.009331 3023.0 
73.958229 3033.0 
78.918793 6291.0 
79.030083 5685.0 
92.3731 3476.0 
102.840302 3046.0 
104.292427 3155.0 
122.036133 4976.0 
134.023636 6064.0 
135.031143 4442.0 
136.216003 4068.0 
138.013138 30661.0 
144.507095 2678.0 
147.031189 63684.0 
149.046829 64439.0 
151.992783 6834.0 
153.001144 3550.0 
179.003387 491359.0 
180.01123 2147480.0 
181.019012 222268.0 
181.037674 4949.0 
188.622711 2920.0 
195.034576 124988.0 
195.940231 5576.0 
257.167938 2803.0 
262.076935 3460.0 
263.967346 6568.0 
460.008209 67098.0 
END IONS

BEGIN IONS
NAME="10-acetyl-3,3-dimethyl-1-oxo-11-(3-propoxyphenyl)-2,3,4-trihydro-5H,11H-benzo[ b]benzo[2,1-f]1,4-diazepine CollisionEnergy:102040" M+formate
PRECURSOR_MZ=463.224
INCHI="InChI=1S/C26H30N2O3/c1-5-13-31-19-10-8-9-18(14-19)25-24-21(15-26(3,4)16-23(24)30)27-20-11-6-7-12-22(20)28(25)17(2)29/h6-12,14,25,27H,5,13,15-16H2,1-4H3"
SMILES=CCCOc1cccc(C2C3=C(CC(C)(C)CC3=O)Nc3ccccc3N2C(C)=O)c1
SPECTRUMID=CCMSLIB00010104110
52.900681 2407.0 
54.178009 2335.0 
82.41629 2694.0 
114.306412 2519.0 
136.235962 2677.0 
158.00531 3173.0 
165.199326 2577.0 
190.928986 3364.0 
211.148102 3981.0 
307.331696 2558.0 
375.207458 3060.0 
417.219147 82338.0 
462.989746 11779.0 
END IONS

BEGIN IONS
NAME="methyl 5-cyano-2-methyl-6-methylthio-4-(3,4,5-trimethoxyphenyl)-1,4-dihydropyr idine-3-carboxylate CollisionEnergy:205060" M+NH4
PRECURSOR_MZ=408.159
INCHI="InChI=1S/C19H22N2O5S/c1-10-15(19(22)26-5)16(12(9-20)18(21-10)27-6)11-7-13(23-2)17(25-4)14(8-11)24-3/h7-8,16,21H,1-6H3"
SMILES=COC(=O)C1=C(C)NC(SC)=C(C#N)C1c1cc(OC)c(OC)c(OC)c1
SPECTRUMID=CCMSLIB00010120962
69.800873 2485.0 
92.377708 3376.0 
94.580688 2504.0 
119.060364 14538.0 
133.039536 3992.0 
136.021347 20292.0 
143.023849 3197.0 
145.039932 5434.0 
163.032364 106974.0 
164.0159 2947.0 
175.049973 2792.0 
176.003387 14546.0 
177.011108 3143.0 
191.02713 259490.0 
208.030197 41521.0 
221.516953 2795.0 
223.05336 677469.0 
278.109589 3927.0 
359.105927 3878.0 
388.117706 18781.0 
391.127106 3392.0 
END IONS

BEGIN IONS
NAME=p-coumaric acid CollisionEnergy:102040 M+H
PRECURSOR_MZ=165.055
INCHI="InChI=1S/C9H8O3/c10-8-4-1-7(2-5-8)3-6-9(11)12/h1-6,10H,(H,11,12)/b6-3+"
SMILES=O=C(O)C=Cc1ccc(O)cc1
SPECTRUMID=CCMSLIB00010108354
51.22224 2700.0 
60.524502 2954.0 
62.018909 30147.0 
65.03923 5238.0 
67.499611 2510.0 
71.142159 2434.0 
79.0214 73443.0 
82.381287 3846.0 
84.959877 198165.0 
86.956047 25750.0 
86.963997 12454.0 
87.673981 2863.0 
91.054253 85011.0 
92.357246 2917.0 
95.049103 5328.0 
102.970131 26054.0 
105.481613 2607.0 
105.980858 3628.0 
114.487862 31330.0 
114.98613 66572.0 
115.981354 5971.0 
116.479012 3299.0 
118.728416 2911.0 
119.04911 866478.0 
123.044113 49152.0 
123.492859 83800.0 
123.99131 74102.0 
134.919586 4902.0 
135.000397 3713.0 
135.499863 11313.0 
137.0121 5749.0 
137.476242 14117.0 
144.422409 3258.0 
144.489761 4786.0 
144.988235 23837.0 
145.983109 4368.0 
146.582474 4993.0 
147.043976 7493807.0 
147.506821 4199.0 
150.950851 25964.0 
155.022476 3971.0 
164.970062 3694.0 
165.006332 15761.0 
165.038391 6096.0 
165.054565 181482.0 
165.128784 4126.0 
167.953217 3371.0 
168.960938 32738.0 
182.980423 15412.0 
185.964615 10417.0 
192.104263 3401.0 
199.243851 2783.0 
199.266998 3125.0 
203.154068 3173.0 
268.739807 3116.0 
END IONS

BEGIN IONS
NAME="N-(3,5-dimethoxyphenyl)-2-[2-oxo-4-(pyrrolidinylcarbonyl)hydroquinolyl]acetami de CollisionEnergy:205060" M+H
PRECURSOR_MZ=436.187
INCHI="InChI=1S/C24H25N3O5/c1-31-17-11-16(12-18(13-17)32-2)25-22(28)15-27-21-8-4-3-7-19(21)20(14-23(27)29)24(30)26-9-5-6-10-26/h3-4,7-8,11-14H,5-6,9-10,15H2,1-2H3,(H,25,28)"
SMILES=COc1cc(N=C(O)Cn2c(=O)cc(C(=O)N3CCCC3)c3ccccc32)cc(OC)c1
SPECTRUMID=CCMSLIB00010125592
53.86763 2216.0 
55.054691 22762.0 
61.233021 2697.0 
70.065651 29951.0 
75.09758 2649.0 
82.065491 32069.0 
84.081078 110951.0 
96.04483 18291.0 
98.060127 151920.0 
128.04924 15859.0 
130.065475 25884.0 
133.0522 4964.0 
136.075592 15399.0 
143.006332 3913.0 
146.059814 25436.0 
154.086548 22420.0 
156.043884 11291.0 
158.06012 87394.0 
160.075867 27080.0 
166.086304 37605.0 
169.075424 17242.0 
169.390747 2710.0 
177.078781 5368.0 
186.036148 3862.0 
186.055008 104438.0 
188.070786 6549.0 
190.086411 4664.0 
199.122421 5066.0 
202.0867 4404.0 
203.093216 5034.0 
206.117157 6131.0 
211.123398 23766.0 
213.066254 5747.0 
216.101654 12132.0 
218.118027 21629.0 
227.117416 38241.0 
243.1129 158605.0 
255.112686 284678.0 
283.107544 594439.0 
296.140106 4941.0 
436.187469 17361.0 
END IONS

BEGIN IONS
NAME="methyl 5-methyl-5,15-diazahexacyclo[14.2.2.1<1,5>.0<8,16>.0<8,21>.0<9,14>]heni cosa-9,11,13-triene-17-carboxylate, iodide CollisionEnergy:205060" M
PRECURSOR_MZ=353.222
INCHI="InChI=1S/C22H29N2O2/c1-24-12-5-8-20-9-10-22(16(14-20)18(25)26-2)21(11-13-24,19(20)24)15-6-3-4-7-17(15)23-22/h3-4,6-7,16,19,23H,5,8-14H2,1-2H3/q+1"
SMILES=COC(=O)C1CC23CCC[N+]4(C)CCC5(c6ccccc6NC15CC2)C34
SPECTRUMID=CCMSLIB00010116246
55.01807 49252.0 
56.049671 36055.0 
57.270069 27862.0 
58.065559 2593806.0 
58.495171 27956.0 
60.161221 30606.0 
60.859859 28522.0 
67.054527 69205.0 
70.065376 836167.0 
72.081039 2664772.0 
79.054283 206836.0 
81.069832 76313.0 
82.065102 57625.0 
84.080948 1863330.0 
86.096619 57561.0 
87.044167 387078.0 
91.054558 114081.0 
93.069572 168448.0 
94.06498 63338.0 
95.085609 73068.0 
96.080658 262059.0 
98.096336 1027681.0 
105.07 257244.0 
106.064499 66914.0 
107.085022 56303.0 
108.080452 195889.0 
109.088387 268384.0 
110.096298 4451028.0 
117.069252 55197.0 
118.06459 45308.0 
119.08522 159234.0 
120.080788 60402.0 
122.096329 341543.0 
123.103996 66452.0 
124.111969 1889014.0 
129.069443 49441.0 
130.054718 52005.0 
130.065018 841114.0 
130.086136 57451.0 
132.080322 83126.0 
134.096161 64882.0 
136.112045 324723.0 
138.127441 72436.0 
142.064758 128583.0 
144.08049 577540.0 
150.127686 267916.0 
152.14299 211088.0 
154.064407 328144.0 
156.080383 517263.0 
156.7854 34532.0 
157.088654 54483.0 
158.058517 52025.0 
158.095993 71450.0 
162.127853 49440.0 
164.107147 41109.0 
164.142944 39980.0 
167.072876 133460.0 
168.080322 458929.0 
168.10141 42853.0 
169.088104 67107.0 
170.059952 368246.0 
170.095383 282122.0 
172.074265 46322.0 
174.091843 36104.0 
180.080597 903221.0 
181.088226 162751.0 
182.05899 59700.0 
182.096375 1082829.0 
182.114822 77987.0 
183.10405 609728.0 
184.076569 70259.0 
184.112183 207262.0 
188.070709 257055.0 
192.079529 60279.0 
193.088211 69439.0 
194.096069 1024712.0 
194.115753 69130.0 
195.102966 283605.0 
196.076889 53900.0 
196.111801 1753662.0 
196.131439 79307.0 
197.119629 82768.0 
198.091278 40635.0 
198.148087 48567.0 
202.085754 887008.0 
205.088333 55332.0 
206.095749 366709.0 
207.103271 285767.0 
208.076569 72777.0 
208.111694 2207498.0 
209.121887 252101.0 
209.960785 36479.0 
210.091873 43633.0 
210.127365 1258972.0 
211.122208 490171.0 
214.085342 462222.0 
216.101746 67831.0 
220.112122 702832.0 
221.118958 254867.0 
222.090591 75634.0 
222.127289 2371282.0 
223.135742 77098.0 
224.129929 772072.0 
224.141953 426629.0 
228.10141 62848.0 
234.090225 162932.0 
234.127319 863047.0 
235.137527 69778.0 
236.106689 238394.0 
236.142685 1566882.0 
237.138306 191235.0 
238.084412 61125.0 
238.144028 60351.0 
239.153702 3271601.0 
246.125641 58967.0 
248.107681 74558.0 
248.142792 519702.0 
250.123169 67023.0 
250.158569 283794.0 
251.153809 175518.0 
252.100876 54251.0 
252.16333 62269.0 
253.109619 40736.0 
255.125153 58111.0 
262.121613 181366.0 
262.15567 237619.0 
264.137604 361030.0 
265.169922 562074.0 
266.118591 123803.0 
267.185577 770051.0 
268.132843 385934.0 
269.141754 46008.0 
276.136536 176701.0 
278.154297 436606.0 
280.132568 162978.0 
282.147522 199849.0 
290.150604 78374.0 
293.163757 869505.0 
293.201294 448765.0 
294.148438 526111.0 
296.163452 798693.0 
297.158875 52135.0 
308.164337 443029.0 
310.177826 492577.0 
321.194916 1327656.0 
322.176605 236235.0 
325.19043 2570920.0 
335.210358 55262.0 
337.190796 56106.0 
353.221497 131679184.0 
END IONS

BEGIN IONS
NAME=L-asparagine CollisionEnergy:102040 M+H
PRECURSOR_MZ=133.061
INCHI="InChI=1S/C4H8N2O3/c5-2(4(8)9)1-3(6)7/h2H,1,5H2,(H2,6,7)(H,8,9)/t2-/m0/s1"
SMILES=N=C(O)C[C@H](N)C(=O)O
SPECTRUMID=CCMSLIB00010102886
69.775398 1877.699951 
70.029404 13626.5 
72.984901 2108.949951 
74.0243 249588.0 
87.049698 4505.27002 
87.055801 133204.0 
88.039597 33683.398438 
92.399498 2366.030029 
92.547798 2129.929932 
104.309998 2420.860107 
116.033997 35685.300781 
118.681 2297.98999 
133.061005 19348.099609 
END IONS

BEGIN IONS
NAME=C6-ceramide CollisionEnergy:205060 M+Cl
PRECURSOR_MZ=432.325
INCHI="InChI=1S/C24H47NO3/c1-3-5-7-8-9-10-11-12-13-14-15-16-18-19-23(27)22(21-26)25-24(28)20-17-6-4-2/h18-19,22-23,26-27H,3-17,20-21H2,1-2H3,(H,25,28)/b19-18+/t22-,23+/m0/s1"
SMILES=CCCCCCCCCCCCCC=CC(O)C(CO)N=C(O)CCCCC
SPECTRUMID=CCMSLIB00010119219
50.79475 2329.0 
60.00713 2473.0 
60.64653 2427.0 
66.743988 2733.0 
76.394974 2174.0 
81.205887 2184.0 
121.012222 2194.0 
212.129959 2446.0 
END IONS

BEGIN IONS
NAME=valinomycin CollisionEnergy:205060 M+formate
PRECURSOR_MZ=1155.63
INCHI="InChI=1S/C54H90N6O18/c1-22(2)34-49(67)73-31(19)43(61)55-38(26(9)10)53(71)77-41(29(15)16)47(65)59-36(24(5)6)51(69)75-33(21)45(63)57-39(27(11)12)54(72)78-42(30(17)18)48(66)60-35(23(3)4)50(68)74-32(20)44(62)56-37(25(7)8)52(70)76-40(28(13)14)46(64)58-34/h22-42H,1-21H3,(H,55,61)(H,56,62)(H,57,63)(H,58,64)(H,59,65)(H,60,66)/t31-,32-,33-,34+,35+,36+,37-,38-,39-,40+,41+,42+/m0/s1"
SMILES=CC1OC(=O)C(C(C)C)N=C(O)C(C(C)C)OC(=O)C(C(C)C)N=C(O)C(C)OC(=O)C(C(C)C)N=C(O)C(C(C)C)OC(=O)C(C(C)C)N=C(O)C(C)OC(=O)C(C(C)C)N=C(O)C(C(C)C)OC(=O)C(C(C)C)N=C1O
SPECTRUMID=CCMSLIB00010123960
85.116188 4873.0 
88.485367 4676.0 
92.406342 6288.0 
100.077003 5519.0 
100.628029 5862.0 
116.07164 116821.0 
136.251312 5512.0 
144.103165 9794.0 
172.134094 28610.0 
188.092789 69968.0 
216.123993 139271.0 
236.38092 5664.0 
239.848953 4787.0 
242.425949 4977.0 
247.494156 5175.0 
368.70697 5806.0 
387.213623 63527.0 
558.299316 11152.0 
586.334106 42212.0 
757.425293 82671.0 
928.514282 164036.0 
956.543518 253114.0 
END IONS

BEGIN IONS
NAME="7,8-Dimethoxycoumarin CollisionEnergy:205060" M+H
PRECURSOR_MZ=207.065
INCHI="InChI=1S/C11H10O4/c1-13-8-5-3-7-4-6-9(12)15-10(7)11(8)14-2/h3-6H,1-2H3"
SMILES=COc1ccc2ccc(=O)oc2c1OC
SPECTRUMID=CCMSLIB00010117630
52.591049 3149.0 
65.039093 5404.0 
66.046783 16181.0 
66.739517 3338.0 
78.046783 6355.0 
79.027733 2836.0 
79.054459 22790.0 
79.131149 3092.0 
80.063011 2858.0 
82.391724 3843.0 
83.711884 3168.0 
84.959923 6855.0 
87.956047 3715.0 
89.038696 12702.0 
90.046379 12538.0 
91.054237 74868.0 
94.041367 6765.0 
95.049294 5732.0 
102.046577 16450.0 
103.054169 61121.0 
105.033661 11297.0 
105.069801 17797.0 
107.048889 59380.0 
108.056717 13302.0 
115.963982 5885.0 
118.041122 426308.0 
119.03994 5309.0 
119.048988 70937.0 
120.057037 6753.0 
121.028419 22253.0 
121.064331 12686.0 
122.03598 5399.0 
123.04393 31980.0 
130.041016 7340.0 
133.028152 100849.0 
134.036087 23669.0 
135.043854 66729.0 
136.051727 65121.0 
144.510315 3352.0 
145.028091 25621.0 
146.036072 373319.0 
147.043869 139711.0 
148.051712 178965.0 
149.023087 255909.0 
150.030411 3713.0 
151.038879 21617.0 
151.075195 165180.0 
161.022934 49466.0 
162.031754 16742.0 
163.038727 1337341.0 
163.071274 32009.0 
163.960495 3782.0 
164.046509 484841.0 
173.02327 18611.0 
174.030991 237871.0 
175.038727 77051.0 
176.046906 5787.0 
177.018051 114409.0 
178.025711 235403.0 
179.033981 25498.0 
179.070587 14905.0 
189.018967 31308.0 
189.034393 3249.0 
191.033585 551591.0 
192.041397 2293218.0 
201.942108 3743.0 
207.064911 4202807.0 
END IONS

BEGIN IONS
NAME="N-((1E)-2-phenyl-1-azavinyl)-2-[(3,5-dioxo(2H,4H-1,2,4-triazin-6-yl))amino]pro panamide CollisionEnergy:102040" M-H
PRECURSOR_MZ=301.105
INCHI="InChI=1S/C13H14N6O3/c1-8(15-10-12(21)16-13(22)19-17-10)11(20)18-14-7-9-5-3-2-4-6-9/h2-8H,1H3,(H,15,17)(H,18,20)(H2,16,19,21,22)/b14-7+"
SMILES=CC(Nc1nnc(O)nc1O)C(O)=NN=Cc1ccccc1
SPECTRUMID=CCMSLIB00010111421
67.029747 21609.0 
68.085533 2531.0 
69.008858 3129.0 
69.367287 2249.0 
71.339249 2431.0 
83.064423 2390.0 
84.020119 26265.0 
85.978996 2226.0 
91.055283 2295.0 
92.386124 3094.0 
95.025047 4165.0 
110.035988 5220.0 
111.019859 3548.0 
112.015289 4611.0 
112.051613 327378.0 
119.061501 22804.0 
125.035896 4382.0 
126.018761 9608.0 
127.026062 16450.0 
131.597092 2462.0 
136.22641 2638.0 
137.415405 2364.0 
138.031189 17324.0 
153.041824 46867.0 
154.049591 5544.0 
155.057755 10373.0 
157.988342 3429.0 
164.927643 18359.0 
168.041748 3266.0 
181.036789 324543.0 
196.047577 8767.0 
198.062958 11046.0 
215.093964 11462.0 
258.09967 124168.0 
301.105621 947637.0 
END IONS

BEGIN IONS
NAME=6-bromo-2-phenylchromen-4-one CollisionEnergy:102040 M+H
PRECURSOR_MZ=300.986
INCHI=InChI=1S/C15H9BrO2/c16-11-6-7-14-12(8-11)13(17)9-15(18-14)10-4-2-1-3-5-10/h1-9H
SMILES=O=c1cc(-c2ccccc2)oc2ccc(Br)cc12
SPECTRUMID=CCMSLIB00010105987
82.391907 2817.0 
103.054062 11658.0 
110.976761 2463.0 
114.986122 2835.0 
129.03302 4329.0 
136.199097 3399.0 
138.030426 4712.0 
172.960648 5081.0 
178.078354 3729.0 
189.258835 3025.0 
194.072464 94150.0 
198.938583 23630.0 
221.059601 52247.0 
222.067062 47144.0 
223.471786 2939.0 
254.057236 11248.0 
299.392334 2809.0 
300.985382 5119113.0 
END IONS

BEGIN IONS
NAME="2-[1-(4-methoxyphenyl)(1,2,3,4-tetrahydrobeta-carbolin-2-yl)]-N-(4-methylpheny l)acetamide CollisionEnergy:102040" M+H
PRECURSOR_MZ=426.218
INCHI="InChI=1S/C27H27N3O2/c1-18-7-11-20(12-8-18)28-25(31)17-30-16-15-23-22-5-3-4-6-24(22)29-26(23)27(30)19-9-13-21(32-2)14-10-19/h3-14,27,29H,15-17H2,1-2H3,(H,28,31)"
SMILES=COc1ccc(C2c3[nH]c4ccccc4c3CCN2CC(=O)Nc2ccc(C)cc2)cc1
SPECTRUMID=CCMSLIB00010105468
60.543362 3402.0 
67.087593 3014.0 
73.477707 2939.0 
73.958321 3673.0 
78.331497 2971.0 
89.111038 3833.0 
91.054268 4995.0 
92.821342 3439.0 
100.06884 2867.0 
108.080544 31630.0 
120.080833 1974289.0 
121.064796 234786.0 
130.064819 4960.0 
133.063995 3949.0 
144.08078 214903.0 
145.06485 25301.0 
146.059784 4492.0 
148.075516 37637.0 
154.06517 3646.0 
159.09198 16518.0 
171.092072 4107.0 
177.102234 1692376.0 
218.096359 22315.0 
219.104279 15720.0 
230.096695 4626.0 
231.104233 6528.0 
234.092865 5613.0 
235.098495 34366.0 
235.122833 3678.0 
236.10672 350177.0 
247.100739 6924.0 
248.106689 6664.0 
250.122498 2802368.0 
262.122284 390719.0 
264.138397 19050.0 
277.133545 43568.0 
283.143738 103088.0 
291.149048 108254.0 
318.158875 3923.0 
319.143799 7865.0 
426.217102 2008435.0 
END IONS

BEGIN IONS
NAME="N-[2-(5-methoxy-2-methylindol-3-yl)ethyl](3,4,5-trimethoxyphenyl)carboxamide CollisionEnergy:102040" M+Na
PRECURSOR_MZ=421.173
INCHI="InChI=1S/C22H26N2O5/c1-13-16(17-12-15(26-2)6-7-18(17)24-13)8-9-23-22(25)14-10-19(27-3)21(29-5)20(11-14)28-4/h6-7,10-12,24H,8-9H2,1-5H3,(H,23,25)"
SMILES=COc1ccc2[nH]c(C)c(CCN=C(O)c3cc(OC)c(OC)c(OC)c3)c2c1
SPECTRUMID=CCMSLIB00010108429
51.27523 3289.0 
53.606209 3159.0 
59.81321 2848.0 
63.20969 2823.0 
67.173851 3286.0 
77.615547 3679.0 
119.818489 3577.0 
136.198547 4637.0 
157.953598 4778.0 
406.147919 50465.0 
421.172516 10286257.0 
END IONS

BEGIN IONS
NAME="{3,4,5-triacetyloxy-6-[5-acetyloxy-3-(4-methoxyphenyl)-4-oxochromen-6-yloxy]-2 H-3,4,5,6-tetrahydropyran-2-yl}methyl acetate CollisionEnergy:102040" M+formate
PRECURSOR_MZ=701.172
INCHI="InChI=1S/C32H32O15/c1-15(33)40-14-25-29(43-17(3)35)30(44-18(4)36)31(45-19(5)37)32(47-25)46-24-12-11-23-26(28(24)42-16(2)34)27(38)22(13-41-23)20-7-9-21(39-6)10-8-20/h7-13,25,29-32H,14H2,1-6H3"
SMILES=COc1ccc(-c2coc3ccc(OC4OC(COC(C)=O)C(OC(C)=O)C(OC(C)=O)C4OC(C)=O)c(OC(C)=O)c3c2=O)cc1
SPECTRUMID=CCMSLIB00010108171
66.740913 2711.0 
72.988571 2941.0 
84.96933 2721.0 
92.377899 3345.0 
112.985229 11592.0 
180.902557 3174.0 
221.93541 2889.0 
237.048264 3116.0 
283.060425 5555.0 
613.155396 5349.0 
662.546204 3114.0 
END IONS

BEGIN IONS
NAME="3',5'-Dihydroxyacetophenone CollisionEnergy:205060" M+formate
PRECURSOR_MZ=197.046
INCHI="InChI=1S/C8H8O3/c1-5(9)6-2-7(10)4-8(11)3-6/h2-4,10-11H,1H3"
SMILES=CC(=O)c1cc(O)cc(O)c1
SPECTRUMID=CCMSLIB00010121204
58.46793 1783.0 
89.571007 2082.0 
104.296059 2416.0 
106.666107 1946.0 
107.050667 2798.0 
109.029869 6940.0 
151.040176 60670.0 
196.985611 4420.0 
END IONS

BEGIN IONS
NAME="6-chloro-2-(6-chloro(2H,4H-benzo[e]1,3-dioxin-8-yl))chromen-4-one CollisionEnergy:205060" M+H
PRECURSOR_MZ=349.003
INCHI="InChI=1S/C17H10Cl2O4/c18-10-1-2-15-12(4-10)14(20)6-16(23-15)13-5-11(19)3-9-7-21-8-22-17(9)13/h1-6H,7-8H2"
SMILES=O=c1cc(-c2cc(Cl)cc3c2OCOC3)oc2ccc(Cl)cc12
SPECTRUMID=CCMSLIB00010120869
51.023602 3815.0 
68.682091 3296.0 
68.997513 30925.0 
81.359161 3616.0 
81.572113 3675.0 
86.999924 12996.0 
98.999352 37882.0 
100.384499 3187.0 
102.046547 51066.0 
123.191177 3270.0 
126.994659 21614.0 
129.009979 19499.0 
131.996948 3645.0 
136.008209 3309.0 
137.015106 48483.0 
138.108887 3164.0 
138.994675 7780.0 
139.00563 5402.0 
145.005402 12472.0 
154.989517 2248658.0 
157.946411 3437.0 
162.994354 61184.0 
165.010284 389449.0 
165.069702 37974.0 
172.999405 28906.0 
176.062454 5688.0 
185.000549 5099.0 
190.989517 87530.0 
192.057449 14031.0 
193.064789 15868.0 
199.031006 36258.0 
200.037704 33470.0 
205.064392 14007.0 
208.999878 62307.0 
212.038284 34227.0 
220.052658 5122.0 
221.059372 27221.0 
227.025238 31880.0 
228.0336 108379.0 
235.007324 4151.0 
239.025864 13713.0 
240.032425 7806.0 
247.007812 3820.0 
255.020325 115977.0 
255.047562 6748.0 
256.028687 84131.0 
263.001526 29199.0 
264.981934 101842.0 
272.984802 7408.0 
275.003998 5263.0 
276.98053 5273.0 
283.015717 50517.0 
284.023285 93023.0 
288.018036 4097.0 
290.997192 1822751.0 
317.520996 4257.0 
318.992035 7422626.0 
320.470642 6770.0 
349.002655 894331.0 
349.185394 20944.0 
END IONS

BEGIN IONS
NAME=ouabain CollisionEnergy:102040 M+H
PRECURSOR_MZ=585.291
INCHI="InChI=1S/C29H44O12/c1-13-22(34)23(35)24(36)25(40-13)41-15-8-19(32)28(12-30)21-17(3-5-27(28,37)9-15)29(38)6-4-16(14-7-20(33)39-11-14)26(29,2)10-18(21)31/h7,13,15-19,21-25,30-32,34-38H,3-6,8-12H2,1-2H3/t13-,15-,16+,17+,18+,19+,21+,22-,23+,24+,25-,26+,27-,28+,29-/m0/s1"
SMILES=CC1OC(OC2CC(O)C3(CO)C4C(O)CC5(C)C(C6=CC(=O)OC6)CCC5(O)C4CCC3(O)C2)C(O)C(O)C1O
SPECTRUMID=CCMSLIB00010112691
53.315399 2895.0 
57.033859 3273.0 
67.054497 3306.0 
71.049561 47727.0 
73.849098 2848.0 
75.044548 5504.0 
79.054237 2921.0 
83.049423 21855.0 
85.028748 80493.0 
89.961838 2714.0 
90.625153 3066.0 
91.054337 5075.0 
93.069763 4450.0 
104.27607 4357.0 
105.069687 5137.0 
111.044258 24248.0 
117.069939 14152.0 
119.085487 5307.0 
125.059608 5093.0 
129.05455 61750.0 
129.069946 11105.0 
129.934906 2741.0 
131.085693 14568.0 
133.101074 5263.0 
141.069412 27022.0 
143.085632 31120.0 
145.101318 19444.0 
147.064804 13030.0 
147.078476 3185.0 
153.05365 3235.0 
155.085709 11923.0 
157.101151 125053.0 
159.080276 19574.0 
159.117035 18466.0 
161.096115 7266.0 
163.074524 5158.0 
167.085968 4877.0 
169.101059 17958.0 
171.116791 3971.0 
173.095612 4243.0 
177.090225 7008.0 
181.08551 4259.0 
181.101059 13380.0 
183.116638 4249.0 
187.112244 16687.0 
189.090469 3820.0 
193.101868 4734.0 
195.116516 7106.0 
199.112503 4837.0 
209.132751 4170.0 
215.104538 3485.0 
221.080643 13609.0 
221.13269 3436.0 
225.127029 3455.0 
227.104996 3129.0 
233.133453 7212.0 
235.148621 6859.0 
237.127762 5152.0 
251.575974 3049.0 
259.147827 14717.0 
273.164368 13690.0 
275.178619 6660.0 
291.175232 11940.0 
293.187439 3707.0 
301.15744 7317.0 
303.17395 6546.0 
307.171631 3274.0 
319.168488 64571.0 
321.184296 29029.0 
323.163605 3888.0 
331.167145 23550.0 
333.185883 7020.0 
337.179382 163967.0 
339.195648 17590.0 
349.17868 76008.0 
351.195892 24505.0 
355.190002 195579.0 
357.205627 7369.0 
367.189758 120731.0 
369.205353 31048.0 
373.200623 166120.0 
385.200531 223178.0 
390.651855 4036.0 
403.211273 266253.0 
421.221283 84730.0 
439.232239 141325.0 
465.23175 3116.0 
495.237061 18594.0 
513.246277 29025.0 
531.260254 23601.0 
549.266663 24300.0 
567.277405 23482.0 
585.290222 170734.0 
END IONS

BEGIN IONS
NAME=N-(4-bromophenyl)-2-[4-(morpholin-4-ylcarbonyl)-2-oxohydroquinolyl]acetamide CollisionEnergy:102040 M+H
PRECURSOR_MZ=470.071
INCHI="InChI=1S/C22H20BrN3O4/c23-15-5-7-16(8-6-15)24-20(27)14-26-19-4-2-1-3-17(19)18(13-21(26)28)22(29)25-9-11-30-12-10-25/h1-8,13H,9-12,14H2,(H,24,27)"
SMILES=O=C(Cn1c(=O)cc(C(=O)N2CCOCC2)c2ccccc21)Nc1ccc(Br)cc1
SPECTRUMID=CCMSLIB00010113998
81.896912 2344.0 
92.377663 3810.0 
100.075417 21398.0 
104.288788 2931.0 
114.05484 17089.0 
136.211746 2766.0 
183.045135 2700.0 
185.441086 2976.0 
186.054794 18766.0 
227.117905 3751.0 
243.112976 3690.0 
259.1073 60682.0 
271.1073 307884.0 
297.780792 3052.0 
299.102203 933562.0 
312.134308 6148.0 
470.074127 10325.0 
471.696045 2866.0 
END IONS

BEGIN IONS
NAME="N-(2-cyanophenyl)(3,4,5-trimethoxyphenyl)carboxamide CollisionEnergy:102040" M+Na
PRECURSOR_MZ=335.1
INCHI="InChI=1S/C17H16N2O4/c1-21-14-8-12(9-15(22-2)16(14)23-3)17(20)19-13-7-5-4-6-11(13)10-18/h4-9H,1-3H3,(H,19,20)"
SMILES=COc1cc(C(O)=Nc2ccccc2C#N)cc(OC)c1OC
SPECTRUMID=CCMSLIB00010111904
52.55835 2169.0 
75.015831 2077.0 
104.304832 3447.0 
135.160919 2426.0 
158.002121 2753.0 
169.967819 2210.0 
196.83815 2483.0 
247.166138 9349.0 
335.098938 679402.0 
335.175903 103852.0 
353.110504 2832.0 
END IONS

BEGIN IONS
NAME=N-(3-chloro-4-fluorophenyl)-2-[2-oxo-4-(pyrrolidinylcarbonyl)hydroquinolyl]ace tamide CollisionEnergy:205060 M-H
PRECURSOR_MZ=426.103
INCHI="InChI=1S/C22H19ClFN3O3/c23-17-11-14(7-8-18(17)24)25-20(28)13-27-19-6-2-1-5-15(19)16(12-21(27)29)22(30)26-9-3-4-10-26/h1-2,5-8,11-12H,3-4,9-10,13H2,(H,25,28)"
SMILES=O=C(c1cc(=O)n(CC(O)=Nc2ccc(F)c(Cl)c2)c2ccccc12)N1CCCC1
SPECTRUMID=CCMSLIB00010124406
52.396729 2662.0 
64.24221 2449.0 
76.235184 2578.0 
82.405746 3627.0 
100.537193 2702.0 
116.049873 3932.0 
128.050583 438917.0 
130.065231 3888.0 
131.037552 3330.0 
142.066345 24457.0 
144.002228 114246.0 
144.045609 73814.0 
146.061172 47191.0 
156.0457 88820.0 
157.053406 162308.0 
157.075851 4827.0 
158.02536 6472.0 
158.061707 4743.0 
167.061569 15015.0 
169.077225 22203.0 
172.040604 111190.0 
174.055908 29729.0 
176.035446 11965.0 
183.032532 6860.0 
183.093262 24742.0 
184.040466 369307.0 
185.048492 16767.0 
195.057251 3983.0 
195.092178 5078.0 
211.124557 12402.0 
212.035034 5149.0 
212.10759 11131.0 
213.103561 59118.0 
223.087677 27867.0 
225.103775 5895.0 
226.087814 6251.0 
227.118958 26256.0 
229.097366 3486.0 
241.098373 420201.0 
255.114304 100978.0 
257.093018 66269.0 
273.124512 4526.0 
281.093262 138191.0 
426.102936 1090961.0 
440.040436 3104.0 
END IONS

BEGIN IONS
NAME="N-[5-(2-methylpropyl)-4-oxo(1,3-dioxan-5-yl)]benzamide CollisionEnergy:205060" M+Na
PRECURSOR_MZ=300.121
INCHI="InChI=1S/C15H19NO4/c1-11(2)8-15(9-19-10-20-14(15)18)16-13(17)12-6-4-3-5-7-12/h3-7,11H,8-10H2,1-2H3,(H,16,17)"
SMILES=CC(C)CC1(N=C(O)c2ccccc2)COCOC1=O
SPECTRUMID=CCMSLIB00010119930
56.965309 2944.0 
69.125557 2224.0 
72.044601 3343.0 
79.387253 2423.0 
89.073013 2393.0 
104.305687 3772.0 
105.033577 5143.0 
128.106644 10218.0 
130.072357 2534.0 
145.025818 81324.0 
150.088654 2410.0 
156.041992 3480.0 
164.45874 2290.0 
167.067657 5260.0 
215.521042 2431.0 
240.098221 18566.0 
256.131409 3053.0 
268.163666 2796.0 
270.109863 89117.0 
272.125244 21801.0 
272.154358 2389.0 
300.120239 1707380.0 
312.322205 2357.0 
318.133148 8349.0 
END IONS

BEGIN IONS
NAME=inosine CollisionEnergy:102040 M+Na
PRECURSOR_MZ=291.07
INCHI="InChI=1S/C10H12N4O5/c15-1-4-6(16)7(17)10(19-4)14-3-13-5-8(14)11-2-12-9(5)18/h2-4,6-7,10,15-17H,1H2,(H,11,12,18)/t4-,6-,7-,10-/m1/s1"
SMILES=OC[C@H]1O[C@@H](n2cnc3c(O)ncnc32)[C@H](O)[C@@H]1O
SPECTRUMID=CCMSLIB00010126646
62.251202 20248.5 
65.066399 15934.299805 
68.067596 19476.599609 
80.340897 19198.300781 
89.883797 20352.099609 
92.385597 26273.5 
95.598099 22152.199219 
104.296997 29692.400391 
116.318001 19778.0 
117.914001 20807.5 
132.244003 23198.900391 
157.985992 22038.699219 
159.028 10061600.0 
217.998993 18185.400391 
291.069 2536400.0 
END IONS

BEGIN IONS
NAME=4-Hydroxyphenylacetamide CollisionEnergy:102040 M+Na
PRECURSOR_MZ=174.053
INCHI="InChI=1S/C8H9NO2/c9-8(11)5-6-1-3-7(10)4-2-6/h1-4,10H,5H2,(H2,9,11)"
SMILES=N=C(O)Cc1ccc(O)cc1
SPECTRUMID=CCMSLIB00010113463
54.385761 2018.0 
57.65918 2031.0 
57.683559 1740.0 
64.403763 2040.0 
72.081123 4537.0 
72.140862 1811.0 
78.999878 1825.0 
97.12133 2028.0 
104.297791 2370.0 
126.964043 2623.0 
143.771393 2083.0 
147.818359 1979.0 
174.052368 88238.0 
174.127472 26351.0 
END IONS

BEGIN IONS
NAME="8-{[(1E)-2-(3-nitrophenyl)-1-azavinyl]amino}-7-[(2-chlorophenyl)methyl]-3-meth yl-1,3,7-trihydropurine-2,6-dione CollisionEnergy:102040" M+H
PRECURSOR_MZ=454.103
INCHI="InChI=1S/C20H16ClN7O4/c1-26-17-16(18(29)24-20(26)30)27(11-13-6-2-3-8-15(13)21)19(23-17)25-22-10-12-5-4-7-14(9-12)28(31)32/h2-10H,11H2,1H3,(H,23,25)(H,24,29,30)/b22-10+"
SMILES=Cn1c(=O)nc(O)c2c1nc(NN=Cc1cccc([N+](=O)[O-])c1)n2Cc1ccccc1Cl
SPECTRUMID=CCMSLIB00010113799
51.772171 3578.0 
57.389771 3310.0 
65.965431 3526.0 
78.165611 3503.0 
82.39621 3231.0 
92.371292 3636.0 
109.050972 12926.0 
117.056938 4105.0 
119.002274 2867.0 
125.015358 1877022.0 
127.013092 2980.0 
133.597 3020.0 
135.043289 10043.0 
151.050308 38707.0 
155.566971 3284.0 
163.049835 13671.0 
166.042313 7120.0 
180.051651 91538.0 
180.923279 3251.0 
181.059723 14997.0 
199.097946 4188.0 
225.077469 4966.0 
227.092194 6559.0 
233.059143 15071.0 
234.06813 4137.0 
250.606689 3284.0 
266.708801 3251.0 
268.082733 30692.0 
269.090942 56939.0 
270.098358 353587.0 
275.057159 6388.0 
294.327789 3307.0 
303.194031 3114.0 
304.059479 1347206.0 
305.066956 98228.0 
312.729919 3390.0 
322.692596 3106.0 
329.084808 5618.0 
454.102448 1822380.0 
END IONS

BEGIN IONS
NAME="N-(methylethyl)-N-{[3-(3-methylphenyl)(1,2,4-oxadiazol-5-yl)]methyl}(3,4,5-tri methoxyphenyl)carboxamide CollisionEnergy:205060" M+Na
PRECURSOR_MZ=448.184
INCHI="InChI=1S/C23H27N3O5/c1-14(2)26(13-20-24-22(25-31-20)16-9-7-8-15(3)10-16)23(27)17-11-18(28-4)21(30-6)19(12-17)29-5/h7-12,14H,13H2,1-6H3"
SMILES=COc1cc(C(=O)N(Cc2nc(-c3cccc(C)c3)no2)C(C)C)cc(OC)c1OC
SPECTRUMID=CCMSLIB00010117172
79.054268 12784.0 
81.069656 2645.0 
96.056824 4969.0 
99.819031 2789.0 
103.672981 2742.0 
107.453697 2780.0 
109.064453 10415.0 
113.059738 2773.0 
122.036186 3744.0 
124.051559 16653.0 
127.46434 2585.0 
128.046295 5637.0 
139.0755 23460.0 
141.017746 5135.0 
152.046677 27270.0 
156.041458 11949.0 
163.595413 2636.0 
166.061661 3120.0 
181.048492 2609.0 
181.085617 11264.0 
195.065201 504547.0 
238.083313 3365.0 
284.127625 30323.0 
294.132996 22571.0 
298.632782 3002.0 
316.115173 571405.0 
334.126556 5146.0 
357.141205 40116.0 
448.183899 1151911.0 
END IONS

BEGIN IONS
NAME="2-[4-(N,N-dimethylcarbamoyl)-2-oxohydroquinolyl]-N-(4-ethylphenyl)acetamide CollisionEnergy:205060" M+H
PRECURSOR_MZ=378.181
INCHI="InChI=1S/C22H23N3O3/c1-4-15-9-11-16(12-10-15)23-20(26)14-25-19-8-6-5-7-17(19)18(13-21(25)27)22(28)24(2)3/h5-13H,4,14H2,1-3H3,(H,23,26)"
SMILES=CCc1ccc(NC(=O)Cn2c(=O)cc(C(=O)N(C)C)c3ccccc32)cc1
SPECTRUMID=CCMSLIB00010124206
50.827579 2769.0 
58.065609 109781.0 
60.530041 2843.0 
72.044769 375624.0 
105.056976 4725.0 
118.064842 23567.0 
121.159721 2483.0 
128.049332 6059.0 
130.064789 16852.0 
132.043808 3915.0 
132.080353 20785.0 
133.052353 51803.0 
134.09671 10530.0 
144.080704 30785.0 
146.059799 3900.0 
156.044174 27679.0 
157.052261 3714.0 
158.060074 27255.0 
160.074829 3195.0 
161.046921 5127.0 
169.076324 10687.0 
170.083282 31976.0 
171.091446 2789.0 
173.107101 34348.0 
185.106842 17814.0 
186.055344 30452.0 
199.086365 3951.0 
201.102203 31894.0 
202.07373 5948.0 
217.097015 349305.0 
220.613953 3260.0 
229.096954 350463.0 
257.091797 659790.0 
270.123322 14086.0 
319.032593 2790.0 
378.181122 30259.0 
END IONS

BEGIN IONS
NAME="3,7-Dihydroxy-3',4'-dimethoxyflavone CollisionEnergy:102040" M+H
PRECURSOR_MZ=315.086
INCHI="InChI=1S/C17H14O6/c1-21-12-6-3-9(7-14(12)22-2)17-16(20)15(19)11-5-4-10(18)8-13(11)23-17/h3-8,18,20H,1-2H3"
SMILES=COc1ccc(-c2oc3cc(O)ccc3c(=O)c2O)cc1OC
SPECTRUMID=CCMSLIB00010105201
74.682632 5087.0 
78.763702 26300.0 
79.021767 5551.0 
82.935944 5177.0 
86.032677 6000.0 
107.04966 6647.0 
110.036278 7677.0 
115.749527 6260.0 
118.471199 5213.0 
121.028313 107281.0 
123.043953 832412.0 
134.036316 9122.0 
135.043976 36458.0 
136.052109 8116.0 
137.0233 601466.0 
137.059692 292757.0 
138.067352 65678.0 
146.035904 75269.0 
149.023132 195851.0 
150.905884 5578.0 
151.074951 42637.0 
162.031372 63349.0 
163.038696 70156.0 
165.019394 43540.0 
165.05452 267691.0 
165.069397 10356.0 
167.033829 25827.0 
173.024521 9474.0 
177.05423 8374.0 
178.026062 148346.0 
179.033554 25903.0 
191.07077 11314.0 
193.013702 101514.0 
199.07605 30789.0 
208.035065 8203.0 
212.199799 47041.0 
213.053787 8834.0 
225.055084 7484.0 
226.062042 39867.0 
227.069458 50324.0 
229.047516 7117.0 
240.042648 11653.0 
241.050034 10779.0 
243.063492 11296.0 
253.047974 125209.0 
254.056641 273843.0 
255.064514 351870.0 
256.073303 69869.0 
257.043884 46502.0 
257.079224 11297.0 
259.096832 116947.0 
265.047668 12755.0 
268.034424 21765.0 
269.043976 61706.0 
270.048065 9159.0 
271.059387 910214.0 
272.069336 85039.0 
273.926208 9391.0 
281.044037 309738.0 
282.051849 1016667.0 
283.059387 630019.0 
284.0672 241792.0 
285.038605 293448.0 
286.046753 199080.0 
286.083527 65768.0 
297.038086 38904.0 
297.076904 23734.0 
298.079559 8913.0 
299.054474 4699232.0 
300.062164 1458245.0 
314.078796 11668.0 
315.085663 46434980.0 
316.563477 12067.0 
END IONS

BEGIN IONS
NAME="2',5'-DIHYDROXY-4-METHOXYCHALCONE CollisionEnergy:102040" M+H
PRECURSOR_MZ=271.096
INCHI="InChI=1S/C16H14O4/c1-20-13-6-2-11(3-7-13)4-8-15(18)14-10-12(17)5-9-16(14)19/h2-10,17,19H,1H3/b8-4+"
SMILES=COc1ccc(C=CC(=O)c2cc(O)ccc2O)cc1
SPECTRUMID=CCMSLIB00010104105
51.36237 6429.0 
51.364571 4113.0 
55.01849 20901.0 
58.971779 4231.0 
60.533989 4603.0 
68.997803 21746.0 
69.033913 9912.0 
77.038963 8961.0 
79.054741 23998.0 
81.033829 70074.0 
85.028664 4090.0 
89.039177 5025.0 
91.054314 41946.0 
93.070343 7424.0 
96.020599 5422.0 
102.046829 5544.0 
103.054367 26056.0 
104.2826 6663.0 
105.069946 775375.0 
107.049271 121468.0 
109.028191 6962.0 
109.065178 8159.0 
111.043854 38407.0 
115.054466 31090.0 
118.041183 69673.0 
119.049583 9488.0 
121.064934 72965.0 
123.044113 1535942.0 
127.040527 4328.0 
131.04982 10856.0 
133.064926 163380.0 
133.798935 4459.0 
135.044144 128178.0 
135.080704 9908.0 
136.60881 18977.0 
137.023453 12370203.0 
137.440491 18827.0 
139.039383 26194.0 
141.069656 8667.0 
145.065552 7177.0 
146.036209 293081.0 
147.044266 48387.0 
148.051941 33661.0 
149.059967 22614.0 
155.034149 78696.0 
157.064972 20646.0 
159.08075 7376.0 
160.052307 8648.0 
160.518463 4510.0 
160.531708 25682.0 
161.059799 15994968.0 
161.590332 25117.0 
163.038864 339544.0 
165.054626 34361.0 
165.069794 22155.0 
169.064987 194871.0 
173.059769 8885.0 
173.09549 9539.0 
183.080704 97714.0 
187.076401 9756.0 
193.064392 6768.0 
197.059677 434202.0 
201.091003 102325.0 
211.074982 122218.0 
211.097961 6003.0 
214.06485 4391.0 
225.090546 19978.0 
227.070572 10362.0 
229.085892 1759158.0 
237.054428 10245.0 
238.063385 25088.0 
239.070251 6316.0 
241.049759 28129.0 
243.101761 27423.0 
253.086105 71681.0 
256.072876 198025.0 
269.452118 4777.0 
269.944031 21257.0 
271.096222 13131895.0 
272.257172 16451.0 
END IONS

BEGIN IONS
NAME="5-{[(2-hydroxy-5-nitrophenyl)amino]azamethylene}-1,3-dihydropyrimidine-2,4,6-t rione CollisionEnergy:205060" M+H
PRECURSOR_MZ=294.047
INCHI="InChI=1S/C10H7N5O6/c16-6-2-1-4(15(20)21)3-5(6)13-14-7-8(17)11-10(19)12-9(7)18/h1-3,13,16H,(H2,11,12,17,18,19)"
SMILES=O=C1N=C(O)C(=NNc2cc([N+](=O)[O-])ccc2O)C(O)=N1
SPECTRUMID=CCMSLIB00010122837
52.391029 2643.0 
53.03904 13818.0 
54.034351 4333.0 
56.050011 3757.0 
66.034218 2483.0 
66.741814 2706.0 
67.04203 152340.0 
68.013527 13958.0 
68.049828 36398.0 
68.997437 14107.0 
70.029114 31844.0 
71.0131 33925.0 
71.024277 15925.0 
72.343407 2494.0 
79.017906 6447.0 
80.013046 3821.0 
80.049728 139503.0 
81.045036 5375.0 
94.029022 3248.0 
95.01265 14351.0 
95.036621 388067.0 
96.044418 243528.0 
98.399696 2811.0 
107.012131 3610.0 
108.04425 10676.0 
109.039886 4128.0 
109.052528 2818.0 
111.031853 3601.0 
112.039078 16470.0 
114.029694 66396.0 
123.031273 26920.0 
124.029633 5097.0 
124.039261 118939.0 
125.033928 2842.0 
126.044083 5437.0 
126.054771 101148.0 
137.034729 5006.0 
142.024628 111352.0 
150.042328 22742.0 
153.029343 235334.0 
154.03717 1273499.0 
180.040619 2690.0 
207.026794 3478.0 
208.03418 10106.0 
224.031479 4512.0 
248.05368 86726.0 
252.024994 10985.0 
276.035767 4631.0 
294.046204 468942.0 
END IONS

BEGIN IONS
NAME="N-(2,6-dimethylphenyl)-2-(4-chlorophenyl)-2-{N-[2-(2-methylindol-3-yl)ethyl]ac etylamino}acetamide CollisionEnergy:205060" M+Na
PRECURSOR_MZ=510.192
INCHI="InChI=1S/C29H30ClN3O2/c1-18-8-7-9-19(2)27(18)32-29(35)28(22-12-14-23(30)15-13-22)33(21(4)34)17-16-24-20(3)31-26-11-6-5-10-25(24)26/h5-15,28,31H,16-17H2,1-4H3,(H,32,35)"
SMILES=CC(=O)N(CCc1c(C)[nH]c2ccccc12)C(C(O)=Nc1c(C)cccc1C)c1ccc(Cl)cc1
SPECTRUMID=CCMSLIB00010124093
60.05619 3672.0 
75.421722 3188.0 
91.054604 3012.0 
104.301514 3310.0 
104.728493 3014.0 
105.070038 6949.0 
130.158447 3205.0 
131.073074 7092.0 
140.065933 2912.0 
143.073792 27422.0 
143.084732 2941.0 
146.096268 27164.0 
154.216309 2782.0 
158.096481 302180.0 
197.105515 19536.0 
203.231079 2919.0 
208.332428 11122.0 
208.353149 4260.0 
239.116318 6821.0 
303.189728 4506.0 
319.097473 63392.0 
365.102234 139633.0 
389.103516 27340.0 
450.174286 4723.0 
462.872437 3266.0 
492.179382 48008.0 
510.191864 2712141.0 
END IONS

BEGIN IONS
NAME="(3,5-dimethoxyphenyl)-N-(1-methylbenzimidazol-6-yl)carboxamide CollisionEnergy:102040" M+H
PRECURSOR_MZ=312.134
INCHI="InChI=1S/C17H17N3O3/c1-20-10-18-15-5-4-12(8-16(15)20)19-17(21)11-6-13(22-2)9-14(7-11)23-3/h4-10H,1-3H3,(H,19,21)"
SMILES=COc1cc(OC)cc(C(O)=Nc2ccc3ncn(C)c3c2)c1
SPECTRUMID=CCMSLIB00010103702
66.732193 4931.0 
78.039543 36896.0 
85.562569 5483.0 
104.268204 6186.0 
108.043907 24219.0 
122.036438 11097.0 
124.05162 33465.0 
137.060196 7717.0 
139.07547 90859.0 
141.054855 11797.0 
146.071426 89072.0 
147.07872 125385.0 
148.062988 164334.0 
148.086517 9772.0 
149.070648 1101702.0 
151.038666 3438847.0 
155.069946 167929.0 
165.05426 1355790.0 
174.065918 309226.0 
254.091003 415519.0 
268.110046 12939.0 
269.114594 164091.0 
281.112823 10119.0 
288.925934 20294.0 
294.119293 40662.0 
296.101379 79802.0 
297.109955 2660112.0 
310.117401 33345.0 
310.714813 68735.0 
312.13327 52782804.0 
313.561493 66655.0 
END IONS

BEGIN IONS
NAME=6-hydroxy-2-[(4-methoxyphenyl)methylene]benzo[b]furan-3-one CollisionEnergy:102040 M+H
PRECURSOR_MZ=269.081
INCHI="InChI=1S/C16H12O4/c1-19-12-5-2-10(3-6-12)8-15-16(18)13-7-4-11(17)9-14(13)20-15/h2-9,17H,1H3/b15-8-"
SMILES=COc1ccc(C=C2Oc3cc(O)ccc3C2=O)cc1
SPECTRUMID=CCMSLIB00010109157
58.969688 2773.0 
68.997292 3135.0 
82.41198 3242.0 
84.593712 3394.0 
92.394447 3495.0 
103.560539 3103.0 
105.070099 4977.0 
107.049133 117495.0 
118.041229 129199.0 
118.050797 4441.0 
123.044418 4224.0 
133.065018 44380.0 
135.044464 5142.0 
136.015396 22062.0 
137.023254 141676.0 
147.043915 7436.0 
154.025986 51841.0 
163.038849 77835.0 
171.080917 5482.0 
176.04718 4831.0 
181.064926 12362.0 
182.072174 13780.0 
183.080338 4404.0 
195.079422 7300.0 
197.059418 6565.0 
198.067368 24873.0 
199.075089 16410.0 
201.089554 4193.0 
209.060562 4322.0 
213.090897 657441.0 
225.053497 10447.0 
226.06192 53501.0 
237.054459 237234.0 
239.069366 11706.0 
241.084427 45405.0 
253.049255 87782.0 
254.057068 341849.0 
267.940125 6232.0 
268.07016 4135.0 
269.080536 9161734.0 
270.228851 7256.0 
END IONS

BEGIN IONS
NAME="2-ethoxyethyl 4-(3-chloro-4-hydroxy-5-methoxyphenyl)-2,7,7-trimethyl-5-oxo-1,4 ,6,7,8-pentahydroquinoline-3-carboxylate CollisionEnergy:205060" M+formate
PRECURSOR_MZ=508.174
INCHI="InChI=1S/C24H30ClNO6/c1-6-31-7-8-32-23(29)19-13(2)26-16-11-24(3,4)12-17(27)21(16)20(19)14-9-15(25)22(28)18(10-14)30-5/h9-10,20,26,28H,6-8,11-12H2,1-5H3"
SMILES=CCOCCOC(=O)C1=C(C)NC2=C(C(=O)CC(C)(C)C2)C1c1cc(Cl)c(O)c(OC)c1
SPECTRUMID=CCMSLIB00010117981
50.468979 2400.0 
62.713169 2636.0 
66.743446 2493.0 
73.954933 2855.0 
92.381737 2930.0 
117.367393 2518.0 
141.9832 22912.0 
181.109497 2435.0 
195.092285 2915.0 
207.896118 16313.0 
270.931244 3020.0 
309.181396 2568.0 
409.766113 2615.0 
462.169067 39092.0 
END IONS

BEGIN IONS
NAME=4-methyl-1-(2-purin-6-ylthioethoxy)benzene CollisionEnergy:102040 M+Na
PRECURSOR_MZ=309.078
INCHI="InChI=1S/C14H14N4OS/c1-10-2-4-11(5-3-10)19-6-7-20-14-12-13(16-8-15-12)17-9-18-14/h2-5,8-9H,6-7H2,1H3,(H,15,16,17,18)"
SMILES=Cc1ccc(OCCSc2ncnc3[nH]cnc23)cc1
SPECTRUMID=CCMSLIB00010104307
53.924648 2271.0 
73.889877 2664.0 
73.947601 2652.0 
92.373787 2662.0 
104.279137 3535.0 
118.644676 2547.0 
124.854874 2333.0 
155.621201 2668.0 
180.855911 2763.0 
309.077454 1100822.0 
327.088531 4859.0 
END IONS

BEGIN IONS
NAME=6-methyl-4-[(1-methyl-5-phenylimidazol-2-ylthio)methyl]hydroquinolin-2-one CollisionEnergy:205060 M-H
PRECURSOR_MZ=360.118
INCHI="InChI=1S/C21H19N3OS/c1-14-8-9-18-17(10-14)16(11-20(25)23-18)13-26-21-22-12-19(24(21)2)15-6-4-3-5-7-15/h3-12H,13H2,1-2H3,(H,23,25)"
SMILES=Cc1ccc2nc(O)cc(CSc3ncc(-c4ccccc4)n3C)c2c1
SPECTRUMID=CCMSLIB00010115423
54.166439 2111.0 
57.089779 2218.0 
57.975189 62192.0 
63.08279 2284.0 
63.30954 2161.0 
64.202507 2285.0 
73.964523 3443.0 
87.925583 2333.0 
92.389557 2298.0 
92.569023 2184.0 
93.297073 2286.0 
104.296272 2011.0 
137.864288 2380.0 
146.307236 2597.0 
171.069778 2879.0 
172.077057 5398.0 
189.049835 10015.0 
192.68721 3013.0 
203.058777 25408.0 
291.884155 4804.0 
299.319305 2804.0 
326.145447 2286.0 
360.117188 75276.0 
END IONS

BEGIN IONS
NAME=(2Z)-2-[(4-bromophenyl)carbonylamino]-3-(4-methoxyphenyl)-N-[2-(2-methylindol- 3-yl)ethyl]prop-2-enamide CollisionEnergy:205060 M+formate
PRECURSOR_MZ=576.114
INCHI="InChI=1S/C28H26BrN3O3/c1-18-23(24-5-3-4-6-25(24)31-18)15-16-30-28(34)26(17-19-7-13-22(35-2)14-8-19)32-27(33)20-9-11-21(29)12-10-20/h3-14,17,31H,15-16H2,1-2H3,(H,30,34)(H,32,33)/b26-17-"
SMILES=COc1ccc(C=C(NC(=O)c2ccc(Br)cc2)C(O)=NCCc2c(C)[nH]c3ccccc23)cc1
SPECTRUMID=CCMSLIB00010123144
59.28376 2543.0 
66.743958 3535.0 
73.396156 2299.0 
78.918617 19696.0 
92.376389 2654.0 
100.493881 2471.0 
134.869431 2616.0 
136.212021 3991.0 
140.086624 2821.0 
155.689102 3018.0 
177.510452 2873.0 
296.465057 2610.0 
333.187042 2653.0 
465.625946 2596.0 
530.108948 22050.0 
END IONS

BEGIN IONS
NAME=(3-{[2-(4-chlorophenyl)quinazolin-4-yl]amino}propyl)diethylamine CollisionEnergy:205060 M-H
PRECURSOR_MZ=367.169
INCHI="InChI=1S/C21H25ClN4/c1-3-26(4-2)15-7-14-23-21-18-8-5-6-9-19(18)24-20(25-21)16-10-12-17(22)13-11-16/h5-6,8-13H,3-4,7,14-15H2,1-2H3,(H,23,24,25)"
SMILES=CCN(CC)CCCN=c1nc(-c2ccc(Cl)cc2)[nH]c2ccccc12
SPECTRUMID=CCMSLIB00010114949
52.151482 2653.0 
59.354179 2373.0 
66.754608 3132.0 
73.964737 3776.0 
85.283791 2533.0 
92.393753 2554.0 
104.301537 2659.0 
117.021217 2321.0 
117.045647 37368.0 
142.040405 9155.0 
143.946472 2619.0 
175.060822 2704.0 
212.129227 2784.0 
224.23912 2883.0 
239.038559 4147.0 
241.052719 3674.0 
252.033234 102674.0 
253.053696 3095.0 
254.048935 215486.0 
280.064911 18332.0 
299.047638 3179.0 
323.106598 4516.0 
339.138733 5612.0 
367.169464 925879.0 
END IONS

BEGIN IONS
NAME="1-benzyl-5-{[1-benzylindol-3-yl]methylene}-1,3-dihydropyrimidine-2,4,6-trione CollisionEnergy:205060" M-H
PRECURSOR_MZ=434.151
INCHI="InChI=1S/C27H21N3O3/c31-25-23(26(32)30(27(33)28-25)17-20-11-5-2-6-12-20)15-21-18-29(16-19-9-3-1-4-10-19)24-14-8-7-13-22(21)24/h1-15,18H,16-17H2,(H,28,31,33)/b23-15+"
SMILES=O=C1N=C(O)C(=Cc2cn(Cc3ccccc3)c3ccccc23)C(=O)N1Cc1ccccc1
SPECTRUMID=CCMSLIB00010124471
53.387482 2070.0 
72.892853 2322.0 
73.6492 2456.0 
103.919456 2788.0 
159.46347 2402.0 
230.096634 4683.0 
258.091492 10765.0 
290.635681 2577.0 
297.900909 2924.0 
434.150177 88756.0 
END IONS

BEGIN IONS
NAME=formononetin CollisionEnergy:102040 M+Na
PRECURSOR_MZ=291.063
INCHI="InChI=1S/C16H12O4/c1-19-12-5-2-10(3-6-12)14-9-20-15-8-11(17)4-7-13(15)16(14)18/h2-9,17H,1H3"
SMILES=COc1ccc(-c2coc3cc(O)ccc3c2=O)cc1
SPECTRUMID=CCMSLIB00010104953
52.85104 2521.0 
66.748627 2970.0 
72.227852 3007.0 
81.671509 2623.0 
92.38813 3296.0 
138.549057 3916.0 
210.646118 3893.0 
276.038605 4693.0 
291.062378 8327781.0 
309.072815 55308.0 
END IONS

BEGIN IONS
NAME=2-(3-carboxypropanoylamino)hexanoic acid CollisionEnergy:102040 M+H
PRECURSOR_MZ=232.118
INCHI="InChI=1S/C10H17NO5/c1-2-3-4-7(10(15)16)11-8(12)5-6-9(13)14/h7H,2-6H2,1H3,(H,11,12)(H,13,14)(H,15,16)"
SMILES=CCCCC(N=C(O)CCC(=O)O)C(=O)O
SPECTRUMID=CCMSLIB00010109382
54.742771 2869.0 
55.018471 25481.0 
64.079536 2742.0 
66.66301 3053.0 
69.070396 226746.0 
72.045013 13192.0 
73.028877 129737.0 
73.065277 4708.0 
73.969017 3288.0 
79.518829 2800.0 
82.412453 3039.0 
82.417267 3136.0 
84.044777 6643.0 
86.096802 3844544.0 
89.496277 3086.0 
92.394096 4080.0 
95.476067 3569.0 
97.065132 12671.0 
100.039513 722353.0 
101.023514 1122379.0 
107.596817 2803.0 
108.939713 2525.0 
110.33902 3107.0 
112.039391 48210.0 
115.075523 30192.0 
119.034103 7181.0 
126.055283 5128.0 
132.102112 1154762.0 
144.438705 2711.0 
168.102112 1331657.0 
174.128082 3588.0 
186.112656 1317778.0 
196.09549 9874.0 
208.955627 4869.0 
209.005936 3268.0 
213.502457 4493.0 
213.96846 5118.0 
214.107544 1054555.0 
220.409149 3306.0 
232.118088 180289.0 
END IONS

BEGIN IONS
NAME=L-Norleucine CollisionEnergy:102040 M-H
PRECURSOR_MZ=130.087
INCHI="InChI=1S/C6H13NO2/c1-2-3-4-5(7)6(8)9/h5H,2-4,7H2,1H3,(H,8,9)/t5-/m0/s1"
SMILES=CCCC[C@H](N)C(=O)O
SPECTRUMID=CCMSLIB00010102697
57.757599 42809.601562 
66.767403 41882.898438 
67.733902 38103.699219 
130.087006 7335690.0 
END IONS

BEGIN IONS
NAME="8-[(2,6-dimethylmorpholin-4-yl)methyl]-7-hydroxy-3-(2-methoxyphenyl)-2-(triflu oromethyl)chromen-4-one CollisionEnergy:102040" M+H
PRECURSOR_MZ=464.168
INCHI="InChI=1S/C24H24F3NO5/c1-13-10-28(11-14(2)32-13)12-17-18(29)9-8-16-21(30)20(15-6-4-5-7-19(15)31-3)23(24(25,26)27)33-22(16)17/h4-9,13-14,29H,10-12H2,1-3H3"
SMILES=COc1ccccc1-c1c(C(F)(F)F)oc2c(CN3CC(C)OC(C)C3)c(O)ccc2c1=O
SPECTRUMID=CCMSLIB00010103716
50.466282 91075.0 
55.054729 135978.0 
56.049919 806559.0 
57.72842 66675.0 
58.06559 446524.0 
59.04958 80873.0 
61.374538 90464.0 
68.049637 75938.0 
70.065514 884511.0 
74.060509 157757.0 
79.054337 162028.0 
81.069817 701949.0 
83.012779 92510.0 
85.358093 74752.0 
86.096382 96249.0 
94.065033 79886.0 
96.080879 701479.0 
98.096481 31298998.0 
114.091309 3367586.0 
116.106956 96663856.0 
116.431877 112087.0 
131.049423 115462.0 
135.043839 557849.0 
148.051834 98703.0 
149.023239 7675677.0 
149.296127 78539.0 
159.873856 70850.0 
167.033752 2595442.0 
181.049377 99459.0 
199.035995 975686.0 
203.028793 78477.0 
205.064987 173085.0 
207.947754 102338.0 
207.966507 270711.0 
224.083771 109241.0 
225.06987 197204.0 
227.031418 508526.0 
233.059708 183380.0 
234.067459 89912.0 
251.069595 299372.0 
252.078064 347926.0 
253.066162 866955.0 
255.044983 131602.0 
257.869568 112679.0 
261.053314 747969.0 
265.048645 112434.0 
267.042694 116080.0 
273.070648 531761.0 
280.07312 2307906.0 
281.060822 1864820.0 
283.057281 148973.0 
289.0495 135674.0 
293.078796 177766.0 
301.066315 2956285.0 
303.187378 107154.0 
309.054871 2213772.0 
317.043884 157001.0 
318.049316 13821147.0 
321.073395 451203.0 
329.062195 352723.0 
349.067657 94776448.0 
351.083893 802232.0 
390.09375 518662.0 
449.149872 116414.0 
461.584076 323283.0 
464.16745 312923424.0 
466.770966 404831.0 
END IONS

BEGIN IONS
NAME="8-[2-(6-methyl(2H,3H-benzo[e]1,4-oxazaperhydroin-4-yl))-2-oxoethylthio]-9-(4-m ethylphenyl)hydropurin-6-one CollisionEnergy:205060" M-H
PRECURSOR_MZ=446.129
INCHI="InChI=1S/C23H21N5O3S/c1-14-3-6-16(7-4-14)28-21-20(22(30)25-13-24-21)26-23(28)32-12-19(29)27-9-10-31-18-8-5-15(2)11-17(18)27/h3-8,11,13H,9-10,12H2,1-2H3,(H,24,25,30)"
SMILES=Cc1ccc(-n2c(SCC(=O)N3CCOc4ccc(C)cc43)nc3c(O)ncnc32)cc1
SPECTRUMID=CCMSLIB00010121482
57.975201 171788.0 
65.014099 70516.0 
65.998199 37683.0 
68.013771 5124.0 
87.966301 2942.0 
92.025208 42505.0 
92.391998 3246.0 
93.009239 5104.0 
104.29377 3106.0 
142.535736 2736.0 
155.06163 434269.0 
156.057053 28846.0 
179.003479 3692.0 
182.07254 11551.0 
194.072327 3769.0 
197.059738 108142.0 
198.06723 21406.0 
209.913742 2839.0 
223.063202 6441.0 
225.078278 248206.0 
228.024094 37121.0 
236.070297 85353.0 
237.07756 5312.0 
254.040192 5380.0 
255.034836 331844.0 
256.042664 513356.0 
264.063934 26040.0 
269.050232 149015.0 
270.057556 3707.0 
297.045135 569961.0 
403.124268 4650.0 
446.129211 85895.0 
END IONS

BEGIN IONS
NAME="methyl 3-[5-(methoxycarbonyl)-6,7-diazaspiro[2.4]hept-6-en-5-yl]propanoate CollisionEnergy:102040" M+Na
PRECURSOR_MZ=263.1
INCHI="InChI=1S/C11H16N2O4/c1-16-8(14)3-4-11(9(15)17-2)7-10(5-6-10)12-13-11/h3-7H2,1-2H3"
SMILES=COC(=O)CCC1(C(=O)OC)CC2(CC2)N=N1
SPECTRUMID=CCMSLIB00010106818
56.540451 2354.0 
58.34634 2469.0 
66.760048 2176.0 
71.439957 2072.0 
75.224533 2101.0 
82.58297 2365.0 
84.959702 2952.0 
104.317497 2518.0 
138.08226 2422.0 
154.899796 2299.0 
164.047241 2431.0 
195.060959 3045.0 
207.062225 9232.0 
213.742249 2319.0 
235.093719 109043.0 
236.017731 2248.0 
239.931595 5198.0 
246.869492 2278.0 
263.099731 981575.0 
265.60733 2076.0 
END IONS

BEGIN IONS
NAME=3-(2-bromophenoxy)-4-oxochromen-7-yl furan-2-carboxylate CollisionEnergy:205060 M-H
PRECURSOR_MZ=424.967
INCHI=InChI=1S/C20H11BrO6/c21-14-4-1-2-5-15(14)27-18-11-25-17-10-12(7-8-13(17)19(18)22)26-20(23)16-6-3-9-24-16/h1-11H
SMILES=O=C(Oc1ccc2c(=O)c(Oc3ccccc3Br)coc2c1)c1ccco1
SPECTRUMID=CCMSLIB00010124612
68.995438 18611.0 
70.017189 2401.0 
73.960587 2910.0 
77.94088 2276.0 
78.918289 3591.0 
92.995819 28856.0 
104.293037 2451.0 
108.039413 2254.0 
112.985733 2721.0 
118.662971 2420.0 
118.992577 9366.0 
130.992691 13861.0 
137.072281 2222.0 
142.992645 4717.0 
146.987823 5164.0 
168.989807 20839.0 
180.989548 10155.0 
192.989548 4792.0 
204.989639 15933.0 
208.984711 3540.0 
209.288895 5309.0 
230.985992 5165.0 
242.98613 30398.0 
254.986435 5072.0 
266.987335 15211.0 
290.985809 3282.0 
308.975616 4860.0 
354.979706 3477.0 
358.97403 3060.0 
380.977936 16014.0 
397.349121 2419.0 
404.976105 73172.0 
424.974579 57611.0 
END IONS

BEGIN IONS
NAME=(3-bromophenyl)-N-{2-[2-methyl-5-(phenylmethoxy)indol-3-yl]ethyl}carboxamide CollisionEnergy:102040 M-H
PRECURSOR_MZ=461.087
INCHI="InChI=1S/C25H23BrN2O2/c1-17-22(12-13-27-25(29)19-8-5-9-20(26)14-19)23-15-21(10-11-24(23)28-17)30-16-18-6-3-2-4-7-18/h2-11,14-15,28H,12-13,16H2,1H3,(H,27,29)"
SMILES=Cc1[nH]c2ccc(OCc3ccccc3)cc2c1CCN=C(O)c1cccc(Br)c1
SPECTRUMID=CCMSLIB00010112511
54.770409 2910.0 
62.806721 3030.0 
78.918579 1944153.0 
80.916656 3634.0 
82.424583 4103.0 
140.633636 2829.0 
144.04538 20836.0 
145.052734 23269.0 
158.025726 3667.0 
158.061035 167985.0 
159.069077 36735.0 
161.048035 5918.0 
162.056458 4819.0 
171.069275 12561.0 
173.048294 49041.0 
174.056305 6550.0 
183.927856 3455.0 
188.034897 29329.0 
190.050278 6729.0 
191.058533 4680.0 
197.956116 36193.0 
210.963364 28151.0 
242.953583 413064.0 
262.123932 14645.0 
354.980408 5822.0 
364.295929 4238.0 
370.032257 3027143.0 
420.974487 5022.0 
440.978149 6761.0 
461.087128 1688555.0 
END IONS

BEGIN IONS
NAME=N-Methylocoteamine CollisionEnergy:205060 M+2H]
PRECURSOR_MZ=305.152
INCHI="InChI=1S/C37H40N2O6/c1-38-13-11-24-18-33(42-3)34-20-27(24)29(38)16-23-7-10-31(40)32(17-23)45-26-8-5-22(6-9-26)15-30-36-25(12-14-39(30)2)19-35(43-4)37(41)28(36)21-44-34/h5-10,17-20,29-30,40-41H,11-16,21H2,1-4H3/t29-,30+/m1/s1"
SMILES=COc1cc2c3cc1OCc1c(O)c(OC)cc4c1C(Cc1ccc(cc1)Oc1cc(ccc1O)CC3N(C)CC2)N(C)CC4
SPECTRUMID=CCMSLIB00010119470
50.771332 3037.0 
53.039021 3322.0 
59.233631 2341.0 
67.054611 5798.0 
73.954567 2267.0 
74.755836 2299.0 
79.05426 10629.0 
80.877281 2650.0 
91.054153 36055.0 
92.377457 3296.0 
94.0411 17947.0 
95.049232 18499.0 
103.053917 11267.0 
105.069656 13454.0 
107.048973 67551.0 
108.057182 27760.0 
109.02742 5064.0 
115.053833 11642.0 
117.070099 10427.0 
118.886421 2828.0 
119.049049 9592.0 
121.064468 14198.0 
123.044006 23664.0 
127.039864 2817.0 
128.06221 12806.0 
129.069397 3863.0 
130.041046 3265.0 
131.048706 21529.0 
132.056503 3949.0 
133.064331 11688.0 
133.088837 3859.0 
135.079758 3554.0 
135.536346 2869.0 
140.325623 2435.0 
141.070404 3318.0 
142.077652 3306.0 
143.048645 12550.0 
144.056442 5846.0 
144.08046 3877.0 
145.064957 22261.0 
145.087234 3884.0 
146.072586 27450.0 
146.096207 14254.0 
148.075211 3813.0 
149.05954 10942.0 
149.082718 3189.0 
151.075836 5464.0 
158.072464 68269.0 
159.079971 10774.0 
160.07515 11386.0 
161.059448 13963.0 
161.082703 4618.0 
162.06781 4389.0 
162.091064 33324.0 
163.075165 4358.0 
164.082672 2989.0 
165.069183 4311.0 
165.090927 5221.0 
167.070648 8875.0 
167.084839 3512.0 
171.079407 3654.0 
173.059341 6362.0 
174.066483 4358.0 
174.090958 36954.0 
175.078979 17705.0 
175.099045 12855.0 
176.069992 5936.0 
176.106384 13912.0 
177.077576 19343.0 
178.086639 3812.0 
179.085037 4535.0 
181.064362 4215.0 
181.084961 5764.0 
181.101654 3243.0 
182.593201 2660.0 
183.080032 5534.0 
185.071259 2597.0 
188.083374 20693.0 
189.588852 2589.0 
190.086029 45668.0 
191.073349 3587.0 
191.093597 41171.0 
192.101059 13296.0 
193.105988 2847.0 
195.079071 9402.0 
197.060257 5308.0 
198.10228 19504.0 
199.074646 30501.0 
204.100494 11118.0 
206.079941 2817.0 
207.080765 4744.0 
208.087326 3693.0 
209.09697 12773.0 
210.066849 5699.0 
211.0755 24823.0 
213.090469 38237.0 
218.706207 2818.0 
219.080353 4982.0 
220.094513 4106.0 
220.5961 5979.0 
221.058807 2977.0 
221.095901 4126.0 
222.067627 3919.0 
222.110245 12436.0 
223.075043 10686.0 
223.111664 2618.0 
224.081726 14255.0 
225.091263 13248.0 
226.097931 3400.0 
227.105865 6573.0 
233.09668 3789.0 
235.075928 6242.0 
236.082733 9854.0 
237.090332 14079.0 
238.062653 2494.0 
238.098038 12459.0 
239.06926 6585.0 
239.106003 11924.0 
240.077835 2651.0 
240.113556 3546.0 
241.08461 4113.0 
249.089249 11138.0 
250.098526 13770.0 
251.106079 10790.0 
253.085709 6028.0 
254.092819 3949.0 
263.904755 11469.0 
265.085388 5544.0 
266.092285 3005.0 
267.101013 2862.0 
280.10788 3927.0 
281.114136 4744.0 
281.871552 3258.0 
283.093597 2992.0 
289.629883 57912.0 
290.132019 16315.0 
290.637878 17041.0 
291.102203 3008.0 
297.640289 2921.0 
305.151031 1707130.0 
305.652527 357941.0 
305.693848 5666.0 
308.126801 4556.0 
320.12735 21921.0 
336.120758 3788.0 
337.153107 13884.0 
337.635864 2942.0 
338.134216 3594.0 
350.135925 5130.0 
352.153046 4291.0 
366.171478 3310.0 
383.195312 5653.0 
410.17392 5095.0 
412.149811 5459.0 
426.166626 3292.0 
489.171509 4989.0 
505.172302 4209.0 
520.206421 11276.0 
535.205811 3474.0 
536.206543 3619.0 
566.252075 66122.0 
567.255737 11723.0 
END IONS

BEGIN IONS
NAME=chenodeoxycholic acid CollisionEnergy:102040 M+formate
PRECURSOR_MZ=437.291
INCHI="InChI=1S/C24H40O4/c1-14(4-7-21(27)28)17-5-6-18-22-19(9-11-24(17,18)3)23(2)10-8-16(25)12-15(23)13-20(22)26/h14-20,22,25-26H,4-13H2,1-3H3,(H,27,28)/t14-,15+,16-,17-,18+,19+,20-,22+,23+,24-/m1/s1"
SMILES=CC(CCC(=O)O)C1CCC2C3C(O)CC4CC(O)CCC4(C)C3CCC12C
SPECTRUMID=CCMSLIB00010110375
52.248821 2305.0 
66.756462 3756.0 
87.149521 2512.0 
91.455658 2544.0 
92.396942 3379.0 
141.85582 3010.0 
162.505005 2846.0 
164.927872 5069.0 
174.955917 4310.0 
208.486023 8801.0 
212.294342 2984.0 
232.914871 4567.0 
287.854065 2719.0 
298.923889 3071.0 
300.904816 3273.0 
341.8638 3224.0 
391.285736 2191107.0 
409.296326 92606.0 
437.291016 142760.0 
461.903992 2851.0 
END IONS

BEGIN IONS
NAME=4-methylquinoline-2-carboxylic acid CollisionEnergy:102040 M-H
PRECURSOR_MZ=186.056
INCHI="InChI=1S/C11H9NO2/c1-7-6-10(11(13)14)12-9-5-3-2-4-8(7)9/h2-6H,1H3,(H,13,14)"
SMILES=Cc1cc(C(=O)O)nc2ccccc12
SPECTRUMID=CCMSLIB00010111999
53.088421 1942.0 
56.782841 2504.0 
57.1759 2629.0 
66.856506 2239.0 
92.378448 3018.0 
104.287453 2824.0 
115.921822 3058.0 
117.92897 10007.0 
119.520203 2515.0 
128.144196 2571.0 
142.066391 2008667.0 
149.405579 2275.0 
158.0616 11092.0 
186.056213 165441.0 
END IONS

BEGIN IONS
NAME="4,4'-Dimethoxychalcone CollisionEnergy:102040" M+Na
PRECURSOR_MZ=291.099
INCHI="InChI=1S/C17H16O3/c1-19-15-8-3-13(4-9-15)5-12-17(18)14-6-10-16(20-2)11-7-14/h3-12H,1-2H3/b12-5+"
SMILES=COc1ccc(C=CC(=O)c2ccc(OC)cc2)cc1
SPECTRUMID=CCMSLIB00010105396
51.574329 2177.0 
60.52969 3041.0 
66.30481 2170.0 
66.567543 2026.0 
104.271553 3063.0 
132.288177 2426.0 
139.01593 3937.0 
147.138611 2202.0 
181.049301 2260.0 
291.098846 573578.0 
291.192139 114130.0 
309.11026 4927.0 
END IONS

BEGIN IONS
NAME="4-methyl-7-[3,4,5-trihydroxy-6-(hydroxymethyl)(2H-3,4,5,6-tetrahydropyran-2-yl oxy)]chromen-2-one CollisionEnergy:205060" M+Na
PRECURSOR_MZ=361.089
INCHI="InChI=1S/C16H18O8/c1-7-4-12(18)23-10-5-8(2-3-9(7)10)22-16-15(21)14(20)13(19)11(6-17)24-16/h2-5,11,13-17,19-21H,6H2,1H3"
SMILES=Cc1cc(=O)oc2cc(OC3OC(CO)C(O)C(O)C3O)ccc12
SPECTRUMID=CCMSLIB00010123769
50.279709 2134.0 
59.621899 2080.0 
65.283981 2200.0 
70.035057 2839.0 
78.977112 2111.0 
87.475937 2643.0 
108.899681 2294.0 
183.199493 2479.0 
199.036545 36154.0 
211.006027 4342.0 
268.263916 2482.0 
282.085907 2298.0 
361.088745 660291.0 
379.097809 3316.0 
END IONS

BEGIN IONS
NAME=cAMP CollisionEnergy:102040 M+H
PRECURSOR_MZ=330.06
INCHI="InChI=1S/C10H12N5O6P/c11-8-5-9(13-2-12-8)15(3-14-5)10-6(16)7-4(20-10)1-19-22(17,18)21-7/h2-4,6-7,10,16H,1H2,(H,17,18)(H2,11,12,13)/t4-,6-,7-,10-/m1/s1"
SMILES=Nc1ncnc2c1ncn2[C@@H]1O[C@@H]2COP(=O)(O)O[C@H]2[C@H]1O
SPECTRUMID=CCMSLIB00010103240
69.034203 196666.0 
92.405502 33333.199219 
97.028801 648281.0 
98.984497 189589.0 
104.313004 35825.398438 
104.420998 37428.398438 
130.664993 34813.699219 
136.061996 10985900.0 
176.994003 246115.0 
177.535004 41084.199219 
190.072006 44753.5 
204.087997 229460.0 
210.317993 41045.300781 
214.072006 70698.0 
232.082001 274502.0 
250.093002 46912.800781 
311.449005 40729.699219 
312.049011 949380.0 
330.05899 15494700.0 
END IONS

BEGIN IONS
NAME=meta-topolin CollisionEnergy:205060 M-H
PRECURSOR_MZ=240.089
INCHI="InChI=1S/C12H11N5O/c18-9-3-1-2-8(4-9)5-13-11-10-12(15-6-14-10)17-7-16-11/h1-4,6-7,18H,5H2,(H2,13,14,15,16,17)"
SMILES=C1=CC(=CC(=C1)O)CNC2=NC=NC3=C2NC=N3
SPECTRUMID=CCMSLIB00010102069
50.050068 5279.665039 
66.009422 11006.56543 
66.785515 6094.109375 
71.301796 5179.161133 
79.017334 17389.009766 
92.025322 49502.761719 
93.034225 8033.920898 
106.028542 178631.859375 
106.036591 10056.291016 
107.036331 167173.859375 
117.020683 63258.664062 
119.036461 14611.885742 
132.031723 527893.9375 
132.637329 6712.539062 
133.039581 4631130.0 
133.650925 6224.949707 
134.047363 2878359.5 
144.031586 9467.149414 
146.047272 59296.714844 
173.402328 4880.522949 
181.898148 13651.210938 
183.912933 17058.197266 
196.05069 11387.895508 
198.0672 12215.651367 
203.713013 5658.905762 
223.062195 41667.867188 
238.073685 15220.631836 
240.089264 3747158.0 
241.091553 17857.039062 
END IONS

BEGIN IONS
NAME=ST056290 CollisionEnergy:102040 M+Na
PRECURSOR_MZ=331.261
INCHI="InChI=1S/C20H36O2/c1-7-18(4,21)13-9-16-19(5)12-8-11-17(2,3)15(19)10-14-20(16,6)22/h7,15-16,21-22H,1,8-14H2,2-6H3/t15-,16+,18+,19-,20+/m0/s1"
SMILES=C=CC(C)(O)CCC1C(C)(O)CCC2C(C)(C)CCCC21C
SPECTRUMID=CCMSLIB00010114192
70.926086 2373.0 
98.984016 10348.0 
197.894516 2687.0 
252.879684 2584.0 
266.954071 3208.0 
331.26001 2387766.0 
347.226776 6010.0 
348.229401 5355.0 
END IONS

BEGIN IONS
NAME=5-hydroxylysine CollisionEnergy:102040 M-H
PRECURSOR_MZ=161.093
INCHI="InChI=1S/C6H14N2O3/c7-3-4(9)1-2-5(8)6(10)11/h4-5,9H,1-3,7-8H2,(H,10,11)"
SMILES=NCC(O)CCC(N)C(=O)O
SPECTRUMID=CCMSLIB00010102493
58.4319 3911.169922 
60.556301 5762.830078 
70.029602 5918.330078 
72.008797 34137.601562 
72.045197 57882.699219 
74.024597 7785.790039 
80.5261 4446.77002 
82.029999 5685.390137 
84.045601 31167.699219 
85.040604 7696.129883 
95.061501 22914.699219 
97.029503 7973.930176 
97.040703 33566.800781 
98.061302 7739.540039 
99.044998 6063.589844 
102.056 39628.601562 
104.317001 7277.200195 
109.514999 4838.189941 
112.040001 30903.599609 
113.071999 93254.703125 
113.134003 4622.790039 
115.087997 239796.0 
117.102997 9266.990234 
123.056999 6557.5 
125.071999 137338.0 
126.056 16212.299805 
141.067001 137942.0 
143.082993 379666.0 
146.938995 5267.359863 
148.240997 4341.209961 
152.778 5047.620117 
159.076996 92568.796875 
160.891006 4831.410156 
161.093002 2361810.0 
END IONS

BEGIN IONS
NAME=N4-Benzoylcytidine CollisionEnergy:205060 M+formate
PRECURSOR_MZ=392.11
INCHI="InChI=1S/C16H17N3O6/c20-8-10-12(21)13(22)15(25-10)19-7-6-11(18-16(19)24)17-14(23)9-4-2-1-3-5-9/h1-7,10,12-13,15,20-22H,8H2,(H,17,18,23,24)"
SMILES=O=C(N=c1ccn(C2OC(CO)C(O)C2O)c(O)n1)c1ccccc1
SPECTRUMID=CCMSLIB00010121102
50.94939 2150.0 
51.057941 2275.0 
52.48521 2555.0 
82.405792 2305.0 
104.294617 2590.0 
107.025307 3194.0 
109.982727 2557.0 
119.006844 2097.0 
122.942963 2358.0 
132.567734 2463.0 
135.019928 3099.0 
213.068268 2540.0 
296.63092 2940.0 
303.100677 2750.0 
340.25293 2802.0 
346.104431 31743.0 
END IONS

BEGIN IONS
NAME=GA5 CollisionEnergy:205060 2M-H
PRECURSOR_MZ=659.286
INCHI="InChI=1S/C19H22O5/c1-10-8-17-9-18(10,23)7-4-11(17)19-6-3-5-16(2,15(22)24-19)13(19)12(17)14(20)21/h3,5,11-13,23H,1,4,6-9H2,2H3,(H,20,21)/t11-,12-,13-,16-,17+,18+,19-/m1/s1"
SMILES=C[C@@]12C=CC[C@@]3([C@@H]1[C@@H]([C@]45[C@H]3CC[C@](C4)(C(=C)C5)O)C(=O)O)OC2=O
SPECTRUMID=CCMSLIB00010102289
63.434547 4784.075195 
71.049614 15742.999023 
79.054871 6561.971191 
83.049889 42424.222656 
85.065407 13450.518555 
97.0289 9650.033203 
97.200439 4826.786621 
105.070312 7482.046387 
123.081093 17492.896484 
129.071228 9706.248047 
140.117554 5489.306641 
143.086441 31122.529297 
144.057495 6319.711426 
145.102081 343559.625 
147.096863 5982.430664 
179.660553 6059.084961 
202.515305 5054.816406 
207.117599 9415.371094 
213.172363 4812.304688 
223.148956 58626.128906 
227.75502 6162.891113 
237.127625 4884.421387 
239.143875 26262.490234 
241.159424 13793.433594 
267.139435 12018.260742 
285.149567 66284.65625 
329.139404 1508670.25 
END IONS

BEGIN IONS
NAME="methyl 3-oxo-2-[(3,4,5-trimethoxyphenyl)methylene]benzo[b]furan-5-carboxylate CollisionEnergy:205060" M-e
PRECURSOR_MZ=370.105
INCHI="InChI=1S/C20H18O7/c1-23-16-8-11(9-17(24-2)19(16)25-3)7-15-18(21)13-10-12(20(22)26-4)5-6-14(13)27-15/h5-10H,1-4H3/b15-7+"
SMILES=COC(=O)c1ccc2c(c1)C(=O)C(=Cc1cc(OC)c(OC)c(OC)c1)O2
SPECTRUMID=CCMSLIB00010115795
57.07029 5971.0 
58.06562 4157.0 
59.0495 3749.0 
59.912609 2656.0 
60.409611 2937.0 
62.06036 3850.0 
67.054657 6190.0 
69.070107 3242.0 
71.085869 5103.0 
76.075928 14307.0 
81.07016 48794.0 
82.073624 5855.0 
84.080994 34852.0 
89.065208 2773.0 
90.964432 3102.0 
95.085663 4344.0 
102.091278 33517.0 
104.297089 4666.0 
116.107071 101584.0 
117.110283 16112.0 
119.048973 4104.0 
121.064842 4375.0 
123.11692 32343.0 
124.120163 6038.0 
134.036316 33583.0 
136.015015 4402.0 
142.122803 3448.0 
149.059784 6458.0 
151.038605 15944.0 
152.060928 3926.0 
155.132507 2919.0 
157.320175 2967.0 
157.992249 3055.0 
162.031189 4295.0 
165.018463 12338.0 
165.069611 3339.0 
167.085114 3026.0 
177.054703 57703.0 
179.03392 159980.0 
180.056305 3893.0 
181.06601 4624.0 
189.055511 2574.0 
195.080368 5907.0 
197.060074 5720.0 
201.605347 2856.0 
205.049286 11547.0 
207.044708 3991.0 
208.051224 3955.0 
211.075226 4792.0 
220.836533 2833.0 
223.074234 5564.0 
224.046768 4760.0 
225.055283 12503.0 
229.050186 3619.0 
235.038315 5976.0 
236.04628 5377.0 
239.069458 30008.0 
240.079758 3910.0 
241.049515 23182.0 
242.057068 6995.0 
252.040527 5403.0 
253.049423 17955.0 
254.057358 11838.0 
255.064316 29802.0 
256.072876 15251.0 
263.033264 4770.0 
266.05722 19222.0 
267.065216 190912.0 
268.039276 3440.0 
268.071472 3473.0 
269.044342 191987.0 
278.058716 3951.0 
279.063629 12506.0 
281.044556 74888.0 
281.078339 5781.0 
282.052795 53744.0 
283.060394 43709.0 
283.263214 31788.0 
284.032104 15049.0 
284.067902 29251.0 
284.26651 24902.0 
294.05191 19110.0 
295.059875 392239.0 
296.068085 39967.0 
297.03952 289870.0 
297.075165 27626.0 
299.092224 12903.0 
309.038849 16769.0 
309.073029 8253.0 
310.046631 145075.0 
311.055817 44477.0 
312.062653 193388.0 
313.070587 3140.0 
316.212128 5568.0 
317.212891 4888.0 
323.054932 220818.0 
324.062683 89737.0 
325.070221 80641.0 
327.086121 114261.0 
337.068665 4902.0 
339.04892 12970.0 
339.086761 41777.0 
340.057068 16958.0 
340.320465 6411.0 
341.064636 4483.0 
341.323303 11363.0 
355.081085 378630.0 
369.095428 3720.0 
369.807404 184916.0 
370.104553 1265599.0 
370.308167 41028.0 
371.11264 43508.0 
456.347839 5042.0 
541.43512 3671.0 
END IONS

BEGIN IONS
NAME="2-(4-hydroxy-3-methoxyphenyl)-6,8-dimethylchromen-4-one CollisionEnergy:102040" M+H
PRECURSOR_MZ=297.112
INCHI="InChI=1S/C18H16O4/c1-10-6-11(2)18-13(7-10)15(20)9-16(22-18)12-4-5-14(19)17(8-12)21-3/h4-9,19H,1-3H3"
SMILES=COc1cc(-c2cc(=O)c3cc(C)cc(C)c3o2)ccc1O
SPECTRUMID=CCMSLIB00010108143
63.887119 3183.0 
69.588753 2970.0 
89.549049 2930.0 
96.508034 2938.0 
136.184998 3642.0 
152.147186 2750.0 
161.662476 3115.0 
232.926865 23642.0 
250.938553 15118.0 
254.093155 77147.0 
279.195343 11725.0 
282.087982 1210259.0 
295.792999 10121.0 
296.103058 4218.0 
297.11142 6960994.0 
298.439789 6110.0 
299.059937 15130.0 
END IONS

BEGIN IONS
NAME="N'-ethyl-N-(2-indol-3-ylethyl)ethane-1,2-diamide CollisionEnergy:205060" M+Na
PRECURSOR_MZ=282.121
INCHI="InChI=1S/C14H17N3O2/c1-2-15-13(18)14(19)16-8-7-10-9-17-12-6-4-3-5-11(10)12/h3-6,9,17H,2,7-8H2,1H3,(H,15,18)(H,16,19)"
SMILES=CCNC(=O)C(=O)NCCc1c[nH]c2ccccc12
SPECTRUMID=CCMSLIB00010120539
51.023399 4143.0 
53.039082 33654.0 
55.018269 2942.0 
60.805691 2526.0 
63.54652 2659.0 
65.039047 26409.0 
66.617973 2617.0 
67.054512 52876.0 
68.049797 6680.0 
68.886017 2686.0 
68.997414 19666.0 
70.065437 2392982.0 
71.073242 426009.0 
72.081123 18645.0 
77.038834 30029.0 
79.054512 16796.0 
81.033882 5227.0 
82.41011 2768.0 
91.054268 709261.0 
95.049187 29486.0 
101.974403 2740.0 
102.046341 12312.0 
103.054039 85917.0 
104.303436 3483.0 
105.033493 57375.0 
105.041962 3406.0 
105.043633 2514.0 
106.040749 20802.0 
107.049072 13837.0 
109.028137 12518.0 
109.064857 16824.0 
113.7463 3351.0 
115.985497 2895.0 
117.069733 6022.0 
119.049026 167692.0 
123.043777 3763.0 
124.051857 7159.0 
129.033295 96962.0 
131.049118 4625.0 
133.02771 6480.0 
134.027725 3776.0 
143.073181 4504.0 
144.080414 104008.0 
144.092148 4436.0 
145.084961 4003.0 
147.043777 517967.0 
149.560287 3353.0 
157.039536 5469.0 
163.039352 5141.0 
165.054199 105865.0 
165.068771 4429.0 
175.049911 391134.0 
179.041962 4077.0 
211.005524 212006.0 
219.79303 2921.0 
229.015717 28781.0 
240.031921 6024.0 
264.06781 3669.0 
282.079437 2209674.0 
282.120972 1554752.0 
304.104431 15980.0 
381.473297 3495.0 
400.154663 5905.0 
420.163391 3892.0 
422.725464 3498.0 
450.00174 3261.0 
END IONS

BEGIN IONS
NAME=1-Naphthaleneacetic acid CollisionEnergy:205060 2M-H
PRECURSOR_MZ=371.129
INCHI="InChI=1S/C12H10O2/c13-12(14)8-10-6-3-5-9-4-1-2-7-11(9)10/h1-7H,8H2,(H,13,14)"
SMILES=C1=CC=C2C(=C1)C=CC=C2CC(=O)O
SPECTRUMID=CCMSLIB00010101995
59.013382 7469.193359 
61.009727 16699.140625 
66.722733 3524.306885 
67.121025 3049.367676 
71.01355 31706.417969 
75.457817 3744.000732 
81.034058 4858.497559 
85.009926 5797.646973 
85.029076 7355.671875 
89.024231 7972.341309 
97.029175 6063.797363 
99.025749 5896.52832 
101.024086 10334.094727 
113.023392 4109.525391 
141.07074 7383.553223 
171.046783 7425.000977 
175.006622 5320.64209 
177.057312 7795.611816 
189.057404 31873.632812 
191.074188 4267.141602 
193.017197 7946.745605 
207.067734 10550.032227 
215.294739 4210.006348 
311.222717 4947.82959 
371.1362 201371.40625 
371.244385 10704.80957 
393.003143 3657.96875 
END IONS

BEGIN IONS
NAME="2-ethoxyethyl 4-(3-chloro-4-hydroxy-5-methoxyphenyl)-2,7,7-trimethyl-5-oxo-1,4 ,6,7,8-pentahydroquinoline-3-carboxylate CollisionEnergy:102040" M+Na
PRECURSOR_MZ=486.165
INCHI="InChI=1S/C24H30ClNO6/c1-6-31-7-8-32-23(29)19-13(2)26-16-11-24(3,4)12-17(27)21(16)20(19)14-9-15(25)22(28)18(10-14)30-5/h9-10,20,26,28H,6-8,11-12H2,1-5H3"
SMILES=CCOCCOC(=O)C1=C(C)NC2=C(C(=O)CC(C)(C)C2)C1c1cc(Cl)c(O)c(OC)c1
SPECTRUMID=CCMSLIB00010106642
56.131481 2872.0 
57.299629 2928.0 
63.347061 2750.0 
64.391228 3274.0 
70.353752 2776.0 
73.943962 3197.0 
74.387016 2744.0 
92.3675 4277.0 
94.0467 2858.0 
104.275009 3604.0 
124.936363 3216.0 
125.206207 3084.0 
130.982819 3226.0 
156.314255 3277.0 
213.453995 3169.0 
471.142242 3742.0 
486.16507 6260404.0 
488.950897 5397.0 
END IONS

BEGIN IONS
NAME=2'-Hydroxyflavone CollisionEnergy:205060 M+H
PRECURSOR_MZ=239.07
INCHI="InChI=1S/C15H10O3/c16-12-7-3-1-5-10(12)15-9-13(17)11-6-2-4-8-14(11)18-15/h1-9,16H"
SMILES=O=c1cc(-c2ccccc2O)oc2ccccc12
SPECTRUMID=CCMSLIB00010114865
50.01553 7822.0 
55.018211 6978.0 
57.390148 4026.0 
59.01395 3481.0 
65.038933 229392.0 
68.997421 9515.0 
77.038391 28465.0 
79.021553 4494.0 
81.033722 19822.0 
89.038712 23685.0 
91.054291 2078523.0 
93.033524 163329.0 
93.03968 7879.0 
95.049133 316733.0 
98.03595 16818.0 
105.033211 16240.0 
105.044479 22125.0 
111.044006 93691.0 
117.033203 18505.0 
118.041092 20505.0 
119.049103 990921.0 
121.02829 9614617.0 
129.044281 8761.0 
133.028229 25283.0 
139.03891 65262.0 
141.069534 27610.0 
145.028336 165666.0 
152.061798 263327.0 
153.069733 61831.0 
154.07692 5896.0 
155.084976 53194.0 
163.038635 59912.0 
165.069626 332063.0 
166.077316 78106.0 
167.085648 67832.0 
168.057053 6858.0 
169.064713 27008.0 
176.062012 113545.0 
177.069717 122869.0 
178.078323 5445.0 
181.065353 20163.0 
183.080734 60210.0 
185.490372 5048.0 
193.062271 7079.0 
194.071976 37913.0 
195.080414 74974.0 
197.059525 75334.0 
211.075089 309674.0 
221.059219 15970.0 
238.062317 19819.0 
238.117813 7345.0 
239.069809 17773294.0 
240.028046 6497.0 
END IONS

BEGIN IONS
NAME=16-Hydroxyhexadecanoic acid CollisionEnergy:102040 M+H
PRECURSOR_MZ=273.242
INCHI="InChI=1S/C16H32O3/c17-15-13-11-9-7-5-3-1-2-4-6-8-10-12-14-16(18)19/h17H,1-15H2,(H,18,19)"
SMILES=O=C(O)CCCCCCCCCCCCCCCO
SPECTRUMID=CCMSLIB00010111415
52.236061 2059.0 
55.054779 26066.0 
57.034061 3919.0 
57.070389 68197.0 
67.05468 21091.0 
67.625572 2164.0 
69.070282 70246.0 
70.150261 2474.0 
71.081841 3363.0 
71.085953 74308.0 
72.456749 2503.0 
73.06517 4047.0 
74.079369 2100.0 
79.054367 4800.0 
81.070183 55458.0 
83.0494 2730.0 
83.080727 3510.0 
83.085854 85246.0 
85.06501 4568.0 
85.101433 41940.0 
93.070152 24864.0 
95.085617 53516.0 
97.065002 27214.0 
97.101303 74439.0 
99.080292 4238.0 
101.059311 5887.0 
107.085487 25450.0 
107.606651 2403.0 
109.101357 40102.0 
111.080551 31531.0 
111.116432 16761.0 
113.096321 3269.0 
115.075417 21615.0 
121.101303 45518.0 
123.116951 33675.0 
125.096222 34733.0 
125.131889 9714.0 
129.090607 16914.0 
135.080734 3230.0 
135.116852 70633.0 
137.132996 20652.0 
139.018494 2409.0 
139.111755 48855.0 
143.106461 16024.0 
149.13269 66564.0 
151.148315 3321.0 
153.127441 39722.0 
157.121933 16169.0 
157.985306 2575.0 
163.148102 42594.0 
167.142853 35295.0 
171.137726 15579.0 
171.173935 4874.0 
177.162842 15476.0 
181.159149 24888.0 
185.153412 12036.0 
189.611877 2271.0 
195.173996 4439.0 
195.211105 3967.0 
199.168594 4942.0 
219.210632 165991.0 
237.221054 151663.0 
238.448853 3689.0 
255.231628 25018.0 
270.285187 2286.0 
273.166718 32367.0 
END IONS

BEGIN IONS
NAME=N-(6-ethyl-2-methylphenyl)-2-(9-methyl-6-oxohydropurin-8-ylthio)acetamide CollisionEnergy:205060 M+Na
PRECURSOR_MZ=380.115
INCHI="InChI=1S/C17H19N5O2S/c1-4-11-7-5-6-10(2)13(11)20-12(23)8-25-17-21-14-15(22(17)3)18-9-19-16(14)24/h5-7,9H,4,8H2,1-3H3,(H,20,23)(H,18,19,24)"
SMILES=CCc1cccc(C)c1N=C(O)CSc1nc2c(O)ncnc2n1C
SPECTRUMID=CCMSLIB00010122329
73.120583 2505.0 
92.387222 3251.0 
104.29422 3101.0 
136.225174 2594.0 
140.042419 2666.0 
166.733749 3098.0 
173.042847 6328.0 
204.007339 57963.0 
205.015717 2925.0 
211.33696 3444.0 
212.197861 3012.0 
230.060959 6525.0 
245.009583 14739.0 
315.198242 2612.0 
328.035797 2659.0 
380.114594 2679995.0 
END IONS

BEGIN IONS
NAME="(2S,1R,5R)-5-methyl-2-(methylethyl)cyclohexyl 1-((1R)-1-phenylethyl)(2S)azirid ine-2-carboxylate CollisionEnergy:205060" M+Na
PRECURSOR_MZ=352.225
INCHI="InChI=1S/C21H31NO2/c1-14(2)18-11-10-15(3)12-20(18)24-21(23)19-13-22(19)16(4)17-8-6-5-7-9-17/h5-9,14-16,18-20H,10-13H2,1-4H3/t15-,16-,18+,19+,20-,22?/m1/s1"
SMILES=CC1CCC(C(C)C)C(OC(=O)C2CN2C(C)c2ccccc2)C1
SPECTRUMID=CCMSLIB00010114722
55.054649 3950.0 
57.070469 2985.0 
59.031761 4939.0 
61.01091 4525.0 
69.07045 5025.0 
73.04705 3495.0 
75.026283 3136.0 
77.042236 9999.0 
79.02121 3392.0 
83.085739 15491.0 
91.057281 5769.0 
93.036659 17238.0 
97.101288 4444.0 
98.554733 2603.0 
100.057327 3208.0 
103.054367 3257.0 
105.069946 59232.0 
110.021301 153517.0 
158.093826 16779.0 
160.047302 2757.0 
170.094269 5596.0 
186.088669 22007.0 
188.104553 78160.0 
214.083847 1539452.0 
255.110001 14121.0 
329.323914 6588.0 
338.811554 3059.0 
352.224518 1071823.0 
END IONS

BEGIN IONS
NAME=(S)-(-)-Perillic acid CollisionEnergy:102040 M+H
PRECURSOR_MZ=167.107
INCHI="InChI=1S/C10H14O2/c1-7(2)8-3-5-9(6-4-8)10(11)12/h5,8H,1,3-4,6H2,2H3,(H,11,12)/t8-/m1/s1"
SMILES=C=C(C)C1CC=C(C(=O)O)CC1
SPECTRUMID=CCMSLIB00010114693
56.965149 20852.0 
57.033791 3191.0 
61.011021 4029.0 
67.054688 31995.0 
71.951988 26312.0 
73.028679 17155.0 
78.469978 3446.0 
79.05439 34190.0 
81.070122 69316.0 
83.049187 11159.0 
83.930069 5878.0 
84.757317 4648.0 
84.959877 5437154.0 
85.163132 3715.0 
87.044022 11453.0 
88.95269 23245.0 
93.033577 4242.0 
93.069977 63777.0 
95.049347 3920.0 
95.085663 53598.0 
97.064407 14410.0 
102.357674 3176.0 
102.635063 3210.0 
102.948143 18578.0 
102.970169 785515.0 
105.069893 4325.0 
107.04911 5110.0 
107.085289 25135.0 
111.043953 90430.0 
118.942863 6809.0 
119.950562 4586.0 
120.980721 172753.0 
121.10112 206836.0 
123.116577 17620.0 
125.059731 60230.0 
125.964256 47527.0 
125.986137 382909.0 
131.283371 3002.0 
138.991013 10856.0 
139.111954 21992.0 
140.974854 25666.0 
141.015411 4509.0 
142.967056 16756.0 
143.966629 41386.0 
143.996719 356651.0 
145.016922 3990.0 
149.0961 58553.0 
149.132019 4127.0 
157.010803 38036.0 
162.007202 35138.0 
166.954193 10300.0 
166.995636 11415.0 
167.012665 33696.0 
167.027817 5214.0 
167.106522 263969.0 
182.334198 3202.0 
185.00499 11634.0 
185.022354 3263.0 
192.056808 3066.0 
295.311768 2912.0 
END IONS

BEGIN IONS
NAME=4-methylumbelliferone CollisionEnergy:102040 M+H
PRECURSOR_MZ=177.055
INCHI="InChI=1S/C10H8O3/c1-6-4-10(12)13-9-5-7(11)2-3-8(6)9/h2-5,11H,1H3"
SMILES=Cc1cc(=O)oc2cc(O)ccc12
SPECTRUMID=CCMSLIB00010107565
52.767632 3208.0 
55.01825 11484.0 
55.93486 11236.0 
68.997513 20606.0 
79.054443 40577.0 
81.069893 14865.0 
82.39682 3929.0 
88.968117 4752.0 
91.054291 16024.0 
93.069733 13802.0 
103.053963 38954.0 
104.282539 4366.0 
105.069801 416252.0 
107.048851 5883.0 
115.053719 21548.0 
121.064568 160379.0 
128.950958 45049.0 
131.001999 3902.0 
131.048645 11076.0 
133.064407 102780.0 
135.94516 14897.0 
145.508865 37297.0 
146.961533 28292.0 
148.051575 15880.0 
149.012131 19084.0 
149.059586 47868.0 
153.515656 6258.0 
153.937515 6344.0 
153.955353 6653.0 
154.016113 16871.0 
154.514328 185619.0 
158.960876 3975.0 
162.030609 3884.0 
166.021332 12532.0 
176.047394 22776.0 
176.447571 14897.0 
177.054443 12355098.0 
177.664627 15647.0 
177.681732 3731.0 
225.112091 3175.0 
280.439148 3800.0 
END IONS

BEGIN IONS
NAME=64-86-8 CollisionEnergy:205060 M+formate
PRECURSOR_MZ=444.166
INCHI="InChI=1S/C22H25NO6/c1-12(24)23-16-8-6-13-10-19(27-3)21(28-4)22(29-5)20(13)14-7-9-18(26-2)17(25)11-15(14)16/h7,9-11,16H,6,8H2,1-5H3,(H,23,24)"
SMILES=COc1cc2c(c(OC)c1OC)-c1ccc(OC)c(=O)cc1C(N=C(C)O)CC2
SPECTRUMID=CCMSLIB00010116334
51.91037 2289.0 
57.792671 2396.0 
66.752457 3190.0 
72.536591 2016.0 
73.090828 2332.0 
73.965897 2056.0 
75.481796 2417.0 
173.010437 2464.0 
214.195297 2678.0 
244.872345 2569.0 
330.674133 2489.0 
332.957825 2488.0 
END IONS

BEGIN IONS
NAME="7-methoxy-4-[(4-phenyl(1,2,5,6-tetrahydropyridyl))methyl]chromen-2-one CollisionEnergy:205060" M+Na
PRECURSOR_MZ=370.141
INCHI="InChI=1S/C22H21NO3/c1-25-19-7-8-20-18(13-22(24)26-21(20)14-19)15-23-11-9-17(10-12-23)16-5-3-2-4-6-16/h2-9,13-14H,10-12,15H2,1H3"
SMILES=COc1ccc2c(CN3CC=C(c4ccccc4)CC3)cc(=O)oc2c1
SPECTRUMID=CCMSLIB00010118108
56.995152 2394.0 
75.189812 2284.0 
104.301208 2108.0 
370.140717 254766.0 
END IONS

BEGIN IONS
NAME=(2E)-1-(5-bromo-3-chloro-2-hydroxyphenyl)-3-phenylprop-2-en-1-one CollisionEnergy:205060 M-H
PRECURSOR_MZ=334.948
INCHI="InChI=1S/C15H10BrClO2/c16-11-8-12(15(19)13(17)9-11)14(18)7-6-10-4-2-1-3-5-10/h1-9,19H/b7-6+"
SMILES=O=C(C=Cc1ccccc1)c1cc(Br)cc(Cl)c1O
SPECTRUMID=CCMSLIB00010124913
66.74781 4932.0 
78.869598 18592.0 
78.918633 7636286.0 
78.965279 7043.0 
89.002869 4544.0 
98.964493 7745.0 
101.039742 39310.0 
117.034523 191476.0 
119.049919 6376.0 
132.72348 3600.0 
145.029282 7523.0 
147.045303 95632.0 
150.919037 3858.0 
163.05574 7539.0 
165.070358 4592.0 
168.929504 241998.0 
171.045578 22809.0 
175.055099 9168.0 
178.988342 4050.0 
191.050461 141738.0 
204.906174 1152930.0 
209.424179 6528.0 
219.045624 83623.0 
227.027039 254309.0 
228.906754 15464.0 
232.901123 94856.0 
252.940689 3774.0 
255.021973 79635.0 
256.902222 5643.0 
270.975922 18260.0 
298.973755 34810.0 
306.953186 1405209.0 
332.93222 5427.0 
334.519989 6924.0 
334.948273 9279877.0 
335.396851 6070.0 
336.559845 5537.0 
550.734802 4419.0 
END IONS

BEGIN IONS
NAME=L-valine CollisionEnergy:102040 M+H
PRECURSOR_MZ=118.086
INCHI="InChI=1S/C5H11NO2/c1-3(2)4(6)5(7)8/h3-4H,6H2,1-2H3,(H,7,8)/t4-/m0/s1"
SMILES=CC(C)[C@H](N)C(=O)O
SPECTRUMID=CCMSLIB00010126528
53.039398 6193.97998 
55.055 164682.0 
56.050201 3015.580078 
56.938599 2386.379883 
57.058102 16362.799805 
58.065899 288313.0 
59.049999 2963.580078 
59.0737 282296.0 
60.5438 2759.310059 
66.751198 2905.5 
70.065903 32848.199219 
71.069298 2452.919922 
72.081497 3009250.0 
75.3489 2717.189941 
100.112 6070.830078 
104.299004 4190.060059 
118.086998 1718910.0 
118.123001 18971.199219 
118.831001 2323.179932 
END IONS

BEGIN IONS
NAME=inosine CollisionEnergy:102040 M+Cl
PRECURSOR_MZ=303.05
INCHI="InChI=1S/C10H12N4O5/c15-1-4-6(16)7(17)10(19-4)14-3-13-5-8(14)11-2-12-9(5)18/h2-4,6-7,10,15-17H,1H2,(H,11,12,18)/t4-,6-,7-,10-/m1/s1"
SMILES=OC[C@H]1O[C@@H](n2cnc3c(O)ncnc32)[C@H](O)[C@@H]1O
SPECTRUMID=CCMSLIB00010126181
66.758698 2773.379883 
69.682899 2150.300049 
82.419502 2881.080078 
118.68 2335.530029 
135.031006 15931.0 
158.009003 2646.570068 
185.442993 2559.840088 
209.753998 4813.419922 
267.074005 44186.699219 
END IONS

BEGIN IONS
NAME="N-benzothiazol-2-yl-2-(1,3-dimethyl-2,6-dioxo(1,3,7-trihydropurin-7-yl))acetam ide CollisionEnergy:102040" M+H
PRECURSOR_MZ=371.092
INCHI="InChI=1S/C16H14N6O3S/c1-20-13-12(14(24)21(2)16(20)25)22(8-17-13)7-11(23)19-15-18-9-5-3-4-6-10(9)26-15/h3-6,8H,7H2,1-2H3,(H,18,19,23)"
SMILES=Cn1c(=O)c2c(ncn2CC(O)=Nc2nc3ccccc3s2)n(C)c1=O
SPECTRUMID=CCMSLIB00010106729
81.045326 6098.0 
81.051643 2689.0 
82.393463 3164.0 
84.519722 2918.0 
89.066078 2915.0 
91.054443 5079.0 
91.70015 2839.0 
108.055473 6932.0 
109.039673 4409.0 
109.612923 3510.0 
125.078651 3225.0 
136.05069 19678.0 
149.082367 7113.0 
151.032516 571496.0 
163.032303 45520.0 
191.027252 151221.0 
193.072021 935212.0 
211.082565 1524237.0 
221.066925 914775.0 
234.099228 3567.0 
253.128677 5816.0 
258.46402 2813.0 
286.076691 3691.0 
291.6026 3235.0 
371.091858 3373605.0 
END IONS

BEGIN IONS
NAME=HYDRASTINE CollisionEnergy:205060 M+H
PRECURSOR_MZ=384.144
INCHI="InChI=1S/C21H21NO6/c1-22-7-6-11-8-15-16(27-10-26-15)9-13(11)18(22)19-12-4-5-14(24-2)20(25-3)17(12)21(23)28-19/h4-5,8-9,18-19H,6-7,10H2,1-3H3/t18-,19+/m1/s1"
SMILES=COc1ccc2c(c1OC)C(=O)OC2C1c2cc3c(cc2CCN1C)OCO3
SPECTRUMID=CCMSLIB00010115175
51.40694 3906.0 
58.065571 6846.0 
70.167877 4179.0 
79.054359 7923.0 
91.054291 107641.0 
91.060463 6944.0 
102.046669 4696.0 
103.054138 24169.0 
105.033546 4472.0 
107.048882 5212.0 
115.054314 10671.0 
115.919151 3658.0 
119.049049 106185.0 
121.064247 7723.0 
129.49028 3926.0 
130.041351 9664.0 
131.049286 61050.0 
131.073074 10707.0 
132.080536 8548.0 
135.044052 107211.0 
137.059799 30014.0 
138.0681 6063.0 
143.049271 6968.0 
145.064178 5016.0 
147.043976 27637.0 
147.066971 4831.0 
148.051239 10222.0 
149.023239 16027.0 
149.059586 319426.0 
151.07486 18609.0 
157.982758 4802.0 
159.044159 103563.0 
159.067291 45436.0 
160.051437 28251.0 
160.075073 45151.0 
161.059952 42955.0 
162.05365 7182.0 
162.067734 5521.0 
163.039291 47017.0 
165.054153 35022.0 
165.069839 34640.0 
166.077377 31870.0 
167.087112 5625.0 
173.059174 5884.0 
174.030746 7929.0 
174.054825 23346.0 
175.038879 34588.0 
175.06131 46882.0 
175.076172 17010.0 
176.070694 530828.0 
177.053986 8476.0 
177.068741 44592.0 
178.077316 70054.0 
179.085312 60483.0 
180.041473 9303.0 
181.064209 23139.0 
181.101669 7314.0 
187.038544 28156.0 
187.057205 5153.0 
188.07045 175234.0 
189.079285 233998.0 
190.086136 4594247.0 
191.089066 33879.0 
192.056427 8140.0 
193.048904 187032.0 
194.072571 215624.0 
195.080704 31962.0 
203.085373 10025.0 
204.057083 85443.0 
205.064697 98665.0 
206.071854 88527.0 
207.044678 14536.0 
207.080795 93559.0 
208.050934 8446.0 
208.087448 38152.0 
209.06105 42159.0 
209.095825 129892.0 
210.066849 5136.0 
211.07428 9867.0 
217.064667 41062.0 
218.072754 47118.0 
219.0802 81034.0 
220.051941 60285.0 
220.087402 8046.0 
221.05954 215345.0 
221.09613 24393.0 
222.067261 384067.0 
223.074982 61956.0 
224.082748 51579.0 
225.05394 7007.0 
225.090866 7638.0 
226.063034 9314.0 
229.063904 7474.0 
232.051437 251080.0 
233.059479 114354.0 
234.040543 6588.0 
234.067215 222744.0 
235.039688 26869.0 
235.074966 265285.0 
236.083069 77401.0 
237.054169 106575.0 
237.090576 213764.0 
238.061859 20123.0 
239.071335 61221.0 
239.105667 95450.0 
240.078018 5370.0 
244.05127 18846.0 
245.059143 75401.0 
246.067261 60525.0 
247.043716 9599.0 
247.074921 149666.0 
248.047867 48075.0 
248.082657 41178.0 
249.054108 457495.0 
249.089523 80854.0 
250.062088 933238.0 
251.06987 478898.0 
251.099091 13226.0 
252.077988 119880.0 
253.04834 8576.0 
253.084351 9565.0 
254.056442 17591.0 
259.074371 6735.0 
260.046509 198013.0 
261.054443 74850.0 
261.085724 7516.0 
262.061951 219230.0 
263.038147 8538.0 
263.069946 212329.0 
264.044159 9561.0 
264.077484 117287.0 
265.049835 272660.0 
265.08493 1531250.0 
266.056793 68717.0 
266.092834 94648.0 
267.064819 102207.0 
267.100677 64175.0 
268.071228 21062.0 
272.047516 15973.0 
273.054504 9374.0 
274.061768 211604.0 
275.036255 9196.0 
275.069489 153232.0 
276.041138 27166.0 
276.077301 54442.0 
277.048828 514186.0 
277.085052 149500.0 
278.057037 592484.0 
278.091125 48178.0 
279.064758 482937.0 
279.096436 18018.0 
280.072418 510085.0 
281.080322 83451.0 
282.05542 7838.0 
282.08783 157817.0 
283.059143 14991.0 
283.09552 42281.0 
289.048828 109215.0 
290.054596 87602.0 
290.088074 5566.0 
291.0271 7490.0 
291.064423 350895.0 
292.072266 682328.0 
293.044891 178574.0 
293.079956 2245252.0 
294.052521 16253.0 
294.087769 153963.0 
295.059418 88545.0 
295.095428 759940.0 
296.068573 8881.0 
297.075073 7129.0 
297.111053 81903.0 
302.056427 221110.0 
303.064728 23862.0 
304.070587 201580.0 
305.042938 65183.0 
305.080292 101118.0 
306.049194 6960.0 
307.059296 227440.0 
307.094147 16953.0 
308.06601 346520.0 
309.075409 5787.0 
309.11145 22695.0 
310.082764 26704.0 
311.090576 23646.0 
318.078461 8618.0 
318.260742 5560.0 
319.059418 50286.0 
319.095123 21872.0 
320.066223 198857.0 
321.074066 25536.0 
322.079254 134053.0 
323.090729 2270664.0 
325.10614 30545.0 
332.091187 30746.0 
334.107025 7555.0 
335.090363 316953.0 
336.085815 50781.0 
337.107666 8972.0 
338.075439 7898.0 
338.142609 6098.0 
341.101196 79253.0 
348.121155 28990.0 
350.102112 8231.0 
351.110352 10421.0 
353.100861 58842.0 
366.133484 94662.0 
384.143524 7037440.0 
END IONS

BEGIN IONS
NAME=N-(4-{N-[2-(5-methylindol-3-yl)ethyl]carbamoyl}phenyl)acetamide CollisionEnergy:102040 M+formate
PRECURSOR_MZ=380.162
INCHI="InChI=1S/C20H21N3O2/c1-13-3-8-19-18(11-13)16(12-22-19)9-10-21-20(25)15-4-6-17(7-5-15)23-14(2)24/h3-8,11-12,22H,9-10H2,1-2H3,(H,21,25)(H,23,24)"
SMILES=CC(O)=Nc1ccc(C(=O)NCCc2c[nH]c3ccc(C)cc23)cc1
SPECTRUMID=CCMSLIB00010107510
67.110413 2963.0 
82.416039 3296.0 
84.700928 2540.0 
92.401962 2931.0 
117.405167 2487.0 
134.060532 10514.0 
135.056396 213656.0 
173.107483 3926.0 
175.960403 3737.0 
177.066956 121235.0 
206.147842 2782.0 
209.739075 5552.0 
243.946671 3926.0 
292.145569 877218.0 
334.156158 2404787.0 
380.110809 3213.0 
END IONS

BEGIN IONS
NAME="7-acetyloxy-2-(3,4-diacetyloxyphenyl)-4-oxochromen-5-yl acetate CollisionEnergy:205060" M+H
PRECURSOR_MZ=455.097
INCHI="InChI=1S/C23H18O10/c1-11(24)29-16-8-21(32-14(4)27)23-17(28)10-19(33-22(23)9-16)15-5-6-18(30-12(2)25)20(7-15)31-13(3)26/h5-10H,1-4H3"
SMILES=CC(=O)Oc1cc(OC(C)=O)c2c(=O)cc(-c3ccc(OC(C)=O)c(OC(C)=O)c3)oc2c1
SPECTRUMID=CCMSLIB00010121258
73.957336 3799.0 
75.624031 4041.0 
82.402122 4257.0 
96.685211 3473.0 
135.043961 16887.0 
137.023743 3939.0 
153.018127 64368.0 
171.030014 7087.0 
196.784286 4259.0 
221.525223 4536.0 
223.937119 5190.0 
259.059753 27094.0 
269.042084 5612.0 
270.049683 7746.0 
286.047882 29354.0 
287.054688 12465760.0 
288.321808 4451.0 
328.058228 7810.0 
329.065094 2307530.0 
371.0755 2341620.0 
413.086029 4130525.0 
END IONS

BEGIN IONS
NAME=N-(3-methoxyphenyl)-2-(9-methyl-6-oxohydropurin-8-ylthio)acetamide CollisionEnergy:102040 2M-H
PRECURSOR_MZ=689.172
INCHI="InChI=1S/C15H15N5O3S/c1-20-13-12(14(22)17-8-16-13)19-15(20)24-7-11(21)18-9-4-3-5-10(6-9)23-2/h3-6,8H,7H2,1-2H3,(H,18,21)(H,16,17,22)"
SMILES=COc1cccc(N=C(O)CSc2nc3c(O)ncnc3n2C)c1
SPECTRUMID=CCMSLIB00010111031
50.938568 3273.0 
54.583649 3207.0 
77.762222 2754.0 
82.403053 3754.0 
101.482147 3076.0 
104.290756 3548.0 
118.659286 3465.0 
118.667992 2828.0 
132.596268 2863.0 
149.046997 29399.0 
180.010864 32964.0 
181.019577 13672.0 
195.035477 3984.0 
208.566895 12686.0 
264.374451 3260.0 
270.099091 3942.0 
296.393036 2892.0 
302.726257 3252.0 
344.082214 184676.0 
END IONS

BEGIN IONS
NAME=Capsaicin CollisionEnergy:205060 M+H
PRECURSOR_MZ=306.206
INCHI="InChI=1S/C18H27NO3/c1-14(2)8-6-4-5-7-9-18(21)19-13-15-10-11-16(20)17(12-15)22-3/h6,8,10-12,14,20H,4-5,7,9,13H2,1-3H3,(H,19,21)/b8-6+"
SMILES=COc1cc(CN=C(O)CCCCC=CC(C)C)ccc1O
SPECTRUMID=CCMSLIB00010116047
51.023659 2813.0 
53.038792 2953.0 
54.007511 3619.0 
55.054562 5092.0 
57.07021 4775.0 
58.029282 23629.0 
62.925171 3166.0 
65.03907 6558.0 
66.046753 7272.0 
67.054482 29799.0 
69.070183 105907.0 
79.054337 53528.0 
81.070038 63474.0 
83.085579 17549.0 
84.080788 7356.0 
86.059891 5636.0 
91.054199 47216.0 
93.069847 37881.0 
94.041351 115153.0 
95.0494 4313.0 
95.085327 20051.0 
97.065033 23322.0 
98.096931 3547.0 
100.075546 13878.0 
103.780258 2829.0 
105.033653 2960.0 
105.069603 18425.0 
107.048866 17818.0 
107.08567 43398.0 
109.064941 23043.0 
109.101112 42761.0 
111.080254 4333.0 
111.116859 4692.0 
114.091148 26866.0 
122.036087 426863.0 
126.090874 17064.0 
133.101028 45757.0 
135.044296 3251.0 
135.116608 64885.0 
136.646164 5399.0 
137.059616 6537014.0 
137.475616 4900.0 
138.127899 4340.0 
147.116013 4622.0 
151.111511 20836.0 
153.12735 54917.0 
170.153763 138559.0 
178.394089 4486.0 
182.153671 200993.0 
306.205688 148349.0 
325.931915 3402.0 
END IONS

BEGIN IONS
NAME=N-indole-3-yl-acetyl-alanine CollisionEnergy:102040 M-H
PRECURSOR_MZ=245.093
INCHI="InChI=1S/C13H14N2O3/c1-8(13(17)18)15-12(16)6-9-7-14-11-5-3-2-4-10(9)11/h2-5,7-8,14H,6H2,1H3,(H,15,16)(H,17,18)/t8-/m0/s1"
SMILES=C[C@@H](C(=O)O)NC(=O)CC1=CNC2=CC=CC=C21
SPECTRUMID=CCMSLIB00010102204
66.788712 5116.402832 
74.678131 3921.074707 
88.040222 3229245.25 
92.438866 4557.899902 
97.871658 3633.1521 
102.078552 4015.304688 
107.17511 3682.792725 
130.065811 5381.693848 
143.592041 3632.792969 
146.049194 5672.723633 
146.061264 62396.085938 
156.045486 277263.8125 
158.07489 4545.15918 
174.550751 3869.035889 
211.50441 4259.353516 
216.924194 4683.54248 
243.542831 4045.671631 
244.93219 4387.506836 
245.093048 492436.21875 
END IONS

BEGIN IONS
NAME=N-(3-bromophenyl)-2-{2-oxo-4-[N-benzylcarbamoyl]hydroquinolyl}acetamide CollisionEnergy:205060 M+H
PRECURSOR_MZ=490.076
INCHI="InChI=1S/C25H20BrN3O3/c26-18-9-6-10-19(13-18)28-23(30)16-29-22-12-5-4-11-20(22)21(14-24(29)31)25(32)27-15-17-7-2-1-3-8-17/h1-14H,15-16H2,(H,27,32)(H,28,30)"
SMILES=O=c1cc(C(O)=NCc2ccccc2)c2ccccc2n1CC(O)=Nc1cccc(Br)c1
SPECTRUMID=CCMSLIB00010124495
82.028938 16773.0 
91.054337 1404351.0 
94.224022 2903.0 
128.049194 5705.0 
130.06575 4392.0 
156.044495 5069.0 
158.059509 6871.0 
180.080566 70831.0 
199.050323 5886.0 
204.080963 15877.0 
206.059845 14405.0 
216.078918 3674.0 
217.088181 31449.0 
218.096237 233714.0 
220.110077 4089.0 
232.076065 21751.0 
233.107254 49518.0 
235.085831 10126.0 
261.102692 36244.0 
279.111511 22626.0 
291.112183 173559.0 
319.107086 986248.0 
332.140961 20651.0 
348.80484 3002.0 
END IONS

BEGIN IONS
NAME=Glycyl-L-leucine CollisionEnergy:102040 M+H
PRECURSOR_MZ=189.123
INCHI="InChI=1S/C8H16N2O3/c1-5(2)3-6(8(12)13)10-7(11)4-9/h5-6H,3-4,9H2,1-2H3,(H,10,11)(H,12,13)/t6-/m0/s1"
SMILES=CC(C)CC(N=C(O)CN)C(=O)O
SPECTRUMID=CCMSLIB00010114554
52.001789 2537.0 
68.825371 2348.0 
75.248001 2269.0 
84.959549 2896.0 
86.096687 1084177.0 
92.949532 3301.0 
132.101974 975542.0 
136.185638 4032.0 
143.117996 663106.0 
144.947067 3177.0 
157.946533 2448.0 
166.007538 5023.0 
171.112778 23252.0 
175.480621 2213.0 
178.802185 2530.0 
189.123398 80134.0 
195.149704 3023.0 
201.474747 2948.0 
END IONS

BEGIN IONS
NAME=3-indol-3-yl-N-(4-methylphenyl)-2-(phenoxycarbonylamino)propanamide CollisionEnergy:102040 M+Na
PRECURSOR_MZ=436.163
INCHI="InChI=1S/C25H23N3O3/c1-17-11-13-19(14-12-17)27-24(29)23(28-25(30)31-20-7-3-2-4-8-20)15-18-16-26-22-10-6-5-9-21(18)22/h2-14,16,23,26H,15H2,1H3,(H,27,29)(H,28,30)"
SMILES=Cc1ccc(NC(=O)C(Cc2c[nH]c3ccccc23)N=C(O)Oc2ccccc2)cc1
SPECTRUMID=CCMSLIB00010112432
69.539658 3239.0 
74.261436 3460.0 
102.720207 3284.0 
130.065125 7688.0 
157.984818 3240.0 
181.073364 4172.0 
185.071579 12162.0 
301.093475 6237.0 
342.120544 218687.0 
416.13858 53396.0 
435.153351 4874.0 
436.162506 7489467.0 
477.189667 7726.0 
748.702026 3608.0 
751.884155 3515.0 
END IONS

BEGIN IONS
NAME=2-amino-3-hydroxy-N-(2-naphthyl)propanamide CollisionEnergy:102040 M+Cl
PRECURSOR_MZ=265.075
INCHI="InChI=1S/C13H14N2O2/c14-12(8-16)13(17)15-11-6-5-9-3-1-2-4-10(9)7-11/h1-7,12,16H,8,14H2,(H,15,17)"
SMILES=NC(CO)C(O)=Nc1ccc2ccccc2c1
SPECTRUMID=CCMSLIB00010109303
63.454491 1892.0 
73.974892 2378.0 
75.594398 2409.0 
81.838997 2035.0 
92.410431 2242.0 
130.040665 2189.0 
136.346298 2531.0 
142.066559 14844.0 
193.892212 2431.0 
205.991699 2093.0 
208.771255 2775.0 
229.098038 24534.0 
END IONS

BEGIN IONS
NAME="1-({[2-(2-furylmethyl)-5-methylpyrrolidinyl]amino}methylene)-7-[8-({[2-(2-fury lmethyl)pyrrolidinyl]amino}methylene)-1,6-dihydroxy-3-methyl-5-(methylethyl)-7 -oxo(2-naphthyl)]-3,8-dihydroxy-6-methyl-4-(methylethyl)naphthalen-2-one CollisionEnergy:102040" M+2H]
PRECURSOR_MZ=415.212
INCHI="InChI=1S/C49H56N4O8/c1-25(2)38-34-19-27(5)40(46(56)42(34)36(44(54)48(38)58)23-50-52-16-8-11-30(52)21-32-12-9-17-60-32)41-28(6)20-35-39(26(3)4)49(59)45(55)37(43(35)47(41)57)24-51-53-29(7)14-15-31(53)22-33-13-10-18-61-33/h9-10,12-13,17-20,23-26,29-31,50-51,56-59H,8,11,14-16,21-22H2,1-7H3/b36-23-,37-24-"
SMILES=Cc1cc2c(c(O)c1-c1c(C)cc3c(c1O)C(=CNN1C(C)CCC1Cc1ccco1)C(=O)C(O)=C3C(C)C)C(=CNN1CCCC1Cc1ccco1)C(=O)C(O)=C2C(C)C
SPECTRUMID=CCMSLIB00010113136
64.977676 2852.0 
66.73764 3987.0 
67.33654 3252.0 
67.462982 2836.0 
69.03363 16426.0 
73.945236 2709.0 
79.054176 3272.0 
80.947937 14614.0 
81.033531 6765.0 
82.392799 2722.0 
85.028313 5463.0 
91.054337 53034.0 
97.028397 5163.0 
103.054047 3548.0 
104.062134 4191.0 
104.27919 3860.0 
105.564278 2820.0 
107.085403 21121.0 
116.672783 2923.0 
117.069557 23415.0 
118.750679 4423.0 
119.085472 4595558.0 
119.422287 4442.0 
127.038849 16718.0 
128.004013 2838.0 
129.054703 6696.0 
133.064545 57460.0 
135.080307 75891.0 
151.075333 4178.0 
277.106506 4988.0 
278.893219 12180.0 
281.138733 6903.0 
288.923798 5162.0 
294.041016 3065.0 
295.117645 17133.0 
397.201416 4250.0 
415.210693 494397.0 
END IONS

BEGIN IONS
NAME=2'-deoxycytidine CollisionEnergy:102040 M+H
PRECURSOR_MZ=228.098
INCHI="InChI=1S/C9H13N3O4/c10-7-1-2-12(9(15)11-7)8-3-5(14)6(4-13)16-8/h1-2,5-6,8,13-14H,3-4H2,(H2,10,11,15)/t5-,6+,8+/m0/s1"
SMILES=N=c1ccn([C@H]2C[C@H](O)[C@@H](CO)O2)c(O)n1
SPECTRUMID=CCMSLIB00010126944
76.382301 35580.5 
82.411797 53788.199219 
92.395103 47529.398438 
95.024399 52423.0 
99.044098 73080.601562 
100.588997 31184.900391 
103.384003 41766.699219 
112.051003 16210300.0 
117.055 365372.0 
118.675003 49871.398438 
150.699997 37817.5 
211.604004 39896.699219 
225.740005 35488.601562 
228.231995 85489.601562 
END IONS

BEGIN IONS
NAME="ethyl 2-[(3-chlorophenyl)carbonylamino]acetate, chloride CollisionEnergy:205060" M+Na
PRECURSOR_MZ=264.04
INCHI="InChI=1S/C11H12ClNO3/c1-2-16-10(14)7-13-11(15)8-4-3-5-9(12)6-8/h3-6H,2,7H2,1H3,(H,13,15)"
SMILES=CCOC(=O)CN=C(O)c1cccc(Cl)c1
SPECTRUMID=CCMSLIB00010118984
59.049599 3957.0 
64.621803 2253.0 
66.745712 2045.0 
83.066742 2278.0 
92.385361 2415.0 
118.662788 3541.0 
129.033859 5043.0 
136.21875 2805.0 
138.994736 14482.0 
157.980606 2403.0 
160.075287 37795.0 
162.091705 4204.0 
178.050964 2455.0 
179.956528 2795.0 
188.070435 71369.0 
206.081085 789229.0 
208.156418 3101.0 
208.176208 5538.0 
211.946457 2719.0 
220.097382 10394.0 
232.01268 2802.0 
263.941742 14477.0 
264.039581 135548.0 
264.122803 417253.0 
295.355438 2345.0 
END IONS

BEGIN IONS
NAME=hesperidin CollisionEnergy:205060 M+H
PRECURSOR_MZ=611.197
INCHI="InChI=1S/C28H34O15/c1-10-21(32)23(34)25(36)27(40-10)39-9-19-22(33)24(35)26(37)28(43-19)41-12-6-14(30)20-15(31)8-17(42-18(20)7-12)11-3-4-16(38-2)13(29)5-11/h3-7,10,17,19,21-30,32-37H,8-9H2,1-2H3/t10-,17-,19+,21-,22+,23+,24-,25+,26+,27+,28+/m0/s1"
SMILES=COc1ccc(C2CC(=O)c3c(O)cc(OC4OC(COC5OC(C)C(O)C(O)C5O)C(O)C(O)C4O)cc3O2)cc1O
SPECTRUMID=CCMSLIB00010124714
50.568771 2994.0 
55.018372 3143.0 
57.033939 67941.0 
60.247028 2847.0 
61.02858 5615.0 
66.742653 3559.0 
67.01825 22416.0 
68.997414 15118.0 
69.033813 52450.0 
71.049469 372996.0 
73.028809 7193.0 
75.044151 16833.0 
81.033943 11796.0 
83.049133 13577.0 
85.028572 432981.0 
87.04393 5249.0 
89.038513 12517.0 
91.054657 3856.0 
95.048988 5079.0 
97.028664 12299.0 
107.049133 12392.0 
107.267517 3325.0 
109.028107 6394.0 
111.007423 6189.0 
111.043983 20058.0 
117.033386 16361.0 
119.049026 3679.0 
120.034233 3193.0 
121.028618 5480.0 
123.043541 13808.0 
124.560066 3687.0 
125.023163 7230.0 
125.059837 5186.0 
127.03891 5474.0 
129.054398 97605.0 
135.043915 59410.0 
137.059494 19484.0 
145.028122 25041.0 
147.064316 22889.0 
149.059601 30181.0 
151.038727 13240.0 
151.075104 18339.0 
153.018051 508531.0 
163.038605 68663.0 
165.018265 49407.0 
169.362198 3323.0 
171.028503 134850.0 
171.044693 4889.0 
175.0383 3688.0 
177.018173 27081.0 
177.054413 328708.0 
179.033737 50249.0 
183.02803 36216.0 
191.033798 39996.0 
195.028473 195412.0 
195.048874 6702.0 
201.05452 7793.0 
203.033478 20695.0 
217.048828 15381.0 
219.02861 55950.0 
221.043991 6935.0 
231.028351 5376.0 
232.001236 3308.0 
234.177765 3242.0 
237.036926 6746.0 
245.04425 49520.0 
263.054718 58220.0 
281.065125 36927.0 
285.075226 5029.0 
287.050507 4269.0 
302.073486 3759.0 
303.085632 631432.0 
315.085815 21896.0 
327.084961 20021.0 
345.096039 60301.0 
369.096375 73265.0 
379.609711 3220.0 
395.110626 19964.0 
411.104156 5861.0 
413.122192 82805.0 
429.116302 7239.0 
431.131744 27673.0 
447.129272 7661.0 
449.142181 38659.0 
465.13739 20812.0 
END IONS

BEGIN IONS
NAME=8-[(2-chlorophenyl)methylthio]-9-methylhydropurin-6-one CollisionEnergy:205060 M-H
PRECURSOR_MZ=305.027
INCHI="InChI=1S/C13H11ClN4OS/c1-18-11-10(12(19)16-7-15-11)17-13(18)20-6-8-4-2-3-5-9(8)14/h2-5,7H,6H2,1H3,(H,15,16,19)"
SMILES=Cn1c(SCc2ccccc2Cl)nc2c(O)ncnc21
SPECTRUMID=CCMSLIB00010119709
57.4221 2168.0 
57.975208 11645.0 
77.363373 2093.0 
104.306717 2681.0 
106.415482 2427.0 
118.532219 2478.0 
118.680206 2489.0 
118.965927 14004.0 
134.87764 2484.0 
146.960983 45142.0 
147.030838 11587.0 
149.046844 13668.0 
154.992477 9970.0 
174.956009 45893.0 
179.00325 78377.0 
180.011017 458555.0 
192.988708 2368.0 
220.983963 4378.0 
248.77179 2425.0 
293.555634 2905.0 
304.988312 7910.0 
305.026764 90890.0 
END IONS

BEGIN IONS
NAME="4-ethyl-7,9-dimethyl-3-phenyl-5,7,9-trihydro-1H,4H-1,2,4-triazino[4,3-h]purine -6,8-dione CollisionEnergy:102040" M-H
PRECURSOR_MZ=337.142
INCHI="InChI=1S/C17H18N6O2/c1-4-11-12(10-8-6-5-7-9-10)19-20-16-18-14-13(23(11)16)15(24)22(3)17(25)21(14)2/h5-9,11H,4H2,1-3H3,(H,18,20)"
SMILES=CCC1C(c2ccccc2)=NNc2nc3c(c(=O)n(C)c(=O)n3C)n21
SPECTRUMID=CCMSLIB00010108302
55.035469 2205.0 
66.742081 2649.0 
73.952263 3695.0 
73.956757 2427.0 
95.555107 2153.0 
98.151077 2040.0 
104.283318 2229.0 
115.970161 2597.0 
136.202789 2435.0 
178.037689 4707.0 
193.060501 286456.0 
200.881348 10579.0 
219.075348 2877.0 
232.984619 3572.0 
234.099548 122615.0 
268.869019 5535.0 
292.984894 3933.0 
298.471191 2372.0 
308.102875 3370.0 
316.983398 5213.0 
336.986267 15063.0 
337.142029 335206.0 
END IONS

BEGIN IONS
NAME=N-(3-fluorophenyl)-2-[2-oxo-4-(N-propylcarbamoyl)hydroquinolyl]acetamide CollisionEnergy:102040 M+H
PRECURSOR_MZ=382.156
INCHI="InChI=1S/C21H20FN3O3/c1-2-10-23-21(28)17-12-20(27)25(18-9-4-3-8-16(17)18)13-19(26)24-15-7-5-6-14(22)11-15/h3-9,11-12H,2,10,13H2,1H3,(H,23,28)(H,24,26)"
SMILES=CCCN=C(O)c1cc(=O)n(CC(O)=Nc2cccc(F)c2)c2ccccc12
SPECTRUMID=CCMSLIB00010110614
58.98143 2904.0 
66.571663 3213.0 
70.065643 11674.0 
75.571472 2638.0 
79.741081 2626.0 
104.273857 3038.0 
114.427994 2880.0 
118.640244 3541.0 
128.049606 17334.0 
130.065018 175000.0 
136.194641 2995.0 
144.043869 29228.0 
146.059906 146567.0 
148.687759 3216.0 
157.076202 16944.0 
157.956558 3667.0 
158.059921 260807.0 
173.071304 12646.0 
185.047638 4397.0 
186.054688 27822.0 
187.122391 5159.0 
199.122452 6471.0 
201.066391 34876.0 
214.044449 3079.0 
215.117615 33269.0 
216.148621 2828.0 
231.112427 339425.0 
233.813782 3468.0 
243.112411 1409512.0 
269.954803 6688.0 
271.107147 4772980.0 
272.266968 5976.0 
284.138184 45469.0 
324.197937 3492.0 
350.192169 14174.0 
382.165009 4380.0 
382.221527 57397.0 
END IONS

BEGIN IONS
NAME=Ophthalmic acid CollisionEnergy:102040 M-H
PRECURSOR_MZ=288.12
INCHI="InChI=1S/C11H19N3O6/c1-2-7(10(18)13-5-9(16)17)14-8(15)4-3-6(12)11(19)20/h6-7H,2-5,12H2,1H3,(H,13,18)(H,14,15)(H,16,17)(H,19,20)/t6-,7-/m0/s1"
SMILES=CC[C@H](N=C(O)CC[C@H](N)C(=O)O)C(O)=NCC(=O)O
SPECTRUMID=CCMSLIB00010126344
59.013199 314158.0 
59.7047 141081.0 
72.008301 174140.0 
74.019897 195554.0 
74.024399 3528130.0 
82.029297 199221.0 
85.552803 126110.0 
100.040001 943764.0 
102.056 927872.0 
104.310997 167906.0 
112.040001 889148.0 
115.086998 2311850.0 
125.071999 727111.0 
127.052002 139003.0 
128.035004 3868680.0 
137.431 150872.0 
139.087997 195805.0 
141.065994 1495350.0 
145.061005 205430.0 
146.044998 543332.0 
151.087997 859663.0 
159.076996 3771820.0 
167.046005 994713.0 
169.098007 1090620.0 
185.057007 211889.0 
195.076996 5428580.0 
208.108994 500145.0 
210.766006 218689.0 
213.089005 945909.0 
226.119003 2688360.0 
270.109009 6868110.0 
270.140991 293147.0 
288.119995 11634800.0 
END IONS

BEGIN IONS
NAME=jasmonic acid methyl ester CollisionEnergy:102040 M+H
PRECURSOR_MZ=225.149
INCHI="InChI=1S/C13H20O3/c1-3-4-5-6-11-10(7-8-12(11)14)9-13(15)16-2/h4-5,10-11H,3,6-9H2,1-2H3/b5-4-/t10-,11-/m1/s1"
SMILES=CC/C=C\C[C@@H]1[C@H](CCC1=O)CC(=O)OC
SPECTRUMID=CCMSLIB00010102388
57.070114 77725.695312 
58.828701 62759.015625 
67.054375 151346.0625 
69.069931 330750.25 
77.753624 79566.953125 
79.054192 93879.109375 
81.069885 426129.25 
83.049187 151282.84375 
84.193314 66262.171875 
85.064774 211962.90625 
91.05423 663596.0 
92.416969 72064.742188 
93.06987 690899.5625 
95.049095 163569.5625 
95.793861 67307.28125 
105.069908 907133.9375 
107.085449 245374.375 
109.064812 605019.8125 
109.101303 164569.09375 
119.085243 323548.3125 
121.101334 150782.046875 
123.080238 94768.75 
123.116722 151372.859375 
131.08551 304858.03125 
133.101181 3855088.5 
137.059769 216069.375 
141.091385 74784.375 
147.11676 3672911.75 
149.095428 140505.84375 
151.075226 358580.0625 
151.111771 4201389.5 
157.100586 127970.953125 
163.184662 74094.09375 
165.127197 416323.65625 
169.085922 500707.71875 
175.111511 1015666.0 
193.122253 967552.375 
207.137802 1129475.0 
225.14801 1582378.5 
END IONS

BEGIN IONS
NAME=cholic acid CollisionEnergy:102040 M+H-H2O
PRECURSOR_MZ=391.284
INCHI="InChI=1S/C24H40O5/c1-13(4-7-21(28)29)16-5-6-17-22-18(12-20(27)24(16,17)3)23(2)9-8-15(25)10-14(23)11-19(22)26/h13-20,22,25-27H,4-12H2,1-3H3,(H,28,29)/t13-,14+,15-,16-,17+,18+,19-,20+,22+,23+,24-/m1/s1"
SMILES=CC(CCC(=O)O)C1CCC2C3C(O)CC4CC(O)CCC4(C)C3CC(O)C12C
SPECTRUMID=CCMSLIB00010108872
55.055 3943.0 
63.413509 2766.0 
67.054893 13882.0 
69.07019 3630.0 
73.941887 2815.0 
75.652542 2432.0 
79.054527 4280.0 
81.070137 34679.0 
82.896858 2736.0 
83.08596 11706.0 
85.300827 2630.0 
91.054192 4320.0 
93.069809 21022.0 
95.085632 39333.0 
99.043961 9508.0 
100.496147 2826.0 
101.059967 13865.0 
101.924873 2640.0 
105.069878 32889.0 
107.085587 41465.0 
109.101196 34417.0 
109.720528 2601.0 
113.061501 2743.0 
119.085663 26524.0 
121.101257 27222.0 
123.116676 3979.0 
131.085602 19416.0 
133.101242 35317.0 
135.116821 37727.0 
141.091507 4040.0 
143.085617 6351.0 
145.101089 44510.0 
147.116669 50918.0 
149.023163 19458.0 
149.095779 5054.0 
149.132309 22861.0 
153.091187 2748.0 
157.101242 14037.0 
157.946747 2700.0 
159.116486 60678.0 
161.132294 47335.0 
163.147919 20068.0 
167.10733 5780.0 
169.100281 2760.0 
171.11676 17064.0 
172.680954 2672.0 
173.132401 22717.0 
175.112198 4444.0 
175.148575 21858.0 
179.106705 3504.0 
181.122345 5651.0 
183.116608 3135.0 
185.13205 21984.0 
187.147964 14762.0 
189.126999 4387.0 
189.163452 5462.0 
191.106644 17656.0 
193.122055 24388.0 
197.13118 3347.0 
199.147949 28546.0 
201.163803 20334.0 
205.122284 18679.0 
207.138443 19781.0 
209.132492 14295.0 
211.148453 15824.0 
213.163437 106383.0 
215.056931 2787.0 
215.179779 20055.0 
221.15274 5101.0 
223.148697 3680.0 
225.163788 3629.0 
227.142715 11708.0 
227.178696 25519.0 
229.158218 3086.0 
231.174149 12252.0 
233.153595 4235.0 
237.162979 5448.0 
241.158951 3525.0 
241.194687 29303.0 
243.172836 3704.0 
245.152969 39522.0 
247.168152 26953.0 
254.20282 6686.0 
255.209381 5644.0 
259.169952 25504.0 
261.184814 12334.0 
273.18512 12960.0 
299.199158 11246.0 
309.218872 4735.0 
309.256927 70064.0 
313.215698 16528.0 
319.241577 42657.0 
327.2677 16836.0 
337.252197 130209.0 
355.262634 1557789.0 
368.031464 2947.0 
373.273071 347325.0 
391.211304 15807.0 
391.283661 291882.0 
394.161621 2637.0 
409.206543 3048.0 
END IONS

BEGIN IONS
NAME=3-(3-chlorophenyl)-7-methoxychromen-2-one CollisionEnergy:102040 M+H
PRECURSOR_MZ=287.047
INCHI="InChI=1S/C16H11ClO3/c1-19-13-6-5-11-8-14(16(18)20-15(11)9-13)10-3-2-4-12(17)7-10/h2-9H,1H3"
SMILES=COc1ccc2cc(-c3cccc(Cl)c3)c(=O)oc2c1
SPECTRUMID=CCMSLIB00010110035
51.798969 2530.0 
57.74345 3150.0 
82.944771 2900.0 
125.014107 10962.0 
136.209946 3838.0 
157.970337 3495.0 
165.069534 6674.0 
181.064804 14684.0 
193.064285 21373.0 
195.080017 30160.0 
196.087784 170672.0 
199.030548 14707.0 
208.087631 72504.0 
208.107986 5020.0 
209.059692 30661.0 
213.043823 3420.0 
224.082687 322855.0 
224.219269 3327.0 
228.03418 21306.0 
231.05661 871931.0 
236.047958 3495.0 
243.055496 20796.0 
244.025482 6523.0 
251.06955 25000.0 
252.077362 203332.0 
259.0513 57406.0 
272.023407 12790.0 
287.046204 6365276.0 
END IONS

BEGIN IONS
NAME="N-((1E)-2-(3-pyridyl)-1-azavinyl)-2-[4-phenyl-5-(3,4,5-trimethoxyphenyl)(1,2,4 -triazol-3-ylthio)]acetamide CollisionEnergy:205060" M+formate
PRECURSOR_MZ=549.156
INCHI="InChI=1S/C25H24N6O4S/c1-33-20-12-18(13-21(34-2)23(20)35-3)24-29-30-25(31(24)19-9-5-4-6-10-19)36-16-22(32)28-27-15-17-8-7-11-26-14-17/h4-15H,16H2,1-3H3,(H,28,32)/b27-15+"
SMILES=COc1cc(-c2nnc(SCC(O)=NN=Cc3cccnc3)n2-c2ccccc2)cc(OC)c1OC
SPECTRUMID=CCMSLIB00010115418
51.34824 2859.0 
57.975208 15165.0 
73.968147 2681.0 
92.399879 4193.0 
104.308983 3554.0 
117.046272 3216.0 
163.026962 2901.0 
195.699631 2413.0 
207.934921 17989.0 
265.777618 2491.0 
312.045898 6526.0 
342.092102 5514.0 
394.39502 3017.0 
399.112244 9291.0 
429.167999 5347.0 
503.15036 14202.0 
END IONS

BEGIN IONS
NAME="N-(2H-benzo[3,4-d]1,3-dioxolen-5-ylmethyl)-2-[2-oxo-4-(2-1,2,3,4-tetrahydroiso quinolylcarbonyl)hydroquinolyl]acetamide CollisionEnergy:205060" M+H
PRECURSOR_MZ=496.187
INCHI="InChI=1S/C29H25N3O5/c33-27(30-15-19-9-10-25-26(13-19)37-18-36-25)17-32-24-8-4-3-7-22(24)23(14-28(32)34)29(35)31-12-11-20-5-1-2-6-21(20)16-31/h1-10,13-14H,11-12,15-18H2,(H,30,33)"
SMILES=O=C(c1cc(=O)n(CC(O)=NCc2ccc3c(c2)OCO3)c2ccccc12)N1CCc2ccccc2C1
SPECTRUMID=CCMSLIB00010125499
53.03886 3748.0 
60.968491 3107.0 
63.03743 2769.0 
65.853027 2779.0 
66.739212 4024.0 
73.802078 2884.0 
74.425507 3254.0 
77.038971 4068.0 
79.054321 13379.0 
79.376244 2873.0 
79.902786 2849.0 
91.054192 4994.0 
100.841171 3098.0 
105.069733 19257.0 
115.054123 22740.0 
117.06971 50930.0 
119.085388 3666.0 
128.049103 19438.0 
129.069809 3890.0 
130.065063 375616.0 
131.866714 2861.0 
132.080719 230951.0 
133.05191 22392.0 
135.04393 262938.0 
142.064713 26026.0 
144.080582 3815.0 
146.060425 25053.0 
146.096298 154834.0 
156.043991 16891.0 
157.053329 3927.0 
158.059937 440114.0 
160.075562 420729.0 
161.048141 3967.0 
169.075821 11855.0 
185.070984 5387.0 
186.05481 154637.0 
199.049774 18068.0 
212.057693 5904.0 
213.065475 4132.0 
244.113327 3533.0 
256.098694 4770.0 
258.115387 3198.0 
259.122406 6569.0 
261.137695 12934.0 
271.122131 16808.0 
273.138336 20020.0 
287.117218 14024.0 
289.132568 23402.0 
305.127777 256530.0 
317.12793 173542.0 
345.122772 1132726.0 
358.154999 6760.0 
491.977112 3956.0 
496.180695 3914.0 
END IONS

BEGIN IONS
NAME=5-Hydroxyindole-3-acetic acid CollisionEnergy:205060 M-H
PRECURSOR_MZ=190.051
INCHI="InChI=1S/C10H9NO3/c12-7-1-2-9-8(4-7)6(5-11-9)3-10(13)14/h1-2,4-5,11-12H,3H2,(H,13,14)"
SMILES=O=C(O)Cc1c[nH]c2ccc(O)cc12
SPECTRUMID=CCMSLIB00010125679
55.323669 2438.0 
59.686852 2000.0 
66.747688 2096.0 
66.751907 1879.0 
82.226929 2067.0 
87.421913 1987.0 
92.385269 2782.0 
94.029541 3206.0 
101.952026 16783.0 
102.922943 10645.0 
106.029877 2333.0 
118.030144 36430.0 
118.66214 2229.0 
131.037766 4403.0 
132.04567 12595.0 
133.029449 8837.0 
134.024887 10224.0 
143.251877 2144.0 
144.04567 261994.0 
145.053604 26730.0 
145.941833 8902.0 
146.025345 36065.0 
146.061295 117526.0 
148.040665 4648.0 
160.040482 63954.0 
162.020065 53366.0 
166.605331 2204.0 
181.654877 2494.0 
185.109543 2201.0 
190.014862 51106.0 
190.051346 4386.0 
209.872238 4025.0 
210.538513 2556.0 
211.708847 2593.0 
293.888763 2182.0 
376.907867 2125.0 
END IONS

BEGIN IONS
NAME=2-(5-iodo-2-methylindol-3-yl)ethylamine CollisionEnergy:102040 M-H
PRECURSOR_MZ=299.005
INCHI="InChI=1S/C11H13IN2/c1-7-9(4-5-13)10-6-8(12)2-3-11(10)14-7/h2-3,6,14H,4-5,13H2,1H3"
SMILES=Cc1[nH]c2ccc(I)cc2c1CCN
SPECTRUMID=CCMSLIB00010104896
52.67527 2104.0 
53.877239 2072.0 
56.878368 2032.0 
66.702347 2329.0 
67.22934 2197.0 
70.184517 2023.0 
106.42614 2182.0 
108.320839 2341.0 
125.460609 2455.0 
126.905037 329475.0 
127.511612 2217.0 
129.558563 2322.0 
136.246918 3439.0 
170.714523 2564.0 
201.685745 2267.0 
216.958771 2628.0 
223.038589 2428.0 
248.021027 2853.0 
299.005188 500664.0 
END IONS

BEGIN IONS
NAME="N-(2-indol-3-ylethyl)-N'-prop-2-enylethane-1,2-diamide CollisionEnergy:102040" M+Na
PRECURSOR_MZ=294.121
INCHI="InChI=1S/C15H17N3O2/c1-2-8-16-14(19)15(20)17-9-7-11-10-18-13-6-4-3-5-12(11)13/h2-6,10,18H,1,7-9H2,(H,16,19)(H,17,20)"
SMILES=C=CCNC(=O)C(=O)NCCc1c[nH]c2ccccc12
SPECTRUMID=CCMSLIB00010108481
53.523571 2134.0 
64.379349 2769.0 
68.297279 2268.0 
71.43602 2472.0 
77.02462 2456.0 
105.88829 2435.0 
110.005867 2586.0 
115.184502 2486.0 
144.080566 123219.0 
145.083908 10680.0 
195.064987 47274.0 
209.923874 5201.0 
244.568283 3012.0 
269.346954 2651.0 
281.081299 2741.0 
294.120453 3655223.0 
295.073761 5206.0 
316.104584 26487.0 
334.111725 5283.0 
424.154175 16348.0 
438.996429 3101.0 
442.164642 4396.0 
444.161133 6127.0 
470.905212 2953.0 
580.19104 2711.0 
END IONS

BEGIN IONS
NAME=L-Pyroglutamic acid CollisionEnergy:102040 M+H
PRECURSOR_MZ=130.05
INCHI="InChI=1S/C5H7NO3/c7-4-2-1-3(6-4)5(8)9/h3H,1-2H2,(H,6,7)(H,8,9)/t3-/m0/s1"
SMILES=O=C(O)[C@@H]1CCC(O)=N1
SPECTRUMID=CCMSLIB00010126753
56.050201 3656.919922 
60.203999 2031.209961 
63.400799 1998.47998 
66.759003 2275.969971 
73.974503 1923.439941 
74.607498 2042.140015 
84.044998 397743.0 
86.006401 14474.200195 
96.576698 2458.139893 
100.155998 1922.699951 
102.056 2100.949951 
104.308998 2858.310059 
130.031998 3663.810059 
130.050003 53500.199219 
130.106003 2664.97998 
130.158997 2667.97998 
END IONS

BEGIN IONS
NAME="(3,4,5-trimethoxyphenyl)-N-(5,7,8-trimethyl-3-oxo(2H,4H-benzo[3,4-e]1,4-oxazin -6-yl))carboxamide CollisionEnergy:205060" M+H
PRECURSOR_MZ=401.171
INCHI="InChI=1S/C21H24N2O6/c1-10-11(2)19-18(22-16(24)9-29-19)12(3)17(10)23-21(25)13-7-14(26-4)20(28-6)15(8-13)27-5/h7-8H,9H2,1-6H3,(H,22,24)(H,23,25)"
SMILES=COc1cc(C(O)=Nc2c(C)c(C)c3c(c2C)N=C(O)CO3)cc(OC)c1OC
SPECTRUMID=CCMSLIB00010123459
56.05011 6325.0 
65.039093 20218.0 
67.018211 3006.0 
67.054817 4099.0 
69.034019 5865.0 
75.044456 4094.0 
79.05452 99258.0 
81.033737 39892.0 
81.07016 59099.0 
83.049561 4991.0 
83.060562 84383.0 
84.571007 3502.0 
85.076347 7907.0 
91.054382 17089.0 
93.033409 4438.0 
94.041527 15966.0 
95.04953 17918.0 
96.057228 36947.0 
97.076027 22230.0 
99.04406 4587.0 
104.290047 2808.0 
107.029167 3444.0 
107.049156 16536.0 
108.05706 18232.0 
109.028374 6012.0 
109.064758 96967.0 
109.338989 2898.0 
111.043938 12580.0 
111.080673 24529.0 
113.023682 22061.0 
113.059692 19664.0 
121.027863 5462.0 
122.036148 54348.0 
123.044273 4551.0 
124.051773 111979.0 
125.059334 5057.0 
128.046738 44739.0 
134.09639 5467.0 
135.080536 5701.0 
135.091507 4838.0 
137.02359 12128.0 
137.059586 15656.0 
138.067337 46563.0 
139.039261 70431.0 
139.075272 218188.0 
141.018234 42012.0 
143.005829 1028203.0 
143.070343 7508.0 
145.064484 4630.0 
147.068039 13154.0 
150.0914 5637.0 
151.039047 14398.0 
152.046738 239031.0 
154.062363 721605.0 
156.041504 79905.0 
162.07869 7792.0 
162.091507 45080.0 
163.086288 26644.0 
163.099884 3843.0 
169.085861 163981.0 
169.101868 6330.0 
170.057266 3709.0 
177.102356 19740.0 
184.036362 18886.0 
185.080826 22375.0 
186.048126 14987.0 
188.071579 4779.0 
190.069931 4956.0 
190.086578 101773.0 
191.081955 49252.0 
193.074326 3582.0 
194.083359 3754.0 
194.36525 3519.0 
195.06514 2350224.0 
205.096939 264406.0 
215.08075 3419.0 
216.102097 48273.0 
218.068985 5473.0 
233.091888 94749.0 
257.129181 11479.0 
401.175232 1522804.0 
END IONS

BEGIN IONS
NAME=glucosamine 6-sulfate CollisionEnergy:102040 M-H
PRECURSOR_MZ=258.029
INCHI="InChI=1S/C6H13NO8S/c7-3-5(9)4(8)2(15-6(3)10)1-14-16(11,12)13/h2-6,8-10H,1,7H2,(H,11,12,13)/t2-,3-,4-,5-,6-/m1/s1"
SMILES=N[C@H]1[C@H](O)O[C@H](COS(=O)(=O)O)[C@@H](O)[C@@H]1O
SPECTRUMID=CCMSLIB00010126305
96.960098 4478670.0 
97.986298 111435.0 
116.275002 114284.0 
118.694 105768.0 
138.970993 5479450.0 
138.983002 182601.0 
168.981995 725265.0 
198.992004 15385900.0 
212.901001 113414.0 
240.016998 138505.0 
258.028992 16965700.0 
END IONS

BEGIN IONS
NAME=N-[(4-bromophenyl)phenylmethyl]-2-{1-[(4-chlorophenyl)carbonyl]-5-methoxy-2-me thylindol-3-yl}acetamide CollisionEnergy:205060 M+Na
PRECURSOR_MZ=623.071
INCHI="InChI=1S/C32H26BrClN2O3/c1-20-27(19-30(37)35-31(21-6-4-3-5-7-21)22-8-12-24(33)13-9-22)28-18-26(39-2)16-17-29(28)36(20)32(38)23-10-14-25(34)15-11-23/h3-18,31H,19H2,1-2H3,(H,35,37)"
SMILES=COc1ccc2c(c1)c(CC(O)=NC(c1ccccc1)c1ccc(Br)cc1)c(C)n2C(=O)c1ccc(Cl)cc1
SPECTRUMID=CCMSLIB00010124997
92.394913 3871.0 
137.431534 3727.0 
138.993652 9309.0 
140.991592 4084.0 
165.069839 32777.0 
166.077347 110038.0 
166.871277 3583.0 
167.081039 24409.0 
228.432404 3729.0 
237.584946 3914.0 
244.995102 28880.0 
246.993774 53174.0 
247.99646 5489.0 
537.007202 4072.0 
623.069702 8446025.0 
664.089539 4596.0 
999.105347 6456.0 
1200.89563 3840.0 
END IONS

BEGIN IONS
NAME=indole-3-acetyl-aspartic acid CollisionEnergy:102040 2M-2H+Na
PRECURSOR_MZ=601.155
INCHI="InChI=1S/C14H14N2O5/c17-12(16-11(14(20)21)6-13(18)19)5-8-7-15-10-4-2-1-3-9(8)10/h1-4,7,11,15H,5-6H2,(H,16,17)(H,18,19)(H,20,21)/t11-/m0/s1"
SMILES=C1=CC=C2C(=C1)C(=CN2)CC(=O)N[C@@H](CC(=O)O)C(=O)O
SPECTRUMID=CCMSLIB00010102138
62.688389 4356.40918 
71.013306 12157.679688 
78.220932 4419.401367 
80.53933 4889.523438 
86.638344 4096.100098 
88.03447 7228.771973 
88.040176 124885.8125 
92.508011 5024.896484 
104.353569 5409.678223 
114.019112 6341.083984 
115.00367 38373.210938 
118.726082 4758.585938 
132.018875 7675.130859 
132.03009 150602.890625 
146.060257 5575.14502 
153.417419 4481.118164 
154.012451 4679.211914 
156.045227 25561.720703 
173.071945 38063.695312 
174.055832 42242.082031 
195.053909 12891.319336 
209.622208 6579.661133 
245.093231 18621.662109 
271.073486 6373.452148 
289.083008 567260.9375 
293.053741 8136.730469 
311.06488 57407.65625 
330.227844 4303.010742 
486.12793 7295.566406 
601.15509 245622.046875 
END IONS

BEGIN IONS
NAME="(8-methyl-8-azabicyclo[3.2.1]oct-3-ylidene)azamethyl 3,4,5-trimethoxybenzoate CollisionEnergy:102040" M+H
PRECURSOR_MZ=349.176
INCHI="InChI=1S/C18H24N2O5/c1-20-13-5-6-14(20)10-12(9-13)19-25-18(21)11-7-15(22-2)17(24-4)16(8-11)23-3/h7-8,13-14H,5-6,9-10H2,1-4H3"
SMILES=COc1cc(C(=O)ON=C2CC3CCC(C2)N3C)cc(OC)c1OC
SPECTRUMID=CCMSLIB00010105160
53.039009 4211.0 
56.04998 183239.0 
57.289089 3240.0 
58.065601 165381.0 
58.068851 6366.0 
59.060921 6382.0 
62.374001 3278.0 
67.042023 5959.0 
67.054642 63657.0 
68.049896 273065.0 
69.07019 22571.0 
70.065376 6380.0 
71.073196 4998.0 
79.054527 254291.0 
80.049683 45545.0 
81.057579 191426.0 
81.062973 7732.0 
82.065376 505535.0 
83.060654 25455.0 
93.033821 4578.0 
94.065269 637468.0 
95.837257 6422.0 
96.080879 5230160.0 
96.324982 7550.0 
97.088593 162105.0 
98.096336 39113.0 
104.401321 3491.0 
106.065163 19086.0 
108.080872 24826.0 
109.075989 77915.0 
110.097069 6742.0 
120.080597 5313.0 
122.084419 3721.0 
122.096352 13501.0 
129.078613 17043.0 
137.10733 1519324.0 
138.115097 28753.0 
192.102066 5526.0 
195.065063 428120.0 
197.044159 207448.0 
197.065018 3905.0 
207.276077 3568.0 
210.075485 21829.0 
212.067719 758688.0 
222.076004 5928.0 
224.127579 3856.0 
250.107376 13474.0 
268.116333 7476.0 
273.470032 3655.0 
312.667603 3285.0 
349.175262 2488587.0 
350.872009 3624.0 
END IONS

BEGIN IONS
NAME="2',4'-Dihydroxychalcone CollisionEnergy:205060" M-H
PRECURSOR_MZ=239.071
INCHI="InChI=1S/C15H12O3/c16-12-7-8-13(15(18)10-12)14(17)9-6-11-4-2-1-3-5-11/h1-10,16,18H/b9-6+"
SMILES=O=C(C=Cc1ccccc1)c1ccc(O)cc1O
SPECTRUMID=CCMSLIB00010117781
61.602509 2933.0 
63.023529 4300.0 
65.002892 21815.0 
65.039284 62058.0 
67.018509 16822.0 
68.997978 4016.0 
89.039833 4979.0 
91.018829 1747088.0 
93.034142 4836.0 
95.013786 32142.0 
102.956688 39110.0 
104.026649 15036.0 
107.013573 7255.0 
108.021713 113089.0 
109.029503 277003.0 
115.055099 6452.0 
117.034683 17540.0 
127.055801 4520.0 
133.029129 5811.0 
135.008957 1312955.0 
141.070709 28824.0 
143.050278 6605.0 
147.044983 16410.0 
148.016724 263175.0 
152.063187 7396.0 
153.01944 435921.0 
153.070984 13449.0 
156.057877 5136.0 
161.022552 3428.0 
165.071243 14525.0 
167.086639 82884.0 
169.065918 105839.0 
171.081818 4823.0 
180.006683 130244.0 
180.058212 16757.0 
183.080612 2965.0 
193.066071 62153.0 
195.08168 202279.0 
196.052322 4346.0 
197.060883 708034.0 
207.797913 14436.0 
211.075974 27373.0 
221.061462 5785.0 
239.071564 4107512.0 
END IONS

BEGIN IONS
NAME="N-(4-fluorophenyl)-2-[2-oxo-4-(2-1,2,3,4-tetrahydroisoquinolylcarbonyl)hydroqu inolyl]acetamide CollisionEnergy:102040" M+H
PRECURSOR_MZ=456.172
INCHI="InChI=1S/C27H22FN3O3/c28-20-9-11-21(12-10-20)29-25(32)17-31-24-8-4-3-7-22(24)23(15-26(31)33)27(34)30-14-13-18-5-1-2-6-19(18)16-30/h1-12,15H,13-14,16-17H2,(H,29,32)"
SMILES=O=C(Cn1c(=O)cc(C(=O)N2CCc3ccccc3C2)c2ccccc21)Nc1ccc(F)cc1
SPECTRUMID=CCMSLIB00010113692
55.99342 2454.0 
61.526192 3343.0 
77.10881 2786.0 
104.284233 2990.0 
105.069847 3152.0 
127.731972 2812.0 
130.065231 39931.0 
132.080688 546168.0 
144.633972 3978.0 
146.096313 72448.0 
156.044464 4625.0 
158.059967 188026.0 
160.075836 51100.0 
164.341599 3001.0 
166.543549 2881.0 
186.054764 183322.0 
208.190063 15609.0 
249.655075 3000.0 
271.119965 4647.0 
273.138367 7113.0 
289.133179 47749.0 
305.127869 183276.0 
317.127838 592543.0 
345.122833 2590488.0 
358.153564 23571.0 
456.170898 192071.0 
END IONS

BEGIN IONS
NAME="N-[2-(2-phenylphenoxy)ethyl](3,4,5-trimethoxyphenyl)carboxamide CollisionEnergy:102040" M+formate
PRECURSOR_MZ=452.171
INCHI="InChI=1S/C24H25NO5/c1-27-21-15-18(16-22(28-2)23(21)29-3)24(26)25-13-14-30-20-12-8-7-11-19(20)17-9-5-4-6-10-17/h4-12,15-16H,13-14H2,1-3H3,(H,25,26)"
SMILES=COc1cc(C(O)=NCCOc2ccccc2-c2ccccc2)cc(OC)c1OC
SPECTRUMID=CCMSLIB00010107807
66.925751 2148.0 
73.017632 2236.0 
82.429337 3452.0 
84.751961 2192.0 
112.985603 29711.0 
116.0355 2505.0 
132.65065 2359.0 
136.263519 3486.0 
136.740051 2222.0 
169.065445 16711.0 
180.972229 3594.0 
191.011658 2961.0 
248.960022 13675.0 
293.615051 2541.0 
316.947479 11560.0 
451.986084 10389.0 
746.705627 2850.0 
782.61554 2695.0 
887.776978 2532.0 
END IONS

BEGIN IONS
NAME="6-amino-3-ethyl-4-(4-hydroxy-3-methoxyphenyl)-4H-pyrano[3,2-d]pyrazole-5-carbo nitrile CollisionEnergy:205060" M-H
PRECURSOR_MZ=311.115
INCHI="InChI=1S/C16H16N4O3/c1-3-10-14-13(8-4-5-11(21)12(6-8)22-2)9(7-17)15(18)23-16(14)20-19-10/h4-6,13,21H,3,18H2,1-2H3,(H,19,20)"
SMILES=CCc1[nH]nc2c1C(c1ccc(O)c(OC)c1)C(C#N)=C(N)O2
SPECTRUMID=CCMSLIB00010119290
65.014153 201744.0 
83.013412 2880.0 
86.731583 2540.0 
87.548897 2594.0 
89.014473 43744.0 
94.96196 2663.0 
95.013382 3322.0 
108.021797 2930.0 
109.02961 31747.0 
111.008904 12507.0 
115.030144 12103.0 
118.966476 11705.0 
123.009079 2756.0 
124.016617 13408.0 
131.062195 3227.0 
132.020691 21392.0 
132.031357 2440.0 
134.024979 19896.0 
136.052338 3883.0 
138.392944 2338.0 
146.037201 2927.0 
146.961426 94097.0 
149.0242 5080.0 
158.036438 4900.0 
159.031631 8763.0 
159.044495 53016.0 
160.052124 52079.0 
171.031586 17957.0 
174.069458 9029.0 
174.956406 117809.0 
184.027298 3924.0 
185.033218 39323.0 
185.050537 8698.0 
186.055313 31930.0 
187.062851 359733.0 
197.072052 3023.0 
198.043625 6457.0 
201.067963 4387.0 
202.074875 9735.0 
211.051529 3943.0 
212.070511 3578.0 
215.045135 4058.0 
218.044769 13792.0 
223.038788 4905.0 
224.047714 4323.0 
224.070999 4284.0 
225.067856 17520.0 
226.075546 3735.0 
229.061295 20240.0 
230.069794 104247.0 
231.05574 8721.0 
231.077713 247961.0 
236.047821 2801.0 
238.03801 10133.0 
239.082779 31675.0 
240.040573 4431.0 
242.94426 10561.0 
245.093018 21397.0 
251.070007 4988.0 
252.078735 30435.0 
253.06134 4110.0 
267.053284 18648.0 
267.081207 3203.0 
268.073334 20486.0 
269.081055 26168.0 
279.089386 5330.0 
294.09024 2688.0 
295.084015 402308.0 
296.091797 362901.0 
311.115387 1369502.0 
331.496826 2943.0 
344.321747 3109.0 
489.470673 3156.0 
END IONS

BEGIN IONS
NAME="8-{[2-(5-bromo-2-methoxyphenyl)-5-methyl(1,3-oxazol-4-yl)]methylthio}-9-methyl hydropurin-6-one CollisionEnergy:102040" M-H
PRECURSOR_MZ=460.008
INCHI="InChI=1S/C18H16BrN5O3S/c1-9-12(22-17(27-9)11-6-10(19)4-5-13(11)26-3)7-28-18-23-14-15(24(18)2)20-8-21-16(14)25/h4-6,8H,7H2,1-3H3,(H,20,21,25)"
SMILES=COc1ccc(Br)cc1-c1nc(CSc2nc3c(O)ncnc3n2C)c(C)o1
SPECTRUMID=CCMSLIB00010112669
70.804787 2665.0 
78.219917 2958.0 
82.39624 3584.0 
91.002228 2674.0 
92.377403 4027.0 
104.614281 2865.0 
136.209351 2926.0 
147.031738 4667.0 
149.04686 82020.0 
179.003403 40639.0 
180.011246 2474630.0 
181.018997 437389.0 
195.034531 249825.0 
259.992157 3471.0 
262.077728 12257.0 
263.967346 26483.0 
311.606842 3100.0 
373.961182 4035.0 
416.996918 4861.0 
418.101105 3091.0 
460.008545 774529.0 
END IONS

BEGIN IONS
NAME=(3-methoxy(2-naphthyl))-N-[4-(morpholin-4-ylmethyl)phenyl]carboxamide CollisionEnergy:102040 M+Na
PRECURSOR_MZ=399.168
INCHI="InChI=1S/C23H24N2O3/c1-27-22-15-19-5-3-2-4-18(19)14-21(22)23(26)24-20-8-6-17(7-9-20)16-25-10-12-28-13-11-25/h2-9,14-15H,10-13,16H2,1H3,(H,24,26)"
SMILES=COc1cc2ccccc2cc1C(=O)Nc1ccc(CN2CCOCC2)cc1
SPECTRUMID=CCMSLIB00010106689
58.652592 2325.0 
62.089951 2388.0 
63.634769 2703.0 
71.346062 2680.0 
73.320992 2700.0 
80.227676 2751.0 
82.403023 3431.0 
94.012901 3017.0 
135.904373 3231.0 
343.15329 3219.0 
399.167511 3707608.0 
417.177765 59052.0 
END IONS

BEGIN IONS
NAME=1- amino cyclopropane carboxylic acid CollisionEnergy:102040 2M-2H+Na
PRECURSOR_MZ=223.07
INCHI="InChI=1S/C4H7NO2/c5-4(1-2-4)3(6)7/h1-2,5H2,(H,6,7)"
SMILES=C1CC1(C(=O)O)N
SPECTRUMID=CCMSLIB00010102422
50.629047 3023.252686 
59.013481 149513.59375 
59.016903 7216.118164 
94.295151 4324.257324 
100.040421 1975980.0 
104.360886 3760.536377 
104.443657 3554.378662 
125.900429 4359.470215 
140.780121 3465.275879 
141.016846 141070.953125 
205.01683 24500.570312 
223.028168 34840.015625 
223.06987 286738.6875 
332.351318 3799.837891 
457.470917 4169.128418 
END IONS

BEGIN IONS
NAME=ortho-topolin riboside CollisionEnergy:102040 2M-2H+Na
PRECURSOR_MZ=767.252
INCHI="InChI=1S/C17H19N5O5/c23-6-11-13(25)14(26)17(27-11)22-8-21-12-15(19-7-20-16(12)22)18-5-9-3-1-2-4-10(9)24/h1-4,7-8,11,13-14,17,23-26H,5-6H2,(H,18,19,20)"
SMILES=C1=CC=C(C(=C1)CNC2=C3C(=NC=N2)N(C=N3)C4C(C(C(O4)CO)O)O)O
SPECTRUMID=CCMSLIB00010102192
79.952362 5126.424805 
92.442902 6229.88623 
105.567406 5296.074707 
134.047195 12599.643555 
156.029282 158289.59375 
163.646317 4906.73584 
174.022659 8311.303711 
174.039658 116553.929688 
217.071045 4966.506836 
218.02951 15373.681641 
262.070984 1327794.0 
394.113068 889074.0 
394.173615 13653.035156 
767.252991 117475.804688 
END IONS

BEGIN IONS
NAME=2-{4-[(6-ethyl-2-oxochromen-4-yl)methyl]piperazinyl}-N-(3-methylthiophenyl)ace tamide CollisionEnergy:205060 M-H
PRECURSOR_MZ=450.186
INCHI="InChI=1S/C25H29N3O3S/c1-3-18-7-8-23-22(13-18)19(14-25(30)31-23)16-27-9-11-28(12-10-27)17-24(29)26-20-5-4-6-21(15-20)32-2/h4-8,13-15H,3,9-12,16-17H2,1-2H3,(H,26,29)"
SMILES=CCc1ccc2oc(=O)cc(CN3CCN(CC(O)=Nc4cccc(SC)c4)CC3)c2c1
SPECTRUMID=CCMSLIB00010119388
51.809849 3172.0 
52.35038 2542.0 
52.553299 2869.0 
57.24651 2619.0 
82.029747 38838.0 
92.408867 3309.0 
104.318687 2863.0 
118.69558 3447.0 
121.029381 3961.0 
121.06591 3937.0 
123.01487 392106.0 
125.072128 3298.0 
136.254654 3781.0 
138.038284 551605.0 
144.045807 14974.0 
145.065842 58927.0 
147.081818 22312.0 
150.001862 475120.0 
159.082153 28783.0 
162.498016 3493.0 
164.017761 49135.0 
164.052811 4511.0 
171.068634 4107.0 
172.076767 3458.0 
173.098221 4223.0 
175.076691 11644.0 
182.028687 5105.0 
185.061539 3738.0 
185.097351 12112.0 
186.09227 121903.0 
187.076477 55700.0 
195.059631 117144.0 
198.092926 4360.0 
199.063171 5767.0 
200.108078 6175.0 
201.078598 24090.0 
202.08786 16625.0 
203.058899 15354.0 
207.059998 12280.0 
211.012985 4730.0 
212.072571 3823.0 
214.08728 39097.0 
214.124207 3605.0 
219.060638 3577.0 
221.0755 19677.0 
223.091507 85249.0 
228.102905 24170.0 
230.119293 13105.0 
235.091293 4501.0 
238.103165 7009.0 
248.087952 11657.0 
257.093079 46816.0 
258.219604 2758.0 
264.118134 53942.0 
283.146698 5167.0 
285.160767 13214.0 
301.874939 2856.0 
308.517242 3285.0 
311.142548 4873.0 
433.398895 3098.0 
450.186584 1161758.0 
END IONS

BEGIN IONS
NAME=2-[3-(6-ethyl-2-phenylchromen-4-ylidene)-3-azapropanoylamino]acetic acid CollisionEnergy:102040 M-H
PRECURSOR_MZ=363.135
INCHI="InChI=1S/C21H20N2O4/c1-2-14-8-9-18-16(10-14)17(22-12-20(24)23-13-21(25)26)11-19(27-18)15-6-4-3-5-7-15/h3-11H,2,12-13H2,1H3,(H,23,24)(H,25,26)/b22-17+"
SMILES=CCc1ccc2oc(-c3ccccc3)cc(=NCC(O)=NCC(=O)O)c2c1
SPECTRUMID=CCMSLIB00010103999
58.215618 2803.0 
60.737011 2554.0 
70.029694 13885.0 
73.857559 3056.0 
74.02449 5131764.0 
74.071831 3011.0 
83.024872 37036.0 
84.173843 3105.0 
92.397926 4327.0 
100.00399 519437.0 
104.355927 3269.0 
113.553093 3495.0 
141.783417 3158.0 
146.061264 15929.0 
191.306931 3276.0 
197.953461 3179.0 
199.506165 3260.0 
234.105698 10628.0 
235.112427 37355.0 
246.092804 18527.0 
248.977386 2943.0 
250.122925 4027.0 
260.108215 19452.0 
262.123535 144562.0 
264.102966 31636.0 
279.089569 3449.0 
319.145477 44200.0 
363.135376 2579068.0 
END IONS

BEGIN IONS
NAME=lumichrome CollisionEnergy:102040 M+H
PRECURSOR_MZ=243.088
INCHI="InChI=1S/C12H10N4O2/c1-5-3-7-8(4-6(5)2)14-10-9(13-7)11(17)16-12(18)15-10/h3-4H,1-2H3,(H2,14,15,16,17,18)"
SMILES=Cc1cc2nc3nc(O)nc(O)c3nc2cc1C
SPECTRUMID=CCMSLIB00010105809
56.043991 352363.0 
56.195309 350152.0 
58.843658 306697.0 
66.006622 315831.0 
66.74353 340593.0 
69.650574 317784.0 
92.380859 441290.0 
113.941902 368327.0 
122.284866 383577.0 
123.824539 324341.0 
172.0867 25915874.0 
190.097244 1555263.0 
198.065979 2704239.0 
200.081665 8633031.0 
212.735214 468776.0 
216.052658 823573.0 
216.076553 25624064.0 
218.092499 520057.0 
243.087311 298989568.0 
244.071152 2797405.0 
END IONS

BEGIN IONS
NAME=Wogonin CollisionEnergy:205060 M+H
PRECURSOR_MZ=285.076
INCHI="InChI=1S/C16H12O5/c1-20-15-12(19)7-10(17)14-11(18)8-13(21-16(14)15)9-5-3-2-4-6-9/h2-8,17,19H,1H3"
SMILES=COc1c(O)cc(O)c2c(=O)cc(-c3ccccc3)oc12
SPECTRUMID=CCMSLIB00010119075
60.84026 2864.0 
68.997147 4558.0 
72.723213 2681.0 
77.820343 2741.0 
86.15432 3498.0 
99.00708 10498.0 
103.054024 37485.0 
104.061577 14595.0 
105.033493 31652.0 
112.01487 5284.0 
112.292168 2642.0 
112.590462 2774.0 
116.061661 17633.0 
116.960876 3601.0 
127.00222 11242.0 
131.048782 32376.0 
139.002396 10692.0 
140.009964 5598.0 
140.061981 11002.0 
141.069733 11929.0 
144.056549 26886.0 
145.064163 5747.0 
154.995636 3093.0 
155.048767 14468.0 
158.071671 5853.0 
168.005432 58946.0 
168.056824 77518.0 
169.064865 3510.0 
171.043442 30401.0 
172.051254 17967.0 
173.060028 5348.0 
179.048782 135499.0 
185.059387 6472.0 
186.015823 50807.0 
186.067352 10852.0 
186.901215 3267.0 
195.043503 3703.0 
196.050903 22529.0 
197.059753 17423.0 
199.038849 14906.0 
200.048508 4024.0 
213.054245 29690.0 
217.048996 11958.0 
218.056839 28725.0 
220.648315 3664.0 
223.039368 3837.0 
224.022583 16767.0 
224.046158 36240.0 
241.02272 4536.0 
241.048645 74017.0 
242.056839 135603.0 
269.043915 110423.0 
270.051758 4554851.0 
283.838043 3525.0 
284.030823 191020.0 
285.075256 2817353.0 
END IONS

BEGIN IONS
NAME="(2E)-N-(3-acetylphenyl)-3-(3,4-dimethoxyphenyl)prop-2-enamide CollisionEnergy:205060" M+H
PRECURSOR_MZ=326.139
INCHI="InChI=1S/C19H19NO4/c1-13(21)15-5-4-6-16(12-15)20-19(22)10-8-14-7-9-17(23-2)18(11-14)24-3/h4-12H,1-3H3,(H,20,22)/b10-8+"
SMILES=COc1ccc(C=CC(O)=Nc2cccc(C(C)=O)c2)cc1OC
SPECTRUMID=CCMSLIB00010118133
53.039028 3174.0 
56.47897 2751.0 
60.966282 3192.0 
63.837669 2630.0 
79.054558 60065.0 
91.054298 63769.0 
92.061913 14532.0 
94.065247 31499.0 
102.046303 7575.0 
103.054199 113805.0 
105.033302 32404.0 
105.069878 129986.0 
107.049522 7463.0 
115.054283 5430.0 
117.033501 4468.0 
118.041039 31499.0 
119.049156 92221.0 
120.057129 71589.0 
128.498657 3114.0 
130.041458 5793.0 
131.049316 22126.0 
132.05687 179134.0 
133.028244 70580.0 
133.064774 109733.0 
135.043671 3762.0 
135.080078 31150.0 
136.075684 6029.0 
137.059982 4101.0 
146.036636 39542.0 
147.04393 54516.0 
148.051788 549078.0 
150.067673 30677.0 
151.038788 3322.0 
152.046722 3560.0 
159.044037 6510.0 
160.051727 210298.0 
161.05986 38411.0 
162.054657 3888.0 
163.075302 1653948.0 
165.09079 16148.0 
175.965393 3546.0 
176.046722 205677.0 
191.070145 4051780.0 
200.28569 3272.0 
282.078583 15327.0 
284.126801 7101.0 
293.025024 3204.0 
308.12738 3797.0 
326.138245 1148336.0 
328.544617 3296.0 
END IONS

BEGIN IONS
NAME=biotin CollisionEnergy:102040 M+H
PRECURSOR_MZ=245.095
INCHI="InChI=1S/C10H16N2O3S/c13-8(14)4-2-1-3-7-9-6(5-16-7)11-10(15)12-9/h6-7,9H,1-5H2,(H,13,14)(H2,11,12,15)/t6-,7-,9-/m0/s1"
SMILES=O=C(O)CCCCC1SCC2N=C(O)NC21
SPECTRUMID=CCMSLIB00010109834
58.995251 97763.0 
61.040321 194461.0 
66.077492 107226.0 
97.010811 121955.0 
97.039703 1599683.0 
107.085342 113491.0 
108.080833 129942.0 
123.026199 1002904.0 
125.041847 126526.0 
139.057632 682907.0 
143.027023 145158.0 
147.17038 111379.0 
150.091568 135243.0 
158.010193 109195.0 
166.06868 1405184.0 
167.052505 1291325.0 
184.079224 1034088.0 
192.047791 214832.0 
199.090057 1409184.0 
209.074203 1784021.0 
227.084961 70134424.0 
245.095505 19616896.0 
END IONS

BEGIN IONS
NAME="2-[(4-methoxyphenyl)methylene]-3-oxobenzo[3,4-b]furan-6-yl acetate CollisionEnergy:102040" M+H
PRECURSOR_MZ=311.091
INCHI="InChI=1S/C18H14O5/c1-11(19)22-14-7-8-15-16(10-14)23-17(18(15)20)9-12-3-5-13(21-2)6-4-12/h3-10H,1-2H3/b17-9-"
SMILES=COc1ccc(C=C2Oc3cc(OC(C)=O)ccc3C2=O)cc1
SPECTRUMID=CCMSLIB00010114601
86.237183 2408.0 
99.392197 2667.0 
107.049057 2765.0 
137.023026 4057.0 
154.026123 2645.0 
186.277191 2538.0 
190.441833 2658.0 
213.090698 33958.0 
237.052811 8992.0 
254.056915 18603.0 
269.080322 1169862.0 
311.090637 237629.0 
END IONS

BEGIN IONS
NAME=Xanthoxylin CollisionEnergy:205060 M+H-H2O
PRECURSOR_MZ=179.07
INCHI="InChI=1S/C10H12O4/c1-6(11)10-8(12)4-7(13-2)5-9(10)14-3/h4-5,12H,1-3H3"
SMILES=COc1cc(O)c(C(C)=O)c(OC)c1
SPECTRUMID=CCMSLIB00010115931
55.018242 15193.0 
56.965248 601616.0 
62.37413 3268.0 
65.038963 54902.0 
66.046661 31346.0 
67.018242 5670.0 
67.051018 4884.0 
67.054588 50450.0 
67.93515 5456.0 
68.997414 79009.0 
69.033943 6929.0 
70.980751 52691.0 
71.773277 4406.0 
71.952217 17648.0 
73.943001 5164.0 
74.975723 8236.0 
77.038887 9497.0 
78.046654 20494.0 
79.021591 8080.0 
79.054451 155416.0 
80.062149 6643.0 
81.033752 328478.0 
81.070053 29297.0 
88.006989 7292.0 
88.99102 19697.0 
89.038651 5892.0 
89.979958 3689.0 
90.046387 15383.0 
90.948097 4482.0 
91.054329 859669.0 
92.025871 5855.0 
92.061783 6462.0 
92.985893 6433.0 
93.063431 8363.0 
93.069977 189203.0 
93.513092 4327.0 
94.04126 22235.0 
95.049248 74578.0 
95.085732 8073.0 
95.500427 8227.0 
96.057259 6898.0 
96.937424 9503.0 
97.011749 14572.0 
97.991074 8812.0 
101.510773 3912.0 
102.046638 7171.0 
102.948097 6301.0 
102.993973 5961.0 
103.054161 232824.0 
103.061897 7866.0 
104.505653 61453.0 
105.009499 22148.0 
105.033577 30468.0 
105.044289 13702.0 
105.07003 54045.0 
105.513489 4353.0 
106.017441 227819.0 
106.040993 19929.0 
106.503166 4758.0 
107.007133 26632.0 
107.049118 22182.0 
108.021133 32003.0 
108.056969 211258.0 
108.518883 6851.0 
109.028816 5213.0 
109.06469 111341.0 
110.002037 7091.0 
110.505302 54831.0 
111.00898 8209.0 
111.043243 4192.0 
111.08036 17421.0 
112.503159 26108.0 
113.007339 6460.0 
113.51107 457028.0 
114.014977 220703.0 
114.518997 24740.0 
114.947739 7355.0 
115.022789 776740.0 
115.508324 7243.0 
116.012733 52601.0 
117.516693 4747.0 
117.525551 39610.0 
118.017082 96442.0 
118.026512 6089.0 
118.041328 194633.0 
119.006989 39335.0 
119.049088 299582.0 
119.510941 249584.0 
120.015244 66094.0 
120.057037 21619.0 
120.500458 8696.0 
120.51873 19539.0 
121.004799 5080.0 
121.029083 5524.0 
121.064774 175082.0 
121.508263 21817.0 
122.516281 485980.0 
123.004379 5270.0 
123.020248 242341.0 
123.044189 33941.0 
123.080368 434624.0 
123.524483 35275.0 
124.011063 12899.0 
124.028107 209496.0 
125.019112 53357.0 
125.059677 7526.0 
125.522331 25360.0 
126.530663 122860.0 
127.022537 291484.0 
128.012177 51017.0 
128.516281 2261841.0 
129.020111 95134.0 
129.031647 6599.0 
129.50589 136961.0 
129.523926 5199.0 
130.009613 20610.0 
131.018585 37651.0 
131.522064 18718.0 
132.025757 6060.0 
132.958786 9056.0 
133.064758 533364.0 
134.024445 32824.0 
134.036041 93483.0 
134.527985 16589.0 
135.020294 6020.0 
135.044067 19947.0 
135.536026 27698.0 
136.028107 2614821.0 
136.051926 219897.0 
137.017624 39343.0 
137.029236 8959.0 
137.059677 218742.0 
137.521637 2967201.0 
138.025284 23200.0 
138.511383 251806.0 
138.530472 112512.0 
140.024292 396837.0 
140.527145 22469.0 
140.950912 14985.0 
141.013702 15161.0 
141.054428 24093.0 
142.966888 6596.0 
145.03334 5078876.0 
145.535934 8130.0 
146.035828 33528.0 
146.526642 118155.0 
147.043716 61026.0 
147.53595 854993.0 
148.037521 7987.0 
148.051407 23382.0 
149.030182 325047.0 
149.059021 26450.0 
150.019028 21763.0 
151.075317 1721588.0 
151.532257 44208.0 
153.053864 5237.0 
154.038574 498806.0 
155.974472 30643.0 
156.541336 1506408.0 
157.042343 19574.0 
158.545837 6436.0 
159.043854 137724.0 
160.537598 27602.0 
161.059631 137347.0 
163.039108 15289.0 
164.046631 208428.0 
164.985977 15009.0 
165.054153 27017.0 
165.546494 73558.0 
166.057343 7412.0 
167.001129 22870.0 
168.049271 220016.0 
168.065292 7743.0 
174.969925 5684.0 
177.054871 46123.0 
179.070175 2027663.0 
179.556915 25192.0 
181.016525 4666.0 
182.996155 90103.0 
185.011566 30134.0 
192.979813 31450.0 
194.994644 5968.0 
197.012634 28181.0 
199.026489 4310.0 
200.00032 7324.0 
201.006485 121897.0 
209.010193 6342.0 
210.990707 19075.0 
211.02742 210672.0 
213.008713 5228.0 
215.022568 30974.0 
219.016403 14468.0 
224.021866 4047.0 
225.007523 35400.0 
227.022339 16168.0 
229.038055 473920.0 
238.013596 6444.0 
243.017532 46121.0 
247.049728 50367.0 
252.054001 20627.0 
253.037659 59064.0 
256.023895 9219.0 
261.028961 6894.0 
271.048065 129315.0 
289.058228 6403.0 
294.064087 4562.0 
END IONS

BEGIN IONS
NAME="(3,4-dimethoxyphenyl)-N-(???methyl)carboxamide CollisionEnergy:205060" M+formate
PRECURSOR_MZ=298.104
INCHI="InChI=1S/C11H15N3O4/c1-17-8-4-3-7(5-9(8)18-2)11(16)13-6-10(15)14-12/h3-5H,6,12H2,1-2H3,(H,13,16)(H,14,15)"
SMILES=COc1ccc(C(O)=NCC(O)=NN)cc1OC
SPECTRUMID=CCMSLIB00010123524
71.024857 14746.0 
87.925323 2656.0 
97.004433 5377.0 
103.920174 4426.0 
107.387527 2426.0 
111.251633 2333.0 
117.32933 2429.0 
123.008842 4092.0 
123.044922 15612.0 
136.735886 2455.0 
163.027878 8300.0 
165.169418 2115.0 
167.035019 5026.0 
178.051178 9243.0 
180.066483 8545.0 
205.038635 4102.0 
217.039261 2211.0 
221.0569 44190.0 
236.079971 7552.0 
252.098877 193481.0 
END IONS

BEGIN IONS
NAME=DL-KAWAIN CollisionEnergy:205060 M+H-H2O
PRECURSOR_MZ=213.091
INCHI="InChI=1S/C14H14O3/c1-16-13-9-12(17-14(15)10-13)8-7-11-5-3-2-4-6-11/h2-8,10,12H,9H2,1H3/b8-7+"
SMILES=COC1=CC(=O)OC(C=Cc2ccccc2)C1
SPECTRUMID=CCMSLIB00010117508
51.023449 4094.0 
53.039059 33456.0 
55.018311 222273.0 
57.033878 4339.0 
68.997482 41079.0 
77.03891 3278.0 
79.054192 14693.0 
81.033531 5947.0 
85.02858 71420.0 
88.07579 13610.0 
91.054268 30855.0 
92.025711 53155.0 
93.686234 2803.0 
95.049187 27044.0 
103.05394 14507.0 
105.033234 6635.0 
105.044563 4378.0 
107.048973 6922.0 
115.054123 106993.0 
117.068558 3426.0 
125.059647 26131.0 
127.054092 3455.0 
128.061951 67055.0 
129.069717 71416.0 
130.077774 40493.0 
135.055038 4436.0 
141.069672 71552.0 
142.077515 105746.0 
143.085129 13921.0 
144.055893 2899.0 
145.064316 17505.0 
151.053696 6653.0 
152.06192 779054.0 
153.069733 2074005.0 
154.063858 4386.0 
154.077576 82087.0 
155.048141 24154.0 
155.061829 3459.0 
155.085327 112156.0 
156.056503 39102.0 
157.064575 28649.0 
157.100754 16581.0 
165.069656 137239.0 
166.077606 25838.0 
167.085266 92878.0 
168.056381 14474.0 
169.064651 227925.0 
170.072433 625818.0 
171.08017 273915.0 
179.059128 16105.0 
180.056732 106809.0 
181.064529 804829.0 
182.072357 136257.0 
183.079651 27468.0 
184.050705 3865.0 
185.095856 834230.0 
195.080185 158258.0 
196.088379 5213.0 
197.059784 66143.0 
198.06723 430013.0 
199.074768 32681.0 
211.074371 29024.0 
213.090744 2465664.0 
224.703537 3168.0 
227.069092 14209.0 
END IONS

BEGIN IONS
NAME="7,3'-Dimethoxyflavone CollisionEnergy:205060" M+Na
PRECURSOR_MZ=305.078
INCHI="InChI=1S/C17H14O4/c1-19-12-5-3-4-11(8-12)16-10-15(18)14-7-6-13(20-2)9-17(14)21-16/h3-10H,1-2H3"
SMILES=COc1cccc(-c2cc(=O)c3ccc(OC)cc3o2)c1
SPECTRUMID=CCMSLIB00010115731
52.42812 2427.0 
57.70266 2056.0 
70.600647 2596.0 
84.960091 2808.0 
90.590202 2628.0 
114.869751 2896.0 
121.028229 11924.0 
136.189911 3316.0 
147.940948 2103.0 
154.988968 10879.0 
237.0914 2383.0 
267.10199 15905.0 
305.078156 348031.0 
305.160889 20280.0 
305.209595 6810.0 
323.088867 13977.0 
END IONS

BEGIN IONS
NAME=l-Pipecolic acid CollisionEnergy:102040 M+Na
PRECURSOR_MZ=152.068
INCHI="InChI=1S/C6H11NO2/c8-6(9)5-3-1-2-4-7-5/h5,7H,1-4H2,(H,8,9)/t5-/m0/s1"
SMILES=O=C(O)[C@@H]1CCCCN1
SPECTRUMID=CCMSLIB00010126873
57.5425 1890.790039 
61.890999 2038.449951 
64.274101 2118.459961 
81.961403 1897.51001 
84.231796 2330.0 
92.396698 2099.439941 
92.402802 2588.449951 
96.995697 20450.199219 
110.027 3064.939941 
122.507004 2090.860107 
123.061996 2080.780029 
134.063004 49113.898438 
140.651993 1983.97998 
150.914993 2037.839966 
152.054001 3321.879883 
152.067993 90986.796875 
152.106003 2163.040039 
152.143005 11866.599609 
END IONS

BEGIN IONS
NAME=Trimethyllysine CollisionEnergy:102040 M-H+Na
PRECURSOR_MZ=211.142
INCHI="InChI=1S/C9H20N2O2/c1-11(2,3)7-5-4-6-8(10)9(12)13/h8H,4-7,10H2,1-3H3/p+1/t8-/m0/s1"
SMILES=C[N+](C)(C)CCCC[C@H](N)C(=O)O
SPECTRUMID=CCMSLIB00010103158
86.882401 3300.090088 
98.984398 6328.529785 
99.7379 3340.889893 
101.026001 3247.560059 
108.359001 3924.719971 
118.943001 4783.72998 
136.25 4065.77002 
145.966995 19789.699219 
152.067993 692676.0 
163.975998 19395.300781 
174.690994 3414.77002 
187.977005 18157.0 
205.988007 76406.203125 
211.143005 25865.900391 
211.199005 7913.609863 
END IONS

BEGIN IONS
NAME="6-amino-4-(7-methoxy(2H-benzo[3,4-d]1,3-dioxolan-5-yl))-3-phenyl-4H-pyrano[2,3 -c]pyrazole-5-carbonitrile CollisionEnergy:205060" M-H
PRECURSOR_MZ=387.11
INCHI="InChI=1S/C21H16N4O4/c1-26-14-7-12(8-15-19(14)28-10-27-15)16-13(9-22)20(23)29-21-17(16)18(24-25-21)11-5-3-2-4-6-11/h2-8,16H,10,23H2,1H3,(H,24,25)"
SMILES=COc1cc(C2C(C#N)=C(N)Oc3n[nH]c(-c4ccccc4)c32)cc2c1OCO2
SPECTRUMID=CCMSLIB00010122701
55.170559 2587.0 
57.318649 2500.0 
60.547581 2622.0 
65.014137 131443.0 
66.634651 2756.0 
76.095207 2985.0 
82.412971 2959.0 
89.01458 5557.0 
92.395844 3859.0 
96.837227 2779.0 
108.021858 18689.0 
118.33828 2992.0 
118.675148 3056.0 
128.037277 2986.0 
129.259201 2844.0 
136.016464 15972.0 
141.034332 4089.0 
143.061172 3590.0 
155.025208 2497.0 
156.033371 2774.0 
157.040436 58461.0 
159.031326 4239.0 
165.045639 57546.0 
169.040161 4091.0 
183.020432 5967.0 
184.027985 10911.0 
185.035568 115788.0 
192.056839 12409.0 
193.415939 2651.0 
198.043655 3271.0 
208.051544 46332.0 
209.563293 5075.0 
211.014832 3821.0 
212.021942 2716.0 
221.024139 2805.0 
221.060608 3540.0 
222.068878 15806.0 
235.062546 185752.0 
245.0728 5290.0 
250.064041 11711.0 
256.088257 5579.0 
257.073761 3603.0 
258.069702 3959.0 
259.088654 19184.0 
260.072418 6226.0 
270.067535 14246.0 
271.074524 4045.0 
272.084106 20371.0 
273.068115 5550.0 
277.061066 3793.0 
278.06955 11686.0 
279.076996 56169.0 
285.077454 6137.0 
287.085083 15289.0 
288.074066 5060.0 
298.058807 3952.0 
300.078888 36401.0 
307.073364 2824.0 
313.073486 5007.0 
315.088715 89545.0 
316.071838 4127.0 
317.078949 5991.0 
327.084106 3086.0 
342.076477 5884.0 
343.083862 183843.0 
344.091492 47452.0 
357.10025 2736.0 
359.115173 11061.0 
371.079498 60260.0 
372.086395 23127.0 
387.110229 1059047.0 
END IONS

BEGIN IONS
NAME=4-({4-[(3-fluorophenyl)methyl]piperazinyl}methyl)-7-methylchromen-2-one CollisionEnergy:102040 M+H
PRECURSOR_MZ=367.182
INCHI="InChI=1S/C22H23FN2O2/c1-16-5-6-20-18(13-22(26)27-21(20)11-16)15-25-9-7-24(8-10-25)14-17-3-2-4-19(23)12-17/h2-6,11-13H,7-10,14-15H2,1H3"
SMILES=Cc1ccc2c(CN3CCN(Cc4cccc(F)c4)CC3)cc(=O)oc2c1
SPECTRUMID=CCMSLIB00010104487
56.0499 83628.0 
57.057751 17764.0 
58.06551 27211.0 
68.049896 8184.0 
68.10778 4137.0 
70.065353 45247.0 
71.060669 45346.0 
71.07312 10538.0 
82.395889 4654.0 
83.029327 38063.0 
83.06057 1171103.0 
84.062714 4440.0 
84.06842 155134.0 
85.076141 296918.0 
86.083923 22139.0 
87.091812 9368.0 
92.370598 5754.0 
95.937462 3929.0 
96.439583 4306.0 
97.076019 1567938.0 
98.083794 39216.0 
99.091713 37525.0 
104.27877 4351.0 
108.74987 6309.0 
109.044724 4496649.0 
117.07 5291.0 
121.065002 6155.0 
122.052406 27884.0 
123.060226 6716.0 
131.085617 5487.0 
133.064575 7781.0 
135.059921 7155.0 
136.055206 5515.0 
137.063248 6667.0 
138.070679 70245.0 
143.775574 4443.0 
145.064636 235457.0 
147.059616 5013.0 
147.080383 36894.0 
149.063385 29567.0 
150.071274 38502.0 
151.078995 19192.0 
152.086792 1119177.0 
159.08017 23833.0 
161.059433 51156.0 
163.098831 263025.0 
164.086624 78762.0 
165.081589 9506.0 
166.102448 8688.0 
172.05217 5740.0 
173.059219 55539.0 
173.08284 7033.0 
174.067154 49505.0 
174.092484 6455.0 
175.074905 95031.0 
179.098099 6858.0 
186.091415 10762.0 
187.075089 20126.0 
188.107147 53966.0 
191.097855 92360.0 
192.105743 69612.0 
193.113388 248120.0 
194.121445 89456.0 
200.069 8996.0 
201.077698 4769.0 
202.086182 56928.0 
203.073273 7908.0 
203.093643 167226.0 
205.113617 24313.0 
207.129211 24985.0 
214.086166 105415.0 
215.094147 52583.0 
216.101578 1296532.0 
228.102829 31728.0 
229.133591 26582.0 
230.116425 25813.0 
230.140976 6922.0 
240.101349 9726.0 
251.264816 5208.0 
253.102753 36046.0 
255.111832 24431.0 
257.12796 236636.0 
258.135742 908027.0 
269.098236 5900.0 
281.095764 18197.0 
283.113678 8576.0 
324.135101 13196.0 
339.184143 7097.0 
365.367188 28156.0 
367.180878 20640002.0 
369.006409 26022.0 
END IONS

BEGIN IONS
NAME=ferulic acid CollisionEnergy:205060 M-H
PRECURSOR_MZ=193.051
INCHI="InChI=1S/C10H10O4/c1-14-9-6-7(2-4-8(9)11)3-5-10(12)13/h2-6,11H,1H3,(H,12,13)/b5-3+"
SMILES=COc1cc(C=CC(=O)O)ccc1O
SPECTRUMID=CCMSLIB00010122916
57.652802 59200.0 
58.771622 64028.0 
82.396004 59628.0 
84.609177 60756.0 
89.039413 87699.0 
90.57338 55422.0 
93.034363 95525.0 
106.042397 251129.0 
111.008781 60463.0 
117.034897 110863.0 
121.029243 444567.0 
121.547157 69085.0 
133.029434 965718.0 
134.03743 18475438.0 
137.024475 2638065.0 
139.040344 776020.0 
149.060776 3363025.0 
150.032455 452495.0 
165.020889 63977.0 
178.027344 8454358.0 
193.050888 4763927.0 
END IONS

BEGIN IONS
NAME=15572-30-2 CollisionEnergy:102040 M-H
PRECURSOR_MZ=383.014
INCHI="InChI=1S/C16H17BrO6/c17-10-3-1-9-6-11(4-2-8(9)5-10)22-16-15(21)14(20)13(19)12(7-18)23-16/h1-6,12-16,18-21H,7H2/t12-,13+,14+,15-,16-/m1/s1"
SMILES=OCC1OC(Oc2ccc3cc(Br)ccc3c2)C(O)C(O)C1O
SPECTRUMID=CCMSLIB00010112802
53.526161 3003.0 
59.500641 2801.0 
73.951103 3486.0 
78.918556 275234.0 
80.126534 2641.0 
82.395882 3219.0 
101.024223 6097.0 
157.967438 3039.0 
161.045273 15012.0 
178.948837 5505.0 
220.102325 3415.0 
220.737045 4686.0 
220.960678 5141204.0 
246.935974 5322.0 
310.933838 3491.0 
383.012451 15016.0 
474.710114 3259.0 
568.261536 3313.0 
772.170471 3386.0 
END IONS

BEGIN IONS
NAME=alpha-Mangostin CollisionEnergy:102040 2M-H
PRECURSOR_MZ=819.339
INCHI="InChI=1S/C24H26O6/c1-12(2)6-8-14-16(25)10-19-21(22(14)27)23(28)20-15(9-7-13(3)4)24(29-5)17(26)11-18(20)30-19/h6-7,10-11,25-27H,8-9H2,1-5H3"
SMILES=COc1c(O)cc2oc3cc(O)c(CC=C(C)C)c(O)c3c(=O)c2c1CC=C(C)C
SPECTRUMID=CCMSLIB00010105488
57.26086 3427.0 
78.694511 4050.0 
82.408119 3632.0 
98.948837 4364.0 
131.866058 3452.0 
136.22554 3965.0 
208.050491 14048.0 
208.073273 6206.0 
303.442993 4533.0 
339.088745 5317.0 
351.087738 27479.0 
377.13736 4511.0 
394.141632 5512.0 
409.165527 155694.0 
422.43811 4080.0 
430.59671 3590.0 
819.155029 24757.0 
END IONS

BEGIN IONS
NAME="5-acetyloxy-14-ethynyl-17-hydroxy-15-methyltetracyclo[8.7.0.0<2,7>.0<11,15>]he ptadeca-2(7),3,5-trien-14-yl acetate CollisionEnergy:205060" M+NH4
PRECURSOR_MZ=414.227
INCHI="InChI=1S/C24H28O5/c1-5-24(29-15(3)26)11-10-20-19-8-6-16-12-17(28-14(2)25)7-9-18(16)22(19)21(27)13-23(20,24)4/h1,7,9,12,19-22,27H,6,8,10-11,13H2,2-4H3"
SMILES=C#CC1(OC(C)=O)CCC2C3CCc4cc(OC(C)=O)ccc4C3C(O)CC21C
SPECTRUMID=CCMSLIB00010125513
61.1161 2679.0 
67.054741 4903.0 
69.070396 3017.0 
73.969147 3805.0 
74.034668 2856.0 
79.05468 17321.0 
81.070129 39166.0 
91.054291 37369.0 
91.626801 2560.0 
93.069969 29084.0 
95.085663 26722.0 
103.054497 3575.0 
105.069817 77810.0 
107.049171 25473.0 
107.085541 27666.0 
115.054779 3928.0 
117.069893 25756.0 
118.681503 3582.0 
119.085213 21147.0 
121.064919 24426.0 
121.101486 13336.0 
123.080421 21657.0 
129.070023 4250.0 
131.08548 61296.0 
131.98262 2931.0 
133.064713 121717.0 
133.101166 18798.0 
134.27623 2622.0 
135.080017 3248.0 
143.084549 4088.0 
145.064835 38312.0 
145.100754 27306.0 
146.67157 2826.0 
147.043671 4164.0 
147.080475 64238.0 
149.096481 22061.0 
152.063629 2790.0 
155.085144 3252.0 
157.064743 109865.0 
159.080215 79290.0 
161.096756 3852.0 
165.06958 5341.0 
169.101425 6431.0 
171.080688 23964.0 
173.096024 17102.0 
175.074951 2969.0 
179.085968 3339.0 
181.065567 10586.0 
183.080612 37293.0 
185.0961 31146.0 
194.072815 4853.0 
195.080658 17501.0 
197.095428 20946.0 
198.103317 5346.0 
199.074188 3287.0 
199.111435 3180.0 
201.0905 3684.0 
207.080414 34852.0 
209.096069 39435.0 
211.111633 71020.0 
219.144882 3066.0 
220.088394 12693.0 
221.095734 39184.0 
222.103088 10891.0 
223.11203 16971.0 
225.126907 4647.0 
233.096512 6087.0 
234.103928 23095.0 
235.11142 43061.0 
236.118332 4604.0 
237.127045 3454.0 
247.112 15772.0 
248.119186 23697.0 
249.127014 58020.0 
251.143295 17796.0 
262.10849 3312.0 
262.134155 24908.0 
267.140045 3317.0 
267.173553 6164.0 
277.158417 432939.0 
291.139252 4295.0 
295.169403 58041.0 
300.480804 3156.0 
319.168854 325082.0 
329.151245 3022.0 
337.179443 91394.0 
354.205109 22604.0 
379.19165 30754.0 
414.224121 4148.0 
414.277679 4354.0 
433.637512 3064.0 
END IONS

BEGIN IONS
NAME="8-{[2-(3,4-dimethoxyphenyl)-5-methyl(1,3-oxazol-4-yl)]methylthio}-9-methylhydr opurin-6-one CollisionEnergy:102040" M+H
PRECURSOR_MZ=414.123
INCHI="InChI=1S/C19H19N5O4S/c1-10-12(8-29-19-23-15-16(24(19)2)20-9-21-17(15)25)22-18(28-10)11-5-6-13(26-3)14(7-11)27-4/h5-7,9H,8H2,1-4H3,(H,20,21,25)"
SMILES=COc1ccc(-c2nc(CSc3nc4c(O)ncnc4n3C)c(C)o2)cc1OC
SPECTRUMID=CCMSLIB00010107786
77.668282 3227.0 
81.350616 2992.0 
92.385811 3810.0 
102.136909 3189.0 
104.297043 4226.0 
162.776245 3535.0 
163.074951 12312.0 
164.07045 539042.0 
165.056076 3502.0 
179.135834 3102.0 
183.033188 6238.0 
212.872513 4092.0 
217.073242 13985.0 
231.181305 4304.0 
232.096588 6567811.0 
239.341827 3227.0 
273.123505 5888.0 
362.850098 4024.0 
414.122437 1611498.0 
END IONS

BEGIN IONS
NAME=methyl 2-[(3-ethoxy-4-hydroxyphenyl)methylene]-3-oxobenzo[b]furan-5-carboxylat e CollisionEnergy:205060 M-H
PRECURSOR_MZ=339.087
INCHI="InChI=1S/C19H16O6/c1-3-24-16-8-11(4-6-14(16)20)9-17-18(21)13-10-12(19(22)23-2)5-7-15(13)25-17/h4-10,20H,3H2,1-2H3/b17-9-"
SMILES=CCOc1cc(C=C2Oc3ccc(C(=O)OC)cc3C2=O)ccc1O
SPECTRUMID=CCMSLIB00010120421
68.995377 2785.0 
69.034233 9756.0 
70.385239 2229.0 
73.404358 2245.0 
73.955231 2967.0 
82.397797 2802.0 
82.402901 2529.0 
92.995567 11411.0 
93.034416 3072.0 
95.014038 19735.0 
97.029404 3144.0 
104.026917 18546.0 
104.290283 3651.0 
116.995796 3251.0 
123.008942 26498.0 
132.02182 266874.0 
133.029617 78676.0 
136.016968 4019.0 
139.003632 5072.0 
151.003342 3016.0 
151.040268 69054.0 
154.992508 4411.0 
155.050629 4322.0 
159.009384 11573.0 
166.0271 3815.0 
167.050308 21718.0 
171.045349 15220.0 
173.060974 3631.0 
175.039612 5062.0 
176.129242 2564.0 
182.037079 10461.0 
183.012238 4659.0 
183.045288 44442.0 
185.024155 3223.0 
195.044891 21154.0 
197.061111 17419.0 
198.031815 4039.0 
199.040909 24640.0 
203.035095 4164.0 
204.989899 3539.0 
210.032394 4780.0 
211.04039 40988.0 
213.055573 3248.0 
223.039993 48927.0 
225.055908 18130.0 
226.026642 6109.0 
227.035355 15371.0 
232.984222 3563.0 
237.056458 5790.0 
239.034332 4232.0 
241.050598 13551.0 
251.035858 3453.0 
253.050568 35085.0 
254.05864 4528.0 
254.98674 5718.0 
255.067978 3551.0 
265.050476 4232.0 
266.058716 14520.0 
267.030548 23712.0 
267.061188 2700.0 
269.045624 3486.0 
278.98642 4570.0 
281.046021 9258.0 
282.053528 297886.0 
293.045837 83202.0 
293.082916 3701.0 
298.975128 4270.0 
310.048462 366039.0 
311.056122 44522.0 
318.436371 2607.0 
318.981049 9437.0 
338.990112 15294.0 
339.087494 684781.0 
END IONS

BEGIN IONS
NAME=Flindersine CollisionEnergy:205060 M+Na
PRECURSOR_MZ=250.084
INCHI="InChI=1S/C14H13NO2/c1-14(2)8-7-10-12(17-14)9-5-3-4-6-11(9)15-13(10)16/h3-8H,1-2H3,(H,15,16)"
SMILES=CC1(C)C=Cc2c(O)nc3ccccc3c2O1
SPECTRUMID=CCMSLIB00010115557
56.965309 2393.0 
61.196129 2178.0 
87.215111 2590.0 
177.370712 2789.0 
185.927963 29054.0 
186.475525 2828.0 
186.935944 5517.0 
203.938202 84265.0 
208.943619 32005.0 
226.927185 2719.0 
226.954163 39901.0 
250.083603 1614590.0 
250.177002 26115.0 
268.093292 38992.0 
END IONS

BEGIN IONS
NAME=Asiatic acid CollisionEnergy:205060 M+Na
PRECURSOR_MZ=511.339
INCHI="InChI=1S/C30H48O5/c1-17-9-12-30(25(34)35)14-13-28(5)19(23(30)18(17)2)7-8-22-26(3)15-20(32)24(33)27(4,16-31)21(26)10-11-29(22,28)6/h7,17-18,20-24,31-33H,8-16H2,1-6H3,(H,34,35)/t17-,18+,20-,21-,22-,23+,24+,26+,27+,28-,29-,30+/m1/s1"
SMILES=CC1CCC2(C(=O)O)CCC3(C)C(=CCC4C5(C)CC(O)C(O)C(C)(CO)C5CCC43C)C2C1C
SPECTRUMID=CCMSLIB00010125040
54.125061 2625.0 
55.359779 2675.0 
92.379692 3198.0 
118.6576 3685.0 
158.828506 2807.0 
177.142502 2744.0 
183.754105 2398.0 
222.224274 2651.0 
511.338593 560948.0 
529.349609 4368.0 
END IONS

BEGIN IONS
NAME=TETRAHYDROPAPAVERINE CollisionEnergy:102040 M+H
PRECURSOR_MZ=344.186
INCHI="InChI=1S/C20H25NO4/c1-22-17-6-5-13(10-18(17)23-2)9-16-15-12-20(25-4)19(24-3)11-14(15)7-8-21-16/h5-6,10-12,16,21H,7-9H2,1-4H3"
SMILES=COc1ccc(CC2NCCc3cc(OC)c(OC)cc32)cc1OC
SPECTRUMID=CCMSLIB00010106846
63.580391 3921.0 
71.060661 3950.0 
84.623581 3507.0 
91.054176 3849.0 
103.053864 4874.0 
105.069969 9639.0 
107.049026 7899.0 
118.652931 3592.0 
120.231056 4336.0 
121.06427 5010.0 
124.052254 7481.0 
128.061417 4180.0 
129.069611 24562.0 
131.085449 6056.0 
136.051804 74585.0 
137.059814 5929.0 
139.075226 24167.0 
144.056671 9847.0 
145.063828 7169.0 
146.072769 6779.0 
147.080658 4647.0 
150.067398 41353.0 
151.075241 2089272.0 
157.973572 5025.0 
158.072556 299809.0 
159.043945 14299.0 
159.079926 58535.0 
165.074875 6354.0 
165.090744 275333.0 
174.067322 514125.0 
175.075607 7472.0 
175.098419 7636.0 
176.06926 39024.0 
177.076508 42985.0 
177.093475 6300.0 
178.08371 4428.0 
189.090836 2302234.0 
191.416229 5405.0 
192.101608 10107255.0 
206.116821 13777.0 
263.108002 8359.0 
264.114014 32413.0 
265.121033 26045.0 
268.109589 6206.0 
280.10791 9436.0 
281.116211 103851.0 
295.133636 59035.0 
296.140015 435123.0 
297.111298 47715.0 
298.1203 9696.0 
299.126617 15876.0 
312.134033 159003.0 
315.15918 6078.0 
327.158325 2025940.0 
329.163361 5996.0 
344.184875 7289216.0 
END IONS

BEGIN IONS
NAME=2-(5-iodo-2-methylindol-3-yl)ethylamine CollisionEnergy:205060 M-H
PRECURSOR_MZ=299.005
INCHI="InChI=1S/C11H13IN2/c1-7-9(4-5-13)10-6-8(12)2-3-11(10)14-7/h2-3,6,14H,4-5,13H2,1H3"
SMILES=Cc1[nH]c2ccc(I)cc2c1CCN
SPECTRUMID=CCMSLIB00010116232
54.875 2169.0 
74.008331 2348.0 
100.959023 2602.0 
104.309029 2183.0 
105.094978 2507.0 
126.904999 784727.0 
136.241806 3222.0 
194.987747 2797.0 
195.702835 2308.0 
215.393646 2432.0 
299.004944 323218.0 
END IONS

BEGIN IONS
NAME=Vincristine sulfate CollisionEnergy:205060 M-H
PRECURSOR_MZ=823.392
INCHI="InChI=1S/C46H56N4O10/c1-7-43(55)22-27-23-48(24-43)18-14-29-28-12-9-10-13-32(28)47-37(29)36(38(53)58-5)35(27)30-20-31-33(21-34(30)57-4)50(25-51)40-45(31)16-19-49-17-11-15-44(8-2,39(45)49)41(60-26(3)52)46(40,56)42(54)59-6/h9-13,15,20-21,25,27,35-36,39-41,47,55-56H,7-8,14,16-19,22-24H2,1-6H3/t27-,35+,36+,39-,40+,41+,43-,44+,45+,46-/m0/s1"
SMILES=CCC1(O)CC2CN(CCc3c([nH]c4ccccc34)C(C(=O)OC)C2c2cc3c(cc2OC)N(C=O)C2C(O)(C(=O)OC)C(OC(C)=O)C4(CC)C=CCN5CCC32C54)C1
SPECTRUMID=CCMSLIB00010117849
59.013401 166074.0 
75.008438 24925.0 
77.681503 2901.0 
82.424133 3153.0 
101.899963 3467.0 
102.893532 3116.0 
104.3181 5040.0 
104.325798 3044.0 
136.251755 3922.0 
148.075821 3864.0 
202.536743 3846.0 
355.109467 3797.0 
573.006592 3975.0 
643.329163 15109.0 
652.984924 3646.0 
661.340027 71735.0 
673.343262 26174.0 
675.354004 34707.0 
703.351807 16899.0 
731.354187 7344.0 
733.361206 72383.0 
791.370117 14340.0 
END IONS

BEGIN IONS
NAME=Yohimbine CollisionEnergy:205060 M+H
PRECURSOR_MZ=355.202
INCHI="InChI=1S/C21H26N2O3/c1-26-21(25)19-15-10-17-20-14(13-4-2-3-5-16(13)22-20)8-9-23(17)11-12(15)6-7-18(19)24/h2-5,12,15,17-19,22,24H,6-11H2,1H3/t12-,15-,17-,18-,19+/m0/s1"
SMILES=COC(=O)C1C(O)CCC2CN3CCc4c([nH]c5ccccc45)C3CC21
SPECTRUMID=CCMSLIB00010117029
53.771751 7645.0 
53.77422 4855.0 
56.04995 96561.0 
67.054626 18789.0 
68.049751 11077.0 
70.065407 22182.0 
70.128563 4746.0 
71.049538 5660.0 
73.961143 5184.0 
79.05442 67376.0 
80.049713 97683.0 
81.033653 9340.0 
81.070137 18824.0 
82.065353 18098.0 
87.043953 5792.0 
91.054092 134161.0 
93.057457 5903.0 
93.069656 48421.0 
94.065063 159281.0 
94.071457 9474.0 
95.049049 4287.0 
95.072617 7710.0 
95.085403 7793.0 
96.044167 6335.0 
103.054077 173698.0 
104.296204 4679.0 
105.069778 109233.0 
106.065048 263086.0 
107.072311 5376.0 
107.08551 70966.0 
108.080437 10302.0 
109.064293 15690.0 
110.060112 5720.0 
110.096123 7271.0 
113.059914 29831.0 
115.054176 157039.0 
116.049133 18030.0 
116.062012 9564.0 
116.956558 5126.0 
117.069771 1166194.0 
118.065239 51633.0 
119.04911 11069.0 
119.076218 6240.0 
119.085472 44566.0 
120.080673 37381.0 
121.064697 9974.0 
122.06089 6799.0 
124.075127 7058.0 
127.054131 19881.0 
128.049286 32051.0 
128.061844 20107.0 
129.05835 9318.0 
129.06987 35516.0 
130.065033 254432.0 
131.072952 22826.0 
131.085403 10264.0 
132.080475 85184.0 
133.064758 30039.0 
134.096268 960001.0 
135.080551 43961.0 
135.103836 5669.0 
136.07576 7041.0 
136.112213 70295.0 
137.05928 11214.0 
138.09137 36837.0 
142.065567 18240.0 
143.072968 523135.0 
143.083405 18949.0 
143.633377 13437.0 
144.080643 19792398.0 
144.53038 10454.0 
145.064499 149887.0 
145.088806 7212.0 
146.060043 29636.0 
146.095734 58813.0 
148.076263 7815.0 
148.111282 9493.0 
149.059052 6292.0 
150.090714 20554.0 
151.07486 10013.0 
152.10643 55641.0 
154.086243 8340.0 
155.060196 91134.0 
155.073593 10950.0 
156.080383 41462.0 
157.088486 42904.0 
158.096298 226354.0 
160.075775 19885.0 
162.091034 594828.0 
163.075012 20219.0 
164.1064 19234.0 
166.085861 10454.0 
166.122208 9750.0 
167.07193 9596.0 
168.08049 50329.0 
169.088425 30246.0 
170.096313 55740.0 
172.075958 8905.0 
174.091965 22009.0 
177.090942 10083.0 
178.085999 23961.0 
180.081146 40000.0 
180.101349 362549.0 
181.088303 6979.0 
182.096436 43713.0 
183.10434 8655.0 
184.11203 4859.0 
192.101562 83684.0 
194.097672 31491.0 
194.117126 597786.0 
195.103821 7371.0 
196.111771 18712.0 
198.112717 6996.0 
205.087051 8899.0 
206.096237 36929.0 
206.117462 27871.0 
207.103729 21866.0 
208.111816 55445.0 
209.119705 28134.0 
210.092392 7360.0 
210.111053 14014.0 
212.127762 2007901.0 
217.087784 6843.0 
218.095688 34504.0 
218.868515 4886.0 
219.104004 25640.0 
220.111374 56373.0 
221.120178 23674.0 
222.090744 5180.0 
222.127823 21293.0 
224.127609 388586.0 
226.144073 18748.0 
230.097092 11329.0 
231.104614 31205.0 
232.111069 46298.0 
233.119629 30195.0 
234.127335 53527.0 
244.112137 7729.0 
245.12085 19087.0 
246.12764 38664.0 
248.142761 106471.0 
250.155807 4819.0 
252.139496 5313.0 
258.127167 5584.0 
260.142395 80989.0 
262.122162 6815.0 
266.153839 32846.0 
274.122925 9036.0 
276.137726 27568.0 
278.150604 9109.0 
288.138367 8505.0 
292.130371 9686.0 
294.148621 43901.0 
306.147156 23315.0 
308.163788 30974.0 
312.156921 6401.0 
320.165222 21413.0 
326.173279 39313.0 
337.190002 9112.0 
338.173126 31367.0 
355.200836 11797515.0 
END IONS

BEGIN IONS
NAME="4-methyl-2-{3-methyl-2-[(4,4,11,11-tetramethyl-3,5,8,10,12-pentaoxatricyclo[7. 3.0.0<2,6>]dodec-7-yl)carbonylamino]butanoylamino}pentanoic acid CollisionEnergy:205060" M+H
PRECURSOR_MZ=487.265
INCHI="InChI=1S/C23H38N2O9/c1-10(2)9-12(20(28)29)24-18(26)13(11(3)4)25-19(27)16-14-15(32-22(5,6)31-14)17-21(30-16)34-23(7,8)33-17/h10-17,21H,9H2,1-8H3,(H,24,26)(H,25,27)(H,28,29)"
SMILES=CC(C)CC(N=C(O)C(N=C(O)C1OC2OC(C)(C)OC2C2OC(C)(C)OC12)C(C)C)C(=O)O
SPECTRUMID=CCMSLIB00010121081
53.039379 3301.0 
54.12635 3525.0 
55.018379 6799.0 
55.054771 91785.0 
56.050152 5044.0 
57.033989 25777.0 
57.057831 5689.0 
57.070492 7051.0 
58.065681 26144.0 
59.049679 121946.0 
67.054573 26648.0 
68.049973 5209.0 
69.033943 154217.0 
69.070381 27776.0 
70.029007 6040.0 
70.065613 82474.0 
71.013184 478636.0 
71.049629 17148.0 
71.073418 5388.0 
72.044868 6003.0 
72.081207 1020519.0 
73.028839 25599.0 
73.065086 36323.0 
73.828758 3167.0 
73.949059 3946.0 
74.024048 36813.0 
79.054626 14943.0 
81.033623 14347.0 
81.070328 29431.0 
82.028976 16097.0 
82.065514 72175.0 
83.012871 16006.0 
83.049423 71277.0 
84.044724 74492.0 
84.08107 6981.0 
85.028687 212022.0 
85.052422 3545.0 
85.06514 16742.0 
86.096718 202200.0 
87.044289 7104.0 
91.054642 4957.0 
92.373749 4518.0 
93.070099 21052.0 
94.065208 5925.0 
95.013 19689.0 
95.04921 50358.0 
95.085693 90544.0 
96.044502 46195.0 
96.081032 7055.0 
97.028549 405192.0 
97.064919 59824.0 
98.023651 13871.0 
98.060181 125011.0 
99.007797 12901.0 
99.044113 25387.0 
99.080597 6335.0 
100.039574 20990.0 
100.051964 145090.0 
100.07576 39433.0 
101.059868 14207.0 
105.070053 14704.0 
107.049248 17790.0 
108.081284 4736.0 
109.028633 5602.0 
109.065033 34178.0 
110.060173 34250.0 
110.096581 8125.0 
111.044289 49234.0 
111.080627 17079.0 
112.039429 140191.0 
112.075684 31257.0 
112.112427 36912.0 
113.023354 90138.0 
113.046638 5543.0 
113.051147 5077.0 
113.059677 85154.0 
114.09111 4800.0 
115.038986 38951.0 
116.070709 6008.0 
120.080643 6629.0 
121.02874 25970.0 
121.064941 6445.0 
121.124893 3895.0 
122.059677 4671.0 
122.096283 5880.0 
123.007462 42299.0 
123.043983 71470.0 
123.080078 32444.0 
124.039101 17600.0 
124.075768 21802.0 
125.023193 5449.0 
125.059731 49292.0 
126.091408 5985.0 
127.038986 37961.0 
127.075699 5989.0 
127.085449 9966.0 
128.070526 86521.0 
129.054596 13867.0 
130.086273 17949.0 
132.101776 36453.0 
133.064392 7209.0 
135.043915 77578.0 
136.075943 4785.0 
136.202637 5751.0 
137.059891 39804.0 
138.054962 38906.0 
138.09137 50641.0 
139.038498 5734.0 
139.075562 16228.0 
140.03418 194545.0 
140.070389 6955.0 
141.018585 18209.0 
141.041977 3759.0 
141.054459 6567.0 
141.090988 3458.0 
142.05014 21947.0 
142.086014 18017.0 
143.081238 25612.0 
147.080383 7623.0 
148.076035 4349.0 
149.059433 6917.0 
150.091354 3697.0 
151.075043 72082.0 
152.070602 21501.0 
153.05484 92818.0 
154.086609 16877.0 
155.070251 7649.0 
156.101807 8256.0 
161.095047 4307.0 
162.053925 3747.0 
163.038803 51672.0 
164.10762 4733.0 
166.08606 95921.0 
167.070709 4711.0 
169.086044 7198.0 
170.08136 20623.0 
171.064926 67444.0 
176.070129 5644.0 
178.122314 5642.0 
180.065536 19250.0 
181.0495 20156.0 
184.060425 6317.0 
184.096954 41401.0 
189.091644 12325.0 
192.100281 4015.0 
194.081085 112636.0 
198.076416 13519.0 
199.060471 8431.0 
199.083084 6721.0 
200.092072 14416.0 
206.117035 16724.0 
210.11087 3725.0 
211.144241 7039.0 
212.091675 650193.0 
224.128281 3450.0 
230.101608 7608.0 
234.112152 28832.0 
242.13942 13837.0 
252.122925 349329.0 
253.11853 4490.0 
270.133392 917206.0 
292.154572 3584.0 
298.129059 3881.0 
310.163635 27100.0 
321.041168 4003.0 
328.175171 1555105.0 
353.171509 8292.0 
356.170044 918123.0 
429.220642 5408.0 
479.335144 4040.0 
487.105225 6958.0 
END IONS

BEGIN IONS
NAME=amygdalin CollisionEnergy:102040 M-H
PRECURSOR_MZ=456.151
INCHI="InChI=1S/C20H27NO11/c21-6-10(9-4-2-1-3-5-9)30-20-18(28)16(26)14(24)12(32-20)8-29-19-17(27)15(25)13(23)11(7-22)31-19/h1-5,10-20,22-28H,7-8H2/t10?,11-,12-,13-,14-,15+,16+,17-,18-,19-,20-/m1/s1"
SMILES=N#CC(OC1OC(COC2OC(CO)C(O)C(O)C2O)C(O)C(O)C1O)c1ccccc1
SPECTRUMID=CCMSLIB00010113700
50.72258 3241.0 
56.683731 2799.0 
58.005501 25605.0 
59.013329 290706.0 
63.828522 3121.0 
69.034218 20619.0 
71.013496 482903.0 
72.992722 38345.0 
73.029114 62381.0 
81.034538 22354.0 
83.013481 27136.0 
85.029297 84123.0 
87.008583 48049.0 
89.024246 627184.0 
95.013771 30834.0 
97.029419 36216.0 
99.008598 30817.0 
99.044884 3675.0 
101.024368 473976.0 
111.008583 12926.0 
113.024384 262494.0 
115.039803 3888.0 
118.671593 2970.0 
119.034897 366924.0 
125.0243 268970.0 
127.300728 3248.0 
130.060181 3533.0 
131.035736 92339.0 
134.569672 2912.0 
139.03981 12866.0 
141.019485 12262.0 
143.034912 131434.0 
143.047012 6197.0 
145.050079 5222.0 
149.044937 33887.0 
158.005737 4818.0 
159.030228 13719.0 
161.045502 250905.0 
163.387177 3264.0 
165.006195 3118.0 
167.035324 15066.0 
175.04068 15965.0 
175.091278 3460.0 
179.056076 329140.0 
188.056702 39273.0 
189.056549 7654.0 
203.055756 7308.0 
210.003204 3929.0 
221.066696 244418.0 
233.066177 16407.0 
245.066589 44855.0 
263.077271 144178.0 
294.097565 20683.0 
323.098541 1680237.0 
411.128845 3228.0 
456.151428 1060832.0 
END IONS

BEGIN IONS
NAME=Digoxigenin CollisionEnergy:205060 M+Na
PRECURSOR_MZ=413.23
INCHI="InChI=1S/C23H34O5/c1-21-7-5-15(24)10-14(21)3-4-17-18(21)11-19(25)22(2)16(6-8-23(17,22)27)13-9-20(26)28-12-13/h9,14-19,24-25,27H,3-8,10-12H2,1-2H3/t14-,15+,16-,17-,18+,19-,21+,22+,23+/m1/s1"
SMILES=CC12CCC(O)CC1CCC1C2CC(O)C2(C)C(C3=CC(=O)OC3)CCC12O
SPECTRUMID=CCMSLIB00010121327
51.22327 2814.0 
57.655319 2776.0 
85.468117 2749.0 
92.375816 3385.0 
142.647461 2629.0 
144.317688 2946.0 
208.878159 12931.0 
234.398376 3530.0 
256.395508 3006.0 
341.817749 3377.0 
413.228821 5329232.0 
431.23938 376207.0 
END IONS

BEGIN IONS
NAME=Streptonigrin///streptonigrin CollisionEnergy:205060 M-H
PRECURSOR_MZ=505.136
INCHI="InChI=1S/C25H22N4O8/c1-9-14(10-6-8-13(35-2)23(36-3)20(10)30)15(26)19(29-17(9)25(33)34)12-7-5-11-18(28-12)22(32)16(27)24(37-4)21(11)31/h5-8,30H,26-27H2,1-4H3,(H,33,34)"
SMILES=COC1=C(N)C(=O)c2nc(-c3nc(C(=O)O)c(C)c(-c4ccc(OC)c(OC)c4O)c3N)ccc2C1=O
SPECTRUMID=CCMSLIB00010123080
52.487419 2435.0 
73.490417 2682.0 
82.730698 2896.0 
84.07605 2378.0 
89.515633 2435.0 
108.198982 2382.0 
136.238693 3384.0 
197.174622 3213.0 
202.038925 5215.0 
207.991623 4332.0 
208.016998 4690.0 
227.033417 3074.0 
253.036987 3673.0 
399.0737 3106.0 
416.07431 17439.0 
428.916931 2959.0 
435.105774 3482.0 
475.126526 15933.0 
476.132568 17108.0 
505.135742 10018.0 
END IONS

BEGIN IONS
NAME=9-methyl-8-{[3-(trifluoromethyl)phenyl]methylthio}hydropurin-6-one CollisionEnergy:205060 M-H
PRECURSOR_MZ=339.053
INCHI="InChI=1S/C14H11F3N4OS/c1-21-11-10(12(22)19-7-18-11)20-13(21)23-6-8-3-2-4-9(5-8)14(15,16)17/h2-5,7H,6H2,1H3,(H,18,19,22)"
SMILES=Cn1c(SCc2cccc(C(F)(F)F)c2)nc2c(O)ncnc21
SPECTRUMID=CCMSLIB00010121614
55.79446 2454.0 
57.975201 60073.0 
65.998039 3855.0 
79.03006 13864.0 
104.30365 3618.0 
106.040901 3522.0 
118.672897 3742.0 
122.036217 4586.0 
123.997383 2602.0 
128.049271 2474.0 
134.023422 11858.0 
135.031418 4927.0 
136.230164 3252.0 
147.031326 54659.0 
149.04686 210323.0 
151.992538 6520.0 
179.003418 414083.0 
180.01123 2909723.0 
238.683075 2785.0 
254.98671 13015.0 
281.023315 4775.0 
296.04715 16163.0 
306.072601 3199.0 
339.053223 464758.0 
END IONS

BEGIN IONS
NAME=2-methoxyethyl 1-{2-[(2-chloro-4-nitrophenyl)amino]ethyl}-5-hydroxy-2-methylbe nzo[g]indole-3-carboxylate CollisionEnergy:102040 M-H
PRECURSOR_MZ=496.128
INCHI="InChI=1S/C25H24ClN3O6/c1-15-23(25(31)35-12-11-34-2)19-14-22(30)17-5-3-4-6-18(17)24(19)28(15)10-9-27-21-8-7-16(29(32)33)13-20(21)26/h3-8,13-14,27,30H,9-12H2,1-2H3"
SMILES=COCCOC(=O)c1c(C)n(CCNc2ccc([N+](=O)[O-])cc2Cl)c2c1cc(O)c1ccccc12
SPECTRUMID=CCMSLIB00010113317
64.87175 3512.0 
66.753632 3481.0 
71.65477 2854.0 
83.223846 2998.0 
83.406059 2833.0 
84.067497 2783.0 
85.060097 2878.0 
149.277374 2847.0 
168.543365 3095.0 
170.996796 70459.0 
185.423386 3668.0 
194.061142 26807.0 
195.069199 15457.0 
196.076859 52490.0 
197.013138 4265.0 
200.234161 3417.0 
222.056015 186140.0 
238.05098 15121.0 
239.05928 12702.0 
240.067673 24407.0 
266.080688 12860.0 
297.100372 245974.0 
298.108398 2374541.0 
312.121246 4231.0 
384.097717 15862.0 
496.128113 1941365.0 
END IONS

BEGIN IONS
NAME=5-(amidinoamino)-2-({[5-(dimethylamino)naphthyl]sulfonyl}amino)pentanoic acid CollisionEnergy:205060 2M-H
PRECURSOR_MZ=813.318
INCHI="InChI=1S/C18H25N5O4S/c1-23(2)15-9-3-7-13-12(15)6-4-10-16(13)28(26,27)22-14(17(24)25)8-5-11-21-18(19)20/h3-4,6-7,9-10,14,22H,5,8,11H2,1-2H3,(H,24,25)(H4,19,20,21)"
SMILES=CN(C)c1cccc2c(S(=O)(=O)NC(CCCNC(=N)N)C(=O)O)cccc12
SPECTRUMID=CCMSLIB00010115204
60.555481 3307.0 
63.96207 12681.0 
73.452972 3528.0 
73.970451 3368.0 
82.422249 4040.0 
88.850037 3736.0 
94.929817 3013.0 
104.316978 4755.0 
114.055878 14862.0 
132.824341 3192.0 
143.050262 57125.0 
170.085114 20614.0 
171.069229 3893.0 
185.108246 27350.0 
186.093231 29260.0 
200.439453 3968.0 
214.087418 13020.0 
234.059555 131284.0 
234.085159 5823.0 
249.070251 61362.0 
325.49408 3312.0 
364.135895 4429.0 
406.155273 478470.0 
END IONS

BEGIN IONS
NAME="3,4-dimethoxyphenyl 1-phenylpyrrolo[2,1-c]piperazin-2-yl ketone CollisionEnergy:205060" M+Na
PRECURSOR_MZ=385.152
INCHI="InChI=1S/C22H22N2O3/c1-26-19-11-10-17(15-20(19)27-2)22(25)24-14-13-23-12-6-9-18(23)21(24)16-7-4-3-5-8-16/h3-12,15,21H,13-14H2,1-2H3"
SMILES=COc1ccc(C(=O)N2CCn3cccc3C2c2ccccc2)cc1OC
SPECTRUMID=CCMSLIB00010118905
82.388069 2335.0 
95.123596 2498.0 
104.272408 3733.0 
131.938049 2225.0 
137.17836 2486.0 
142.066101 2145.0 
161.985168 2327.0 
165.054779 2764.0 
179.74794 2416.0 
193.461823 2747.0 
346.987579 2495.0 
350.547791 2412.0 
385.151855 1198038.0 
END IONS

BEGIN IONS
NAME=N-[3-methyl-4-(2-oxochromen-3-yl)phenyl]pentanamide CollisionEnergy:205060 M+formate
PRECURSOR_MZ=380.15
INCHI="InChI=1S/C21H21NO3/c1-3-4-9-20(23)22-16-10-11-17(14(2)12-16)18-13-15-7-5-6-8-19(15)25-21(18)24/h5-8,10-13H,3-4,9H2,1-2H3,(H,22,23)"
SMILES=CCCCC(=O)Nc1ccc(-c2cc3ccccc3oc2=O)c(C)c1
SPECTRUMID=CCMSLIB00010117399
122.657707 2906.0 
146.961548 3883.0 
174.95694 3193.0 
175.959534 4941.0 
222.092789 10615.0 
233.606079 2343.0 
250.087936 9721.0 
301.150177 2339.0 
334.145508 54361.0 
351.014099 2292.0 
372.378845 2454.0 
379.983002 2637.0 
397.15921 2387.0 
788.984802 2609.0 
END IONS

BEGIN IONS
NAME=ribose-5P CollisionEnergy:102040 M-H
PRECURSOR_MZ=229.012
INCHI="InChI=1S/C5H11O8P/c6-3-2(1-12-14(9,10)11)13-5(8)4(3)7/h2-8H,1H2,(H2,9,10,11)/t2-,3-,4-,5?/m1/s1"
SMILES=O=P(O)(O)OC[C@H]1OC(O)[C@H](O)[C@@H]1O
SPECTRUMID=CCMSLIB00010102711
52.231499 3871.850098 
59.013302 6498.779785 
71.013397 5333.299805 
78.958801 367139.0 
82.417999 4424.299805 
92.397301 5675.640137 
96.969597 1050410.0 
102.306999 4277.77002 
104.313004 4655.149902 
138.979996 148356.0 
150.912003 5025.22998 
168.990997 10445.400391 
192.992004 8913.639648 
229.011993 60997.398438 
END IONS

BEGIN IONS
NAME=hypotaurine CollisionEnergy:102040 M+H
PRECURSOR_MZ=110.027
INCHI="InChI=1S/C2H7NO2S/c3-1-2-6(4)5/h1-3H2,(H,4,5)"
SMILES=NCCS(=O)O
SPECTRUMID=CCMSLIB00010126616
54.4701 14656.299805 
62.797001 14127.0 
73.966103 16478.800781 
92.016899 813981.0 
110.018997 20937.800781 
110.027 511980.0 
END IONS

BEGIN IONS
NAME=2-(6-amino-4-hydroxypyrimidin-2-ylthio)-N-methyl-N-phenylacetamide CollisionEnergy:205060 M-H
PRECURSOR_MZ=289.076
INCHI="InChI=1S/C13H14N4O2S/c1-17(9-5-3-2-4-6-9)12(19)8-20-13-15-10(14)7-11(18)16-13/h2-7H,8H2,1H3,(H3,14,15,16,18)"
SMILES=CN(C(=O)CSc1nc(N)cc(O)n1)c1ccccc1
SPECTRUMID=CCMSLIB00010118583
50.90641 2407.0 
54.81715 2283.0 
55.182152 3120.0 
57.97509 87369.0 
60.974701 3382.0 
65.013992 11451.0 
65.998009 489605.0 
66.009079 48146.0 
66.506447 2727.0 
72.974907 164460.0 
73.981262 3023.0 
80.035004 2330.0 
83.024673 2288.0 
88.009567 4915.0 
90.009644 2589.0 
93.301773 2724.0 
97.969978 3581.0 
104.328217 3200.0 
106.065964 107446.0 
108.020149 117450.0 
110.03582 54889.0 
114.001587 25927.0 
114.996849 359212.0 
120.019707 10362.0 
123.027641 3181.0 
123.043808 2386.0 
126.030777 3830.0 
136.266525 2988.0 
138.996384 4330.0 
139.992294 9538.0 
140.975967 3809.0 
149.022339 4396.0 
154.007614 58539.0 
155.015564 106751.0 
155.033005 22547.0 
182.002762 600115.0 
198.065506 3406.0 
232.02803 4170.0 
232.054688 125542.0 
256.915436 2594.0 
261.594788 2409.0 
289.076538 51013.0 
END IONS

BEGIN IONS
NAME="2-(4-ethoxy-3-methoxyphenyl)-6,8-dimethylchromen-4-one CollisionEnergy:102040" M+H
PRECURSOR_MZ=325.143
INCHI="InChI=1S/C20H20O4/c1-5-23-17-7-6-14(10-19(17)22-4)18-11-16(21)15-9-12(2)8-13(3)20(15)24-18/h6-11H,5H2,1-4H3"
SMILES=CCOc1ccc(-c2cc(=O)c3cc(C)cc(C)c3o2)cc1OC
SPECTRUMID=CCMSLIB00010104705
55.0186 23506.0 
60.767738 3330.0 
65.038849 4143.0 
68.997681 9191.0 
80.34774 3867.0 
91.054497 1505657.0 
103.054367 24921.0 
105.033607 15216.0 
105.07019 31798.0 
123.008057 14951.0 
124.857826 3622.0 
131.049316 330038.0 
137.023514 6444.0 
141.018311 64087.0 
153.069916 5812.0 
155.035309 5716.0 
155.049225 4544.0 
155.086044 5044.0 
157.965057 4811.0 
163.039154 8307.0 
165.018463 2320397.0 
167.086121 21629.0 
173.059647 5860.0 
181.064957 38663.0 
183.028992 1143541.0 
185.059769 4826.0 
191.034042 28472.0 
195.081329 41490.0 
195.098816 4119.0 
197.05986 21033.0 
205.065994 5229.0 
208.965988 16744.0 
209.060013 89266.0 
213.091141 24747.0 
221.080841 86426.0 
223.075058 84590.0 
227.070587 160054.0 
233.058884 8753.0 
241.085831 28491.0 
251.070282 194478.0 
257.07962 5059.0 
269.080811 6032258.0 
285.128326 4382.0 
310.115631 8876.0 
325.14325 10695979.0 
326.678558 6301.0 
END IONS

BEGIN IONS
NAME="3,7-dihydroxyflavone CollisionEnergy:205060" M+H
PRECURSOR_MZ=255.065
INCHI="InChI=1S/C15H10O4/c16-10-6-7-11-12(8-10)19-15(14(18)13(11)17)9-4-2-1-3-5-9/h1-8,16,18H"
SMILES=O=c1c(O)c(-c2ccccc2)oc2cc(O)ccc12
SPECTRUMID=CCMSLIB00010119873
51.39782 2030.0 
52.860519 2097.0 
53.038971 12979.0 
53.20018 2177.0 
53.537521 2076.0 
65.039146 3295.0 
68.672943 2058.0 
68.997337 13367.0 
72.216553 2153.0 
81.033684 3154.0 
82.44062 2540.0 
82.446022 2601.0 
89.038628 18635.0 
91.054367 29592.0 
104.343071 2982.0 
105.033417 142407.0 
108.941299 2253.0 
121.028313 73945.0 
124.557327 2343.0 
127.7463 2715.0 
128.0616 9809.0 
129.069733 12067.0 
131.048889 11405.0 
131.084747 4937.0 
133.02832 3307.0 
137.023163 151906.0 
138.277222 2904.0 
143.084488 2757.0 
149.023178 76259.0 
152.062027 10637.0 
153.069656 43153.0 
155.033417 3849.0 
157.063995 4365.0 
165.069962 13611.0 
167.033463 6089.0 
171.079849 12564.0 
181.064392 112751.0 
184.052124 3060.0 
186.63092 2784.0 
197.058823 3219.0 
199.074936 48243.0 
209.059555 12935.0 
226.061905 22529.0 
227.068832 5194.0 
237.053726 11446.0 
255.064636 1762878.0 
END IONS

BEGIN IONS
NAME=L-citrulline CollisionEnergy:102040 M-H
PRECURSOR_MZ=174.088
INCHI="InChI=1S/C6H13N3O3/c7-4(5(10)11)2-1-3-9-6(8)12/h4H,1-3,7H2,(H,10,11)(H3,8,9,12)/t4-/m0/s1"
SMILES=N=C(O)NCCC[C@H](N)C(=O)O
SPECTRUMID=CCMSLIB00010102449
52.209301 1947.300049 
58.500599 1822.01001 
61.988098 17442.699219 
65.730598 2233.850098 
69.170898 2203.600098 
88.040398 3849.370117 
92.4086 2529.02002 
125.712997 2351.540039 
126.402 2542.870117 
131.082993 768648.0 
155.947006 148480.0 
156.076004 3236.23999 
157.059998 2439.290039 
173.957993 22190.099609 
174.087997 2923.709961 
END IONS

BEGIN IONS
NAME="2-amino-6-(hydroxymethyl)-4-naphthyl-8-oxo-4H-pyrano[3,2-b]pyran-3-carbonitril e CollisionEnergy:205060" M+H
PRECURSOR_MZ=347.103
INCHI="InChI=1S/C20H14N2O4/c21-9-15-17(14-7-3-5-11-4-1-2-6-13(11)14)19-18(26-20(15)22)16(24)8-12(10-23)25-19/h1-8,17,23H,10,22H2"
SMILES=N#CC1=C(N)Oc2c(oc(CO)cc2=O)C1c1cccc2ccccc12
SPECTRUMID=CCMSLIB00010122102
51.107941 3293.0 
55.01828 69159.0 
67.018227 94563.0 
68.997589 33982.0 
69.03392 3632.0 
71.013184 7417.0 
75.63842 2790.0 
77.532997 3211.0 
83.013077 37192.0 
85.028252 3549.0 
90.033188 3196.0 
95.012604 21039.0 
97.028297 4687.0 
101.023293 38258.0 
103.053978 23188.0 
111.007294 4807.0 
118.012932 3210.0 
118.646622 3978.0 
128.061691 12089.0 
135.019028 23923.0 
141.069443 14671.0 
143.033356 6914.0 
145.064331 17992.0 
152.061508 22398.0 
153.069717 26942.0 
154.063461 5696.0 
154.329086 2841.0 
155.048584 62979.0 
155.060623 13182.0 
163.053787 18047.0 
165.069611 70611.0 
166.077347 4229.0 
167.049103 16227.0 
168.056625 5972.0 
169.064377 16944.0 
173.034317 13781.0 
174.018372 5946.0 
174.042007 3357.0 
176.062271 13755.0 
177.057022 3537.0 
177.069916 50493.0 
177.768219 3591.0 
178.064209 16346.0 
178.077835 18833.0 
179.048676 142319.0 
179.085083 68953.0 
180.056366 18756.0 
180.080322 7098.0 
181.064362 37851.0 
189.06958 165265.0 
190.064178 274968.0 
191.048218 16679.0 
191.069504 13442.0 
191.087677 44787.0 
192.059677 3339.0 
192.080063 28339.0 
193.065506 26686.0 
197.061798 3968.0 
201.02919 4914.0 
201.05397 8631.0 
202.061707 114981.0 
202.081284 19169.0 
203.048309 27594.0 
203.087357 77865.0 
204.056702 25434.0 
204.080414 103829.0 
205.061813 160617.0 
206.05748 26369.0 
206.095413 4667.0 
207.045227 33175.0 
207.080322 43342.0 
211.737549 3747.0 
213.069839 22184.0 
214.064377 76759.0 
215.072144 22403.0 
216.082382 63683.0 
217.066742 30448.0 
217.091415 39466.0 
218.056595 73054.0 
218.076279 19013.0 
219.040588 26561.0 
219.090408 59024.0 
220.050003 12097.0 
220.075043 113895.0 
221.05957 6256.0 
225.054733 33206.0 
226.064468 3549.0 
227.048874 16543.0 
227.072586 110274.0 
228.080383 215875.0 
229.066055 50906.0 
230.059509 363507.0 
230.096832 54456.0 
231.04039 6360.0 
231.0681 59550.0 
231.08876 9109.0 
232.052368 4224.0 
232.075272 120631.0 
233.057693 22990.0 
233.08493 5644.0 
234.068115 3600.0 
234.09166 4955.0 
235.076767 27434.0 
236.068405 6578.0 
237.040878 7045.0 
238.064545 16792.0 
240.080399 42932.0 
241.06662 4154.0 
242.058746 5785.0 
242.084106 6558.0 
243.06749 97813.0 
243.091827 12551.0 
244.075516 99090.0 
245.069519 94876.0 
245.108002 7445.0 
246.054581 182743.0 
246.090378 46309.0 
246.239777 3283.0 
247.083847 57536.0 
248.069901 38137.0 
249.054581 3805.0 
254.059067 42591.0 
254.083817 3137.0 
255.043472 20744.0 
255.069778 3597.0 
255.092422 30335.0 
256.074982 304146.0 
257.058319 36767.0 
257.086243 21222.0 
258.055969 11144.0 
258.090393 55863.0 
259.058289 24621.0 
260.069733 47468.0 
263.069672 94974.0 
264.077606 49784.0 
267.066742 14209.0 
268.074921 5192.0 
269.069153 4699.0 
270.054413 26921.0 
271.05899 12555.0 
271.089111 32492.0 
272.069946 124316.0 
273.054047 23178.0 
273.078064 18786.0 
274.049164 23785.0 
274.085388 51639.0 
275.069214 17360.0 
281.079651 6724.0 
282.083862 19150.0 
283.060791 15784.0 
283.087738 13543.0 
284.069733 133199.0 
285.078766 16983.0 
286.085999 56823.0 
287.081177 20439.0 
289.097137 6864.0 
292.060089 20148.0 
296.069031 17205.0 
299.057404 16628.0 
300.064056 5607.0 
301.067993 39811.0 
301.106659 4389.0 
302.080597 364896.0 
303.063202 4766.0 
304.097198 11473.0 
311.081696 11401.0 
312.065033 78222.0 
313.073578 14205.0 
319.105927 4244.0 
329.096252 29300.0 
330.075378 280286.0 
346.09433 3093.0 
347.101868 2208506.0 
END IONS

BEGIN IONS
NAME="1-(1,1,2,2,3,3,4,4-octafluorobutyl)-1,2,3,4-tetrahydrobeta-carboline-3-carboxy lic acid CollisionEnergy:205060" M-H
PRECURSOR_MZ=415.07
INCHI="InChI=1S/C16H12F8N2O2/c17-13(18)15(21,22)16(23,24)14(19,20)11-10-7(5-9(26-11)12(27)28)6-3-1-2-4-8(6)25-10/h1-4,9,11,13,25-26H,5H2,(H,27,28)"
SMILES=O=C(O)C1Cc2c([nH]c3ccccc23)C(C(F)(F)C(F)(F)C(F)(F)C(F)F)N1
SPECTRUMID=CCMSLIB00010117440
57.503609 2356.0 
73.947929 3644.0 
76.821457 2639.0 
82.394417 4242.0 
88.650398 2516.0 
98.153587 2881.0 
103.433151 2514.0 
104.279823 3806.0 
116.050491 55732.0 
120.962128 3819.0 
125.788147 2350.0 
135.622269 2787.0 
140.051315 3404.0 
141.045074 4582.0 
142.066132 341933.0 
146.962112 2786.0 
148.956909 5648.0 
153.058533 6524.0 
153.639099 2940.0 
154.053955 20588.0 
167.061462 155113.0 
169.077118 1556125.0 
180.989868 12404.0 
183.056686 10922.0 
192.804749 2673.0 
201.066254 4460.0 
213.067108 80180.0 
231.03685 3561.0 
240.989899 3082.0 
251.042496 11562.0 
266.987305 4002.0 
271.049255 31909.0 
278.915192 12632.0 
291.056152 16572.0 
311.062103 6223.0 
321.577698 2607.0 
331.067017 20404.0 
335.038361 2823.0 
368.147644 2571.0 
374.616699 2434.0 
375.056641 10790.0 
395.06369 16216.0 
415.00589 7990.0 
415.069336 138160.0 
END IONS

BEGIN IONS
NAME="butyl 6-(3-chloro-4-hydroxy-5-methoxyphenyl)-4-methyl-2-oxo-1,3,6-trihydropyri midine-5-carboxylate CollisionEnergy:205060" M+H
PRECURSOR_MZ=369.121
INCHI="InChI=1S/C17H21ClN2O5/c1-4-5-6-25-16(22)13-9(2)19-17(23)20-14(13)10-7-11(18)15(21)12(8-10)24-3/h7-8,14,21H,4-6H2,1-3H3,(H2,19,20,23)"
SMILES=CCCCOC(=O)C1=C(C)N=C(O)NC1c1cc(Cl)c(O)c(OC)c1
SPECTRUMID=CCMSLIB00010123225
52.8465 3050.0 
53.00272 3957.0 
57.070358 29169.0 
60.04483 7384.0 
61.039989 26047.0 
67.018333 4372.0 
68.013359 3357.0 
84.044487 15350.0 
91.054543 14824.0 
94.028847 14128.0 
96.008209 7081.0 
102.046341 6045.0 
103.054153 5713.0 
104.290398 3537.0 
105.033699 2894.0 
113.038818 3327.0 
115.054176 60370.0 
116.061958 27253.0 
117.069763 14022.0 
119.049438 5147.0 
122.999428 23604.0 
126.99424 43976.0 
130.041 5494.0 
131.048843 12451.0 
133.028656 6274.0 
137.015793 43652.0 
137.034576 79462.0 
140.002365 4312.0 
143.04863 28869.0 
143.996887 4716.0 
144.057251 40709.0 
145.06485 55095.0 
146.070908 2919.0 
147.044098 3830.0 
149.015167 64632.0 
150.994568 59962.0 
155.045074 108803.0 
155.059616 4231.0 
156.654587 3117.0 
157.052948 3011.0 
157.981262 3355.0 
159.020813 19494.0 
159.043854 37670.0 
160.075378 4945.0 
164.026306 19649.0 
165.010239 57857.0 
167.997391 31237.0 
169.004852 14831.0 
171.020905 5732.0 
171.04454 5863.0 
172.051376 6290.0 
173.059464 10718.0 
174.054092 21265.0 
174.068329 91681.0 
175.038925 5062.0 
176.046997 7467.0 
177.009964 149762.0 
177.027512 5685.0 
178.989288 151677.0 
179.006882 6232.0 
179.025681 23726.0 
183.020767 58292.0 
184.016357 3810.0 
185.404465 3962.0 
186.031845 57735.0 
187.015564 24065.0 
188.071045 5873.0 
189.05806 4546.0 
189.077744 51827.0 
190.005875 5664.0 
191.999619 39147.0 
192.017563 36175.0 
193.005035 56674.0 
194.01239 32919.0 
195.031723 3121.0 
195.992615 35935.0 
197.036209 3224.0 
203.033936 11964.0 
206.013138 19371.0 
207.020615 30456.0 
208.028336 5409.0 
209.021133 22220.0 
209.036865 42387.0 
210.032013 11858.0 
211.015503 556634.0 
211.107468 102998.0 
212.010864 5349.0 
217.005371 5706.0 
217.072754 3827.0 
218.000092 7392.0 
218.056732 21866.0 
219.99205 251148.0 
220.013779 14355.0 
220.999924 83856.0 
224.047211 302401.0 
225.03038 4162.0 
235.015396 1354914.0 
237.018768 13672.0 
238.002167 49515.0 
245.99649 4402.0 
252.01149 4974.0 
252.041931 243668.0 
253.025909 1285895.0 
278.021118 6878.0 
280.072266 3248.0 
295.048157 28287.0 
296.029602 4279.0 
309.088379 128795.0 
326.114868 121244.0 
342.241943 3509.0 
342.488312 3270.0 
369.120697 254174.0 
END IONS

BEGIN IONS
NAME="(2E)-1-[2-(2,4-dimethoxyphenyl)-6-hydroxy-3-azabicyclo[4.4.0]dec-3-yl]-3-[4-(m ethylethyl)phenyl]prop-2-en-1-one CollisionEnergy:102040" M+Na
PRECURSOR_MZ=486.261
INCHI="InChI=1S/C29H37NO4/c1-20(2)22-11-8-21(9-12-22)10-15-27(31)30-18-17-29(32)16-6-5-7-25(29)28(30)24-14-13-23(33-3)19-26(24)34-4/h8-15,19-20,25,28,32H,5-7,16-18H2,1-4H3/b15-10+"
SMILES=COc1ccc(C2C3CCCCC3(O)CCN2C(=O)C=Cc2ccc(C(C)C)cc2)c(OC)c1
SPECTRUMID=CCMSLIB00010109778
57.803749 3397.0 
60.550461 3835.0 
64.058678 3346.0 
66.195053 3539.0 
90.810249 3527.0 
104.305557 4054.0 
109.55719 4134.0 
153.298004 3424.0 
163.695831 3488.0 
178.419266 3139.0 
202.932159 3549.0 
228.18132 3719.0 
271.128967 7117.0 
280.130463 14730.0 
285.876007 3828.0 
297.14566 6465.0 
303.181183 5052.0 
312.1539 4585.0 
468.253052 4716.0 
471.237152 37405.0 
486.260925 13376475.0 
END IONS

BEGIN IONS
NAME=Vanillylmandelic acid CollisionEnergy:102040 M+H-H2O
PRECURSOR_MZ=181.05
INCHI="InChI=1S/C9H10O5/c1-14-7-4-5(2-3-6(7)10)8(11)9(12)13/h2-4,8,10-11H,1H3,(H,12,13)"
SMILES=COc1cc(C(O)C(=O)O)ccc1O
SPECTRUMID=CCMSLIB00010113884
65.03894 62702.0 
66.517273 2441.0 
69.566177 2787.0 
70.942101 23152.0 
71.614159 2400.0 
73.753448 2726.0 
77.038887 11722.0 
84.959869 54878.0 
88.952599 6009.0 
92.535789 3115.0 
93.033531 182173.0 
97.064751 27661.0 
102.970253 5777.0 
104.963943 5183.0 
105.033386 103724.0 
106.979767 14484.0 
110.036324 27407.0 
111.04393 292852.0 
111.968193 38941.0 
118.672523 3256.0 
121.028236 31623.0 
125.05954 526724.0 
129.978867 10726.0 
134.97438 19251.0 
138.029694 4055.0 
139.038574 15110.0 
139.075089 2768.0 
139.962799 19246.0 
146.981506 4773.0 
149.023132 1644604.0 
153.054382 923384.0 
153.979584 2995.0 
157.973557 17697.0 
162.972794 11990.0 
164.996521 2727.0 
167.033249 19156.0 
180.985229 27033.0 
181.04921 1272415.0 
183.319443 2534.0 
190.048813 4001.0 
198.995819 2588.0 
END IONS

BEGIN IONS
NAME="Arbutin, 98+% CollisionEnergy:205060" M+Na
PRECURSOR_MZ=295.079
INCHI="InChI=1S/C12H16O7/c13-5-8-9(15)10(16)11(17)12(19-8)18-7-3-1-6(14)2-4-7/h1-4,8-17H,5H2/t8?,9-,10-,11?,12-/m1/s1"
SMILES=OCC1OC(Oc2ccc(O)cc2)C(O)C(O)C1O
SPECTRUMID=CCMSLIB00010125843
61.011108 162967.0 
66.734123 3530.0 
68.19149 2245.0 
79.021507 112118.0 
104.275543 2936.0 
136.195053 2849.0 
156.974289 24865.0 
158.990952 2791.0 
174.984955 183088.0 
177.337097 2373.0 
206.117264 3021.0 
216.97757 101655.0 
221.845291 2999.0 
234.951447 18446.0 
234.988129 698620.0 
258.004303 2575.0 
276.946014 3115.0 
276.97937 3078.0 
294.915894 9270.0 
294.954529 132970.0 
294.991913 210582.0 
295.078522 916417.0 
321.550049 2497.0 
END IONS

BEGIN IONS
NAME=N-(4-fluoro-2-methylphenyl)-2-{2-oxo-4-[N-benzylcarbamoyl]hydroquinolyl}acetam ide CollisionEnergy:205060 M+formate
PRECURSOR_MZ=488.163
INCHI="InChI=1S/C26H22FN3O3/c1-17-13-19(27)11-12-22(17)29-24(31)16-30-23-10-6-5-9-20(23)21(14-25(30)32)26(33)28-15-18-7-3-2-4-8-18/h2-14H,15-16H2,1H3,(H,28,33)(H,29,31)"
SMILES=Cc1cc(F)ccc1NC(=O)Cn1c(=O)cc(C(O)=NCc2ccccc2)c2ccccc21
SPECTRUMID=CCMSLIB00010122961
51.431782 2960.0 
66.69532 2675.0 
66.747101 3256.0 
72.163643 2560.0 
82.406807 3527.0 
92.382462 3475.0 
104.292503 2940.0 
115.055237 12653.0 
116.050453 50069.0 
117.927757 2634.0 
118.663383 3754.0 
124.056549 37411.0 
128.050491 95827.0 
130.06601 86913.0 
132.045868 6159.0 
142.065857 6818.0 
143.060806 5294.0 
144.045334 163206.0 
146.060547 3727.0 
150.035995 4032.0 
156.045212 4646.0 
156.069244 3769.0 
157.976669 2841.0 
158.048065 35469.0 
158.061203 128965.0 
160.041122 22084.0 
167.061829 3034.0 
169.07724 13050.0 
172.040039 19995.0 
174.055756 3438.0 
176.071854 17557.0 
184.040359 40279.0 
185.407715 3395.0 
188.311676 2936.0 
202.051819 5222.0 
204.426636 2625.0 
212.943512 2641.0 
231.093903 11317.0 
232.101166 4058.0 
245.107498 5579.0 
247.124039 67626.0 
261.103668 39079.0 
263.118713 4257.0 
277.098236 34453.0 
291.113129 5040.0 
293.093994 3436.0 
305.045166 3136.0 
309.104156 91427.0 
317.094025 6181.0 
323.103333 58207.0 
442.157104 779964.0 
467.367706 3187.0 
END IONS

BEGIN IONS
NAME="3-[(3-hydroxy-4-methoxyphenyl)methylene]-5,6-dimethoxy-1H-benzo[d]azolidin-2-o ne CollisionEnergy:102040" M-H
PRECURSOR_MZ=326.103
INCHI="InChI=1S/C18H17NO5/c1-22-15-5-4-10(7-14(15)20)6-12-11-8-16(23-2)17(24-3)9-13(11)19-18(12)21/h4-9,20H,1-3H3,(H,19,21)/b12-6-"
SMILES=COc1ccc(C=C2C(O)=Nc3cc(OC)c(OC)cc32)cc1O
SPECTRUMID=CCMSLIB00010109434
51.551842 2626.0 
59.70747 2379.0 
88.647812 2267.0 
92.386963 3332.0 
104.294151 3914.0 
118.661781 4668.0 
144.669815 2441.0 
177.414215 2193.0 
189.931473 3343.0 
251.023026 2938.0 
253.037598 5887.0 
263.228485 2464.0 
264.030396 4786.0 
266.045471 10121.0 
267.054016 5772.0 
268.062347 11317.0 
279.85791 4009.0 
281.033325 97709.0 
282.077209 13013.0 
283.048401 2706.0 
287.849335 2613.0 
294.040741 4756.0 
296.05658 435304.0 
310.073486 3777.0 
311.080139 345825.0 
326.071136 36753.0 
326.103821 768564.0 
END IONS

BEGIN IONS
NAME="3-[(3-hydroxy-4-methoxyphenyl)methylene]-5,6-dimethoxy-1H-benzo[d]azolidin-2-o ne CollisionEnergy:205060" 2M-H
PRECURSOR_MZ=653.214
INCHI="InChI=1S/C18H17NO5/c1-22-15-5-4-10(7-14(15)20)6-12-11-8-16(23-2)17(24-3)9-13(11)19-18(12)21/h4-9,20H,1-3H3,(H,19,21)/b12-6-"
SMILES=COc1ccc(C=C2C(O)=Nc3cc(OC)c(OC)cc32)cc1O
SPECTRUMID=CCMSLIB00010120777
58.48156 3432.0 
65.813744 3078.0 
66.330719 2680.0 
67.129692 2957.0 
71.317978 2997.0 
73.951134 3212.0 
82.399246 3776.0 
85.874741 2974.0 
89.407173 2781.0 
95.961197 2956.0 
101.158043 2926.0 
110.904831 3222.0 
123.218102 3079.0 
140.736511 2993.0 
190.929703 4168.0 
200.386795 4031.0 
225.040268 3367.0 
236.036377 7130.0 
253.038727 19866.0 
264.030457 36917.0 
266.950195 3092.0 
267.054169 4098.0 
268.061218 13205.0 
271.960083 2876.0 
281.032837 80228.0 
296.056671 123032.0 
311.080994 20385.0 
326.103302 172423.0 
468.702881 2990.0 
471.088898 2912.0 
477.833252 2985.0 
END IONS

BEGIN IONS
NAME=ST077167 CollisionEnergy:102040 M+H
PRECURSOR_MZ=339.207
INCHI="InChI=1S/C21H26N2O2/c1-25-17(24)15-13-19-7-4-11-23-12-10-20(18(19)23)14-5-2-3-6-16(14)22-21(15,20)9-8-19/h2-3,5-6,15,18,22H,4,7-13H2,1H3"
SMILES=COC(=O)C1CC23CCCN4CCC5(c6ccccc6NC15CC2)C43
SPECTRUMID=CCMSLIB00010109460
52.63303 10284.0 
58.065552 17159.0 
63.99197 10254.0 
64.052696 10989.0 
66.428368 9697.0 
66.741913 12009.0 
70.065948 11469.0 
82.395844 11198.0 
82.936737 10155.0 
87.043991 55697.0 
92.374237 11797.0 
96.080597 17776.0 
110.09581 37024.0 
124.111572 22102.0 
127.606682 10114.0 
136.112381 14349.0 
156.080582 14081.0 
168.081619 11698.0 
182.096207 19761.0 
194.098511 15499.0 
196.112259 128323.0 
197.107086 413882.0 
202.087097 20815.0 
208.111786 23385.0 
209.482544 15220.0 
209.501328 14012.0 
222.127121 67831.0 
225.138306 1401203.0 
236.142242 22233.0 
251.153824 64131.0 
253.168579 25798.0 
279.148285 71837.0 
279.184662 106967.0 
280.191315 16903.0 
307.178436 525743.0 
308.163208 39879.0 
311.172852 99656.0 
337.60141 70066.0 
338.193878 22855.0 
339.205963 70566488.0 
340.822418 62296.0 
END IONS

BEGIN IONS
NAME="9-methyl-8-{[5-methyl-2-(4-methylphenyl)(1,3-oxazol-4-yl)]methylthio}hydropuri n-6-one CollisionEnergy:102040" M+H
PRECURSOR_MZ=368.118
INCHI="InChI=1S/C18H17N5O2S/c1-10-4-6-12(7-5-10)17-21-13(11(2)25-17)8-26-18-22-14-15(23(18)3)19-9-20-16(14)24/h4-7,9H,8H2,1-3H3,(H,19,20,24)"
SMILES=Cc1ccc(-c2nc(CSc3nc4c(O)ncnc4n3C)c(C)o2)cc1
SPECTRUMID=CCMSLIB00010109138
53.327911 2662.0 
60.062691 2795.0 
66.750061 3680.0 
69.033997 5953.0 
77.770866 3064.0 
79.76667 3128.0 
82.408234 5136.0 
83.22892 3354.0 
84.246986 2797.0 
91.05481 3197.0 
92.386208 3800.0 
106.61306 3715.0 
118.065063 351649.0 
138.176544 3305.0 
152.849289 2797.0 
165.844604 2823.0 
183.033478 22541.0 
185.4366 4519.0 
186.091278 4852638.0 
186.749939 6031.0 
227.116898 13495.0 
246.149979 3533.0 
282.938629 6614.0 
292.171265 3159.0 
294.153656 3200.0 
300.944702 3209.0 
326.926025 6125.0 
368.117065 1217874.0 
368.158051 43365.0 
END IONS

BEGIN IONS
NAME=adenosine 5'-monophosphate CollisionEnergy:102040 M-H
PRECURSOR_MZ=346.056
INCHI="InChI=1S/C10H14N5O7P/c11-8-5-9(13-2-12-8)15(3-14-5)10-7(17)6(16)4(22-10)1-21-23(18,19)20/h2-4,6-7,10,16-17H,1H2,(H2,11,12,13)(H2,18,19,20)/t4-,6-,7-,10-/m1/s1"
SMILES=Nc1ncnc2c1ncn2[C@@H]1O[C@H](COP(=O)(O)O)[C@@H](O)[C@H]1O
SPECTRUMID=CCMSLIB00010102571
52.737202 7149.450195 
53.709301 7483.799805 
61.209202 7387.109863 
66.7658 7467.839844 
77.767502 8331.589844 
78.958801 77969.898438 
92.407501 7890.700195 
95.075996 7327.080078 
95.099503 7569.140137 
96.969398 36094.101562 
104.320999 8608.209961 
143.643997 8611.519531 
166.054001 523898.0 
187.147003 8253.629883 
211.001007 8614.370117 
220.707001 9042.160156 
286.078003 162288.0 
346.056 78112.601562 
END IONS

BEGIN IONS
NAME="2-({4-[(2H,3H-benzo[3,4-e]1,4-dioxan-6-ylsulfonyl)amino]phenyl}carbonylamino)a cetic acid CollisionEnergy:102040" M-H
PRECURSOR_MZ=391.061
INCHI="InChI=1S/C17H16N2O7S/c20-16(21)10-18-17(22)11-1-3-12(4-2-11)19-27(23,24)13-5-6-14-15(9-13)26-8-7-25-14/h1-6,9,19H,7-8,10H2,(H,18,22)(H,20,21)"
SMILES=O=C(O)CNC(=O)c1ccc(NS(=O)(=O)c2ccc3c(c2)OCCO3)cc1
SPECTRUMID=CCMSLIB00010110389
54.984211 2967.0 
55.24295 2741.0 
58.234661 2594.0 
59.937889 2475.0 
61.809681 2427.0 
71.168869 2296.0 
73.75808 2347.0 
74.024429 3880.0 
78.44165 2900.0 
79.957077 11866.0 
95.013496 21865.0 
100.003967 25372.0 
109.029503 3079.0 
110.005768 3391.0 
123.009087 3326.0 
126.33654 2498.0 
128.208633 2919.0 
133.873657 2941.0 
135.04509 26953.0 
138.218475 3024.0 
147.056213 58776.0 
148.064301 27335.0 
150.032394 29044.0 
155.21373 2307.0 
158.866486 2443.0 
170.061722 2624.0 
174.955353 2860.0 
192.053024 3406.0 
196.298126 2548.0 
198.056091 42920.0 
199.006989 167296.0 
199.08815 13056.0 
211.08754 2815.0 
227.082474 28998.0 
237.066971 3875.0 
253.062622 3128.0 
255.077393 202156.0 
262.016144 2867.0 
290.04892 112552.0 
317.060608 10697.0 
319.039978 19051.0 
329.060211 23165.0 
333.054932 5823.0 
347.070557 253193.0 
391.060455 1401735.0 
END IONS

BEGIN IONS
NAME="2-{4-[(1E)-3-oxo-3-(3,4,5-trimethoxyphenyl)prop-1-enyl]phenoxy}acetamide CollisionEnergy:102040" M+formate
PRECURSOR_MZ=416.135
INCHI="InChI=1S/C20H21NO6/c1-24-17-10-14(11-18(25-2)20(17)26-3)16(22)9-6-13-4-7-15(8-5-13)27-12-19(21)23/h4-11H,12H2,1-3H3,(H2,21,23)/b9-6+"
SMILES=COc1cc(C(=O)C=Cc2ccc(OCC(=N)O)cc2)cc(OC)c1OC
SPECTRUMID=CCMSLIB00010105072
73.963608 2344.0 
79.846802 2246.0 
130.079132 2588.0 
131.536179 2560.0 
136.223709 2573.0 
178.394028 2678.0 
263.395233 2492.0 
359.771881 2697.0 
END IONS

BEGIN IONS
NAME=RETRORSINE CollisionEnergy:205060 M+Na
PRECURSOR_MZ=374.157
INCHI="InChI=1S/C18H25NO6/c1-3-12-8-11(2)18(23,10-20)17(22)24-9-13-4-6-19-7-5-14(15(13)19)25-16(12)21/h3-4,11,14-15,20,23H,5-10H2,1-2H3/b12-3-/t11-,14-,15-,18-/m1/s1"
SMILES=CC=C1CC(C)C(O)(CO)C(=O)OCC2=CCN3CCC(OC1=O)C23
SPECTRUMID=CCMSLIB00010115792
54.899239 2743.0 
61.47813 2517.0 
63.038811 2599.0 
70.64254 2801.0 
80.04966 3957.0 
91.054237 3792.0 
93.069992 10811.0 
94.065079 5336.0 
95.623627 2660.0 
98.868828 2668.0 
103.054176 5866.0 
104.286186 2601.0 
118.064796 2665.0 
118.658669 4422.0 
120.080788 516230.0 
141.138672 2500.0 
168.11203 2444.0 
180.289246 2531.0 
185.632355 2579.0 
209.075012 3121.0 
212.060013 2984.0 
227.639008 2704.0 
236.601349 2632.0 
237.074326 23607.0 
255.083466 37144.0 
374.156952 996348.0 
END IONS

BEGIN IONS
NAME=6-methoxy-3-{[benzylamino]methyl}hydroquinolin-2-one CollisionEnergy:102040 M+Na
PRECURSOR_MZ=317.126
INCHI="InChI=1S/C18H18N2O2/c1-22-16-7-8-17-14(10-16)9-15(18(21)20-17)12-19-11-13-5-3-2-4-6-13/h2-10,19H,11-12H2,1H3,(H,20,21)"
SMILES=COc1ccc2nc(O)c(CNCc3ccccc3)cc2c1
SPECTRUMID=CCMSLIB00010104843
78.290703 2577.0 
106.427696 2551.0 
146.315521 2561.0 
150.401932 2875.0 
178.896484 2776.0 
202.163116 2960.0 
210.05217 1156825.0 
225.885956 4311.0 
241.46283 2730.0 
251.86528 5605.0 
269.874908 3155.0 
317.125275 3306102.0 
END IONS

BEGIN IONS
NAME=2-[2-(phenylcarbonyl)benzimidazolyl]-N-(2-phenylethyl)acetamide CollisionEnergy:102040 M+Cl
PRECURSOR_MZ=418.133
INCHI="InChI=1S/C24H21N3O2/c28-22(25-16-15-18-9-3-1-4-10-18)17-27-21-14-8-7-13-20(21)26-24(27)23(29)19-11-5-2-6-12-19/h1-14H,15-17H2,(H,25,28)"
SMILES=O=C(c1ccccc1)c1nc2ccccc2n1CC(O)=NCCc1ccccc1
SPECTRUMID=CCMSLIB00010104033
62.15147 2329.0 
63.492039 2017.0 
82.400574 3207.0 
92.380867 3160.0 
118.660004 3352.0 
120.668991 2522.0 
125.935493 2305.0 
146.960968 4802.0 
214.948822 3304.0 
225.079437 17940.0 
247.804794 2433.0 
254.723099 2377.0 
256.042267 3408.0 
316.37085 2522.0 
417.985016 4596.0 
418.134369 32085.0 
END IONS

BEGIN IONS
NAME="8-{[(3-chloro-4-imidazolylphenyl)amino]sulfonyl}-4,6-dimethylhydroquinolin-2-o ne CollisionEnergy:205060" M-H
PRECURSOR_MZ=427.064
INCHI="InChI=1S/C20H17ClN4O3S/c1-12-7-15-13(2)9-19(26)23-20(15)18(8-12)29(27,28)24-14-3-4-17(16(21)10-14)25-6-5-22-11-25/h3-11,24H,1-2H3,(H,23,26)"
SMILES=Cc1cc(S(=O)(=O)Nc2ccc(-n3ccnc3)c(Cl)c2)c2nc(O)cc(C)c2c1
SPECTRUMID=CCMSLIB00010117332
66.762123 3020.0 
67.029747 21035.0 
73.972656 2801.0 
77.96521 13640.0 
82.143227 2809.0 
92.402924 5198.0 
119.037804 5790.0 
128.050613 13657.0 
129.045898 4693.0 
132.045532 332352.0 
141.591766 2677.0 
146.061172 131060.0 
155.0495 10105.0 
156.057297 6008.0 
158.061218 17484.0 
159.069641 5256.0 
160.040512 48009.0 
160.053741 4489.0 
161.04866 5394.0 
162.056015 4394.0 
166.160645 2945.0 
170.061111 24348.0 
172.076813 185087.0 
172.093445 6791.0 
174.056091 160883.0 
187.063934 136276.0 
188.03566 27013.0 
188.071564 115552.0 
191.025681 91078.0 
192.033463 248789.0 
202.051285 4038.0 
211.422562 3906.0 
220.68428 3248.0 
223.039246 6474.0 
236.038574 12455.0 
251.034653 22253.0 
259.088318 5070.0 
284.111115 3075.0 
285.115967 3566.0 
286.098663 77077.0 
286.131683 5189.0 
299.105011 6589.0 
300.113403 45680.0 
300.988129 10866.0 
309.113525 6383.0 
311.0961 3446.0 
312.1026 18478.0 
320.096436 5019.0 
326.117126 28791.0 
327.125092 108060.0 
342.433716 3070.0 
351.058807 4298.0 
358.109131 9241.0 
363.101898 188729.0 
392.956696 4677.0 
427.063751 2127017.0 
427.511749 12067.0 
432.28363 2891.0 
491.570343 3606.0 
END IONS

BEGIN IONS
NAME="6,7-dimethoxy-1-(2-nitrophenyl)isochromane CollisionEnergy:102040" M+H
PRECURSOR_MZ=316.118
INCHI="InChI=1S/C17H17NO5/c1-21-15-9-11-7-8-23-17(13(11)10-16(15)22-2)12-5-3-4-6-14(12)18(19)20/h3-6,9-10,17H,7-8H2,1-2H3"
SMILES=COc1cc2c(cc1OC)C(c1ccccc1[N+](=O)[O-])OCC2
SPECTRUMID=CCMSLIB00010113229
53.953621 2140.0 
70.499733 2177.0 
78.046623 42377.0 
79.054283 2892.0 
79.173027 2749.0 
83.224442 2400.0 
88.075447 2553.0 
104.29126 2324.0 
105.069847 12046.0 
118.040894 2387.0 
133.065109 11316.0 
134.024063 4573.0 
134.072769 4763.0 
135.044327 12076.0 
135.080231 5700.0 
136.039246 87478.0 
139.075211 9245.0 
150.067276 71196.0 
151.075089 37900.0 
157.967209 2958.0 
163.03894 55932.0 
165.090897 1069425.0 
167.070114 31840.0 
180.077789 76031.0 
180.094315 3638.0 
185.708832 2411.0 
195.065048 29121.0 
196.075516 3607.0 
207.067535 2807.0 
209.096664 3212.0 
210.090973 15531.0 
211.095261 5698.0 
223.061432 4133.0 
226.085739 3700.0 
236.068817 3316.0 
237.092361 22020.0 
238.086151 11393.0 
239.093369 2789.0 
240.10141 6016.0 
241.104523 15978.0 
251.056549 13324.0 
255.087845 3260.0 
255.117645 2989.0 
256.095642 3176.0 
257.099274 3048.0 
266.081604 4423.0 
267.088196 5602.0 
270.11261 10172.0 
271.078918 11421.0 
271.525635 2497.0 
281.101959 2716.0 
284.090759 20288.0 
298.106995 9357.0 
299.113586 5617.0 
316.115845 20562.0 
316.320831 28970.0 
END IONS

BEGIN IONS
NAME="N-[(1E)-2-(2-ethoxyphenyl)-1-azavinyl]-2-[(3,5-dioxo(2H,4H-1,2,4-triazin-6-yl) )amino]acetamide CollisionEnergy:102040" M+Na
PRECURSOR_MZ=355.112
INCHI="InChI=1S/C14H16N6O4/c1-2-24-10-6-4-3-5-9(10)7-16-18-11(21)8-15-12-13(22)17-14(23)20-19-12/h3-7H,2,8H2,1H3,(H,15,19)(H,18,21)(H2,17,20,22,23)/b16-7+"
SMILES=CCOc1ccccc1C=NN=C(O)CNc1nnc(O)nc1O
SPECTRUMID=CCMSLIB00010110114
59.177502 2116.0 
92.37413 2364.0 
104.286652 2673.0 
105.596733 2397.0 
116.234444 2238.0 
120.485298 2293.0 
134.240875 2635.0 
135.394028 2515.0 
170.339645 2314.0 
220.640427 2543.0 
308.898407 13619.0 
331.915527 4875.0 
355.111755 1069345.0 
373.855591 2562.0 
END IONS

BEGIN IONS
NAME=N-(4-bromophenyl)-2-[2-oxo-4-(pyrrolidinylcarbonyl)hydroquinolyl]acetamide CollisionEnergy:102040 M+Na
PRECURSOR_MZ=476.058
INCHI="InChI=1S/C22H20BrN3O3/c23-15-7-9-16(10-8-15)24-20(27)14-26-19-6-2-1-5-17(19)18(13-21(26)28)22(29)25-11-3-4-12-25/h1-2,5-10,13H,3-4,11-12,14H2,(H,24,27)"
SMILES=O=C(Cn1c(=O)cc(C(=O)N2CCCC2)c2ccccc21)Nc1ccc(Br)cc1
SPECTRUMID=CCMSLIB00010113248
50.52272 2587.0 
58.862381 2718.0 
62.323891 2724.0 
73.676826 2879.0 
78.765732 2515.0 
81.092171 2587.0 
89.936157 3024.0 
93.215279 2835.0 
104.292862 2995.0 
105.069618 4541.0 
118.663818 3213.0 
180.151688 2934.0 
237.588531 7103.0 
255.112259 12841.0 
283.108948 4726.0 
400.297028 2994.0 
434.123535 4178.0 
435.126923 95510.0 
455.120667 68983.0 
455.621704 60631.0 
456.116699 45978.0 
458.199554 3790.0 
475.548798 13878.0 
476.057312 3636676.0 
484.553253 4358.0 
485.053802 5800.0 
494.066437 4362.0 
END IONS

BEGIN IONS
NAME="4-hydroxy-5,7-dimethyl-3-benzylhydroquinolin-2-one CollisionEnergy:102040" M+H
PRECURSOR_MZ=280.133
INCHI="InChI=1S/C18H17NO2/c1-11-8-12(2)16-15(9-11)19-18(21)14(17(16)20)10-13-6-4-3-5-7-13/h3-9H,10H2,1-2H3,(H2,19,20,21)"
SMILES=Cc1cc(C)c2c(O)c(Cc3ccccc3)c(O)nc2c1
SPECTRUMID=CCMSLIB00010104442
91.054207 38687.0 
112.397293 2752.0 
148.0755 4789.0 
157.997269 3420.0 
174.090836 37619.0 
184.0755 4141.0 
202.085846 1900849.0 
253.723343 2819.0 
262.12088 5197.0 
280.132446 3554154.0 
END IONS

BEGIN IONS
NAME=daidzein CollisionEnergy:205060 2M-H
PRECURSOR_MZ=507.109
INCHI="InChI=1S/C15H10O4/c16-10-3-1-9(2-4-10)13-8-19-14-7-11(17)5-6-12(14)15(13)18/h1-8,16-17H"
SMILES=O=c1c(-c2ccc(O)cc2)coc2cc(O)ccc12
SPECTRUMID=CCMSLIB00010118669
85.957573 2594.0 
128.146973 2396.0 
135.008636 3340.0 
208.054581 3808.0 
209.060928 4644.0 
224.047989 6058.0 
225.056198 4862.0 
225.73967 2737.0 
253.050781 334736.0 
END IONS

BEGIN IONS
NAME=N-[2-(2-methylindol-3-yl)ethyl](4-methylphenyl)carboxamide CollisionEnergy:102040 M+formate
PRECURSOR_MZ=337.156
INCHI="InChI=1S/C19H20N2O/c1-13-7-9-15(10-8-13)19(22)20-12-11-16-14(2)21-18-6-4-3-5-17(16)18/h3-10,21H,11-12H2,1-2H3,(H,20,22)"
SMILES=Cc1ccc(C(=O)NCCc2c(C)[nH]c3ccccc23)cc1
SPECTRUMID=CCMSLIB00010104082
63.741451 2233.0 
65.141739 2405.0 
92.414574 3877.0 
92.994957 3419.0 
104.325333 2285.0 
108.990189 4418.0 
111.928261 2359.0 
116.995567 2727.0 
127.596481 2598.0 
134.061478 20857.0 
134.071304 2823.0 
136.265121 2602.0 
143.556473 2128.0 
154.991898 3156.0 
158.030899 2623.0 
160.039673 2663.0 
165.899857 2938.0 
170.986984 5698.0 
190.05101 3134.0 
192.988541 2689.0 
200.879913 3930.0 
204.988617 12587.0 
210.453384 9051.0 
220.982513 9844.0 
242.986313 2998.0 
266.986847 23766.0 
268.867432 10702.0 
270.981262 28895.0 
276.99118 2852.0 
291.150513 105665.0 
292.981537 5132.0 
316.941772 3647.0 
316.983185 95022.0 
336.977173 134866.0 
337.117767 15464.0 
344.779297 2358.0 
END IONS

BEGIN IONS
NAME=azelaic acid CollisionEnergy:102040 M-H
PRECURSOR_MZ=187.098
INCHI="InChI=1S/C9H16O4/c10-8(11)6-4-2-1-3-5-7-9(12)13/h1-7H2,(H,10,11)(H,12,13)"
SMILES=O=C(O)CCCCCCCC(=O)O
SPECTRUMID=CCMSLIB00010102863
55.7327 306273.0 
57.034199 1189860.0 
58.185799 306708.0 
74.200699 309234.0 
81.757599 399607.0 
92.405197 360757.0 
97.066002 5327520.0 
122.931999 321109.0 
123.082001 2157370.0 
125.097 96254096.0 
143.108002 1592210.0 
169.087006 4198730.0 
187.098007 56456100.0 
END IONS

BEGIN IONS
NAME=Oxethazaine CollisionEnergy:102040 M+Na
PRECURSOR_MZ=490.304
INCHI="InChI=1S/C28H41N3O3/c1-27(2,19-23-13-9-7-10-14-23)29(5)25(33)21-31(17-18-32)22-26(34)30(6)28(3,4)20-24-15-11-8-12-16-24/h7-16,32H,17-22H2,1-6H3"
SMILES=CN(C(=O)CN(CCO)CC(=O)N(C)C(C)(C)Cc1ccccc1)C(C)(C)Cc1ccccc1
SPECTRUMID=CCMSLIB00010107953
66.737717 3175.0 
77.088219 3547.0 
122.216423 3363.0 
153.063416 6850.0 
165.099854 3336.0 
167.079025 6042.0 
195.074295 16069.0 
195.091827 6336.0 
195.110367 126662.0 
222.121002 15903.0 
226.115967 1572843.0 
269.162018 17841.0 
299.172485 14801.0 
307.31134 3799.0 
354.214783 22258.0 
358.209473 914992.0 
436.020935 4084.0 
443.319031 4398.0 
449.036072 14948.0 
467.058014 17913.0 
490.303497 6903228.0 
493.11792 4778.0 
506.272614 3731.0 
END IONS

BEGIN IONS
NAME="N-(4-chlorophenyl)-2-(2,3,3-trimethyl(2,3,4-trihydroisoquinolylidene))acetamid e CollisionEnergy:102040" M+Na
PRECURSOR_MZ=363.123
INCHI="InChI=1S/C20H21ClN2O/c1-20(2)13-14-6-4-5-7-17(14)18(23(20)3)12-19(24)22-16-10-8-15(21)9-11-16/h4-12H,13H2,1-3H3,(H,22,24)/b18-12-"
SMILES=CN1C(=CC(=O)Nc2ccc(Cl)cc2)c2ccccc2CC1(C)C
SPECTRUMID=CCMSLIB00010103722
55.15979 2446.0 
110.180809 2535.0 
135.327896 2191.0 
363.123138 748931.0 
END IONS

BEGIN IONS
NAME=nalidixic acid CollisionEnergy:102040 M+Na
PRECURSOR_MZ=255.074
INCHI="InChI=1S/C12H12N2O3/c1-3-14-6-9(12(16)17)10(15)8-5-4-7(2)13-11(8)14/h4-6H,3H2,1-2H3,(H,16,17)"
SMILES=CCn1cc(C(=O)O)c(=O)c2ccc(C)nc21
SPECTRUMID=CCMSLIB00010105509
58.954891 2964.0 
66.74131 2844.0 
70.220741 1974.0 
73.951469 2610.0 
75.934349 2092.0 
137.502747 2620.0 
148.744659 2495.0 
150.886169 2555.0 
154.048889 2183.0 
174.449066 2615.0 
211.084045 3686.0 
213.923126 2687.0 
226.895813 2244.0 
255.073547 1217086.0 
END IONS

BEGIN IONS
NAME=(2Z)-3-(2-furyl)-N-[2-(2-methylindol-3-yl)ethyl]-2-[(4-methylphenyl)carbonylam ino]prop-2-enamide CollisionEnergy:205060 M+H
PRECURSOR_MZ=428.197
INCHI="InChI=1S/C26H25N3O3/c1-17-9-11-19(12-10-17)25(30)29-24(16-20-6-5-15-32-20)26(31)27-14-13-21-18(2)28-23-8-4-3-7-22(21)23/h3-12,15-16,28H,13-14H2,1-2H3,(H,27,31)(H,29,30)/b24-16-"
SMILES=Cc1ccc(C(=O)NC(=Cc2ccco2)C(O)=NCCc2c(C)[nH]c3ccccc23)cc1
SPECTRUMID=CCMSLIB00010118938
55.018391 5334.0 
60.056019 3433.0 
60.497108 3134.0 
63.111679 2984.0 
63.958229 3048.0 
65.039001 98025.0 
67.054657 38137.0 
73.956596 4558.0 
81.033836 26063.0 
91.05439 276869.0 
95.049217 17461.0 
104.048653 4447.0 
105.069679 4718.0 
106.028717 26729.0 
109.028214 7784.0 
109.064873 68068.0 
115.054588 4263.0 
117.069733 15154.0 
119.049217 4502137.0 
120.053207 5044.0 
130.065598 17279.0 
131.085754 16333.0 
132.044418 19927.0 
136.216553 4252.0 
141.069199 5508.0 
143.073059 227773.0 
143.084747 9674.0 
153.070831 4320.0 
155.085083 7566.0 
156.081558 5138.0 
157.087906 19914.0 
158.096466 3987034.0 
160.039276 214192.0 
162.018661 14116.0 
167.073288 4186.0 
175.122971 370323.0 
180.080429 35602.0 
183.067703 13615.0 
186.05545 4522.0 
186.587418 3853.0 
197.083694 17987.0 
197.897644 3528.0 
198.091232 48371.0 
207.068298 4113.0 
208.075531 48615.0 
210.091995 13658.0 
212.070557 5948.0 
225.077988 22751.0 
226.062134 6836.0 
226.086273 164621.0 
236.068375 4760.0 
254.080994 1797903.0 
266.117645 28126.0 
294.111755 58190.0 
428.184906 202106.0 
END IONS

BEGIN IONS
NAME="1,3-dimethyl-8-morpholin-4-yl-7-(4-(2-piperidylidene)-4-azabutyl)-1,3,7-trihyd ropurine-2,6-dione CollisionEnergy:205060" M+H
PRECURSOR_MZ=404.24
INCHI="InChI=1S/C19H29N7O3/c1-23-16-15(17(27)24(2)19(23)28)26(18(22-16)25-10-12-29-13-11-25)9-5-8-21-14-6-3-4-7-20-14/h3-13H2,1-2H3,(H,20,21)"
SMILES=Cn1c(=O)c2c(nc(N3CCOCC3)n2CCCNC2=NCCCC2)n(C)c1=O
SPECTRUMID=CCMSLIB00010116301
54.0345 4424.0 
55.05471 19815.0 
56.049759 42463.0 
58.065521 68074.0 
67.042007 7115.0 
68.049782 36364.0 
69.044991 5056.0 
70.052818 148733.0 
70.065208 21515.0 
80.049591 49746.0 
81.044823 70209.0 
81.057259 20341.0 
82.065269 217271.0 
83.060478 78512.0 
83.07296 18039.0 
84.044418 7393.0 
84.068176 15034.0 
84.08075 23594.0 
86.060051 9913.0 
88.075523 17372.0 
88.981918 3686.0 
94.065132 15890.0 
95.072632 5376.0 
96.044312 7410.0 
96.080788 29497.0 
97.039177 5223.0 
97.075928 367762.0 
97.088112 31786.0 
98.083763 1327924.0 
99.091522 275744.0 
107.060066 9340.0 
109.075867 1714429.0 
110.059952 30951.0 
110.096413 5180.0 
110.43589 4413.0 
111.091469 1293433.0 
112.099281 985084.0 
112.106323 12296.0 
113.070633 5220.0 
115.086197 9826.0 
119.059967 15456.0 
122.071167 9622.0 
125.107117 953047.0 
127.049919 424964.0 
127.086159 8330.0 
127.661758 4153.0 
130.073349 31799.0 
134.070511 5149.0 
136.086502 17553.0 
137.07074 1212415.0 
137.10704 20076.0 
139.122726 3160873.0 
140.130585 139876.0 
141.138336 24358.0 
144.089066 325437.0 
149.08197 7836.0 
152.081848 8004.0 
155.081116 46452.0 
162.065475 5209.0 
164.068298 27122.0 
164.081619 60688.0 
165.076904 9693.0 
165.101654 4975.0 
167.080902 78809.0 
172.119797 17522.0 
177.077042 22717.0 
177.113052 23647.0 
178.083176 5407.0 
179.092224 34596.0 
180.099365 8233.0 
181.071136 14322.0 
182.078278 9444.0 
185.338608 4400.0 
190.082977 4313.0 
192.076736 26633.0 
192.112595 55720.0 
193.071442 16713.0 
193.107849 22431.0 
194.093002 301741.0 
195.07338 8423.0 
205.108536 63359.0 
206.077789 7288.0 
207.089569 54284.0 
208.081741 101867.0 
208.097336 55191.0 
209.066086 17590.0 
209.087585 6897.0 
217.107574 5733.0 
218.091766 8782.0 
219.087296 4815.0 
220.080475 44680.0 
221.087082 176621.0 
221.138748 62812.0 
222.098114 108217.0 
232.154373 7755.0 
234.097763 125252.0 
235.105865 114932.0 
236.075958 4188.0 
236.114899 41231.0 
240.085434 17723.0 
248.11319 61877.0 
248.14946 17110.0 
249.134583 91084.0 
250.092896 161083.0 
250.124069 7284.0 
260.113556 5757.0 
262.129395 33647.0 
263.100861 16253.0 
264.108582 242171.0 
265.11615 1369083.0 
266.123413 9740.0 
277.116058 16802.0 
278.124023 400637.0 
306.154999 2232544.0 
316.17514 25030.0 
317.170807 21054.0 
373.033752 4869.0 
404.239349 8669071.0 
END IONS

BEGIN IONS
NAME="methyl 6-(2-(2H-benzo[3,4-d]1,3-dioxolan-5-yl)-2-oxoethylthio)-5-cyano-2-methy l-4-(2-thienyl)-1,4-dihydropyridine-3-carboxylate CollisionEnergy:102040" M+Na
PRECURSOR_MZ=477.055
INCHI="InChI=1S/C22H18N2O5S2/c1-12-19(22(26)27-2)20(18-4-3-7-30-18)14(9-23)21(24-12)31-10-15(25)13-5-6-16-17(8-13)29-11-28-16/h3-8,20,24H,10-11H2,1-2H3"
SMILES=COC(=O)C1=C(C)NC(SCC(=O)c2ccc3c(c2)OCO3)=C(C#N)C1c1cccs1
SPECTRUMID=CCMSLIB00010109692
50.465752 2854.0 
50.46888 2933.0 
59.406872 3175.0 
82.40377 3473.0 
130.064926 21198.0 
150.488419 3031.0 
151.861832 2964.0 
166.921082 3159.0 
219.928864 4125.0 
232.039734 19094.0 
306.002808 3404.0 
377.089447 15945.0 
431.098846 13905.0 
449.113007 3807.0 
459.064392 7600.0 
477.054291 5735872.0 
END IONS

BEGIN IONS
NAME=picrotin CollisionEnergy:102040 M+Na
PRECURSOR_MZ=333.094
INCHI="InChI=1S/C15H18O7/c1-12(2,18)6-7-10(16)20-8(6)9-13(3)14(7,19)4-5-15(13,22-5)11(17)21-9/h5-9,18-19H,4H2,1-3H3/t5-,6+,7-,8-,9-,13-,14-,15+/m1/s1"
SMILES=CC(C)(O)C1C2OC(=O)C1C1(O)CC3OC34C(=O)OC2C14C
SPECTRUMID=CCMSLIB00010110096
53.037281 2733.0 
190.123932 3541.0 
221.62767 2893.0 
333.094208 3937398.0 
351.104706 197399.0 
END IONS

BEGIN IONS
NAME="Indolo[2,1-b]quinazoline-6,12-dione CollisionEnergy:205060" M+Na
PRECURSOR_MZ=271.048
INCHI=InChI=1S/C15H8N2O2/c18-13-10-6-2-4-8-12(10)17-14(13)16-11-7-3-1-5-9(11)15(17)19/h1-8H
SMILES=O=C1c2ccccc2-n2c1nc1ccccc1c2=O
SPECTRUMID=CCMSLIB00010119108
72.937393 3274.0 
75.419769 2012.0 
77.68071 2304.0 
84.96003 3594.0 
87.10083 2056.0 
92.761017 2059.0 
113.963493 3993.0 
136.223953 2360.0 
151.524643 2388.0 
155.873672 2140.0 
197.890015 3000.0 
208.391785 3129.0 
211.970398 9999.0 
216.601929 2128.0 
231.758652 2677.0 
236.38649 2586.0 
245.391357 4779.0 
247.893936 4935.0 
256.898621 2820.0 
271.047119 65000.0 
271.151825 3677.0 
END IONS

BEGIN IONS
NAME="N-[(6,7-dimethoxyisoquinolyl)(3,4-dimethoxyphenyl)methyl]propanamide CollisionEnergy:205060" M+H
PRECURSOR_MZ=411.191
INCHI="InChI=1S/C23H26N2O5/c1-6-21(26)25-22(15-7-8-17(27-2)18(12-15)28-3)23-16-13-20(30-5)19(29-4)11-14(16)9-10-24-23/h7-13,22H,6H2,1-5H3,(H,25,26)"
SMILES=CCC(O)=NC(c1ccc(OC)c(OC)c1)c1nccc2cc(OC)c(OC)cc12
SPECTRUMID=CCMSLIB00010114899
58.287571 4709.0 
71.038307 4213.0 
74.018768 4593.0 
82.496094 4665.0 
90.786789 4498.0 
124.950394 4161.0 
141.029709 4578.0 
173.069931 7168.0 
186.078186 18455.0 
194.096863 5102.0 
201.065414 6186.0 
202.072723 22263.0 
208.073639 5388.0 
217.096741 381027.0 
220.07518 77284.0 
221.083191 126410.0 
222.090866 76047.0 
233.082779 112423.0 
234.090912 125365.0 
235.098923 50943.0 
236.07016 63352.0 
236.105637 39395.0 
237.076233 7435.0 
240.100021 9389.0 
246.091782 7973.0 
247.098358 34022.0 
248.070175 125738.0 
249.077789 549126.0 
250.085495 456138.0 
250.116043 6870.0 
251.092819 10227.0 
252.101562 40771.0 
261.076385 34104.0 
262.085663 95575.0 
263.093475 1238331.0 
264.068268 82364.0 
264.101105 1556775.0 
265.073364 53722.0 
265.108734 197385.0 
266.11615 23319.0 
267.123077 8579.0 
271.082001 8611.0 
273.122772 144930.0 
276.064697 58666.0 
276.098328 11257.0 
277.072296 108430.0 
277.108978 54275.0 
278.080688 1013278.0 
278.11615 79948.0 
279.088196 348634.0 
280.096069 904243.0 
289.072784 10965.0 
290.080444 59986.0 
291.088257 417474.0 
292.096008 1910674.0 
293.069397 54252.0 
293.103607 713649.0 
294.111664 2831209.0 
295.118073 10309.0 
305.103149 38569.0 
306.07489 625879.0 
306.112305 187441.0 
307.08252 469068.0 
307.119324 2370972.0 
308.09079 897237.0 
308.124481 23417.0 
309.098907 236709.0 
320.090485 118344.0 
321.095581 7451.0 
322.106567 11069266.0 
323.113922 394656.0 
336.52655 4933.0 
338.137756 11524146.0 
339.764008 5804.0 
411.190216 1439901.0 
END IONS

BEGIN IONS
NAME=alprostadil CollisionEnergy:205060 M-H
PRECURSOR_MZ=353.233
INCHI="InChI=1S/C20H34O5/c1-2-3-6-9-15(21)12-13-17-16(18(22)14-19(17)23)10-7-4-5-8-11-20(24)25/h12-13,15-17,19,21,23H,2-11,14H2,1H3,(H,24,25)/b13-12+/t15-,16+,17+,19+/m0/s1"
SMILES=CCCCCC(O)C=CC1C(O)CC(=O)C1CCCCCCC(=O)O
SPECTRUMID=CCMSLIB00010121313
52.9893 2216.0 
55.923199 2195.0 
57.03405 13754.0 
59.013401 16568.0 
61.010029 2362.0 
73.978073 2944.0 
80.026337 2745.0 
82.422813 2421.0 
83.050034 2310.0 
95.049896 10698.0 
104.311028 2663.0 
106.042221 9788.0 
109.065758 25078.0 
113.096848 32068.0 
121.065666 2938.0 
123.081223 11264.0 
137.097366 14056.0 
147.118546 2763.0 
161.097412 4723.0 
162.105484 2983.0 
163.112671 13902.0 
177.12854 9254.0 
179.143616 2547.0 
189.127838 4498.0 
191.144379 26982.0 
209.117447 10290.0 
216.921555 3368.0 
219.175751 12910.0 
221.117935 10886.0 
223.13443 13804.0 
225.45639 2784.0 
235.13385 119516.0 
273.2229 38207.0 
317.211975 422078.0 
335.222992 67881.0 
353.233795 4660.0 
369.979065 2532.0 
END IONS

BEGIN IONS
NAME=maltose CollisionEnergy:102040 M+Cl
PRECURSOR_MZ=377.086
INCHI="InChI=1S/C12H22O11/c13-1-3-5(15)6(16)9(19)12(22-3)23-10-4(2-14)21-11(20)8(18)7(10)17/h3-20H,1-2H2/t3-,4-,5-,6+,7-,8-,9-,10-,11-,12-/m1/s1"
SMILES=OC[C@H]1O[C@H](O[C@@H]2[C@@H](CO)O[C@@H](O)[C@H](O)[C@H]2O)[C@H](O)[C@@H](O)[C@@H]1O
SPECTRUMID=CCMSLIB00010126079
59.013699 10001.900391 
69.718498 2117.699951 
71.013603 19814.099609 
73.029404 5696.410156 
82.433601 4369.759766 
89.024399 27010.099609 
92.413902 2682.389893 
97.029503 5145.859863 
101.025002 37100.800781 
113.025002 8984.19043 
113.916 2717.51001 
118.700996 2780.810059 
119.035004 10913.900391 
143.035004 11973.5 
161.044998 109363.0 
179.056 52570.101562 
208.447006 15997.799805 
221.065994 31232.5 
241.477005 2677.159912 
263.078003 15815.0 
281.088013 11142.900391 
303.01001 4003.639893 
341.110992 10948.799805 
377.085999 92547.0 
END IONS

BEGIN IONS
NAME="8-{[2-(4-methoxyphenyl)-5-methyl(1,3-oxazol-4-yl)]methylthio}-9-(4-methylpheny l)hydropurin-6-one CollisionEnergy:205060" M+H
PRECURSOR_MZ=460.144
INCHI="InChI=1S/C24H21N5O3S/c1-14-4-8-17(9-5-14)29-21-20(22(30)26-13-25-21)28-24(29)33-12-19-15(2)32-23(27-19)16-6-10-18(31-3)11-7-16/h4-11,13H,12H2,1-3H3,(H,25,26,30)"
SMILES=COc1ccc(-c2nc(CSc3nc4c(O)ncnc4n3-c3ccc(C)cc3)c(C)o2)cc1
SPECTRUMID=CCMSLIB00010118838
69.03392 26545.0 
73.952072 2880.0 
91.041771 14055.0 
92.376923 3104.0 
104.282761 3683.0 
119.036346 22187.0 
129.776459 3154.0 
133.054062 3541.0 
133.064346 28597.0 
134.059982 3173653.0 
135.044113 36415.0 
136.207565 3738.0 
152.071091 6172.0 
167.002487 4890.0 
175.086166 7896.0 
187.060989 4397.0 
202.086121 3834305.0 
215.027512 4677.0 
232.053543 3555.0 
243.112366 13891.0 
253.087814 3441.0 
259.064667 67242.0 
361.672729 3436.0 
460.142975 326338.0 
END IONS

BEGIN IONS
NAME="1-(4-chlorophenyl)-1,2,3,4-tetrahydrobeta-carboline-3-carboxylic acid CollisionEnergy:205060" M+formate
PRECURSOR_MZ=371.08
INCHI="InChI=1S/C18H15ClN2O2/c19-11-7-5-10(6-8-11)16-17-13(9-15(21-16)18(22)23)12-3-1-2-4-14(12)20-17/h1-8,15-16,20-21H,9H2,(H,22,23)"
SMILES=O=C(O)C1Cc2c([nH]c3ccccc23)C(c2ccc(Cl)cc2)N1
SPECTRUMID=CCMSLIB00010120051
61.315529 2104.0 
82.408051 3003.0 
116.050568 21679.0 
184.592758 2591.0 
185.410568 2259.0 
210.124466 3928.0 
210.144577 3291.0 
227.123016 2430.0 
303.23407 3007.0 
325.075134 11828.0 
END IONS

BEGIN IONS
NAME=Deguelin CollisionEnergy:205060 M+H
PRECURSOR_MZ=395.149
INCHI="InChI=1S/C23H22O6/c1-23(2)8-7-12-15(29-23)6-5-13-21(24)20-14-9-17(25-3)18(26-4)10-16(14)27-11-19(20)28-22(12)13/h5-10,19-20H,11H2,1-4H3/t19-,20+/m1/s1"
SMILES=COc1cc2c(cc1OC)C1C(=O)c3ccc4c(c3OC1CO2)C=CC(C)(C)O4
SPECTRUMID=CCMSLIB00010120760
51.52858 2157.0 
63.911579 2272.0 
77.480377 2643.0 
79.054367 3771.0 
80.552254 2562.0 
101.62809 2211.0 
108.05703 3114.0 
109.064659 3651.0 
121.064957 4373.0 
124.051399 5257.0 
133.064133 4571.0 
135.044083 3876.0 
139.075272 14964.0 
147.044098 4836.0 
147.080078 5520.0 
151.075455 22084.0 
161.023483 8878.0 
161.059906 5986.0 
162.067169 5275.0 
165.091049 3786.0 
165.642776 3157.0 
167.07016 10799.0 
176.047592 2776.0 
177.054474 24833.0 
179.070221 15243.0 
189.091293 4736.0 
191.070129 40040.0 
192.077667 41591.0 
193.084793 3622.0 
195.080582 32797.0 
198.067703 20761.0 
203.069824 32307.0 
213.091141 56470.0 
241.085556 5114.0 
349.153534 5701.0 
367.150208 10681.0 
395.147614 150656.0 
395.192719 10133.0 
395.250275 29600.0 
END IONS

BEGIN IONS
NAME="N-(2H,3H-benzo[3,4-e]1,4-dioxin-6-yl)-2-[2-oxo-4-(N-propylcarbamoyl)hydroquino lyl]acetamide CollisionEnergy:205060" M-H
PRECURSOR_MZ=420.156
INCHI="InChI=1S/C23H23N3O5/c1-2-9-24-23(29)17-13-22(28)26(18-6-4-3-5-16(17)18)14-21(27)25-15-7-8-19-20(12-15)31-11-10-30-19/h3-8,12-13H,2,9-11,14H2,1H3,(H,24,29)(H,25,27)"
SMILES=CCCN=C(O)c1cc(=O)n(CC(O)=Nc2ccc3c(c2)OCCO3)c2ccccc12
SPECTRUMID=CCMSLIB00010124266
59.013432 7713.0 
60.738998 3096.0 
73.950287 3478.0 
80.049911 4442.0 
82.39711 3209.0 
86.060562 4430.0 
92.050247 17898.0 
94.029518 13786.0 
100.076569 10833.0 
103.920479 2873.0 
104.280952 3724.0 
107.037086 2976.0 
115.055344 20017.0 
116.050468 124110.0 
118.029984 6070.0 
121.016747 14806.0 
121.029167 17235.0 
122.024529 72596.0 
123.032417 20394.0 
124.040283 78004.0 
128.050461 562570.0 
130.066101 506878.0 
131.037109 3969.0 
132.045349 11433.0 
134.024124 5016.0 
142.065964 27296.0 
143.0616 5484.0 
144.045334 764929.0 
144.080505 22623.0 
146.024536 38383.0 
146.061005 15633.0 
147.032379 65887.0 
149.011795 45311.0 
149.047943 3730.0 
150.019394 23313.0 
150.055847 156336.0 
155.059738 3301.0 
156.045364 48926.0 
156.068695 36042.0 
157.05307 7024.0 
157.077026 49647.0 
158.048126 187505.0 
158.061142 339972.0 
160.040207 147988.0 
160.076645 4651.0 
164.035278 15487.0 
167.060852 11896.0 
169.07756 5559.0 
172.040329 116251.0 
174.055847 44177.0 
176.034927 16521.0 
176.071533 103876.0 
182.048401 20205.0 
182.345337 3218.0 
183.092926 14718.0 
184.040024 40381.0 
186.057785 4112.0 
190.050842 33335.0 
195.092209 16719.0 
197.108383 62354.0 
199.12381 252424.0 
201.103195 170511.0 
201.124481 7021.0 
202.050659 69487.0 
213.103088 192386.0 
215.118027 27093.0 
216.418839 2976.0 
225.103027 13420.0 
229.097824 318033.0 
231.113449 12426.0 
243.11351 148587.0 
245.092957 175188.0 
269.092712 143774.0 
275.103516 193820.0 
287.103699 12746.0 
309.087921 18001.0 
335.103638 911064.0 
356.523224 2981.0 
420.156433 770767.0 
END IONS

BEGIN IONS
NAME=4'-Hydroxychalcone CollisionEnergy:102040 2M-H
PRECURSOR_MZ=447.16
INCHI="InChI=1S/C15H12O2/c16-14-9-7-13(8-10-14)15(17)11-6-12-4-2-1-3-5-12/h1-11,16H/b11-6+"
SMILES=O=C(C=Cc1ccccc1)c1ccc(O)cc1
SPECTRUMID=CCMSLIB00010104344
82.420097 3279.0 
89.128387 2194.0 
90.788551 2572.0 
92.398537 2291.0 
104.313133 4421.0 
136.245682 2751.0 
146.961411 6082.0 
174.956085 141124.0 
207.829391 15531.0 
223.076431 81875.0 
242.943604 92010.0 
257.132599 2470.0 
277.945923 5633.0 
303.912964 2243.0 
310.930969 48727.0 
339.2099 2423.0 
378.917999 21721.0 
429.272339 2755.0 
446.986694 13181.0 
606.930969 2646.0 
789.234497 2954.0 
896.485718 3124.0 
END IONS

BEGIN IONS
NAME="(2E)-1-(2H-benzo[3,4-d]1,3-dioxolan-5-yl)-3-(2-thienyl)prop-2-en-1-one CollisionEnergy:102040" M+H
PRECURSOR_MZ=259.042
INCHI="InChI=1S/C14H10O3S/c15-12(5-4-11-2-1-7-18-11)10-3-6-13-14(8-10)17-9-16-13/h1-8H,9H2/b5-4+"
SMILES=O=C(C=Cc1cccs1)c1ccc2c(c1)OCO2
SPECTRUMID=CCMSLIB00010109350
58.856609 2415.0 
65.03923 2646.0 
80.947929 2626.0 
82.410263 2379.0 
93.704437 2354.0 
109.010643 77769.0 
118.669189 3290.0 
137.005417 1365776.0 
149.009583 3820.0 
149.022949 85356.0 
175.038757 27034.0 
201.03627 18954.0 
225.726105 2541.0 
229.031387 24952.0 
259.041748 1433898.0 
263.881897 2774.0 
END IONS

BEGIN IONS
NAME=O-acetyl-L-serine CollisionEnergy:102040 M-H
PRECURSOR_MZ=146.046
INCHI="InChI=1S/C5H9NO4/c1-3(7)10-2-4(6)5(8)9/h4H,2,6H2,1H3,(H,8,9)/t4-/m0/s1"
SMILES=CC(=O)OC[C@H](N)C(=O)O
SPECTRUMID=CCMSLIB00010126156
55.038898 2047.699951 
59.0135 246956.0 
60.1115 2833.110107 
70.029503 5844.569824 
73.976303 3819.389893 
74.024696 36062.199219 
82.4235 2836.860107 
84.045197 16117.799805 
92.404701 3570.149902 
98.024597 8853.129883 
104.036003 3074.5 
108.727997 2375.949951 
116.035004 15013.400391 
146.026001 4081.51001 
END IONS

BEGIN IONS
NAME=7-methoxy-2-(trichloromethyl)chromen-4-one CollisionEnergy:102040 M+H
PRECURSOR_MZ=292.953
INCHI="InChI=1S/C11H7Cl3O3/c1-16-6-2-3-7-8(15)5-10(11(12,13)14)17-9(7)4-6/h2-5H,1H3"
SMILES=COc1ccc2c(=O)cc(C(Cl)(Cl)Cl)oc2c1
SPECTRUMID=CCMSLIB00010105848
57.347389 35048.0 
61.777981 37610.0 
66.599586 35344.0 
82.387207 37003.0 
91.439293 37871.0 
92.181938 46301.0 
109.767189 47782.0 
110.457413 38686.0 
148.051682 59014.0 
151.038071 289484.0 
182.013351 76159.0 
195.020462 189073.0 
211.014648 40827.0 
213.959442 86884.0 
228.981506 8758099.0 
239.010223 40645.0 
241.007843 69808.0 
242.960159 170463.0 
256.975983 49529.0 
257.984192 70104552.0 
264.956635 496438.0 
277.929962 193312.0 
292.952911 159801904.0 
307.799255 48378.0 
END IONS

BEGIN IONS
NAME="methyl 16-[(4-ethoxyphenyl)methylene]-1,2,14,18,18-pentamethyl-8-(1-methylviny l)-17-oxopentacyclo[11.8.0.0<2,10>.0<5,9>.0<14,19>]henicosane-5-carboxylate CollisionEnergy:205060" M+H
PRECURSOR_MZ=601.425
INCHI="InChI=1S/C40H56O4/c1-10-44-28-13-11-26(12-14-28)23-27-24-37(6)31(36(4,5)34(27)41)18-19-39(8)32(37)16-15-30-33-29(25(2)3)17-20-40(33,35(42)43-9)22-21-38(30,39)7/h11-14,23,29-33H,2,10,15-22,24H2,1,3-9H3/b27-23+"
SMILES=C=C(C)C1CCC2(C(=O)OC)CCC3(C)C(CCC4C5(C)CC(=Cc6ccc(OCC)cc6)C(=O)C(C)(C)C5CCC43C)C12
SPECTRUMID=CCMSLIB00010124039
53.03912 6682.0 
55.05481 5483.0 
55.758499 3139.0 
56.536129 3789.0 
59.677738 2790.0 
59.816029 3023.0 
65.03904 22685.0 
67.054741 31412.0 
69.070343 8343.0 
73.290199 3324.0 
79.054443 45175.0 
80.167168 4039.0 
81.070183 43620.0 
83.085747 8317.0 
91.048286 7299.0 
91.05442 161309.0 
93.070007 46908.0 
95.049133 8411.0 
95.085648 58471.0 
103.054428 3140.0 
105.069778 87624.0 
105.077461 4340.0 
106.041183 4861.0 
107.049156 900851.0 
107.085518 109218.0 
109.064796 30138.0 
109.072197 3349.0 
109.100883 30741.0 
115.05468 16489.0 
117.069969 22691.0 
119.049149 5323.0 
119.060173 3564.0 
119.08567 78024.0 
119.295357 3101.0 
121.065002 23789.0 
121.101143 50137.0 
123.116943 4258.0 
124.052208 8087.0 
129.070297 6989.0 
130.077759 4125.0 
131.049973 5386.0 
131.085342 53493.0 
133.064835 70590.0 
133.101196 51197.0 
135.080429 1045902.0 
135.116562 32046.0 
141.069778 4971.0 
142.07695 4610.0 
143.085587 19262.0 
145.065048 34574.0 
145.101151 65248.0 
147.043884 4550.0 
147.080612 14080.0 
147.116898 34413.0 
149.060516 4071.0 
149.096329 22762.0 
149.132919 4584.0 
157.064758 5028.0 
157.101471 21733.0 
158.072708 19696.0 
159.080307 68389.0 
159.116577 36839.0 
161.059784 65854.0 
161.095947 26443.0 
161.133057 21187.0 
163.075729 3743.0 
163.112564 4621.0 
169.100693 5322.0 
171.080154 7396.0 
171.116852 20876.0 
172.087723 6111.0 
173.096161 16857.0 
173.132278 37555.0 
175.112076 13331.0 
175.148285 71393.0 
177.164459 3535.0 
179.107269 14360.0 
183.116302 4750.0 
185.095993 59700.0 
185.13298 21574.0 
186.103989 3799.0 
187.111877 33014.0 
187.147949 51240.0 
189.091309 16365.0 
189.126923 8026.0 
189.163467 30043.0 
195.081207 7331.0 
196.088303 5022.0 
197.096573 20780.0 
199.11084 7079.0 
199.148483 20056.0 
201.128128 4798.0 
201.163269 44057.0 
203.10759 5097.0 
203.143997 4165.0 
203.17897 4449.0 
209.096329 13852.0 
211.112686 7001.0 
213.127319 80512.0 
213.162643 23345.0 
215.142929 36893.0 
215.180084 20031.0 
217.160187 4339.0 
223.109558 11784.0 
224.119888 13592.0 
225.127777 17677.0 
227.142181 13304.0 
227.179092 4699.0 
231.138885 13318.0 
233.153137 4556.0 
237.128448 6616.0 
238.134262 13938.0 
239.143951 8156.0 
239.178406 5381.0 
241.159042 14234.0 
241.195221 6487.0 
247.172501 4345.0 
252.15181 7711.0 
253.159424 7412.0 
253.19342 4103.0 
255.210968 12965.0 
259.170349 4055.0 
265.159027 3524.0 
267.174957 30166.0 
269.190948 3359.0 
269.226868 5201.0 
281.190674 11890.0 
281.225464 5981.0 
283.241638 5302.0 
309.182617 3822.0 
309.218903 26111.0 
335.238495 11726.0 
354.060028 4382.0 
465.334534 4358.0 
523.393494 13106.0 
541.403748 84262.0 
573.425598 21791.0 
583.414001 92465.0 
601.425537 458793.0 
601.524414 28531.0 
END IONS

BEGIN IONS
NAME=2-[(2-fluorophenyl)carbonylamino]acetic acid CollisionEnergy:205060 M+H-H2O
PRECURSOR_MZ=180.046
INCHI="InChI=1S/C9H8FNO3/c10-7-4-2-1-3-6(7)9(14)11-5-8(12)13/h1-4H,5H2,(H,11,14)(H,12,13)"
SMILES=O=C(O)CN=C(O)c1ccccc1F
SPECTRUMID=CCMSLIB00010122393
50.015572 4287.0 
51.023479 20759.0 
56.96529 319681.0 
58.960918 14977.0 
67.643967 2703.0 
69.671257 2255.0 
71.029549 19515.0 
71.952278 35717.0 
72.960037 143703.0 
75.023453 8811.0 
79.018204 5496.0 
88.021477 3166.0 
90.970718 2432.0 
92.382797 2849.0 
95.029289 9974.0 
97.936821 2452.0 
97.991417 30663.0 
113.039513 6235.0 
113.986267 52209.0 
115.981903 13434.0 
116.001892 14108.0 
122.040176 9171.0 
123.024063 2107475.0 
124.027283 50352.0 
131.996826 86293.0 
132.044617 4939.0 
133.992188 4847.0 
134.027908 2565.0 
136.515808 24911.0 
141.03447 31789.0 
145.521118 36391.0 
148.023636 16222.0 
150.00737 350032.0 
152.011948 3317.0 
152.050491 118913.0 
155.013733 10418.0 
156.975327 3243.0 
157.029129 5166.0 
168.017899 92688.0 
168.032944 5078.0 
173.006454 5245.0 
173.023315 140910.0 
180.045319 42489.0 
185.055618 2946.0 
188.871155 2514.0 
191.034256 29435.0 
192.054291 4860.0 
196.039734 13865.0 
END IONS

BEGIN IONS
NAME="2-purin-6-ylthio-N-(1,1,3,3-tetramethylbutyl)acetamide CollisionEnergy:205060" M+Na
PRECURSOR_MZ=344.152
INCHI="InChI=1S/C15H23N5OS/c1-14(2,3)7-15(4,5)20-10(21)6-22-13-11-12(17-8-16-11)18-9-19-13/h8-9H,6-7H2,1-5H3,(H,20,21)(H,16,17,18,19)"
SMILES=CC(C)(C)CC(C)(C)N=C(O)CSc1ncnc2[nH]cnc12
SPECTRUMID=CCMSLIB00010116442
64.925591 6633.0 
72.787247 5586.0 
73.955994 6234.0 
82.399353 5429.0 
106.22525 5106.0 
118.660027 7541.0 
143.032639 29631.0 
185.404709 5769.0 
187.003677 5161.0 
214.999176 61961.0 
232.02597 96288.0 
293.674683 5454.0 
342.494843 7274.0 
344.150848 13427452.0 
345.826599 8924.0 
349.956055 6766.0 
END IONS

BEGIN IONS
NAME=2-(4-formyl-2-methoxyphenoxy)acetamide CollisionEnergy:205060 M+Na
PRECURSOR_MZ=232.058
INCHI="InChI=1S/C10H11NO4/c1-14-9-4-7(5-12)2-3-8(9)15-6-10(11)13/h2-5H,6H2,1H3,(H2,11,13)"
SMILES=COc1cc(C=O)ccc1OCC(=N)O
SPECTRUMID=CCMSLIB00010123584
50.46225 1980.0 
54.5681 1926.0 
66.736732 2512.0 
69.019623 1859.0 
71.452431 2150.0 
74.627647 2236.0 
81.032188 2157.0 
88.79705 2108.0 
92.369423 2240.0 
118.647011 2742.0 
138.407196 2104.0 
174.128204 3310.0 
185.972946 2058.0 
208.953247 4353.0 
213.968414 8414.0 
232.057617 157240.0 
END IONS

BEGIN IONS
NAME="5-Hydroxy-2-(4-hydroxyphenyl)-4-oxo-3,4-dihydro-2h-chromen-7-yl 6-o-(6-deoxyhexopyranosyl)hexopyranoside CollisionEnergy:102040" M-H
PRECURSOR_MZ=579.172
INCHI="InChI=1S/C27H32O14/c1-10-20(31)22(33)24(35)26(38-10)37-9-18-21(32)23(34)25(36)27(41-18)39-13-6-14(29)19-15(30)8-16(40-17(19)7-13)11-2-4-12(28)5-3-11/h2-7,10,16,18,20-29,31-36H,8-9H2,1H3"
SMILES=CC1OC(OCC2OC(Oc3cc(O)c4c(c3)OC(c3ccc(O)cc3)CC4=O)C(O)C(O)C2O)C(O)C(O)C1O
SPECTRUMID=CCMSLIB00010113301
54.521358 3712.0 
55.332649 4036.0 
58.111919 3302.0 
63.023891 5948.0 
63.198299 3919.0 
63.826561 4025.0 
63.841759 3279.0 
65.002853 36000.0 
65.511452 4502.0 
66.92408 3472.0 
71.013634 5538.0 
80.590317 3705.0 
83.013649 30747.0 
93.03463 128055.0 
107.005768 4176.0 
107.013947 112608.0 
119.050323 413680.0 
125.024307 37526.0 
135.00914 5624.0 
136.232468 3827.0 
137.023529 5162.0 
139.380051 3967.0 
143.051193 4951.0 
145.029541 30838.0 
149.023788 13926.0 
151.003723 1430603.0 
164.011642 4069.0 
165.019501 82253.0 
169.015015 28193.0 
174.98732 5499.0 
175.003769 125573.0 
177.019318 123632.0 
179.035065 8908.0 
185.060349 6996.0 
187.040329 6322.0 
189.019699 15988.0 
193.01413 68452.0 
203.072876 3741.0 
205.014099 8446.0 
208.41748 8510.0 
208.440323 8103.0 
217.013306 5254.0 
219.027908 4727.0 
227.071487 71002.0 
229.050568 7103.0 
231.029099 4079.0 
241.049728 6084.0 
271.061371 5711345.0 
280.82254 4122.0 
285.076935 19959.0 
295.061218 182969.0 
313.071747 129882.0 
325.073395 15166.0 
337.071625 6108.0 
459.115112 48249.0 
579.172791 3612289.0 
END IONS

BEGIN IONS
NAME=2-{4-[(6-ethoxy-2-oxochromen-4-yl)methyl]piperazinyl}ethanenitrile CollisionEnergy:102040 M+H
PRECURSOR_MZ=328.166
INCHI="InChI=1S/C18H21N3O3/c1-2-23-15-3-4-17-16(12-15)14(11-18(22)24-17)13-21-9-7-20(6-5-19)8-10-21/h3-4,11-12H,2,6-10,13H2,1H3"
SMILES=CCOc1ccc2oc(=O)cc(CN3CCN(CC#N)CC3)c2c1
SPECTRUMID=CCMSLIB00010108459
56.049961 97527.0 
58.06562 73507.0 
63.243328 3790.0 
68.049911 3557.0 
69.044907 3965.0 
70.065514 544781.0 
72.081123 157657.0 
73.548447 3489.0 
82.065277 8034.0 
82.395973 4382.0 
83.060608 23086.0 
84.081192 4806.0 
85.076157 13789.0 
96.068169 15108.0 
97.07608 2991098.0 
98.083862 268490.0 
98.091217 7745.0 
99.091721 32136.0 
111.091667 19819.0 
118.650787 4304.0 
123.079773 4688.0 
124.087158 6246.0 
125.095177 14199.0 
133.064499 3513.0 
147.043884 66835.0 
147.080154 3795.0 
175.038773 32041.0 
175.075409 99649.0 
182.661285 3760.0 
189.091812 5042.0 
203.070297 70016.0 
205.086563 4412.0 
216.100906 39234.0 
217.086563 6177.0 
230.080292 4903.0 
230.117371 5863.0 
244.096237 59723.0 
246.112167 14958.0 
256.09668 17200.0 
258.112244 83177.0 
270.111633 4712.0 
272.11734 6966.0 
273.158936 7022.0 
283.139893 3643.0 
286.130463 26517.0 
299.140472 12659.0 
299.804688 4998.0 
301.154175 6731222.0 
302.511444 4221.0 
328.165009 3703315.0 
336.473206 4010.0 
END IONS

BEGIN IONS
NAME="3-(2-(2H,3H-benzo[3,4-e]1,4-dioxin-6-yl)-2-oxoethyl)-3-hydroquinazolin-4-one CollisionEnergy:205060" M+Na
PRECURSOR_MZ=345.085
INCHI="InChI=1S/C18H14N2O4/c21-15(12-5-6-16-17(9-12)24-8-7-23-16)10-20-11-19-14-4-2-1-3-13(14)18(20)22/h1-6,9,11H,7-8,10H2"
SMILES=O=C(Cn1cnc2ccccc2c1=O)c1ccc2c(c1)OCCO2
SPECTRUMID=CCMSLIB00010115600
57.179451 2041.0 
67.712112 2513.0 
84.959808 2152.0 
104.282913 2266.0 
219.073868 2353.0 
269.116058 2371.0 
345.083588 824772.0 
END IONS

BEGIN IONS
NAME=ethyl 2-[(4-acetyloxyphenyl)carbonylamino]acetate CollisionEnergy:205060 M+H
PRECURSOR_MZ=266.102
INCHI="InChI=1S/C13H15NO5/c1-3-18-12(16)8-14-13(17)10-4-6-11(7-5-10)19-9(2)15/h4-7H,3,8H2,1-2H3,(H,14,17)"
SMILES=CCOC(=O)CNC(=O)c1ccc(OC(C)=O)cc1
SPECTRUMID=CCMSLIB00010120510
53.002892 2900.0 
53.446091 2343.0 
55.018261 4094.0 
65.039017 39925.0 
68.837822 3027.0 
68.99762 6491.0 
70.029053 41389.0 
71.013206 11830.0 
74.542381 2607.0 
92.369057 3615.0 
104.274406 3366.0 
107.912148 2870.0 
109.02829 2966.0 
111.043907 24779.0 
114.055 47981.0 
120.684723 3458.0 
121.028473 6058780.0 
121.373528 5987.0 
127.753983 2869.0 
134.059784 5157.0 
152.188675 3238.0 
163.038956 1049121.0 
192.065247 15143.0 
220.060425 102414.0 
221.420227 3005.0 
248.092087 5479.0 
261.586761 3127.0 
266.101624 67412.0 
END IONS

BEGIN IONS
NAME=glutathione CollisionEnergy:102040 M+H
PRECURSOR_MZ=308.091
INCHI="InChI=1S/C10H17N3O6S/c11-5(10(18)19)1-2-7(14)13-6(4-20)9(17)12-3-8(15)16/h5-6,20H,1-4,11H2,(H,12,17)(H,13,14)(H,15,16)(H,18,19)/t5-,6-/m0/s1"
SMILES=N[C@@H](CCC(O)=N[C@@H](CS)C(O)=NCC(=O)O)C(=O)O
SPECTRUMID=CCMSLIB00010126676
53.177799 2100.100098 
57.9342 2627.719971 
58.995602 23260.5 
63.343899 2385.090088 
76.022102 333769.0 
76.039803 3756.149902 
82.4133 2823.820068 
84.0448 75321.703125 
86.990799 3054.199951 
102.056 2664.129883 
104.302002 2930.030029 
116.016998 51456.800781 
118.675003 3141.51001 
125.903 2671.780029 
130.039001 4002.070068 
130.050003 75988.0 
142.031998 27145.099609 
144.011002 55185.101562 
158.007004 2893.320068 
162.022003 315909.0 
170.026993 17284.699219 
179.048004 624418.0 
183.442993 2296.709961 
187.054001 11011.099609 
204.380005 2508.840088 
205.063995 3374.699951 
215.048004 22013.800781 
233.057999 188551.0 
245.059006 33219.0 
290.079987 14945.299805 
291.062988 25953.900391 
308.089996 200074.0 
END IONS

BEGIN IONS
NAME=(3E)-4-(4-methoxyphenyl)but-3-en-2-one CollisionEnergy:205060 M+H-H2O
PRECURSOR_MZ=159.08
INCHI="InChI=1S/C11H12O2/c1-9(12)3-4-10-5-7-11(13-2)8-6-10/h3-8H,1-2H3/b4-3+"
SMILES=COc1ccc(C=CC(C)=O)cc1
SPECTRUMID=CCMSLIB00010119169
55.934872 218983.0 
56.13517 2111.0 
57.034088 4052.0 
70.958237 9959.0 
71.929718 11468.0 
72.044739 14868.0 
72.937469 66995.0 
74.93988 2427.0 
76.928177 17406.0 
76.933296 37292.0 
88.968773 17050.0 
89.939972 17040.0 
90.9478 46122.0 
90.998772 2052.0 
91.054192 12889.0 
94.943497 10588.0 
97.007599 2510.0 
103.054153 72441.0 
103.982986 2128.0 
105.934334 8439.0 
106.978569 2567.0 
107.950371 28366.0 
108.958076 4542.0 
111.984131 2711.0 
113.963516 14173.0 
114.054901 2963.0 
115.054253 16906.0 
116.061943 85279.0 
117.95961 49717.0 
123.945457 9389.0 
125.002808 4771.0 
125.960953 28164.0 
127.054298 17037.0 
128.062027 99759.0 
128.950699 102109.0 
129.069778 80330.0 
130.966248 2975.0 
131.047836 2238.0 
131.085709 9609.0 
131.975082 2858.0 
135.570251 2219.0 
135.945358 54521.0 
135.970169 14069.0 
143.048737 3433.0 
144.0569 527588.0 
145.064499 61468.0 
145.076553 3273.0 
146.961212 67218.0 
147.0802 41604.0 
148.976776 4899.0 
153.955887 39594.0 
155.060196 51911.0 
157.076248 9848.0 
158.073364 4762.0 
158.960846 10000.0 
158.986343 9189.0 
159.080353 537322.0 
165.435989 2563.0 
169.976898 16638.0 
185.371902 2532.0 
220.8983 2483.0 
END IONS

BEGIN IONS
NAME=3-(4-hydroxyphenyl)-2-{2-[(phenylmethoxy)carbonylamino]acetylamino}propanoic a cid CollisionEnergy:205060 M-H
PRECURSOR_MZ=371.125
INCHI="InChI=1S/C19H20N2O6/c22-15-8-6-13(7-9-15)10-16(18(24)25)21-17(23)11-20-19(26)27-12-14-4-2-1-3-5-14/h1-9,16,22H,10-12H2,(H,20,26)(H,21,23)(H,24,25)"
SMILES=O=C(O)C(Cc1ccc(O)cc1)N=C(O)CN=C(O)OCc1ccccc1
SPECTRUMID=CCMSLIB00010122718
68.067741 2453.0 
71.024849 14818.0 
74.345123 2505.0 
82.435417 3489.0 
83.025047 6028.0 
84.009018 21556.0 
92.417419 2817.0 
93.034737 18775.0 
99.019997 301315.0 
107.050217 3194.0 
108.840622 2323.0 
110.012207 24067.0 
111.019997 18811.0 
113.035538 24188.0 
119.050232 141611.0 
138.929459 3432.0 
146.025192 9732.0 
146.061783 11498.0 
158.061172 9712.0 
160.041107 3193.0 
162.056656 9983.0 
163.040253 57385.0 
174.055801 21810.0 
175.088242 14409.0 
176.072189 10258.0 
180.067078 32218.0 
192.06723 3105.0 
201.067245 115049.0 
219.077621 53147.0 
263.067505 394639.0 
264.6474 2996.0 
288.049561 2648.0 
342.99704 2759.0 
356.955536 2709.0 
END IONS

BEGIN IONS
NAME="N-(4-chlorophenyl)-2-[6-hydroxy-2-(3,4,5-trimethoxyphenyl)-3-azabicyclo[4.4.0] dec-3-yl]acetamide CollisionEnergy:102040" M+Na
PRECURSOR_MZ=511.197
INCHI="InChI=1S/C26H33ClN2O5/c1-32-21-14-17(15-22(33-2)25(21)34-3)24-20-6-4-5-11-26(20,31)12-13-29(24)16-23(30)28-19-9-7-18(27)8-10-19/h7-10,14-15,20,24,31H,4-6,11-13,16H2,1-3H3,(H,28,30)"
SMILES=COc1cc(C2C3CCCCC3(O)CCN2CC(=O)Nc2ccc(Cl)cc2)cc(OC)c1OC
SPECTRUMID=CCMSLIB00010107013
59.41864 2862.0 
71.934647 3009.0 
97.486427 3364.0 
134.594727 3279.0 
145.395462 3438.0 
146.590897 3490.0 
174.474762 3628.0 
206.130295 3061.0 
221.083176 3542.0 
353.495789 3492.0 
422.76944 3432.0 
493.1875 5026.0 
511.196198 4314694.0 
END IONS

BEGIN IONS
NAME=N-[(1E)-2-(4-hydroxy-3-methoxyphenyl)-1-azavinyl](2-aminophenyl)carboxamide CollisionEnergy:102040 M+Na
PRECURSOR_MZ=308.101
INCHI="InChI=1S/C15H15N3O3/c1-21-14-8-10(6-7-13(14)19)9-17-18-15(20)11-4-2-3-5-12(11)16/h2-9,19H,16H2,1H3,(H,18,20)/b17-9+"
SMILES=COc1cc(C=NN=C(O)c2ccccc2N)ccc1O
SPECTRUMID=CCMSLIB00010106551
69.743561 2686.0 
104.297333 2508.0 
106.025658 2643.0 
110.397453 2542.0 
141.092697 2689.0 
159.269714 2612.0 
236.82515 2786.0 
308.100067 3405199.0 
326.109528 13576.0 
END IONS

BEGIN IONS
NAME=Karanjin CollisionEnergy:205060 M+Na
PRECURSOR_MZ=315.063
INCHI="InChI=1S/C18H12O4/c1-20-18-15(19)13-7-8-14-12(9-10-21-14)17(13)22-16(18)11-5-3-2-4-6-11/h2-10H,1H3"
SMILES=COc1c(-c2ccccc2)oc2c(ccc3occc32)c1=O
SPECTRUMID=CCMSLIB00010115157
53.97393 3192.0 
55.490349 3072.0 
68.041122 3947.0 
69.559776 3254.0 
92.366188 3970.0 
118.637207 4415.0 
130.93309 3320.0 
144.765747 3153.0 
185.373245 3489.0 
299.080872 6959.0 
300.039124 54308.0 
315.062683 4088339.0 
333.072723 58188.0 
END IONS

BEGIN IONS
NAME="8-chloro-6-hydroxy-9-nitro-3,4,5,3a,9b-pentahydrocyclopenta[1,2-c]quinoline-4- carboxylic acid CollisionEnergy:102040" M-H
PRECURSOR_MZ=309.028
INCHI="InChI=1S/C13H11ClN2O5/c14-7-4-8(17)11-9(12(7)16(20)21)5-2-1-3-6(5)10(15-11)13(18)19/h1-2,4-6,10,15,17H,3H2,(H,18,19)"
SMILES=O=C(O)C1Nc2c(O)cc(Cl)c([N+](=O)[O-])c2C2C=CCC12
SPECTRUMID=CCMSLIB00010114688
50.531551 2094.0 
56.027012 2117.0 
62.96384 2440.0 
65.039261 9370.0 
71.861328 1927.0 
82.400414 2894.0 
82.754143 2423.0 
91.634117 2282.0 
92.995941 2353.0 
104.953621 14138.0 
168.99379 3373.0 
174.95575 5472.0 
178.948868 2868.0 
185.983841 32609.0 
186.991592 226302.0 
192.989792 2676.0 
198.991699 524962.0 
204.990311 9841.0 
220.168839 2362.0 
224.995728 10380.0 
242.983551 65976.0 
265.039276 23066.0 
308.979919 67775.0 
309.02829 583874.0 
END IONS

BEGIN IONS
NAME="5,7-bis[2-(4-methylphenyl)-2-oxoethoxy]-4-methylchromen-2-one CollisionEnergy:102040" M+Na
PRECURSOR_MZ=479.146
INCHI="InChI=1S/C28H24O6/c1-17-4-8-20(9-5-17)23(29)15-32-22-13-25(28-19(3)12-27(31)34-26(28)14-22)33-16-24(30)21-10-6-18(2)7-11-21/h4-14H,15-16H2,1-3H3"
SMILES=Cc1ccc(C(=O)COc2cc(OCC(=O)c3ccc(C)cc3)c3c(C)cc(=O)oc3c2)cc1
SPECTRUMID=CCMSLIB00010110504
57.385269 3203.0 
59.88179 3461.0 
67.275093 3022.0 
92.393471 3904.0 
213.119186 3686.0 
227.032288 6399.0 
346.081604 5701.0 
461.257782 3597.0 
479.14679 8051816.0 
END IONS

BEGIN IONS
NAME=corynanthine CollisionEnergy:205060 M+Na
PRECURSOR_MZ=377.184
INCHI="InChI=1S/C21H26N2O3/c1-26-21(25)19-15-10-17-20-14(13-4-2-3-5-16(13)22-20)8-9-23(17)11-12(15)6-7-18(19)24/h2-5,12,15,17-19,22,24H,6-11H2,1H3/t12-,15-,17-,18-,19-/m0/s1"
SMILES=COC(=O)C1C(O)CCC2CN3CCc4c([nH]c5ccccc45)C3CC21
SPECTRUMID=CCMSLIB00010115761
57.385071 2039.0 
60.389629 2447.0 
62.206059 2109.0 
75.778954 2185.0 
82.384613 2396.0 
92.362373 2200.0 
104.270187 2243.0 
180.240005 2275.0 
192.248535 2602.0 
196.376663 2674.0 
235.38443 2690.0 
377.182861 233860.0 
END IONS

BEGIN IONS
NAME=DEOXYCHOLIC ACID CollisionEnergy:205060 M+Cl
PRECURSOR_MZ=427.262
INCHI="InChI=1S/C24H40O4/c1-14(4-9-22(27)28)18-7-8-19-17-6-5-15-12-16(25)10-11-23(15,2)20(17)13-21(26)24(18,19)3/h14-21,25-26H,4-13H2,1-3H3,(H,27,28)/t14-,15-,16-,17+,18-,19+,20+,21+,23+,24-/m1/s1"
SMILES=CC(CCC(=O)O)C1CCC2C3CCC4CC(O)CCC4(C)C3CC(O)C12C
SPECTRUMID=CCMSLIB00010121705
74.597099 7852.0 
82.439728 10538.0 
85.572937 9064.0 
93.22348 9703.0 
136.277802 10044.0 
147.475052 9378.0 
152.459274 7397.0 
196.340057 8899.0 
345.278473 12748.0 
391.285248 181303.0 
427.263489 46977.0 
END IONS

BEGIN IONS
NAME=formononetin CollisionEnergy:102040 M+Na
PRECURSOR_MZ=291.063
INCHI="InChI=1S/C16H12O4/c1-19-12-5-2-10(3-6-12)14-9-20-15-8-11(17)4-7-13(15)16(14)18/h2-9,17H,1H3"
SMILES=COc1ccc(-c2coc3cc(O)ccc3c2=O)cc1
SPECTRUMID=CCMSLIB00010104954
50.454609 3215.0 
51.268162 2467.0 
65.422638 2447.0 
147.29538 2662.0 
221.227768 2526.0 
276.038116 3786.0 
277.967346 3061.0 
291.062469 3688075.0 
292.349091 3082.0 
292.643951 2858.0 
309.07312 19652.0 
END IONS

BEGIN IONS
NAME=uridine CollisionEnergy:102040 M+acetate
PRECURSOR_MZ=303.083
INCHI="InChI=1S/C9H12N2O6/c12-3-4-6(14)7(15)8(17-4)11-2-1-5(13)10-9(11)16/h1-2,4,6-8,12,14-15H,3H2,(H,10,13,16)/t4-,6-,7-,8-/m1/s1"
SMILES=O=c1nc(O)ccn1[C@@H]1O[C@H](CO)[C@@H](O)[C@H]1O
SPECTRUMID=CCMSLIB00010126087
55.169899 1946.540039 
60.548199 2304.449951 
68.213997 2347.790039 
92.3927 2979.97998 
104.301003 2186.169922 
110.245003 1999.77002 
133.039001 2793.600098 
153.781006 2201.01001 
156.973007 2190.550049 
176.207993 2119.77002 
END IONS

BEGIN IONS
NAME="5,6-Dimethylbenzimidazole CollisionEnergy:102040" M-H
PRECURSOR_MZ=145.077
INCHI="InChI=1S/C9H10N2/c1-6-3-8-9(4-7(6)2)11-5-10-8/h3-5H,1-2H3,(H,10,11)"
SMILES=Cc1cc2nc[nH]c2cc1C
SPECTRUMID=CCMSLIB00010103473
52.949551 2234.0 
55.173908 2281.0 
57.794361 2119.0 
66.393494 2134.0 
68.164482 2116.0 
70.665749 2141.0 
76.770943 2479.0 
77.358932 1890.0 
79.878517 2005.0 
82.421227 2330.0 
92.403168 2740.0 
101.060654 4393.0 
114.837311 2121.0 
143.062088 2704.0 
144.070114 1948.0 
145.077225 654406.0 
159.363327 1848.0 
END IONS

BEGIN IONS
NAME=Andrographolide CollisionEnergy:102040 M+formate
PRECURSOR_MZ=395.208
INCHI="InChI=1S/C20H30O5/c1-12-4-7-16-19(2,9-8-17(23)20(16,3)11-21)14(12)6-5-13-15(22)10-25-18(13)24/h5,14-17,21-23H,1,4,6-11H2,2-3H3/b13-5-"
SMILES=C=C1CCC2C(C)(CO)C(O)CCC2(C)C1CC=C1C(=O)OCC1O
SPECTRUMID=CCMSLIB00010109245
53.59745 2614.0 
60.5354 2554.0 
92.373817 3460.0 
136.205368 3273.0 
146.938431 14030.0 
147.44722 2129.0 
190.928619 29981.0 
204.797104 2696.0 
211.298218 2718.0 
258.913086 14541.0 
287.20163 222408.0 
303.197388 3484.0 
319.191711 15566.0 
326.899078 12092.0 
331.191589 722158.0 
349.201935 103908.0 
377.195923 4346.0 
395.207458 188829.0 
END IONS

BEGIN IONS
NAME=vincamine CollisionEnergy:102040 M+H
PRECURSOR_MZ=355.202
INCHI="InChI=1S/C21H26N2O3/c1-3-20-10-6-11-22-12-9-15-14-7-4-5-8-16(14)23(17(15)18(20)22)21(25,13-20)19(24)26-2/h4-5,7-8,18,25H,3,6,9-13H2,1-2H3/t18-,20+,21+/m1/s1"
SMILES=CCC12CCCN3CCc4c(n(c5ccccc45)C(O)(C(=O)OC)C1)C32
SPECTRUMID=CCMSLIB00010104056
56.04985 15773.0 
58.065498 4240.0 
68.049561 5551.0 
70.065483 56278.0 
83.049202 5790.0 
84.080727 20958.0 
98.096008 7193.0 
98.342667 3929.0 
107.084793 5286.0 
108.080688 4131.0 
110.096397 34384.0 
112.111977 18921.0 
115.53231 3835.0 
118.651581 5104.0 
122.096138 6541.0 
123.080147 5236.0 
123.104141 3829.0 
124.111893 20468.0 
130.065033 18129.0 
132.08017 7126.0 
134.096085 9480.0 
135.080078 8650.0 
144.080658 521693.0 
146.096054 5748.0 
150.090546 4560.0 
151.075027 4687.0 
152.106918 127543.0 
156.080261 9062.0 
158.095718 33844.0 
162.091339 19979.0 
164.107468 5354.0 
165.0905 5840.0 
170.096207 8505.0 
171.092392 4201.0 
180.10144 6126.0 
181.089508 6008.0 
182.080765 5443.0 
182.097412 8347.0 
185.106781 8366.0 
192.100723 6310.0 
194.117661 80479.0 
196.113113 5026.0 
206.095581 5036.0 
206.117157 6764.0 
208.075333 4586.0 
208.111877 6747.0 
209.119766 18971.0 
210.128189 14827.0 
212.127808 410177.0 
220.113968 6390.0 
221.119141 9240.0 
222.128265 31266.0 
224.12468 13178.0 
224.142944 25358.0 
234.12645 28393.0 
235.136292 16435.0 
236.143509 52292.0 
238.120728 4860.0 
239.092438 16392.0 
240.101074 9699.0 
244.129166 4961.0 
246.125748 28008.0 
248.142929 34068.0 
249.151764 15760.0 
250.158539 66738.0 
252.10054 17682.0 
252.132675 4883.0 
253.109177 16926.0 
253.168732 47231.0 
254.11937 15045.0 
260.142914 6500.0 
262.121399 15113.0 
264.136505 6259.0 
265.108276 33456.0 
266.117279 31959.0 
266.152802 28633.0 
267.124695 60457.0 
268.132355 239441.0 
276.129333 18254.0 
277.135529 8539.0 
277.168274 94687.0 
278.149658 5383.0 
278.177551 26185.0 
279.125916 33125.0 
280.132721 716664.0 
282.147369 59656.0 
288.138763 6099.0 
291.12619 27843.0 
292.133209 30895.0 
293.140442 24278.0 
294.148071 910691.0 
295.180084 275615.0 
296.189301 21870.0 
305.166077 42336.0 
306.149109 58189.0 
307.144958 48859.0 
308.163574 675003.0 
309.161041 42614.0 
309.194916 7972.0 
310.17926 99354.0 
320.165131 54122.0 
324.159546 6073.0 
325.190521 16176.0 
326.173218 39328.0 
337.190338 4288725.0 
338.175995 32959.0 
353.434143 5151.0 
353.48114 15496.0 
355.200836 16127397.0 
356.934082 9079.0 
END IONS

BEGIN IONS
NAME="1-(3,4-dimethoxyphenyl)-2-[5-(3,4-dimethoxyphenyl)(1,3,4-oxadiazol-2-ylthio)]e than-1-one CollisionEnergy:102040" M+Na
PRECURSOR_MZ=439.093
INCHI="InChI=1S/C20H20N2O6S/c1-24-15-7-5-12(9-17(15)26-3)14(23)11-29-20-22-21-19(28-20)13-6-8-16(25-2)18(10-13)27-4/h5-10H,11H2,1-4H3"
SMILES=COc1ccc(C(=O)CSc2nnc(-c3ccc(OC)c(OC)c3)o2)cc1OC
SPECTRUMID=CCMSLIB00010112339
50.400108 2824.0 
51.021969 2719.0 
56.07687 2987.0 
87.845039 2803.0 
92.38353 3138.0 
99.572037 2833.0 
104.296654 2658.0 
153.885162 2676.0 
172.058701 3111.0 
186.052429 85326.0 
227.079041 2914.0 
233.02504 4328.0 
276.029907 133502.0 
348.937042 3700.0 
424.070404 3984.0 
439.092987 2654501.0 
457.104889 15563.0 
END IONS

BEGIN IONS
NAME=4-Pyridoxic acid CollisionEnergy:102040 M+Na
PRECURSOR_MZ=206.042
INCHI="InChI=1S/C8H9NO4/c1-4-7(11)6(8(12)13)5(3-10)2-9-4/h2,10-11H,3H2,1H3,(H,12,13)"
SMILES=Cc1ncc(CO)c(C(=O)O)c1O
SPECTRUMID=CCMSLIB00010126876
66.746696 7972.089844 
73.965401 9271.160156 
104.292999 9922.490234 
108.195999 7543.040039 
109.557999 9525.009766 
110.310997 8721.629883 
114.857002 8689.790039 
116.053001 58265.601562 
128.302994 8744.740234 
132.042007 1769270.0 
136.218994 8997.519531 
136.733994 8583.259766 
162.052002 1591940.0 
177.199005 8707.799805 
188.031998 422078.0 
204.927002 11255.5 
206.042007 701520.0 
END IONS

BEGIN IONS
NAME="(Z)-3-difluoroboranyloxy-1,3-bis(2,4-dimethoxyphenyl)prop-2-en-1-one CollisionEnergy:205060" M+Na
PRECURSOR_MZ=415.113
INCHI="InChI=1S/C19H19BF2O6/c1-24-12-5-7-14(17(9-12)26-3)16(23)11-19(28-20(21)22)15-8-6-13(25-2)10-18(15)27-4/h5-11H,1-4H3/b19-11-"
SMILES=COc1ccc(C(=O)C=C(OB(F)F)c2ccc(OC)cc2OC)c(OC)c1
SPECTRUMID=CCMSLIB00010123880
72.937523 18450.0 
89.115997 3037.0 
91.0541 3566.0 
104.281219 4225.0 
108.495987 3294.0 
113.963364 15041.0 
118.64946 4586.0 
119.085632 48246.0 
131.974258 6675.0 
135.043991 59105.0 
151.039062 6026.0 
164.046524 6932.0 
165.054947 39194.0 
181.04657 89611.0 
194.054626 62706.0 
221.04303 7378.0 
229.048462 4363.0 
236.041794 4594.0 
313.104858 31510.0 
315.084351 42888.0 
330.105927 4427.0 
341.100189 42155.0 
358.098114 4421.0 
373.125153 213725.0 
392.158966 3676.0 
400.088501 24999.0 
412.929321 6243.0 
415.113312 7013509.0 
417.314728 4673.0 
433.122589 54459.0 
END IONS

BEGIN IONS
NAME=4-Acetamidobutyric acid CollisionEnergy:102040 M-H
PRECURSOR_MZ=144.067
INCHI="InChI=1S/C6H11NO3/c1-5(8)7-4-2-3-6(9)10/h2-4H2,1H3,(H,7,8)(H,9,10)"
SMILES=CC(O)=NCCCC(=O)O
SPECTRUMID=CCMSLIB00010112416
58.029381 1519731.0 
59.167831 30991.0 
72.383423 36886.0 
84.045189 207276.0 
98.061119 81054.0 
100.076828 3688728.0 
102.056129 4688832.0 
104.293694 32378.0 
126.056297 807496.0 
144.066727 1854209.0 
145.449219 36554.0 
END IONS

BEGIN IONS
NAME=2-oxo-3-(N-propylcarbamoyl)chromen-7-yl 2-iodobenzoate CollisionEnergy:205060 M+Na
PRECURSOR_MZ=499.997
INCHI="InChI=1S/C20H16INO5/c1-2-9-22-18(23)15-10-12-7-8-13(11-17(12)27-20(15)25)26-19(24)14-5-3-4-6-16(14)21/h3-8,10-11H,2,9H2,1H3,(H,22,23)"
SMILES=CCCNC(=O)c1cc2ccc(OC(=O)c3ccccc3I)cc2oc1=O
SPECTRUMID=CCMSLIB00010122438
52.0313 2615.0 
55.155842 3206.0 
73.947769 3602.0 
81.034119 3447.0 
81.962463 2806.0 
92.372307 4025.0 
94.041496 50341.0 
104.276558 3350.0 
118.88076 3237.0 
133.563522 2777.0 
161.618149 3250.0 
165.054977 6571.0 
188.033951 4152.0 
230.929718 116820.0 
499.996155 1274257.0 
END IONS

BEGIN IONS
NAME="2-[1-(4-methoxyphenyl)(1,2,3,4-tetrahydrobeta-carbolin-2-yl)]-N-(4-methylpheny l)acetamide CollisionEnergy:102040" M+Na
PRECURSOR_MZ=448.2
INCHI="InChI=1S/C27H27N3O2/c1-18-7-11-20(12-8-18)28-25(31)17-30-16-15-23-22-5-3-4-6-24(22)29-26(23)27(30)19-9-13-21(32-2)14-10-19/h3-14,27,29H,15-17H2,1-2H3,(H,28,31)"
SMILES=COc1ccc(C2c3[nH]c4ccccc4c3CCN2CC(=O)Nc2ccc(C)cc2)cc1
SPECTRUMID=CCMSLIB00010105469
50.324261 2882.0 
55.963371 2617.0 
81.16433 3016.0 
82.409027 3996.0 
93.625198 2909.0 
100.064728 2803.0 
104.303688 2849.0 
115.565483 2712.0 
136.21286 2803.0 
157.993927 3024.0 
199.084198 563175.0 
240.110199 5458.0 
262.122375 14313.0 
329.650299 3306.0 
448.199188 3301802.0 
466.209167 5023.0 
END IONS

BEGIN IONS
NAME=xanthosine CollisionEnergy:102040 2M-H
PRECURSOR_MZ=567.144
INCHI="InChI=1S/C10H12N4O6/c15-1-3-5(16)6(17)9(20-3)14-2-11-4-7(14)12-10(19)13-8(4)18/h2-3,5-6,9,15-17H,1H2,(H2,12,13,18,19)/t3-,5-,6-,9-/m1/s1"
SMILES=OC[C@H]1O[C@@H](n2cnc3c(O)nc(O)nc32)[C@H](O)[C@@H]1O
SPECTRUMID=CCMSLIB00010102574
50.659901 11049.200195 
54.206902 16292.0 
56.077499 12789.900391 
66.491302 12079.0 
66.769302 12952.299805 
68.629898 11222.0 
70.935303 11618.0 
92.415703 17605.199219 
104.323997 12682.700195 
123.121002 12668.0 
151.026001 374182.0 
172.451996 13192.200195 
209.363007 55071.601562 
241.820007 14385.799805 
283.069 610758.0 
329.695007 13414.799805 
END IONS

BEGIN IONS
NAME=N-[4-(methylethyl)phenyl]-2-(9-methyl-6-oxohydropurin-8-ylthio)acetamide CollisionEnergy:205060 M+H
PRECURSOR_MZ=358.133
INCHI="InChI=1S/C17H19N5O2S/c1-10(2)11-4-6-12(7-5-11)20-13(23)8-25-17-21-14-15(22(17)3)18-9-19-16(14)24/h4-7,9-10H,8H2,1-3H3,(H,20,23)(H,18,19,24)"
SMILES=CC(C)c1ccc(NC(=O)CSc2nc3c(O)ncnc3n2C)cc1
SPECTRUMID=CCMSLIB00010119698
57.045109 6644.0 
58.99527 4160.0 
66.74855 2650.0 
79.054283 10981.0 
84.98568 11819.0 
91.053947 4989.0 
92.387291 3034.0 
104.501991 3272.0 
105.033592 5389.0 
106.064987 81757.0 
107.023979 4615.0 
108.055252 7041.0 
111.042664 7320.0 
117.057243 5392.0 
123.031387 3151.0 
124.050377 7112.0 
132.044281 19383.0 
133.050293 4382.0 
133.088409 14430.0 
134.059982 116869.0 
137.045685 74344.0 
139.991196 27906.0 
144.080765 57857.0 
146.0961 18531.0 
148.112 41077.0 
149.045593 85210.0 
150.012314 3094.0 
150.053574 100847.0 
150.995712 31603.0 
151.061295 244339.0 
152.027191 5534.0 
153.023041 12846.0 
154.007126 7004.0 
157.98999 4673.0 
159.104233 17828.0 
161.045654 13329.0 
162.053329 52495.0 
163.061142 87124.0 
168.022186 63355.0 
170.037979 5237.0 
177.022385 7194.0 
179.055252 3591.0 
181.017639 901496.0 
183.033035 16109.0 
185.427841 3788.0 
186.032318 13737.0 
195.033356 2393333.0 
213.04361 28530.0 
222.044556 13394.0 
223.028152 2989134.0 
236.059906 32936.0 
297.065704 4231.0 
340.124146 11995.0 
358.132385 87670.0 
END IONS

BEGIN IONS
NAME="(3,4-dimethoxyphenyl)-N-[1-(methylethyl)pyrazol-4-yl]carboxamide CollisionEnergy:102040" M-H
PRECURSOR_MZ=288.135
INCHI="InChI=1S/C15H19N3O3/c1-10(2)18-9-12(8-16-18)17-15(19)11-5-6-13(20-3)14(7-11)21-4/h5-10H,1-4H3,(H,17,19)"
SMILES=COc1ccc(C(O)=Nc2cnn(C(C)C)c2)cc1OC
SPECTRUMID=CCMSLIB00010103739
54.486591 2380.0 
58.120369 2253.0 
73.977013 2462.0 
81.950897 2144.0 
84.990379 2490.0 
99.694221 2486.0 
108.020538 16139.0 
123.009163 58765.0 
125.143608 2500.0 
125.721451 2306.0 
132.780426 2281.0 
138.032471 4875.0 
150.066574 3096.0 
161.047485 2600.0 
171.133743 2810.0 
191.162155 2715.0 
202.051773 3453.0 
209.657074 3210.0 
230.056198 2667.0 
231.076492 4665.0 
244.109619 5784.0 
245.080505 31544.0 
246.089569 5392.0 
258.088654 207212.0 
272.104492 50320.0 
273.086121 4079.0 
273.112152 159307.0 
288.135742 1252309.0 
END IONS

BEGIN IONS
NAME=ethyl 2-[2-(4-bromophenoxy)acetylamino]-3-indol-3-ylpropanoate CollisionEnergy:102040 M+formate
PRECURSOR_MZ=489.067
INCHI="InChI=1S/C21H21BrN2O4/c1-2-27-21(26)19(11-14-12-23-18-6-4-3-5-17(14)18)24-20(25)13-28-16-9-7-15(22)8-10-16/h3-10,12,19,23H,2,11,13H2,1H3,(H,24,25)"
SMILES=CCOC(=O)C(Cc1c[nH]c2ccccc12)N=C(O)COc1ccc(Br)cc1
SPECTRUMID=CCMSLIB00010112325
50.484039 2143.0 
51.064041 2497.0 
61.15699 2486.0 
76.930008 2673.0 
78.918587 32972.0 
96.009361 12738.0 
136.217606 2463.0 
148.957123 19657.0 
170.945053 341592.0 
183.976242 10801.0 
192.891373 2450.0 
211.97142 90122.0 
216.945526 8361.0 
223.972122 10619.0 
227.966873 5998.0 
239.967896 4097.0 
242.983368 3102.0 
255.998703 12450.0 
267.961182 133658.0 
284.931885 23828.0 
314.003479 104201.0 
352.91864 10236.0 
382.972778 3434.0 
404.975769 28217.0 
424.984344 6512.0 
443.061279 276901.0 
468.974945 10422.0 
488.97995 41388.0 
END IONS

BEGIN IONS
NAME=2-Methoxy-4-{(4E)-4-[(tetrahydro-2-furanylmethyl)imino]-4H-chromen-2-yl}phenol CollisionEnergy:205060 M+H
PRECURSOR_MZ=352.154
INCHI="InChI=1S/C21H21NO4/c1-24-21-11-14(8-9-18(21)23)20-12-17(22-13-15-5-4-10-25-15)16-6-2-3-7-19(16)26-20/h2-3,6-9,11-12,15,23H,4-5,10,13H2,1H3/b22-17+"
SMILES=COc1cc(-c2cc(=NCC3CCCO3)c3ccccc3o2)ccc1O
SPECTRUMID=CCMSLIB00010115239
51.86974 5865.0 
53.002682 25324.0 
55.05463 142043.0 
57.033871 84150.0 
57.070271 641490.0 
65.038872 83856.0 
67.054527 1917746.0 
71.049393 35214.0 
84.056953 8571.0 
85.06488 2096140.0 
86.126823 6137.0 
107.048729 11420.0 
109.028053 22130.0 
120.044243 6766.0 
131.049698 5469.0 
135.043716 159490.0 
135.054382 9901.0 
137.023178 156586.0 
137.059082 6488.0 
149.059036 27148.0 
156.044571 8427.0 
157.957611 5097.0 
168.079483 5755.0 
170.059952 8240.0 
171.065445 5782.0 
171.611359 6003.0 
172.075851 6442.0 
181.064728 25764.0 
182.059967 19951.0 
183.067276 8954.0 
192.057922 11534.0 
196.075714 68816.0 
197.083572 9634.0 
207.080048 7207.0 
209.059769 20753.0 
210.067261 106857.0 
210.09137 32660.0 
220.051376 7267.0 
221.059692 10439.0 
222.089737 7186.0 
223.073212 6724.0 
224.070465 32621.0 
225.077805 1967988.0 
226.061951 25306.0 
226.087891 5745.0 
235.075195 5640.0 
236.071411 21779.0 
236.106888 11702.0 
237.053238 46519.0 
237.078308 91703.0 
238.061783 547899.0 
238.086273 123585.0 
239.068542 19128.0 
239.094543 18313.0 
240.101379 22422.0 
247.075851 7419.0 
249.089813 6392.0 
250.08699 38412.0 
251.066956 6809.0 
251.094467 12352.0 
252.071915 78768.0 
252.1017 186021.0 
253.072205 7629926.0 
254.079971 6146.0 
262.08728 7861.0 
263.095276 33225.0 
264.075104 32091.0 
264.101227 37371.0 
265.072388 750899.0 
265.106537 33150.0 
266.080872 410355.0 
266.116669 194475.0 
267.087067 126569.0 
268.096008 4570103.0 
270.053131 45032.0 
275.067993 8738.0 
276.076691 7329.0 
277.076447 25661.0 
278.081299 31546.0 
278.115448 8457.0 
279.092773 92417.0 
280.095856 2018526.0 
281.104187 36952.0 
281.136658 7514.0 
282.113037 39606.0 
284.06778 53409.0 
285.063721 9276.0 
290.09137 26759.0 
291.088684 223147.0 
291.124634 29717.0 
292.095947 239252.0 
293.104584 63051.0 
294.111206 226933.0 
299.078522 19847.0 
304.095459 82195.0 
306.111389 209116.0 
307.118927 93279.0 
308.128998 46862.0 
309.134796 913636.0 
310.117065 83929.0 
318.109375 18004.0 
319.119446 119333.0 
320.129822 6961.0 
322.1409 38574.0 
324.158997 17496.0 
325.140686 37043.0 
334.139465 39171.0 
335.530243 7970.0 
336.121429 33299.0 
337.129761 8673456.0 
350.139404 22599.0 
350.450378 22227.0 
351.144012 21933.0 
352.153229 23055276.0 
353.869568 18623.0 
END IONS

BEGIN IONS
NAME=kynurenic acid CollisionEnergy:102040 2M-H
PRECURSOR_MZ=377.078
INCHI="InChI=1S/C10H7NO3/c12-9-5-8(10(13)14)11-7-4-2-1-3-6(7)9/h1-5H,(H,11,12)(H,13,14)"
SMILES=O=C(O)c1cc(=O)c2ccccc2[nH]1
SPECTRUMID=CCMSLIB00010102774
57.9035 10649.200195 
58.971401 10477.299805 
69.486702 11038.400391 
106.656998 10407.099609 
144.044998 17214.800781 
158.134003 10694.0 
165.791 10547.5 
185.440994 12001.5 
188.035004 20973.199219 
295.858002 13096.099609 
303.002991 12908.0 
312.519989 11939.599609 
332.394012 12812.5 
END IONS

BEGIN IONS
NAME="2',3'-Dimethoxy-3-hydroxyflavone CollisionEnergy:102040" M+H
PRECURSOR_MZ=299.091
INCHI="InChI=1S/C17H14O5/c1-20-13-9-5-7-11(16(13)21-2)17-15(19)14(18)10-6-3-4-8-12(10)22-17/h3-9,19H,1-2H3"
SMILES=COc1cccc(-c2oc3ccccc3c(=O)c2O)c1OC
SPECTRUMID=CCMSLIB00010105664
56.361462 2695.0 
66.745392 4454.0 
69.923714 3156.0 
72.074509 2891.0 
79.054283 3971.0 
93.748047 3849.0 
95.049393 4592.0 
101.278084 2889.0 
105.033417 78417.0 
106.791817 3202.0 
107.049042 265146.0 
121.028229 184108.0 
123.043694 3527.0 
123.990677 2913.0 
133.028244 68892.0 
135.043701 17328.0 
136.05191 7397.0 
137.05954 643491.0 
138.067337 151842.0 
138.076721 3088.0 
145.33136 3622.0 
146.03566 15363.0 
151.038651 14138.0 
151.074875 5931.0 
157.978302 3122.0 
162.030548 12769.0 
163.038559 6200.0 
165.054596 82442.0 
165.069321 5454.0 
183.080078 6179.0 
193.04892 5831.0 
197.059967 2731.0 
209.060165 3337.0 
210.067429 4688.0 
210.425064 3310.0 
211.075378 15500.0 
237.053528 29358.0 
238.062012 169382.0 
238.089493 5531.0 
239.069733 141063.0 
240.076492 27981.0 
241.0495 6037.0 
243.101074 94553.0 
249.054611 5039.0 
253.048706 20308.0 
254.150467 3228.0 
255.063583 17408.0 
256.073151 35379.0 
265.049072 118529.0 
266.056915 407829.0 
267.065094 34410.0 
269.044159 26494.0 
270.088196 3647.0 
271.095886 19688.0 
283.060333 34663.0 
284.067291 235358.0 
297.761322 4915.0 
299.090698 6151302.0 
300.430237 5504.0 
END IONS

BEGIN IONS
NAME="6,11-dioxododecanoic acid CollisionEnergy:102040" M+H-H2O
PRECURSOR_MZ=211.133
INCHI="InChI=1S/C12H20O4/c1-10(13)6-2-3-7-11(14)8-4-5-9-12(15)16/h2-9H2,1H3,(H,15,16)"
SMILES=CC(=O)CCCCC(=O)CCCCC(=O)O
SPECTRUMID=CCMSLIB00010108681
53.039188 3523.0 
55.05468 52919.0 
59.049648 30857.0 
59.999031 3057.0 
67.054604 164170.0 
69.070312 6253.0 
71.049423 5591.0 
77.038872 3710.0 
77.597717 3408.0 
79.054466 107005.0 
79.326248 3245.0 
81.070122 2490663.0 
83.049362 202074.0 
83.057747 3538.0 
83.085274 5033.0 
85.065109 34106.0 
91.054314 173626.0 
93.070053 33668.0 
95.048912 5846.0 
95.085274 7619.0 
96.809952 3224.0 
98.0597 13164.0 
99.080452 134141.0 
101.059669 905537.0 
105.069794 203743.0 
107.085457 122057.0 
109.064774 3200261.0 
111.043983 1151505.0 
113.05999 5252.0 
117.069923 5149.0 
119.085342 83898.0 
121.101082 37540.0 
123.117264 4612.0 
124.92881 3423.0 
125.059624 7966.0 
127.075233 309313.0 
129.054474 473071.0 
131.085403 87299.0 
133.101074 445056.0 
135.080338 49330.0 
137.059158 3787.0 
142.077881 3418.0 
145.0858 122185.0 
147.065292 135868.0 
147.116669 1530947.0 
149.096512 4345.0 
149.132156 64067.0 
151.111603 698984.0 
153.09082 19336.0 
157.101151 68083.0 
165.127228 101179.0 
171.101349 3576.0 
175.111588 373013.0 
187.959747 13664.0 
193.122101 1455695.0 
211.132538 241377.0 
END IONS

BEGIN IONS
NAME="(2E)-3-(3,4-dimethoxyphenyl)-N-(4-methoxyphenyl)prop-2-enamide CollisionEnergy:102040" M+H
PRECURSOR_MZ=314.139
INCHI="InChI=1S/C18H19NO4/c1-21-15-8-6-14(7-9-15)19-18(20)11-5-13-4-10-16(22-2)17(12-13)23-3/h4-12H,1-3H3,(H,19,20)/b11-5+"
SMILES=COc1ccc(NC(=O)C=Cc2ccc(OC)c(OC)c2)cc1
SPECTRUMID=CCMSLIB00010106962
60.544701 4133.0 
72.132477 3591.0 
84.541183 3476.0 
91.054138 7019.0 
92.049789 3477.0 
103.054077 5326.0 
105.034889 3813.0 
105.069771 20414.0 
122.059982 54140.0 
123.068039 3904.0 
124.075752 155756.0 
132.05722 7466.0 
133.064789 30568.0 
135.080246 7598.0 
147.04454 4243.0 
148.05188 56588.0 
150.054245 3658.0 
150.067627 103394.0 
159.044006 3807.0 
160.052032 57573.0 
161.059464 22230.0 
161.083115 18710.0 
162.087158 13917.0 
163.075287 454082.0 
165.091049 106355.0 
176.046799 97001.0 
176.071152 52455.0 
190.389374 5819.0 
191.07019 9409858.0 
191.754547 4957.0 
192.072769 5523.0 
192.10202 41235.0 
193.105209 49820.0 
272.126129 13508.0 
296.126984 15900.0 
297.165161 4847.0 
299.115204 19333.0 
312.705353 4581.0 
314.138245 8596063.0 
315.583191 4632.0 
END IONS

BEGIN IONS
NAME=thymidine CollisionEnergy:205060 M+Cl
PRECURSOR_MZ=277.06
INCHI="InChI=1S/C10H14N2O5/c1-5-3-12(10(16)11-9(5)15)8-2-6(14)7(4-13)17-8/h3,6-8,13-14H,2,4H2,1H3,(H,11,15,16)/t6-,7+,8+/m0/s1"
SMILES=Cc1cn(C2CC(O)C(CO)O2)c(=O)nc1O
SPECTRUMID=CCMSLIB00010125511
69.203201 2043.0 
73.614937 2028.0 
73.95118 2433.0 
74.49472 2124.0 
92.376328 2561.0 
93.287033 2173.0 
101.339951 1959.0 
118.652252 2451.0 
122.842682 2072.0 
125.035561 13404.0 
136.203644 2082.0 
145.816422 2073.0 
277.058868 4120.0 
END IONS

BEGIN IONS
NAME="(9S,10S,1R)-3-hydroxy-4,12-dimethoxy-17-methyl-17-azatetracyclo[7.5.3.0<1,10>. 0<2,7>]heptadeca-2,4,6,11-tetraen-13-one CollisionEnergy:205060" M+H
PRECURSOR_MZ=330.17
INCHI="InChI=1S/C19H23NO4/c1-20-7-6-19-10-14(21)16(24-3)9-12(19)13(20)8-11-4-5-15(23-2)18(22)17(11)19/h4-5,9,12-13,22H,6-8,10H2,1-3H3"
SMILES=COC1=CC2C3Cc4ccc(OC)c(O)c4C2(CCN3C)CC1=O
SPECTRUMID=CCMSLIB00010117388
55.018608 11808.0 
56.049969 87719.0 
57.033939 45660.0 
58.065559 3276276.0 
59.049541 142208.0 
60.081219 47391.0 
61.02932 13332.0 
64.344254 10223.0 
65.039169 16292.0 
65.304764 10834.0 
68.025948 11474.0 
70.065361 14712.0 
71.049347 21537.0 
83.049103 47259.0 
85.028458 10105.0 
86.016258 9687.0 
91.05426 274377.0 
93.070061 102772.0 
95.049057 21053.0 
96.08062 138649.0 
99.043823 20554.0 
99.765213 11621.0 
101.059753 23434.0 
103.053932 15473.0 
108.056686 21215.0 
111.043747 68198.0 
115.054024 28050.0 
119.049202 110118.0 
122.036186 20092.0 
123.080238 602845.0 
125.059021 15547.0 
131.048843 20556.0 
135.104065 26157.0 
136.230179 13722.0 
137.059601 837884.0 
137.071548 28686.0 
141.069763 48742.0 
143.049286 27697.0 
150.091309 197322.0 
151.075211 449083.0 
152.06131 101708.0 
153.069687 963497.0 
155.049622 21240.0 
155.085342 53603.0 
157.064606 44160.0 
159.080887 16279.0 
160.075089 19990.0 
161.05986 87901.0 
163.075424 14095.0 
164.06987 13294.0 
164.10643 19090.0 
165.069397 241211.0 
165.114639 49382.0 
166.077789 27785.0 
167.085342 300297.0 
168.056732 401509.0 
169.064423 74426.0 
169.205978 11346.0 
170.072098 46084.0 
171.079758 26129.0 
172.050537 59520.0 
173.059341 28293.0 
174.066742 52412.0 
175.075439 73257.0 
177.069153 145325.0 
178.087631 166342.0 
179.048599 24390.0 
179.08461 325808.0 
180.056702 160835.0 
181.064514 3538400.0 
182.072571 114126.0 
182.096085 23674.0 
183.04361 27114.0 
183.080475 185876.0 
184.052139 18927.0 
185.059143 17051.0 
185.095535 89848.0 
186.0681 15766.0 
187.074844 396627.0 
188.082397 26187.0 
190.079727 13876.0 
191.08548 69724.0 
192.056259 54517.0 
192.101074 83986.0 
193.064529 406014.0 
193.109344 209741.0 
194.072617 18627.0 
195.08017 1260811.0 
196.051361 151592.0 
196.089401 14706.0 
197.059479 67679.0 
197.095718 69395.0 
198.067566 304374.0 
198.089035 21140.0 
199.075027 152401.0 
201.055267 25372.0 
201.090836 24099.0 
205.064362 76140.0 
206.071762 47401.0 
207.043823 2478266.0 
207.077606 402176.0 
207.570435 12964.0 
208.051758 169559.0 
208.088272 15031.0 
209.059418 1201643.0 
209.092209 97842.0 
210.067322 87609.0 
210.090805 58225.0 
211.075027 895249.0 
212.083496 114855.0 
213.090622 1052820.0 
214.063141 25283.0 
215.06987 49157.0 
215.106781 16384.0 
216.07753 20496.0 
218.07251 18097.0 
219.079697 27821.0 
221.058624 56237.0 
222.066193 13121.0 
223.074905 1935200.0 
224.047256 83382.0 
224.082382 250371.0 
225.053894 69878.0 
225.092545 149514.0 
226.062531 147284.0 
226.083405 18763.0 
227.069946 218582.0 
227.109863 111635.0 
228.100403 21886.0 
229.087082 16191.0 
229.107742 88507.0 
230.093033 90151.0 
230.117355 59136.0 
231.100876 81441.0 
234.068451 24630.0 
235.075073 179530.0 
236.082153 28316.0 
237.052612 13042.0 
237.090179 94879.0 
237.920151 12819.0 
239.069809 2085279.0 
239.104858 175907.0 
240.076996 96178.0 
240.10199 71848.0 
241.085449 1008312.0 
242.092575 63900.0 
242.118073 60521.0 
243.099197 16147.0 
245.116776 267489.0 
249.089767 27697.0 
251.070053 25115.0 
251.104919 12970.0 
252.078018 22727.0 
254.091446 43903.0 
254.119003 26443.0 
255.066025 51800.0 
255.099976 357368.0 
255.125366 29083.0 
256.072693 26880.0 
257.082642 23154.0 
257.116486 76371.0 
258.086609 19312.0 
259.094635 17756.0 
266.093719 25249.0 
267.101196 77053.0 
269.081451 42920.0 
269.116455 49942.0 
270.087097 19919.0 
270.147522 135277.0 
271.095642 70551.0 
273.111267 103673.0 
280.133026 48259.0 
281.115723 48784.0 
284.103729 26549.0 
298.142029 45208.0 
315.145721 74182.0 
330.169281 26379964.0 
END IONS

BEGIN IONS
NAME="N-(3-methoxyphenyl)-2-[2-oxo-4-(2-1,2,3,4-tetrahydroisoquinolylcarbonyl)hydroq uinolyl]acetamide CollisionEnergy:205060" M+Na
PRECURSOR_MZ=490.174
INCHI="InChI=1S/C28H25N3O4/c1-35-22-10-6-9-21(15-22)29-26(32)18-31-25-12-5-4-11-23(25)24(16-27(31)33)28(34)30-14-13-19-7-2-3-8-20(19)17-30/h2-12,15-16H,13-14,17-18H2,1H3,(H,29,32)"
SMILES=COc1cccc(N=C(O)Cn2c(=O)cc(C(=O)N3CCc4ccccc4C3)c3ccccc32)c1
SPECTRUMID=CCMSLIB00010125699
66.736717 3654.0 
66.740593 2821.0 
71.91011 2764.0 
78.727791 2627.0 
83.957573 2778.0 
103.735237 2464.0 
106.285309 2531.0 
124.526207 2894.0 
283.983368 2873.0 
359.099823 94984.0 
367.110382 3118.0 
472.161652 14992.0 
490.173126 2239275.0 
END IONS

BEGIN IONS
NAME="N-(1-methylbenzimidazol-5-yl)(3,4,5-trimethoxyphenyl)carboxamide CollisionEnergy:205060" M+formate
PRECURSOR_MZ=386.136
INCHI="InChI=1S/C18H19N3O4/c1-21-10-19-13-9-12(5-6-14(13)21)20-18(22)11-7-15(23-2)17(25-4)16(8-11)24-3/h5-10H,1-4H3,(H,20,22)"
SMILES=COc1cc(C(O)=Nc2ccc3c(c2)ncn3C)cc(OC)c1OC
SPECTRUMID=CCMSLIB00010115876
51.414478 2024.0 
82.4403 2324.0 
106.732048 2056.0 
119.396141 2196.0 
215.743851 2474.0 
241.330383 2282.0 
340.129791 2837.0 
END IONS

BEGIN IONS
NAME=GA1 CollisionEnergy:205060 M-H
PRECURSOR_MZ=347.15
INCHI="InChI=1S/C19H24O6/c1-9-7-17-8-18(9,24)5-3-10(17)19-6-4-11(20)16(2,15(23)25-19)13(19)12(17)14(21)22/h10-13,20,24H,1,3-8H2,2H3,(H,21,22)/t10-,11+,12-,13-,16-,17+,18+,19-/m1/s1"
SMILES=C[C@@]12[C@H](CC[C@@]3([C@@H]1[C@@H]([C@]45[C@H]3CC[C@](C4)(C(=C)C5)O)C(=O)O)OC2=O)O
SPECTRUMID=CCMSLIB00010102193
57.034077 11957.209961 
60.992546 4492.757812 
71.049919 7155.719727 
73.029335 37743.210938 
83.050125 37920.863281 
107.08654 5264.401367 
109.065453 3519.761963 
117.450134 3356.068115 
118.728455 4975.339355 
133.065811 7009.51709 
143.086411 6182.958008 
145.102219 57956.199219 
157.065292 11249.455078 
171.080963 6636.45459 
173.096817 13816.416992 
185.096344 17415.744141 
185.133041 7126.762695 
189.0914 9627.466797 
199.075912 6227.603027 
199.112534 18238.714844 
201.092819 8760.152344 
203.14505 8605.567383 
213.09256 6623.331055 
223.148026 5307.717773 
229.123047 77103.382812 
239.143814 6964.977539 
241.123795 14730.677734 
241.158646 18817.869141 
255.137253 6161.427246 
257.118378 7692.228027 
259.169861 66748.148438 
270.705658 3597.275146 
273.113708 58277.757812 
285.149414 32734.621094 
329.13797 22020.957031 
347.14978 604640.5 
END IONS

BEGIN IONS
NAME=7-Benzyloxygramine CollisionEnergy:102040 M+H
PRECURSOR_MZ=281.165
INCHI="InChI=1S/C18H20N2O/c1-20(2)12-15-11-19-18-16(15)9-6-10-17(18)21-13-14-7-4-3-5-8-14/h3-11,19H,12-13H2,1-2H3"
SMILES=CN(C)Cc1c[nH]c2c(OCc3ccccc3)cccc12
SPECTRUMID=CCMSLIB00010112575
63.069778 2304.0 
86.164047 2385.0 
91.054283 384207.0 
108.044189 4877.0 
118.628319 2641.0 
150.059433 2403.0 
158.059509 3846.0 
182.862823 2569.0 
208.111755 25956.0 
218.097137 3582.0 
234.951309 75645.0 
236.106628 876353.0 
252.960754 3618.0 
257.967041 137292.0 
280.980927 4606.0 
281.134766 18399.0 
281.164001 21694.0 
299.062439 4683.0 
END IONS

BEGIN IONS
NAME="N-(2,4-dimethoxyphenyl)-2-(9-methyl-6-oxohydropurin-8-ylthio)acetamide CollisionEnergy:102040" M-H
PRECURSOR_MZ=374.093
INCHI="InChI=1S/C16H17N5O4S/c1-21-14-13(15(23)18-8-17-14)20-16(21)26-7-12(22)19-10-5-4-9(24-2)6-11(10)25-3/h4-6,8H,7H2,1-3H3,(H,19,22)(H,17,18,23)"
SMILES=COc1ccc(N=C(O)CSc2nc3c(O)ncnc3n2C)c(OC)c1
SPECTRUMID=CCMSLIB00010111797
57.975368 6049.0 
62.720749 2621.0 
70.927231 2377.0 
79.03006 15475.0 
92.394569 3515.0 
101.163437 3149.0 
106.04097 10683.0 
125.848503 3058.0 
134.0233 4167.0 
144.995255 2870.0 
149.046951 718548.0 
152.028809 41889.0 
161.076126 2934.0 
165.041763 25253.0 
176.035492 29266.0 
179.003983 20782.0 
180.011353 979243.0 
181.019165 438726.0 
193.019363 55970.0 
193.992203 30923.0 
195.034927 246677.0 
208.008759 4321.0 
209.015396 35780.0 
212.874969 3552.0 
220.989288 5108.0 
221.014023 189033.0 
224.038788 199895.0 
284.080566 4789.0 
285.08667 6932.0 
300.110229 186477.0 
303.091888 3590.0 
331.08963 13407.0 
374.09317 2251481.0 
END IONS

BEGIN IONS
NAME=15572-30-2 CollisionEnergy:102040 M+formate
PRECURSOR_MZ=429.019
INCHI="InChI=1S/C16H17BrO6/c17-10-3-1-9-6-11(4-2-8(9)5-10)22-16-15(21)14(20)13(19)12(7-18)23-16/h1-6,12-16,18-21H,7H2/t12-,13+,14+,15-,16-/m1/s1"
SMILES=OCC1OC(Oc2ccc3cc(Br)ccc3c2)C(O)C(O)C1O
SPECTRUMID=CCMSLIB00010112800
52.230541 2554.0 
54.74839 2809.0 
65.617058 2546.0 
72.90921 2894.0 
78.918533 111697.0 
78.922684 6060.0 
86.227051 2790.0 
92.368973 3602.0 
92.930832 2845.0 
96.400574 2785.0 
97.099251 2874.0 
161.045853 16500.0 
208.973373 3594.0 
220.961029 2925243.0 
243.898117 3619.0 
269.252136 2964.0 
383.013824 372522.0 
429.019012 165784.0 
END IONS

BEGIN IONS
NAME="3-(2-chlorophenyl)-11-[2-(methylethoxy)phenyl]-2,3,4-trihydro-5H,10H,11H-benzo [b]benzo[2,1-f]1,4-diazepin-1-one CollisionEnergy:102040" M-H
PRECURSOR_MZ=457.169
INCHI="InChI=1S/C28H27ClN2O2/c1-17(2)33-26-14-8-4-10-20(26)28-27-24(30-22-12-6-7-13-23(22)31-28)15-18(16-25(27)32)19-9-3-5-11-21(19)29/h3-14,17-18,28,30-31H,15-16H2,1-2H3"
SMILES=CC(C)Oc1ccccc1C1Nc2ccccc2NC2=C1C(=O)CC(c1ccccc1Cl)C2
SPECTRUMID=CCMSLIB00010104642
53.170731 2435.0 
57.034019 6404.0 
73.972527 3041.0 
82.420723 3300.0 
93.03447 5412.0 
117.04525 4582.0 
118.683159 3373.0 
118.992188 2969.0 
131.061172 108023.0 
143.061005 10380.0 
145.040161 51688.0 
162.043411 2837.0 
163.051056 17531.0 
183.0569 4860.0 
221.106628 3463.0 
234.0923 3141.0 
264.047852 3982.0 
266.98642 3141.0 
267.092529 27084.0 
269.08551 12593.0 
271.088226 4983.0 
284.095245 158069.0 
285.103271 100335.0 
286.112 13937.0 
291.068298 5875.0 
304.984375 2990.0 
307.06485 3303.0 
308.072327 5066.0 
321.078979 20111.0 
327.149902 76344.0 
342.97934 4456.0 
343.122925 3691.0 
379.100677 22125.0 
392.976776 32296.0 
396.107574 4569.0 
397.111176 30482.0 
416.975647 30517.0 
436.980072 27115.0 
439.15802 142264.0 
456.979919 45046.0 
457.169037 1594376.0 
END IONS

BEGIN IONS
NAME=GLUTARIC ACID CollisionEnergy:102040 M+H-H2O
PRECURSOR_MZ=115.039
INCHI="InChI=1S/C5H8O4/c6-4(7)2-1-3-5(8)9/h1-3H2,(H,6,7)(H,8,9)"
SMILES=O=C(O)CCCC(=O)O
SPECTRUMID=CCMSLIB00010114004
55.0186 4553.0 
55.46196 2114.0 
56.965382 22996.0 
57.935661 11508.0 
61.50948 2013.0 
62.29932 2181.0 
62.45174 2705.0 
65.577911 2070.0 
67.510643 4153.0 
72.937958 9444.0 
73.930397 15565.0 
73.938454 9778.0 
76.515602 2459.0 
82.401093 2161.0 
84.541367 2613.0 
87.044548 182461.0 
91.948891 3354.0 
92.382202 3674.0 
97.991249 2992.0 
115.03949 2551.0 
124.363312 2790.0 
172.255051 2348.0 
176.128174 2092.0 
178.35022 2181.0 
189.006775 2341.0 
193.31163 2465.0 
END IONS

BEGIN IONS
NAME="N-benzothiazol-2-yl(3,4-dimethoxyphenyl)carboxamide CollisionEnergy:102040" M+H
PRECURSOR_MZ=315.08
INCHI="InChI=1S/C16H14N2O3S/c1-20-12-8-7-10(9-13(12)21-2)15(19)18-16-17-11-5-3-4-6-14(11)22-16/h3-9H,1-2H3,(H,17,18,19)"
SMILES=COc1ccc(C(O)=Nc2nc3ccccc3s2)cc1OC
SPECTRUMID=CCMSLIB00010104311
53.655109 2945.0 
79.054466 3406.0 
103.675301 3415.0 
126.031883 5323.0 
147.043915 85836.0 
154.665924 3463.0 
155.070908 5971.0 
157.984131 3783.0 
165.054611 5978962.0 
177.011261 6068.0 
179.143127 3193.0 
195.065155 753115.0 
197.3358 4022.0 
279.233154 11381.0 
304.353333 3473.0 
315.079834 1860144.0 
315.122772 946008.0 
315.19101 43152.0 
END IONS

BEGIN IONS
NAME=2-(acetylamino)-3-indol-3-yl-N-{2-[5-methyl-2-(methylethyl)phenoxy]ethyl}propa namide CollisionEnergy:205060 M-H
PRECURSOR_MZ=420.229
INCHI="InChI=1S/C25H31N3O3/c1-16(2)20-10-9-17(3)13-24(20)31-12-11-26-25(30)23(28-18(4)29)14-19-15-27-22-8-6-5-7-21(19)22/h5-10,13,15-16,23,27H,11-12,14H2,1-4H3,(H,26,30)(H,28,29)"
SMILES=CC(O)=NC(Cc1c[nH]c2ccccc12)C(O)=NCCOc1cc(C)ccc1C(C)C
SPECTRUMID=CCMSLIB00010120060
59.314968 3052.0 
70.029572 5670.0 
71.024673 6437.0 
73.96402 4675.0 
75.782753 3124.0 
84.04509 23306.0 
96.03289 115563.0 
98.024712 7735.0 
99.056297 246229.0 
104.303909 5225.0 
111.056351 351240.0 
113.035393 14299.0 
118.676247 3653.0 
133.065765 57990.0 
141.066864 414198.0 
144.81868 3667.0 
148.621429 11074.0 
148.956314 3729.0 
149.097015 7478182.0 
149.574722 6875.0 
208.617874 15234.0 
264.419159 3054.0 
270.124664 1445641.0 
291.171051 12844.0 
303.255463 3982.0 
420.228821 895117.0 
END IONS

BEGIN IONS
NAME="8-{[2-(4-chlorophenyl)-5-methyl(1,3-oxazol-4-yl)]methylthio}-9-methylhydropuri n-6-one CollisionEnergy:205060" M+Na
PRECURSOR_MZ=410.045
INCHI="InChI=1S/C17H14ClN5O2S/c1-9-12(21-16(25-9)10-3-5-11(18)6-4-10)7-26-17-22-13-14(23(17)2)19-8-20-15(13)24/h3-6,8H,7H2,1-2H3,(H,19,20,24)"
SMILES=Cc1oc(-c2ccc(Cl)cc2)nc1CSc1nc2c(O)ncnc2n1C
SPECTRUMID=CCMSLIB00010120401
55.41629 2858.0 
69.033897 96272.0 
87.967987 2435.0 
115.116096 2712.0 
138.010468 592743.0 
156.021545 6674.0 
179.036392 3421.0 
204.007492 91816.0 
205.01532 277644.0 
206.03656 367982.0 
211.009674 5547.0 
246.043182 3201.0 
253.018875 3263.0 
410.044434 2506472.0 
END IONS

BEGIN IONS
NAME=thapsigargin CollisionEnergy:205060 M+Na
PRECURSOR_MZ=673.319
INCHI="InChI=1S/C34H50O12/c1-9-12-13-14-15-17-24(37)43-28-26-25(20(5)27(28)44-30(38)19(4)11-3)29-34(41,33(8,40)31(39)45-29)22(42-23(36)16-10-2)18-32(26,7)46-21(6)35/h11,22,26-29,40-41H,9-10,12-18H2,1-8H3/b19-11-/t22-,26+,27-,28-,29-,32-,33+,34+/m0/s1"
SMILES=CC=C(C)C(=O)OC1C(C)=C2C(C1OC(=O)CCCCCCC)C(C)(OC(C)=O)CC(OC(=O)CCC)C1(O)C2OC(=O)C1(C)O
SPECTRUMID=CCMSLIB00010123951
53.038792 9323.0 
53.622211 4089.0 
55.017818 9390.0 
55.054722 137654.0 
55.05743 7846.0 
55.861759 4326.0 
56.174641 4107.0 
57.070351 389585.0 
57.07333 21989.0 
60.53574 3865.0 
67.054604 53848.0 
69.033867 43359.0 
71.049408 57429.0 
79.053864 18378.0 
81.033379 4142.0 
81.069618 8883.0 
82.39389 4646.0 
83.012444 7766.0 
83.049362 253347.0 
85.028221 4452.0 
85.150467 4299.0 
91.054321 35844.0 
92.374481 4977.0 
93.069778 12266.0 
95.048393 6071.0 
97.027672 5803.0 
101.02243 4983.0 
103.053436 24659.0 
104.283722 4045.0 
105.069923 81666.0 
107.048424 26313.0 
107.085213 7328.0 
109.100319 20649.0 
111.004402 19204.0 
111.04142 18429.0 
115.054131 35503.0 
116.06234 5561.0 
117.069733 33731.0 
119.048363 19934.0 
119.085342 68317.0 
121.064369 30912.0 
123.042 17970.0 
123.079567 19377.0 
125.059769 82498.0 
127.075058 5362.0 
127.11142 58625.0 
128.061966 358374.0 
129.069778 98468.0 
130.077209 8504.0 
131.048386 9393.0 
131.085541 67576.0 
133.065231 30097.0 
133.091476 5699.0 
133.100967 89588.0 
135.07901 7722.0 
141.059052 4492.0 
141.069763 68787.0 
141.109253 5254.0 
142.077515 107829.0 
143.08548 692254.0 
144.056015 5974.0 
144.093109 8931.0 
145.064697 124783.0 
145.100937 62730.0 
146.072311 50617.0 
147.067703 6802.0 
147.080231 184552.0 
149.005859 5186.0 
149.059326 4677.0 
149.095001 6566.0 
152.06163 32594.0 
153.055481 7504.0 
153.06926 35807.0 
154.077896 28327.0 
155.060074 13352.0 
155.085098 22574.0 
157.064743 35792.0 
157.087357 5693.0 
157.101044 108229.0 
158.071503 16263.0 
159.080444 98933.0 
159.115967 26478.0 
160.074387 4667.0 
160.088242 120948.0 
161.095978 512738.0 
162.067154 4775.0 
163.07457 8414.0 
165.069229 16682.0 
165.089249 5754.0 
167.084595 78535.0 
167.101303 14518.0 
169.064804 49826.0 
169.100876 32986.0 
170.072281 90741.0 
171.080215 341180.0 
172.087509 51291.0 
173.060059 29600.0 
173.095993 53925.0 
174.051743 6016.0 
174.0672 112562.0 
175.074692 26416.0 
175.111496 29990.0 
177.090668 6431.0 
179.106308 8751.0 
182.072311 4712.0 
185.058563 8553.0 
185.096008 195923.0 
187.075302 57373.0 
187.111618 30178.0 
188.083176 145492.0 
189.090805 690966.0 
190.097748 19011.0 
191.069046 8522.0 
193.062912 46840.0 
193.081787 6223.0 
195.080124 47598.0 
195.097794 7125.0 
197.095551 21723.0 
198.067368 61441.0 
199.075104 66615.0 
201.088226 6204.0 
203.088821 4927.0 
203.1064 81022.0 
205.085648 118603.0 
207.101288 40351.0 
209.113953 10094.0 
210.064163 5233.0 
211.073273 39628.0 
213.090836 262705.0 
215.070114 8990.0 
215.10643 111957.0 
216.076752 4746.0 
217.085907 68001.0 
220.642258 4300.0 
221.115784 4617.0 
223.070129 4660.0 
231.101334 300901.0 
233.080963 31979.0 
233.116302 14728.0 
237.088135 204785.0 
237.145233 22264.0 
241.085678 52566.0 
249.111633 23434.0 
251.09024 39630.0 
253.083588 58189.0 
255.098221 42757.0 
259.096497 121606.0 
259.128662 15845.0 
265.118256 19442.0 
277.106598 144570.0 
281.077362 70994.0 
281.113922 94795.0 
293.115112 40933.0 
299.087769 17830.0 
308.173798 21826.0 
309.181122 50886.0 
311.125824 5785.0 
315.195038 7490.0 
319.154816 41344.0 
325.140411 89325.0 
336.16684 6269.0 
337.139984 33978.0 
337.176941 391722.0 
341.135376 152906.0 
343.150635 5117.0 
347.148193 54989.0 
355.186676 16554.0 
359.147278 7428.0 
363.191681 16653.0 
365.157898 21745.0 
368.73291 4459.0 
369.130066 302823.0 
371.145081 14949.0 
377.195618 30829.0 
378.202301 8938.0 
381.15802 4689.0 
381.204651 95860.0 
387.140717 460906.0 
403.210968 6240.0 
425.1828 30832.0 
429.154236 5907.0 
447.202606 34630.0 
455.963318 4880.0 
467.242126 5687.0 
469.182251 252660.0 
469.256653 85693.0 
499.727997 4760.0 
513.2453 952942.0 
525.244263 22470.0 
529.207275 6758.0 
552.127441 4381.0 
554.271973 7697.0 
573.266296 293755.0 
613.297363 520009.0 
673.318481 915956.0 
END IONS

BEGIN IONS
NAME=d-Dethiobiotin CollisionEnergy:102040 M+Na
PRECURSOR_MZ=237.121
INCHI="InChI=1S/C10H18N2O3/c1-7-8(12-10(15)11-7)5-3-2-4-6-9(13)14/h7-8H,2-6H2,1H3,(H,13,14)(H2,11,12,15)/t7-,8+/m0/s1"
SMILES=C[C@@H]1N=C(O)N[C@@H]1CCCCCC(=O)O
SPECTRUMID=CCMSLIB00010126984
65.013901 36427.101562 
76.609497 40886.800781 
82.400497 45316.898438 
104.285004 76370.0 
229.925003 38021.300781 
237.119995 15745700.0 
END IONS

BEGIN IONS
NAME="2-[4-(N,N-dimethylcarbamoyl)-2-oxohydroquinolyl]-N-(3-chloro-2-methylphenyl)ac etamide CollisionEnergy:102040" M+Cl
PRECURSOR_MZ=432.089
INCHI="InChI=1S/C21H20ClN3O3/c1-13-16(22)8-6-9-17(13)23-19(26)12-25-18-10-5-4-7-14(18)15(11-20(25)27)21(28)24(2)3/h4-11H,12H2,1-3H3,(H,23,26)"
SMILES=Cc1c(Cl)cccc1N=C(O)Cn1c(=O)cc(C(=O)N(C)C)c2ccccc21
SPECTRUMID=CCMSLIB00010114056
66.738708 2294.0 
69.194702 2141.0 
73.951157 2268.0 
77.751968 2221.0 
104.286484 2423.0 
120.490227 2230.0 
157.965805 2357.0 
184.04071 4648.0 
187.251556 2918.0 
197.806595 2324.0 
209.737915 2575.0 
229.09787 4866.0 
362.333832 2751.0 
396.11145 77153.0 
END IONS

BEGIN IONS
NAME=3'-Hydroxyflavone CollisionEnergy:102040 M+Na
PRECURSOR_MZ=261.052
INCHI="InChI=1S/C15H10O3/c16-11-5-3-4-10(8-11)15-9-13(17)12-6-1-2-7-14(12)18-15/h1-9,16H"
SMILES=O=c1cc(-c2cccc(O)c2)oc2ccccc12
SPECTRUMID=CCMSLIB00010104548
53.22665 2418.0 
61.454651 2099.0 
69.230698 2055.0 
92.369583 2599.0 
97.361732 2182.0 
100.364487 2345.0 
103.634354 2034.0 
118.642303 3115.0 
124.680603 2374.0 
131.524582 2329.0 
182.543854 2803.0 
192.962555 10780.0 
193.969452 2623.0 
234.255936 2656.0 
236.983719 2732.0 
237.908981 8845.0 
237.958954 21280.0 
237.98436 13703.0 
238.450378 2889.0 
252.581375 2245.0 
255.917419 2255.0 
261.05191 518811.0 
261.130707 49321.0 
279.06369 20161.0 
END IONS

BEGIN IONS
NAME="2-[(4-{[(dimethylamino)sulfonyl]amino}phenyl)sulfonyl]-1,2,3,4-tetrahydroisoqu inoline CollisionEnergy:205060" 2M+H
PRECURSOR_MZ=791.202
INCHI="InChI=1S/C17H21N3O4S2/c1-19(2)26(23,24)18-16-7-9-17(10-8-16)25(21,22)20-12-11-14-5-3-4-6-15(14)13-20/h3-10,18H,11-13H2,1-2H3"
SMILES=CN(C)S(=O)(=O)Nc1ccc(S(=O)(=O)N2CCc3ccccc3C2)cc1
SPECTRUMID=CCMSLIB00010118777
63.023418 27428.0 
73.949837 3838.0 
76.021294 4816.0 
80.049797 7539.0 
81.057617 19356.0 
82.065613 6014.0 
83.80645 3551.0 
90.033897 82576.0 
91.04187 70774.0 
92.016647 215724.0 
92.023163 8643.0 
92.0495 20515.0 
94.065109 21557.0 
96.044998 5970.0 
100.550957 3824.0 
104.278976 4389.0 
105.069977 63852.0 
105.218147 3537.0 
107.073387 4583.0 
108.011421 1084427.0 
108.043869 35571.0 
108.08075 32836.0 
110.060593 11427.0 
115.054092 6298.0 
116.155098 3722.0 
117.057953 7198.0 
117.069901 27167.0 
118.065353 4196.0 
126.022202 7483.0 
130.065369 35413.0 
132.080811 701545.0 
133.077316 5875.0 
133.088608 25397.0 
134.096436 499389.0 
135.091187 31375.0 
136.203751 5335.0 
168.0121 5237.0 
178.691757 3748.0 
182.001541 16654.0 
210.355179 5642.0 
215.048416 138130.0 
217.064316 4571.0 
217.957794 42681.0 
223.12558 4443.0 
227.059692 24136.0 
242.701233 3869.0 
263.015137 191226.0 
263.047119 7706.0 
281.862915 4236.0 
322.020966 8195.0 
351.046295 213560.0 
396.10437 1217116.0 
662.213135 3906.0 
END IONS

BEGIN IONS
NAME="3-(4-chlorophenyl)-11-[2-(methylethoxy)phenyl]-2,3,4-trihydro-5H,10H,11H-benzo [b]benzo[2,1-f]1,4-diazepin-1-one CollisionEnergy:205060" M+Na
PRECURSOR_MZ=481.165
INCHI="InChI=1S/C28H27ClN2O2/c1-17(2)33-26-10-6-3-7-21(26)28-27-24(30-22-8-4-5-9-23(22)31-28)15-19(16-25(27)32)18-11-13-20(29)14-12-18/h3-14,17,19,28,30-31H,15-16H2,1-2H3"
SMILES=CC(C)Oc1ccccc1C1Nc2ccccc2NC2=C1C(=O)CC(c1ccc(Cl)cc1)C2
SPECTRUMID=CCMSLIB00010115908
52.905701 2788.0 
63.480961 2947.0 
80.319389 2859.0 
118.650146 3412.0 
161.072525 2965.0 
198.2659 3019.0 
233.107758 5406.0 
332.068085 12142.0 
345.075317 36202.0 
349.096527 4884.0 
399.125549 29595.0 
421.105438 7023.0 
438.10788 4139.0 
439.120026 25518.0 
481.164673 3642278.0 
END IONS

BEGIN IONS
NAME="2,2',5'-Trihydroxychalcone CollisionEnergy:102040" M+H
PRECURSOR_MZ=257.081
INCHI="InChI=1S/C15H12O4/c16-11-6-8-15(19)12(9-11)14(18)7-5-10-3-1-2-4-13(10)17/h1-9,16-17,19H/b7-5+"
SMILES=O=C(C=Cc1ccccc1O)c1cc(O)ccc1O
SPECTRUMID=CCMSLIB00010108339
54.07288 2449.0 
81.033752 34005.0 
91.054207 3932.0 
96.020866 27867.0 
103.054352 23933.0 
107.049332 15554.0 
109.028938 3415.0 
111.00808 4757.0 
119.049149 12927.0 
121.029388 3035.0 
127.038857 12729.0 
135.043991 16660.0 
137.023331 5553842.0 
137.441055 3322.0 
147.043732 37185.0 
156.274109 3326.0 
163.038879 634783.0 
169.064209 4349.0 
187.075775 6514.0 
193.15657 3111.0 
197.05986 15114.0 
211.075714 5755.0 
215.070053 241912.0 
228.771423 3301.0 
239.069931 959457.0 
257.080444 737679.0 
END IONS

BEGIN IONS
NAME=CHEMBL1563295 CollisionEnergy:205060 M+Cl
PRECURSOR_MZ=647.333
INCHI="InChI=1S/C34H54O8.Na/c1-9-25(31-21(6)18-34(11-3,42-31)26-16-17-33(40,10-2)23(8)41-26)30(37)22(7)28(35)19(4)12-14-24-15-13-20(5)29(36)27(24)32(38)39;/h13,15,19,21-23,25-26,28,31,35-36,40H,9-12,14,16-18H2,1-8H3,(H,38,39);/q;+1/p-1/t19-,21+,22+,23+,25+,26?,28+,31?,33-,34+;/m1./s1"
SMILES=CCC(C(=O)C(C)C(O)C(C)CCc1ccc(C)c([O-])c1C(=O)O)C1OC(CC)(C2CCC(O)(CC)C(C)O2)CC1C.[Na+]
SPECTRUMID=CCMSLIB00010118539
59.85556 2875.0 
82.405693 3408.0 
83.660492 2728.0 
92.386353 3806.0 
99.081306 5968.0 
104.296303 3593.0 
121.06575 40923.0 
138.119797 3065.0 
173.096893 56060.0 
179.251221 2992.0 
189.092285 18468.0 
191.107605 22387.0 
235.096786 49772.0 
353.217255 3451.0 
589.374939 112061.0 
647.333191 38695.0 
END IONS

BEGIN IONS
NAME="(2E)-3-(4,7-dimethoxy(2H-benzo[d]1,3-dioxolen-5-yl))-1-(4-fluorophenyl)prop-2- en-1-one CollisionEnergy:102040" M-e
PRECURSOR_MZ=330.09
INCHI="InChI=1S/C18H15FO5/c1-21-15-9-12(16(22-2)18-17(15)23-10-24-18)5-8-14(20)11-3-6-13(19)7-4-11/h3-9H,10H2,1-2H3/b8-5+"
SMILES=COc1cc(C=CC(=O)c2ccc(F)cc2)c(OC)c2c1OCO2
SPECTRUMID=CCMSLIB00010114632
50.083961 2450.0 
53.052711 2391.0 
55.23222 2885.0 
66.249908 2508.0 
70.395081 2386.0 
85.617271 2434.0 
105.928619 2330.0 
114.885513 2615.0 
120.044571 82160.0 
121.028831 22638.0 
129.71727 2506.0 
132.056458 2608.0 
146.060242 88204.0 
147.044006 10640.0 
160.05188 13837.0 
162.055298 45748.0 
167.02597 68326.0 
179.414413 2783.0 
188.070831 216750.0 
195.021042 329183.0 
231.247742 2585.0 
270.06781 29143.0 
288.078339 66026.0 
289.062531 12960.0 
294.112457 4274.0 
312.078369 11577.0 
330.08905 1171438.0 
END IONS

BEGIN IONS
NAME=Vinblastine sulfate CollisionEnergy:205060 M+H
PRECURSOR_MZ=811.428
INCHI="InChI=1S/C46H58N4O9/c1-8-43(54)23-27-24-49(25-43)19-15-29-28-13-10-11-14-32(28)47-37(29)36(38(52)57-6)35(27)30-21-31-33(22-34(30)56-5)48(4)40-45(31)17-20-50-18-12-16-44(9-2,39(45)50)41(59-26(3)51)46(40,55)42(53)58-7/h10-14,16,21-22,27,35-36,39-41,47,54-55H,8-9,15,17-20,23-25H2,1-7H3/t27-,35+,36?,39-,40+,41+,43-,44+,45+,46-/m0/s1"
SMILES=CCC1(O)CC2CN(CCc3c([nH]c4ccccc34)C(C(=O)OC)C2c2cc3c(cc2OC)N(C)C2C(O)(C(=O)OC)C(OC(C)=O)C4(CC)C=CCN5CCC32C54)C1
SPECTRUMID=CCMSLIB00010117997
57.033741 5704.0 
58.065639 91130.0 
65.039062 10744.0 
66.737503 5879.0 
67.041924 8142.0 
67.05468 98064.0 
68.049942 53005.0 
68.808167 4546.0 
69.057114 5467.0 
69.070137 33977.0 
70.065567 62307.0 
72.081001 25816.0 
74.921417 5476.0 
75.92028 4971.0 
79.054581 84051.0 
80.049843 74326.0 
81.033821 8027.0 
81.057564 10196.0 
81.070213 88043.0 
82.065437 245275.0 
82.390617 6149.0 
83.049042 7291.0 
83.073196 25519.0 
84.081161 87265.0 
86.096474 6166.0 
91.054428 118628.0 
92.049492 28874.0 
92.371307 5348.0 
93.057457 27822.0 
93.070023 306122.0 
94.065247 94009.0 
95.049026 26101.0 
95.073067 23852.0 
95.085587 104673.0 
96.080994 59119.0 
98.06015 5526.0 
98.09668 51813.0 
100.075607 35277.0 
102.091537 9468.0 
103.054024 39306.0 
105.069977 91721.0 
106.065292 86444.0 
107.073029 144950.0 
107.085381 69159.0 
108.080811 228639.0 
109.064598 12436.0 
109.088516 11194.0 
109.101334 34012.0 
110.060516 8263.0 
110.096474 259261.0 
111.080803 11172.0 
112.075783 11347.0 
112.111938 21616.0 
113.08313 7123.0 
113.095657 7051.0 
114.091652 24509.0 
115.039261 7659.0 
115.054176 27228.0 
117.056824 7904.0 
117.069809 87654.0 
118.065224 39181.0 
119.036407 50618.0 
119.049156 4966.0 
119.085533 27206.0 
120.080566 37768.0 
121.064827 145533.0 
121.088676 72923.0 
122.060013 6515.0 
122.096489 450066.0 
123.080559 20741.0 
123.104042 19424.0 
124.07605 6695.0 
124.112167 385502.0 
126.091293 30055.0 
126.127953 63253.0 
128.06192 6020.0 
128.107056 38590.0 
129.069992 23614.0 
130.065216 173447.0 
131.048523 6163.0 
131.072815 11575.0 
132.080811 32820.0 
133.052887 14253.0 
133.064819 88568.0 
134.060165 34595.0 
134.096313 123065.0 
135.080475 46533.0 
135.094315 6591.0 
135.104462 78907.0 
136.075897 25750.0 
136.112122 243076.0 
138.091354 29943.0 
138.127808 204206.0 
140.10704 236523.0 
142.064789 27924.0 
142.12323 20418.0 
143.073349 68039.0 
144.080841 1477141.0 
145.064774 12613.0 
145.088577 22435.0 
146.059738 12153.0 
146.09639 55533.0 
147.080215 7526.0 
148.075562 12679.0 
148.112061 72820.0 
149.096817 6843.0 
150.091171 22359.0 
150.127655 9692.0 
152.107071 64812.0 
153.079178 7824.0 
153.114792 5928.0 
154.064987 157830.0 
154.12265 262271.0 
155.072418 22419.0 
156.080795 217162.0 
156.138245 83976.0 
157.088654 56807.0 
158.060562 9027.0 
158.08342 8289.0 
158.096527 131285.0 
159.06749 5942.0 
160.076187 44457.0 
160.112427 24158.0 
161.08371 28673.0 
162.091324 125955.0 
163.076202 8783.0 
164.106934 117761.0 
165.091156 6376.0 
166.122742 40865.0 
167.071472 91524.0 
167.094742 7743.0 
168.067764 23581.0 
168.0811 211717.0 
169.075974 99134.0 
169.089432 30592.0 
170.060028 34526.0 
170.082306 10749.0 
170.09668 135266.0 
171.090591 62090.0 
171.104843 27601.0 
172.076508 43639.0 
172.112076 118778.0 
173.083237 48013.0 
174.091415 195161.0 
175.099136 25190.0 
176.107178 51490.0 
179.057388 6741.0 
180.0811 87532.0 
180.09964 15758.0 
181.09021 41076.0 
182.06012 25165.0 
182.081757 6821.0 
182.097366 93799.0 
183.067902 5701.0 
183.090134 11746.0 
183.105774 21337.0 
184.075562 51922.0 
184.094009 5280.0 
184.113495 43896.0 
185.08403 20951.0 
185.106827 11652.0 
186.091263 108319.0 
186.12764 18877.0 
187.098923 73859.0 
188.106949 348600.0 
189.115067 32501.0 
190.122192 7965.0 
192.083115 10272.0 
192.102463 24671.0 
193.087982 26130.0 
194.063309 8737.0 
194.083282 12376.0 
194.096603 126664.0 
194.117767 87430.0 
195.105621 8083.0 
196.075943 50951.0 
196.114792 40072.0 
196.129547 7137.0 
197.083405 20776.0 
197.107651 26870.0 
198.054993 5368.0 
198.091766 88779.0 
198.128128 10748.0 
199.099777 44549.0 
200.072922 18271.0 
200.107025 259975.0 
201.114868 20417.0 
202.086945 33842.0 
202.122635 244843.0 
202.142975 10467.0 
204.080154 5955.0 
204.101166 7603.0 
205.089249 9639.0 
206.096436 25036.0 
206.118256 19453.0 
207.106064 18353.0 
208.075089 26003.0 
208.112152 33438.0 
209.085007 11951.0 
209.106201 76776.0 
210.091278 54030.0 
210.113525 24323.0 
211.099289 34975.0 
212.070435 22534.0 
212.107224 121249.0 
212.129089 23561.0 
213.080109 10960.0 
213.101242 10861.0 
214.087021 79774.0 
214.12265 189896.0 
215.094681 9453.0 
216.101227 36524.0 
216.13829 21427.0 
217.088943 10064.0 
218.096466 23088.0 
218.117188 8910.0 
219.104431 6854.0 
220.076202 6571.0 
220.113342 8151.0 
221.104889 39763.0 
222.091309 33447.0 
222.11351 39661.0 
223.09935 23853.0 
223.123138 54234.0 
224.070023 9181.0 
224.106186 59387.0 
224.128693 218027.0 
225.11554 21974.0 
225.138458 502982.0 
226.086105 11738.0 
226.122711 52950.0 
226.143951 19699.0 
227.094147 11946.0 
228.101883 102468.0 
228.139145 7124.0 
229.133423 26500.0 
230.11795 40363.0 
231.104462 8259.0 
232.134628 7662.0 
233.107559 24115.0 
234.091614 8811.0 
234.126602 29509.0 
235.100159 9531.0 
235.122162 37777.0 
236.106033 22857.0 
236.142014 11303.0 
237.103287 4823.0 
237.139038 28110.0 
238.086288 28664.0 
238.122406 49246.0 
238.147156 42903.0 
239.095215 6048.0 
239.118591 22444.0 
240.102859 51528.0 
240.138107 33601.0 
242.080826 11709.0 
242.117371 31526.0 
244.095627 7381.0 
245.10437 9273.0 
246.113068 24107.0 
247.121857 54555.0 
248.106644 9151.0 
248.129776 14919.0 
249.13797 77177.0 
250.122284 47687.0 
251.119858 11405.0 
251.155518 33655.0 
252.101151 35102.0 
252.138718 46465.0 
253.134262 8726.0 
254.11705 34546.0 
254.152985 9099.0 
256.097931 11135.0 
257.107849 5600.0 
258.111328 66258.0 
259.122498 11673.0 
260.127899 108813.0 
261.110962 7674.0 
261.137939 38343.0 
262.120911 10355.0 
262.14856 7764.0 
263.12442 8973.0 
263.154236 74086.0 
264.102142 7126.0 
264.136932 24763.0 
265.136505 22189.0 
265.170532 65064.0 
266.116333 25113.0 
266.143646 17317.0 
267.151215 9594.0 
268.094513 7972.0 
268.130493 5496.0 
269.166382 7170.0 
270.113678 42647.0 
271.124298 6636.0 
272.127747 119164.0 
273.139496 8546.0 
274.145111 7439.0 
275.120422 9042.0 
275.154816 32661.0 
276.133575 7788.0 
277.136139 27411.0 
277.170319 96343.0 
278.116241 19249.0 
278.152191 20475.0 
279.11795 7339.0 
279.148682 38096.0 
281.165741 56736.0 
283.122284 8781.0 
283.180084 22054.0 
284.128876 60286.0 
285.138336 6658.0 
289.135651 26964.0 
290.144989 10645.0 
291.149353 33359.0 
292.165039 23133.0 
293.165558 35601.0 
295.121796 12733.0 
295.180054 125067.0 
296.13028 24976.0 
297.137604 23466.0 
298.110901 9677.0 
298.145874 23993.0 
299.117371 18872.0 
299.152924 6575.0 
300.126068 28691.0 
301.134796 23688.0 
302.14267 11031.0 
303.14978 29555.0 
304.159424 25758.0 
305.12735 9513.0 
305.163422 95044.0 
306.173309 12280.0 
307.181122 9477.0 
308.162506 6705.0 
309.134613 8564.0 
310.145416 20803.0 
311.118347 22389.0 
311.153961 27827.0 
312.126587 25698.0 
312.161865 6810.0 
313.133667 32135.0 
314.140289 20346.0 
315.149597 34687.0 
316.157867 8646.0 
317.165833 6654.0 
319.180878 25690.0 
321.161316 11845.0 
321.195526 45499.0 
322.14444 7257.0 
323.177338 51026.0 
324.125427 11369.0 
325.132172 47652.0 
326.142334 35364.0 
327.14801 44954.0 
328.15802 28182.0 
329.163879 57346.0 
331.181396 11217.0 
333.160339 12333.0 
335.174896 6653.0 
337.145813 20465.0 
337.192474 65979.0 
338.141052 26681.0 
339.110352 10432.0 
339.150757 28405.0 
340.118042 7800.0 
340.159149 12869.0 
341.124725 7683.0 
341.165253 43128.0 
343.182068 28567.0 
347.177155 8890.0 
349.190918 35314.0 
350.137146 7393.0 
351.153198 6038.0 
352.156097 9774.0 
353.186432 91617.0 
355.145294 16346.0 
355.201355 413979.0 
357.15979 9093.0 
365.18277 9573.0 
367.182343 26309.0 
369.161194 12127.0 
379.1987 6025.0 
406.195343 8932.0 
407.206482 9942.0 
409.211029 10394.0 
448.236084 20172.0 
450.256104 9726.0 
462.253662 21313.0 
464.272675 7449.0 
469.233551 12246.0 
490.243744 8284.0 
510.274445 8799.0 
522.274414 21937.0 
524.288025 7020.0 
540.286804 24981.0 
542.302917 70880.0 
649.371338 51625.0 
664.006958 5454.0 
715.693848 5531.0 
719.38501 5893.0 
733.396484 11004.0 
751.405396 183957.0 
793.416626 93631.0 
811.427124 3380444.0 
END IONS

BEGIN IONS
NAME=N-.alpha.-(tert-Butoxycarbonyl)-L-Histidine CollisionEnergy:205060 M+H
PRECURSOR_MZ=256.129
INCHI="InChI=1S/C11H17N3O4/c1-11(2,3)18-10(17)14-8(9(15)16)4-7-5-12-6-13-7/h5-6,8H,4H2,1-3H3,(H,12,13)(H,14,17)(H,15,16)/t8-/m0/s1"
SMILES=CC(C)(C)OC(O)=NC(Cc1cnc[nH]1)C(=O)O
SPECTRUMID=CCMSLIB00010121653
56.05014 3266.0 
57.070358 31390.0 
60.329601 2291.0 
62.434662 2507.0 
66.570107 2643.0 
66.575531 2266.0 
68.050034 5735.0 
73.93734 3578.0 
79.021523 3781.0 
81.044983 11585.0 
82.052841 38215.0 
82.058006 3417.0 
83.0606 168178.0 
83.946457 2701.0 
84.959877 17285.0 
85.516548 2856.0 
93.044853 112278.0 
95.060432 195427.0 
110.071289 3256587.0 
111.055397 13247.0 
133.95903 55110.0 
136.050293 6765.0 
139.05014 3738.0 
149.954239 10625.0 
151.969315 5963.0 
156.076782 1621276.0 
158.927292 6499.0 
176.937881 6140.0 
177.949036 17184.0 
195.959671 21697.0 
200.066513 827610.0 
225.238647 2848.0 
232.928726 5014.0 
239.258011 2725.0 
256.12915 28873.0 
END IONS

BEGIN IONS
NAME="2-{(1Z)-2-[(6-methyl(3-pyridyl))carbonylamino]-2-azavinyl}-4,6-dibromophenyl 3 ,4,5-trimethoxybenzoate CollisionEnergy:102040" M+Cl
PRECURSOR_MZ=639.949
INCHI="InChI=1S/C24H21Br2N3O6/c1-13-5-6-14(11-27-13)23(30)29-28-12-16-7-17(25)10-18(26)21(16)35-24(31)15-8-19(32-2)22(34-4)20(9-15)33-3/h5-12H,1-4H3,(H,29,30)/b28-12-"
SMILES=COc1cc(C(=O)Oc2c(Br)cc(Br)cc2C=NN=C(O)c2ccc(C)nc2)cc(OC)c1OC
SPECTRUMID=CCMSLIB00010113264
92.050072 5512.0 
92.392273 3175.0 
99.864304 2605.0 
104.301773 2822.0 
136.039963 14851.0 
158.000214 3568.0 
211.06218 24218.0 
243.745102 3596.0 
273.851532 25821.0 
276.85025 4221.0 
299.067352 17908.0 
314.090393 19693.0 
329.114349 79635.0 
380.900635 17113.0 
392.293823 3048.0 
435.887024 4758.0 
455.921417 3981.0 
603.973511 348064.0 
639.943787 15867.0 
END IONS

BEGIN IONS
NAME="(15S,17S,2R,14R)-17-hydroxy-14-(2-hydroxyacetyl)-2,15-dimethyl-5-oxotetracyclo [8.7.0.0<2,7>.0<11,15>]heptadec-6-en-14-yl acetate CollisionEnergy:205060" M+H
PRECURSOR_MZ=405.227
INCHI="InChI=1S/C23H32O6/c1-13(25)29-23(19(28)12-24)9-7-17-16-5-4-14-10-15(26)6-8-21(14,2)20(16)18(27)11-22(17,23)3/h10,16-18,20,24,27H,4-9,11-12H2,1-3H3/t16?,17?,18-,20?,21-,22-,23-/m0/s1"
SMILES=CC(=O)OC1(C(=O)CO)CCC2C3CCC4=CC(=O)CCC4(C)C3C(O)CC21C
SPECTRUMID=CCMSLIB00010120736
53.039009 12377.0 
55.018219 5218.0 
55.054642 6120.0 
55.18755 3204.0 
61.028679 4460.0 
62.976841 3115.0 
65.038788 5449.0 
67.054649 42682.0 
69.033829 6206.0 
69.070129 19254.0 
71.0494 4184.0 
79.054482 53049.0 
81.070137 63895.0 
82.438828 3641.0 
83.049309 42000.0 
91.054413 242015.0 
92.42247 4039.0 
93.07003 84649.0 
95.04911 15836.0 
95.085487 54361.0 
97.058258 5792.0 
97.064941 138736.0 
97.072037 5266.0 
99.043983 14407.0 
103.03923 3313.0 
103.054047 12485.0 
104.335892 3303.0 
105.069977 160954.0 
107.04908 15581.0 
107.08564 55875.0 
109.039818 58715.0 
109.064827 70070.0 
109.101021 11940.0 
111.080498 7180.0 
115.054329 17277.0 
117.069794 61334.0 
119.076172 5099.0 
119.085602 91386.0 
121.064796 959234.0 
121.101089 20047.0 
123.080452 132780.0 
128.062103 44365.0 
129.069885 69617.0 
130.077545 12775.0 
130.677551 3481.0 
131.085526 104556.0 
133.064835 15073.0 
133.101013 34077.0 
135.070435 3517.0 
135.080612 60321.0 
135.116776 14135.0 
137.096252 14536.0 
141.069916 59495.0 
142.07756 31019.0 
143.085526 154767.0 
144.092758 7491.0 
145.06459 15339.0 
145.101089 149741.0 
146.109024 12154.0 
147.08049 42539.0 
147.116745 153015.0 
148.087952 4215.0 
149.096283 18981.0 
149.132187 15646.0 
151.074814 5066.0 
153.069687 5407.0 
154.077698 12751.0 
155.085403 88779.0 
156.09317 7347.0 
157.064926 13898.0 
157.101166 88035.0 
158.07132 4886.0 
158.108963 3595.0 
159.0802 30995.0 
159.116913 52735.0 
160.075623 4268.0 
160.089172 3791.0 
161.095917 44073.0 
161.132202 14854.0 
163.11171 74919.0 
165.069855 16311.0 
166.077133 3538.0 
167.08609 39471.0 
168.093277 14118.0 
169.076859 6822.0 
169.101044 87667.0 
170.108643 3844.0 
171.067062 11988.0 
171.081497 30707.0 
171.116547 43419.0 
172.124527 12980.0 
173.096207 58535.0 
173.132629 24028.0 
174.102936 3150.0 
175.111465 33465.0 
177.128708 3433.0 
178.07634 4276.0 
179.08548 23978.0 
180.093399 14725.0 
181.100983 44653.0 
182.10968 6741.0 
183.07962 6065.0 
183.116898 50663.0 
185.096191 30714.0 
185.132294 51655.0 
187.086716 19982.0 
187.11116 44748.0 
187.147324 5115.0 
189.127472 18834.0 
192.092545 6828.0 
193.1017 26737.0 
194.108536 15926.0 
195.116501 38545.0 
196.123779 3922.0 
197.096451 17430.0 
197.131592 26719.0 
199.088257 5499.0 
199.111526 18070.0 
201.127502 13877.0 
204.093079 3021.0 
205.100189 6601.0 
205.121353 5095.0 
206.108551 6413.0 
207.116272 30031.0 
208.125122 4904.0 
209.132553 64286.0 
211.111099 13419.0 
211.148254 26513.0 
213.127579 15710.0 
217.101181 4737.0 
218.109146 3967.0 
219.116531 14779.0 
221.131699 22894.0 
223.111435 12487.0 
223.1483 19709.0 
225.127365 21798.0 
225.163406 14501.0 
227.142593 16460.0 
232.12532 5078.0 
233.132339 12737.0 
235.109955 4005.0 
235.147903 11951.0 
237.127792 6121.0 
237.164627 5944.0 
238.121719 3426.0 
239.143234 31121.0 
239.177948 3958.0 
240.113281 5051.0 
241.157913 5083.0 
242.165604 3826.0 
243.173859 3784.0 
247.148163 6604.0 
249.163498 45469.0 
251.142288 34827.0 
251.178467 20735.0 
252.151123 7505.0 
253.15831 105304.0 
261.162933 5540.0 
262.121765 27008.0 
263.178619 4979.0 
265.158936 15853.0 
266.165985 5921.0 
267.174103 120209.0 
268.181671 55316.0 
269.154602 15518.0 
269.189178 104006.0 
273.162415 5539.0 
279.174225 54310.0 
281.15332 12660.0 
281.190216 25425.0 
285.184875 4172.0 
286.194916 5468.0 
287.199188 23735.0 
291.174744 39969.0 
296.12561 22363.0 
297.184998 98761.0 
299.164886 3746.0 
309.184723 140720.0 
315.194885 11973.0 
327.19516 206753.0 
329.210999 3298.0 
345.205658 174853.0 
358.153229 3475.0 
387.178833 53858.0 
405.098419 12201.0 
405.227448 534175.0 
END IONS

BEGIN IONS
NAME=3-methyladenine CollisionEnergy:102040 2M+H
PRECURSOR_MZ=299.148
INCHI="InChI=1S/C6H7N5/c1-11-3-10-5(7)4-6(11)9-2-8-4/h2-3H,7H2,1H3"
SMILES=Cn1cnc(N)c2ncnc1-2
SPECTRUMID=CCMSLIB00010126910
54.225201 2030.810059 
66.764 2920.060059 
69.762604 2247.570068 
92.404602 2952.560059 
134.546005 2365.639893 
150.076996 257900.0 
END IONS

BEGIN IONS
NAME="ethyl 6-(4-hydroxy-3-methoxyphenyl)-4-phenyl-2-thioxo-1,3,6-trihydropyrimidine -5-carboxylate CollisionEnergy:205060" M+H
PRECURSOR_MZ=385.122
INCHI="InChI=1S/C20H20N2O4S/c1-3-26-19(24)16-17(12-7-5-4-6-8-12)21-20(27)22-18(16)13-9-10-14(23)15(11-13)25-2/h4-11,18,23H,3H2,1-2H3,(H2,21,22,27)"
SMILES=CCOC(=O)C1=C(c2ccccc2)N=C(S)NC1c1ccc(O)c(OC)c1
SPECTRUMID=CCMSLIB00010119263
53.039021 4248.0 
54.279251 2822.0 
56.525379 2777.0 
59.990742 5692.0 
62.005981 3053.0 
65.039062 11261.0 
67.493736 2428.0 
77.017113 6124.0 
79.054718 3250.0 
84.97435 7200.0 
85.969727 4191.0 
89.038872 48498.0 
91.054359 5951.0 
93.033653 33146.0 
102.236794 2971.0 
103.054077 32293.0 
104.049507 466124.0 
105.033508 66723.0 
106.041267 4834.0 
110.036163 14571.0 
111.044083 79270.0 
111.985207 76035.0 
117.033546 179472.0 
119.672256 3485.0 
121.011063 4342.0 
121.06469 3314.0 
122.060013 15891.0 
125.059799 146619.0 
128.049484 29717.0 
129.03363 129253.0 
134.036072 20543.0 
135.044083 7223.0 
137.05925 12667.0 
145.028458 370651.0 
146.059982 30050.0 
147.043945 3731.0 
149.05983 54870.0 
150.031219 3496.0 
150.05545 10933.0 
151.039276 3438.0 
152.070847 20165.0 
153.040619 5871.0 
153.054688 158943.0 
156.044418 69734.0 
158.060806 3871.0 
162.031036 33047.0 
164.016632 5857.0 
165.069839 5455.0 
169.032211 21990.0 
170.023621 18193.0 
171.055435 46191.0 
172.021957 3757.0 
174.055069 136957.0 
177.054688 968372.0 
181.085846 88654.0 
186.054688 20459.0 
187.032486 62278.0 
188.016235 13541.0 
189.066284 13290.0 
194.027954 24310.0 
194.072266 33132.0 
205.06424 14077.0 
207.079544 3667.0 
209.083221 12216.0 
215.027328 123359.0 
216.605301 3195.0 
217.097473 32283.0 
222.067596 150351.0 
233.037811 75646.0 
233.062149 5257.0 
235.075806 3729.0 
237.090195 224434.0 
244.042786 61736.0 
248.044022 5864.0 
250.062119 60580.0 
252.101776 579206.0 
261.069 315110.0 
261.101257 5804.0 
261.115448 4055.0 
263.071198 14136.0 
265.085938 324878.0 
280.096649 170607.0 
297.059143 3664.0 
301.674225 2906.0 
309.111786 526723.0 
322.053833 25724.0 
326.138367 322847.0 
329.636963 3701.0 
331.734497 2956.0 
339.080078 25399.0 
368.095398 96936.0 
380.505585 3302.0 
385.121399 396556.0 
END IONS

BEGIN IONS
NAME=JXPQMHIXNPWEEK-UHFFFAOYSA-N CollisionEnergy:102040 M+Na
PRECURSOR_MZ=356.162
INCHI="InChI=1S/C22H23NO2/c23-14-13-18-11-12-21(24-16-19-7-3-1-4-8-19)22(15-18)25-17-20-9-5-2-6-10-20/h1-12,15H,13-14,16-17,23H2"
SMILES=NCCc1ccc(OCc2ccccc2)c(OCc2ccccc2)c1
SPECTRUMID=CCMSLIB00010105706
110.516579 2929.0 
128.886978 2624.0 
139.72641 2681.0 
145.02597 584821.0 
146.082077 2730.0 
157.026321 15191.0 
174.052536 774099.0 
176.739822 2611.0 
192.062927 5493.0 
212.24678 2815.0 
215.078415 5502.0 
230.410858 3520.0 
235.072159 48863.0 
248.080826 72029.0 
265.106995 456671.0 
301.593872 3364.0 
319.320404 2950.0 
327.136963 9446.0 
339.135162 416743.0 
356.161713 1722197.0 
END IONS

BEGIN IONS
NAME="7,2'-DIHYDROXYFLAVONE CollisionEnergy:205060" M-H
PRECURSOR_MZ=253.051
INCHI="InChI=1S/C15H10O4/c16-9-5-6-11-13(18)8-15(19-14(11)7-9)10-3-1-2-4-12(10)17/h1-8,16-17H"
SMILES=O=c1cc(-c2ccccc2O)oc2cc(O)ccc12
SPECTRUMID=CCMSLIB00010125720
52.086151 2200.0 
56.232182 2162.0 
57.800369 2253.0 
69.570976 2085.0 
71.954079 2402.0 
73.139343 2742.0 
73.29277 2580.0 
82.40831 3492.0 
91.01886 53227.0 
92.390427 3152.0 
96.959702 2646.0 
117.034721 14307.0 
132.021729 17160.0 
133.029541 75790.0 
135.008698 54571.0 
143.049606 2784.0 
153.019775 19897.0 
160.016541 2759.0 
167.050552 4477.0 
169.06601 24924.0 
180.05809 28811.0 
181.065918 16875.0 
182.037567 4264.0 
183.045166 10741.0 
183.412216 2428.0 
185.060471 3444.0 
195.045975 17237.0 
196.053116 44991.0 
197.060867 48866.0 
207.045883 4508.0 
208.053223 86073.0 
208.182434 2867.0 
209.061111 100951.0 
210.031845 5135.0 
211.040421 11534.0 
211.371933 4048.0 
216.92218 12818.0 
220.670227 2319.0 
223.039703 50698.0 
224.048187 135015.0 
225.055954 58803.0 
225.245239 2461.0 
226.028351 3198.0 
234.932251 3774.0 
251.035278 3208.0 
252.043243 32186.0 
253.050934 2086303.0 
END IONS

BEGIN IONS
NAME=fumonisin b2 CollisionEnergy:205060 M+H
PRECURSOR_MZ=706.401
INCHI="InChI=1S/C34H59NO14/c1-5-6-12-21(3)32(49-31(43)18-24(34(46)47)16-29(40)41)27(48-30(42)17-23(33(44)45)15-28(38)39)14-20(2)11-9-7-8-10-13-25(36)19-26(37)22(4)35/h20-27,32,36-37H,5-19,35H2,1-4H3,(H,38,39)(H,40,41)(H,44,45)(H,46,47)/t20-,21+,22-,23+,24+,25+,26-,27-,32+/m0/s1"
SMILES=CCCCC(C)C(OC(=O)CC(CC(=O)O)C(=O)O)C(CC(C)CCCCCCC(O)CC(O)C(C)N)OC(=O)CC(CC(=O)O)C(=O)O
SPECTRUMID=CCMSLIB00010125630
53.002628 10346.0 
53.039101 25663.0 
55.05471 242617.0 
55.25037 3777.0 
56.047009 8366.0 
56.04995 171765.0 
57.033989 87849.0 
57.070339 216606.0 
58.06559 90710.0 
64.807449 3904.0 
65.038986 19180.0 
66.736099 5183.0 
67.054619 463134.0 
69.070259 807614.0 
70.065491 606643.0 
71.013107 28890.0 
71.049507 17470.0 
71.085899 26326.0 
72.081093 28746.0 
74.060371 551604.0 
77.451103 3884.0 
79.05452 242942.0 
81.070137 774853.0 
82.065308 89074.0 
82.39109 4394.0 
83.049316 6730.0 
83.073448 29986.0 
83.080353 8674.0 
83.085716 167165.0 
84.081093 71010.0 
85.028633 152097.0 
85.064888 34429.0 
85.101418 114770.0 
89.165581 4337.0 
91.054352 74812.0 
92.369904 4222.0 
93.063339 9629.0 
93.070007 269006.0 
94.065231 43402.0 
95.013031 10112.0 
95.049187 6120.0 
95.085587 629800.0 
96.080757 96096.0 
97.065086 4262.0 
97.088913 8221.0 
97.101181 80797.0 
98.096512 23816.0 
99.007607 45516.0 
100.075928 21973.0 
104.278122 4572.0 
105.069839 87560.0 
107.08548 189683.0 
108.080658 9316.0 
109.101173 280921.0 
110.096519 50123.0 
111.080193 5811.0 
111.11676 32906.0 
113.02327 326446.0 
119.085472 63594.0 
121.101196 99902.0 
122.09655 7974.0 
123.116676 60859.0 
124.112282 17174.0 
127.11203 5383.0 
133.101379 46775.0 
135.116684 62539.0 
136.111969 7737.0 
136.201904 5662.0 
137.13266 19197.0 
138.127716 24718.0 
141.018021 38867.0 
147.116943 30994.0 
149.132492 40437.0 
150.12796 8186.0 
150.430862 4564.0 
151.148361 6426.0 
152.143692 9691.0 
159.028717 339772.0 
161.132553 17899.0 
163.148483 8682.0 
164.143631 5417.0 
165.163971 7030.0 
166.159332 6384.0 
175.148087 5221.0 
176.765717 4498.0 
191.17955 5169.0 
192.174225 5834.0 
194.190933 22801.0 
201.942871 4201.0 
203.178726 4399.0 
206.19133 6042.0 
208.205658 36234.0 
220.205429 29188.0 
222.221756 8357.0 
234.221725 6083.0 
236.239105 4107.0 
238.217041 33113.0 
252.231888 6155.0 
301.286865 13981.0 
318.314941 206004.0 
319.299988 22020.0 
336.325562 307746.0 
337.308228 29038.0 
354.336456 186416.0 
372.347382 45899.0 
494.349487 28493.0 
512.357971 173318.0 
515.031738 5570.0 
530.36853 272311.0 
548.38269 30852.0 
670.379272 118906.0 
688.389465 568767.0 
706.399902 2741193.0 
END IONS

BEGIN IONS
NAME=CCG-208308 CollisionEnergy:102040 M+formate
PRECURSOR_MZ=919.506
INCHI="InChI=1S/C48H74O14/c1-11-25(2)43-28(5)17-18-47(62-43)23-34-20-33(61-47)16-15-27(4)42(26(3)13-12-14-32-24-55-45-40(49)29(6)19-35(46(51)58-34)48(32,45)52)59-39-22-37(54-10)44(31(8)57-39)60-38-21-36(53-9)41(50)30(7)56-38/h12-15,19,25-26,28,30-31,33-45,49-50,52H,11,16-18,20-24H2,1-10H3/b13-12+,27-15+,32-14+/t25?,26-,28-,30-,31-,33+,34-,35-,36-,37-,38-,39-,40+,41-,42?,43+,44?,45+,47+,48+/m0/s1"
SMILES=CCC(C)C1OC2(CCC1C)CC1CC(CC=C(C)C(OC3CC(OC)C(OC4CC(OC)C(O)C(C)O4)C(C)O3)C(C)C=CC=C3COC4C(O)C(C)=CC(C(=O)O1)C34O)O2
SPECTRUMID=CCMSLIB00010113329
74.292412 4497.0 
84.021492 15816.0 
85.029381 18734.0 
92.389511 5945.0 
120.797989 3864.0 
132.172012 4266.0 
157.988205 4099.0 
176.20282 3390.0 
185.155899 6490.0 
229.107971 82777.0 
273.373749 3888.0 
281.96109 4233.0 
531.31073 20195.0 
575.273193 15859.0 
761.441589 28715.0 
837.482788 71700.0 
855.496704 37819.0 
873.504089 98648.0 
911.384521 4243.0 
919.504395 5849.0 
END IONS

BEGIN IONS
NAME=D-pantothenic acid CollisionEnergy:102040 M+Na
PRECURSOR_MZ=242.1
INCHI="InChI=1S/C9H17NO5/c1-9(2,5-11)7(14)8(15)10-4-3-6(12)13/h7,11,14H,3-5H2,1-2H3,(H,10,15)(H,12,13)"
SMILES=CC(C)(CO)C(O)C(O)=NCCC(=O)O
SPECTRUMID=CCMSLIB00010102920
61.449001 4340.430176 
66.757401 7044.910156 
70.612701 4301.77002 
87.977203 5044.720215 
94.0271 4489.029785 
95.610497 4447.669922 
99.150803 4230.580078 
104.307999 8202.900391 
112.037003 853681.0 
118.676003 4718.589844 
125.056999 27330.099609 
153.052002 792548.0 
171.063004 80715.398438 
177.052994 4656.279785 
194.078995 38867.0 
214.214005 7239.890137 
219.057007 6569.509766 
219.617996 6314.629883 
224.089005 867477.0 
241.128998 6458.27002 
242.100006 14215400.0 
242.283997 228530.0 
END IONS

BEGIN IONS
NAME=SCHEMBL12549091 CollisionEnergy:205060 M-H
PRECURSOR_MZ=219.077
INCHI="InChI=1S/C11H12N2O3/c1-13-9(14)5-8(11(15)16)10(13)7-3-2-4-12-6-7/h2-4,6,8,10H,5H2,1H3,(H,15,16)/t8-,10?/m0/s1"
SMILES=CN1C(=O)CC(C(=O)O)C1c1cccnc1
SPECTRUMID=CCMSLIB00010124292
51.333481 2323.0 
66.750069 3195.0 
91.054947 5376.0 
92.387268 4887.0 
96.045143 5706.0 
112.04026 5924.0 
116.050423 632439.0 
117.974129 3208.0 
118.066093 4247337.0 
120.045609 3219.0 
132.032791 10433.0 
147.055786 33971.0 
158.048157 5778.0 
172.941299 3163.0 
172.957199 4052.0 
173.071671 15065.0 
175.087402 53276.0 
219.077194 1235899.0 
219.422852 2620.0 
223.17952 2897.0 
END IONS

BEGIN IONS
NAME=AC1ODT5K CollisionEnergy:205060 M-H
PRECURSOR_MZ=357.207
INCHI="InChI=1S/C22H30O4/c1-14(2)22(25)12-11-21(4)10-9-15(3)13-18(19(21)22)26-20(24)16-5-7-17(23)8-6-16/h5-9,14,18-19,23,25H,10-13H2,1-4H3/t18-,19-,21-,22+/m0/s1"
SMILES=CC1=CCC2(C)CCC(O)(C(C)C)C2C(OC(=O)c2ccc(O)cc2)C1
SPECTRUMID=CCMSLIB00010118405
65.039238 5605.0 
66.754707 2820.0 
68.997719 3222.0 
72.992928 2844.0 
73.964684 2932.0 
92.393356 4124.0 
93.034447 1981528.0 
95.013748 112069.0 
106.006142 5161.0 
108.021637 117549.0 
123.008797 11281.0 
136.004486 4915.0 
136.016495 225583.0 
137.024353 1217684.0 
138.096939 2825.0 
149.097153 466517.0 
190.079575 2830.0 
197.415314 3792.0 
201.164886 7336.0 
209.859604 10795.0 
219.175476 295131.0 
269.359589 3132.0 
357.207275 2428905.0 
END IONS

BEGIN IONS
NAME=GIBBERELLIC ACID CollisionEnergy:102040 2M-H
PRECURSOR_MZ=691.276
INCHI="InChI=1S/C19H22O6/c1-9-7-17-8-18(9,24)5-3-10(17)19-6-4-11(20)16(2,15(23)25-19)13(19)12(17)14(21)22/h4,6,10-13,20,24H,1,3,5,7-8H2,2H3,(H,21,22)/t10-,11+,12-,13-,16-,17+,18+,19-/m1/s1"
SMILES=C=C1CC23CC1(O)CCC2C12C=CC(O)C(C)(C(=O)O1)C2C3C(=O)O
SPECTRUMID=CCMSLIB00010109614
53.729351 3374.0 
57.034061 5233.0 
60.99284 5118.0 
68.215263 3506.0 
69.034218 4501.0 
71.045563 8593.0 
71.049942 219919.0 
73.029282 26000.0 
83.044563 7303.0 
83.050056 186229.0 
98.861641 3531.0 
143.086487 962548.0 
147.080963 5507.0 
157.06514 16323.0 
159.080261 7613.0 
161.096817 40226.0 
175.075699 6661.0 
185.096603 7473.0 
197.096909 7380.0 
197.133026 8955.0 
199.11351 9001.0 
201.128586 24954.0 
213.128189 45323.0 
221.133331 427179.0 
225.0923 17079.0 
227.107788 138852.0 
235.112732 20740.0 
237.128403 15052.0 
239.143845 303804.0 
239.309662 4825.0 
241.123596 5642.0 
243.139542 5167.0 
251.108322 4614.0 
253.12323 131199.0 
255.139542 6273.0 
257.154816 68598.0 
269.117828 8015.0 
271.098175 65969.0 
271.13092 10322.0 
273.059052 4441.0 
283.133423 119725.0 
301.14386 60965.0 
327.123932 6991.0 
329.335175 4397.0 
345.134125 5040968.0 
346.139496 21866.0 
414.693512 4166.0 
544.873108 4834.0 
617.901001 4744.0 
650.628296 4191.0 
691.276306 864867.0 
END IONS

BEGIN IONS
NAME=10-Hydroxycamptothecin CollisionEnergy:102040 M+H
PRECURSOR_MZ=365.113
INCHI="InChI=1S/C20H16N2O5/c1-2-20(26)13-7-15-17-10(6-11-14(21-17)4-3-5-16(11)23)8-22(15)18(24)12(13)9-27-19(20)25/h3-7,23,26H,2,8-9H2,1H3/t20-/m0/s1"
SMILES=CCC1(O)C(=O)OCc2c1cc1n(c2=O)Cc2cc3c(O)cccc3nc2-1
SPECTRUMID=CCMSLIB00010110332
57.033951 96781.0 
82.379547 4269.0 
92.354469 4473.0 
120.150383 3963.0 
123.608711 3982.0 
184.062927 193191.0 
184.0802 7804.0 
185.070496 38663.0 
197.070786 74318.0 
198.078506 18682.0 
199.087036 5020.0 
210.092041 4553.0 
222.092102 15106.0 
225.101578 5078.0 
235.084015 28920.0 
236.093994 352618.0 
237.101349 159804.0 
248.103226 6055.0 
251.080841 35944.0 
252.089432 15626.0 
263.082184 26128.0 
264.088959 243440.0 
265.09668 946345.0 
266.065979 5832.0 
275.118103 76395.0 
276.101746 5471.0 
277.132141 60208.0 
278.106781 17625.0 
279.077972 48096.0 
279.10907 8833.0 
280.083893 15770.0 
288.089386 6161.0 
290.068848 6348.0 
291.07608 28754.0 
291.112579 59477.0 
292.085297 41082.0 
292.11969 7453.0 
293.093872 15393.0 
293.127808 385161.0 
296.078217 92829.0 
303.111389 80966.0 
304.090179 5149.0 
305.090118 13760.0 
306.098969 21543.0 
307.069641 16141.0 
307.108032 6825.0 
308.078094 43223.0 
308.114868 18332.0 
309.120758 5460.0 
319.106903 134127.0 
319.642029 5116.0 
320.115204 8143.0 
321.122742 5250533.0 
322.616943 5574.0 
336.072906 235333.0 
337.079559 14284.0 
337.1185 22556.0 
347.101715 38348.0 
363.316498 20450.0 
365.112488 17039592.0 
366.920258 22658.0 
END IONS

BEGIN IONS
NAME="(2E)-3-(4-methoxyphenyl)-1-[1-(4-methoxyphenyl)(1,2,3,4-tetrahydrobeta-carboli n-2-yl)]prop-2-en-1-one CollisionEnergy:205060" M+H
PRECURSOR_MZ=439.202
INCHI="InChI=1S/C28H26N2O3/c1-32-21-12-7-19(8-13-21)9-16-26(31)30-18-17-24-23-5-3-4-6-25(23)29-27(24)28(30)20-10-14-22(33-2)15-11-20/h3-16,28-29H,17-18H2,1-2H3/b16-9+"
SMILES=COc1ccc(C=CC(=O)N2CCc3c([nH]c4ccccc34)C2c2ccc(OC)cc2)cc1
SPECTRUMID=CCMSLIB00010122310
52.185909 2874.0 
53.039009 4216.0 
64.008957 2971.0 
66.046883 5566.0 
66.734711 2885.0 
72.777473 2916.0 
79.054527 62099.0 
82.38916 3107.0 
89.039047 3603.0 
90.046463 3212.0 
90.50531 3009.0 
91.054466 4741.0 
102.568733 2969.0 
103.054153 58354.0 
105.069839 47368.0 
107.598557 3024.0 
115.054237 6018.0 
117.069359 5644.0 
118.041237 86963.0 
121.064659 89567.0 
133.064758 947739.0 
136.075836 87960.0 
144.080795 312801.0 
145.065125 27220.0 
146.036301 4279.0 
154.065506 7455.0 
161.059662 2526989.0 
170.060394 5142.0 
171.091522 266330.0 
188.069824 3898.0 
206.096268 3354.0 
218.096375 5794.0 
219.104446 4348.0 
230.09639 11579.0 
231.104691 3261.0 
235.098846 6148.0 
247.099655 7155.0 
250.122208 28312.0 
253.121857 14610.0 
262.123688 14010.0 
279.148926 496937.0 
304.132507 12981.0 
331.143555 55424.0 
365.114899 4859.0 
369.714325 3329.0 
439.20108 76806.0 
END IONS

BEGIN IONS
NAME=Indole-3-butyric acid CollisionEnergy:102040 M+H
PRECURSOR_MZ=204.102
INCHI="InChI=1S/C12H13NO2/c14-12(15)7-3-4-9-8-13-11-6-2-1-5-10(9)11/h1-2,5-6,8,13H,3-4,7H2,(H,14,15)"
SMILES=O=C(O)CCCc1c[nH]c2ccccc12
SPECTRUMID=CCMSLIB00010110861
54.63427 2875.0 
55.01833 20924.0 
56.965111 4194.0 
61.563541 2774.0 
69.033684 12690.0 
69.467827 2715.0 
73.028816 4472.0 
82.376556 3042.0 
87.044357 22928.0 
104.2967 2859.0 
117.056839 21007.0 
118.064812 23228.0 
130.065048 283803.0 
131.067917 23860.0 
132.080917 4862.0 
143.073059 12996.0 
144.080734 282335.0 
156.624191 2950.0 
158.081146 5070.0 
158.096359 242593.0 
167.072403 22421.0 
168.080673 445110.0 
170.45047 3086.0 
174.4263 2765.0 
185.435364 5010.0 
186.091232 6231908.0 
186.749817 4127.0 
190.075546 4674.0 
204.101837 2220942.0 
END IONS

BEGIN IONS
NAME=2-(6-oxo-9-phenylhydropurin-8-ylthio)-N-phenyl-N-prop-2-enylacetamide CollisionEnergy:102040 M-H
PRECURSOR_MZ=416.119
INCHI="InChI=1S/C22H19N5O2S/c1-2-13-26(16-9-5-3-6-10-16)18(28)14-30-22-25-19-20(23-15-24-21(19)29)27(22)17-11-7-4-8-12-17/h2-12,15H,1,13-14H2,(H,23,24,29)"
SMILES=C=CCN(C(=O)CSc1nc2c(O)ncnc2n1-c1ccccc1)c1ccccc1
SPECTRUMID=CCMSLIB00010110152
55.52 2694.0 
57.975128 21450.0 
65.014236 22749.0 
65.998131 18722.0 
92.025528 37849.0 
93.009216 4177.0 
94.524178 2921.0 
141.045853 238726.0 
183.044296 21465.0 
184.05162 17570.0 
185.408142 3610.0 
199.754562 2841.0 
211.062668 719834.0 
212.183533 5465.0 
222.054214 26068.0 
223.061874 12784.0 
224.070099 3925.0 
241.019089 65976.0 
242.026932 973144.0 
250.049271 25820.0 
255.034729 172886.0 
283.029602 675401.0 
333.080078 14746.0 
347.894714 3436.0 
373.111725 5331.0 
416.118744 960990.0 
END IONS

BEGIN IONS
NAME="N-((1E)-2-(3-pyridyl)-1-azavinyl)-3-[(3,5-dioxo(2H,4H-1,2,4-triazin-6-yl))amin o]propanamide CollisionEnergy:102040" M+H
PRECURSOR_MZ=304.115
INCHI="InChI=1S/C12H13N7O3/c20-9(17-15-7-8-2-1-4-13-6-8)3-5-14-10-11(21)16-12(22)19-18-10/h1-2,4,6-7H,3,5H2,(H,14,18)(H,17,20)(H2,16,19,21,22)/b15-7+"
SMILES=OC(CCNc1nnc(O)nc1O)=NN=Cc1cccnc1
SPECTRUMID=CCMSLIB00010109251
55.018311 13816.0 
59.817131 2468.0 
62.51194 2585.0 
105.044693 121933.0 
106.052742 4782.0 
107.48185 3416.0 
112.810333 3115.0 
113.870064 2778.0 
122.07119 2031274.0 
129.040466 22511.0 
141.040573 963697.0 
148.050232 6704.0 
158.071548 3423.0 
164.081894 30259.0 
176.081711 329343.0 
180.888153 13369.0 
183.051086 485731.0 
190.872162 13518.0 
197.890121 5576.0 
198.898209 3456.0 
208.882767 69536.0 
217.171616 3274.0 
224.879776 3599.0 
226.893188 72385.0 
252.87326 6431.0 
266.868896 3083.0 
280.867126 188848.0 
298.87616 4778.0 
303.882904 18569.0 
304.114685 1876125.0 
430.527679 2803.0 
END IONS

BEGIN IONS
NAME=2-(4-acetyloxy-3-methoxyphenyl)acetic acid CollisionEnergy:102040 M+NH4
PRECURSOR_MZ=242.102
INCHI="InChI=1S/C11H12O5/c1-7(12)16-9-4-3-8(6-11(13)14)5-10(9)15-2/h3-5H,6H2,1-2H3,(H,13,14)"
SMILES=COc1cc(CC(=O)O)ccc1OC(C)=O
SPECTRUMID=CCMSLIB00010112427
60.044529 3192.0 
78.117577 2686.0 
90.409203 2864.0 
92.398811 3696.0 
103.021629 2391.0 
118.680367 2395.0 
136.645233 3430.0 
137.059631 4309046.0 
137.475784 4101.0 
179.069473 13253.0 
207.065109 40234.0 
211.848724 2836.0 
225.075455 151360.0 
242.010788 3129.0 
242.101944 59413.0 
END IONS

BEGIN IONS
NAME="3-{[(6-methyl-2,4-dioxo-1,3-dihydropyrimidin-5-yl)sulfonyl]amino}benzoic acid CollisionEnergy:205060" M-H
PRECURSOR_MZ=324.03
INCHI="InChI=1S/C12H11N3O6S/c1-6-9(10(16)14-12(19)13-6)22(20,21)15-8-4-2-3-7(5-8)11(17)18/h2-5,15H,1H3,(H,17,18)(H2,13,14,16,19)"
SMILES=Cc1nc(O)nc(O)c1S(=O)(=O)Nc1cccc(C(=O)O)c1
SPECTRUMID=CCMSLIB00010124723
73.957176 2281.0 
76.969948 4947.0 
79.956734 3266.0 
90.034897 28204.0 
92.050453 63692.0 
92.79715 2761.0 
102.034767 3633.0 
111.019951 16511.0 
116.050613 3900.0 
117.997047 4512.0 
118.029457 9854.0 
119.975983 3012.0 
120.045418 51555.0 
121.029732 3758.0 
125.025803 3731.0 
125.035606 69011.0 
130.030396 2882.0 
130.06636 20544.0 
130.075577 2571.0 
131.037628 4267.0 
132.045456 71751.0 
134.024582 34099.0 
136.040222 44585.0 
140.022324 5664.0 
146.02449 9999.0 
147.293472 2557.0 
148.040573 30281.0 
157.077026 5107.0 
160.040573 4246.0 
162.019638 40718.0 
164.035492 14413.0 
174.019745 11369.0 
176.035568 57561.0 
187.989777 3695.0 
192.030579 99692.0 
197.987366 4736.0 
201.066101 12318.0 
203.560593 2817.0 
208.025345 2795.0 
215.860001 2380.0 
233.056656 15040.0 
238.016174 2619.0 
239.997421 36316.0 
240.267273 2202.0 
281.023865 149848.0 
293.038757 3471.0 
324.029633 413668.0 
END IONS

BEGIN IONS
NAME="11-{3-chloro-4-[(4-methylphenyl)methoxy]phenyl}-3,3-dimethyl-2,3,4-trihydro-5H ,10H,11H-benzo[b]benzo[2,1-f]1,4-diazepin-1-one CollisionEnergy:205060" M-H
PRECURSOR_MZ=471.184
INCHI="InChI=1S/C29H29ClN2O2/c1-18-8-10-19(11-9-18)17-34-26-13-12-20(14-21(26)30)28-27-24(15-29(2,3)16-25(27)33)31-22-6-4-5-7-23(22)32-28/h4-14,28,31-32H,15-17H2,1-3H3"
SMILES=Cc1ccc(COc2ccc(C3Nc4ccccc4NC4=C3C(=O)CC(C)(C)C4)cc2Cl)cc1
SPECTRUMID=CCMSLIB00010117226
60.11974 2313.0 
73.28376 2851.0 
126.995613 263282.0 
131.061493 45508.0 
141.046249 3140.0 
153.011459 16609.0 
154.99118 32433.0 
158.001038 3209.0 
183.05719 3720.0 
192.304169 2816.0 
197.108597 60390.0 
209.147842 8776.0 
211.088333 45631.0 
211.124451 10771.0 
223.087753 40589.0 
226.111923 26985.0 
233.037933 4776.0 
235.052948 30335.0 
238.819595 3199.0 
239.119278 236020.0 
245.072693 15350.0 
281.049927 28062.0 
287.120514 3058.0 
292.04126 5088.0 
309.044647 33062.0 
315.113495 4665.0 
318.057068 6544.0 
329.129242 21122.0 
330.13736 12240.0 
332.071777 16519.0 
333.080292 247410.0 
347.096893 18346.0 
348.105011 30820.0 
349.111786 15193.0 
350.095581 3674.0 
351.091248 5108.0 
358.004608 3174.0 
365.105682 17058.0 
366.114166 28850.0 
366.980713 5826.0 
380.093689 54010.0 
404.976685 3257.0 
453.175079 12717.0 
470.978943 5719.0 
471.184814 324595.0 
END IONS

BEGIN IONS
NAME=Kinetin riboside CollisionEnergy:102040 M+Na
PRECURSOR_MZ=370.112
INCHI="InChI=1S/C15H17N5O5/c21-5-9-11(22)12(23)15(25-9)20-7-19-10-13(17-6-18-14(10)20)16-4-8-2-1-3-24-8/h1-3,6-7,9,11-12,15,21-23H,4-5H2,(H,16,17,18)/t9-,11-,12-,15-/m1/s1"
SMILES=OCC1OC(n2cnc3c(NCc4ccco4)ncnc32)C(O)C1O
SPECTRUMID=CCMSLIB00010106185
59.313049 2290.0 
59.66674 2123.0 
66.889908 2466.0 
74.989067 2443.0 
79.904907 2590.0 
104.274567 2744.0 
125.303123 2764.0 
136.197189 3088.0 
155.030762 4583.0 
238.069504 102007.0 
327.326477 2684.0 
370.111603 2604608.0 
END IONS

BEGIN IONS
NAME=3-(2-chlorophenyl)-7-methoxychromen-2-one CollisionEnergy:205060 M+Na
PRECURSOR_MZ=309.029
INCHI="InChI=1S/C16H11ClO3/c1-19-11-7-6-10-8-13(16(18)20-15(10)9-11)12-4-2-3-5-14(12)17/h2-9H,1H3"
SMILES=COc1ccc2cc(-c3ccccc3Cl)c(=O)oc2c1
SPECTRUMID=CCMSLIB00010118077
50.061459 2072.0 
52.61356 2756.0 
73.946159 2320.0 
78.220863 1968.0 
78.947029 2143.0 
82.392677 2529.0 
92.164093 2356.0 
98.371147 2357.0 
102.369888 2906.0 
104.276093 2729.0 
123.647346 2173.0 
145.998718 2024.0 
239.015076 2208.0 
309.028107 142711.0 
END IONS

BEGIN IONS
NAME="8-[(2,6-dimethylmorpholin-4-yl)methyl]-7-hydroxy-3-(2-methoxyphenyl)-2-(triflu oromethyl)chromen-4-one CollisionEnergy:205060" M+H
PRECURSOR_MZ=464.168
INCHI="InChI=1S/C24H24F3NO5/c1-13-10-28(11-14(2)32-13)12-17-18(29)9-8-16-21(30)20(15-6-4-5-7-19(15)31-3)23(24(25,26)27)33-22(16)17/h4-9,13-14,29H,10-12H2,1-3H3"
SMILES=COc1ccccc1-c1c(C(F)(F)F)oc2c(CN3CC(C)OC(C)C3)c(O)ccc2c1=O
SPECTRUMID=CCMSLIB00010115051
53.002682 337680.0 
53.131592 76808.0 
54.034451 79727.0 
55.01825 335733.0 
55.054661 359006.0 
56.049931 4398592.0 
57.839199 79149.0 
58.065559 1629976.0 
59.04958 628376.0 
65.038979 2233343.0 
66.046738 204030.0 
68.049728 370392.0 
69.070168 425509.0 
70.065437 3696415.0 
74.060333 195430.0 
79.054428 1729264.0 
81.033768 160246.0 
81.057579 81745.0 
81.070068 2551966.0 
83.013023 838161.0 
86.096382 153639.0 
93.033539 1254578.0 
94.065102 187488.0 
95.012154 142624.0 
96.080742 1058345.0 
98.096428 67755328.0 
107.04892 156130.0 
109.028664 701424.0 
114.091263 2918571.0 
115.783653 82254.0 
116.106903 86159952.0 
118.04084 401638.0 
119.049423 92444.0 
121.019569 119312.0 
121.02845 2228705.0 
123.004913 429796.0 
131.012497 2502404.0 
131.049057 1908430.0 
132.057159 102180.0 
133.044327 127537.0 
135.043854 2631891.0 
145.026947 189854.0 
147.044083 89802.0 
148.051392 421884.0 
149.023209 29878508.0 
150.031235 112690.0 
151.035675 954037.0 
153.034317 451602.0 
153.069305 99010.0 
155.030304 103558.0 
157.963486 109613.0 
165.070145 185699.0 
167.033661 17143432.0 
168.056274 129637.0 
171.041946 973143.0 
171.058167 136116.0 
175.036652 769968.0 
176.062515 126870.0 
177.069351 767658.0 
178.076736 541167.0 
179.029999 204030.0 
179.085312 411102.0 
180.03743 140418.0 
181.046616 414590.0 
181.064316 747909.0 
182.07135 100764.0 
183.059967 387254.0 
189.068283 336043.0 
193.064224 133628.0 
195.079941 168383.0 
196.068573 271222.0 
196.087616 352470.0 
197.058853 132884.0 
197.076096 1266531.0 
199.036392 7115243.0 
199.054871 520850.0 
203.030838 769787.0 
205.044952 154266.0 
205.064636 2677540.0 
206.072586 577734.0 
207.060486 366938.0 
207.080536 477180.0 
209.057678 590251.0 
209.077286 323383.0 
210.047592 162498.0 
211.055038 184956.0 
213.013657 124586.0 
217.045914 148873.0 
220.049225 89942.0 
221.059296 3115719.0 
222.066452 141784.0 
223.054245 145992.0 
223.075287 355277.0 
224.083191 2115395.0 
225.048141 100171.0 
225.070969 2660327.0 
227.02948 417072.0 
227.049744 568030.0 
227.069778 157179.0 
230.053772 407294.0 
231.025757 346509.0 
231.059814 131207.0 
233.059906 1552420.0 
234.067734 891547.0 
235.076355 813644.0 
235.09903 106892.0 
236.062698 183177.0 
237.053146 2385711.0 
238.040588 456955.0 
238.06398 157952.0 
239.049744 463554.0 
245.078278 631070.0 
247.055832 119490.0 
249.053986 324741.0 
250.061127 436098.0 
251.06987 4794323.0 
252.079117 1782522.0 
253.065811 4188486.0 
254.073563 128841.0 
255.041077 996129.0 
258.049072 643560.0 
261.054016 2600360.0 
262.061676 651920.0 
263.07016 190442.0 
265.049133 1381803.0 
265.080048 160750.0 
267.044189 455281.0 
273.071533 1300212.0 
278.05423 140284.0 
279.065704 720992.0 
280.072815 4858814.0 
281.060242 4769012.0 
281.094727 175976.0 
282.068512 196677.0 
283.056458 396831.0 
284.063416 97386.0 
286.041931 620472.0 
289.046631 13206494.0 
290.054413 8098751.0 
293.078094 691561.0 
297.056274 101306.0 
301.03302 183066.0 
301.066223 3639773.0 
303.062317 449198.0 
306.04834 504940.0 
309.054901 3447595.0 
314.038269 718376.0 
317.041504 1377588.0 
318.049286 38474708.0 
319.056885 1049959.0 
321.034821 154855.0 
321.070648 745690.0 
329.060822 438045.0 
332.065857 102739.0 
334.046143 137959.0 
338.03952 128213.0 
348.061371 125563.0 
349.067413 47258568.0 
350.041107 347737.0 
351.085236 623625.0 
390.093262 495386.0 
464.167175 147556496.0 
466.766083 114328.0 
END IONS

BEGIN IONS
NAME=N-(4-bromophenyl)-2-[2-oxo-4-(pyrrolidinylcarbonyl)hydroquinolyl]acetamide CollisionEnergy:205060 M-H
PRECURSOR_MZ=452.061
INCHI="InChI=1S/C22H20BrN3O3/c23-15-7-9-16(10-8-15)24-20(27)14-26-19-6-2-1-5-17(19)18(13-21(26)28)22(29)25-11-3-4-12-25/h1-2,5-10,13H,3-4,11-12,14H2,(H,24,27)"
SMILES=O=C(Cn1c(=O)cc(C(=O)N2CCCC2)c2ccccc21)Nc1ccc(Br)cc1
SPECTRUMID=CCMSLIB00010124572
51.95536 3017.0 
63.929722 2753.0 
78.918709 201292.0 
82.422371 3021.0 
92.402443 3160.0 
109.720078 2707.0 
116.050636 4247.0 
126.35157 2825.0 
128.05069 353084.0 
130.066254 3956.0 
131.037338 4303.0 
141.690369 3299.0 
142.066254 25233.0 
144.045807 65900.0 
145.937454 3050.0 
146.061172 48273.0 
156.045624 71247.0 
157.053391 148418.0 
158.024429 16302.0 
158.061066 5399.0 
167.061783 19166.0 
169.077148 17068.0 
169.961182 67492.0 
172.040421 95519.0 
174.055649 35597.0 
175.169312 2734.0 
176.035522 11660.0 
183.032669 15533.0 
183.092789 21343.0 
184.040405 321488.0 
185.048508 15826.0 
195.05545 5775.0 
195.093063 2832.0 
200.03566 3317.0 
202.050262 3193.0 
209.109116 2705.0 
211.124344 12769.0 
212.107468 5600.0 
213.103516 63133.0 
223.088852 20644.0 
225.101944 5341.0 
227.118973 35328.0 
229.098755 3328.0 
241.098389 373370.0 
255.114273 113129.0 
257.093353 89131.0 
281.093201 119991.0 
452.061768 750416.0 
466.691315 2989.0 
END IONS

BEGIN IONS
NAME="(3,4-dimethoxyphenyl)-N-(1-ethyl-1-methylprop-2-ynyl)carboxamide CollisionEnergy:102040" M+Na
PRECURSOR_MZ=284.126
INCHI="InChI=1S/C15H19NO3/c1-6-15(3,7-2)16-14(17)11-8-9-12(18-4)13(10-11)19-5/h1,8-10H,7H2,2-5H3,(H,16,17)"
SMILES=C#CC(C)(CC)N=C(O)c1ccc(OC)c(OC)c1
SPECTRUMID=CCMSLIB00010105680
107.955254 2370.0 
118.670937 2549.0 
260.931824 4660.0 
284.125061 2302769.0 
302.136871 14695.0 
END IONS

BEGIN IONS
NAME="3,4-dimethoxy-5-oxo-6,7,8,13b-tetrahydroisoindolino[1,2-a]beta-carboline-7-car boxylic acid CollisionEnergy:205060" M-H
PRECURSOR_MZ=377.114
INCHI="InChI=1S/C21H18N2O5/c1-27-15-8-7-11-16(19(15)28-2)20(24)23-14(21(25)26)9-12-10-5-3-4-6-13(10)22-17(12)18(11)23/h3-8,14,18,22H,9H2,1-2H3,(H,25,26)"
SMILES=COc1ccc2c(c1OC)C(=O)N1C(C(=O)O)Cc3c([nH]c4ccccc34)C21
SPECTRUMID=CCMSLIB00010124889
51.660019 3039.0 
77.092308 3080.0 
82.396301 4425.0 
90.034286 5009.0 
95.192627 3145.0 
116.049797 20000.0 
120.901443 3841.0 
134.024429 36218.0 
134.578766 3489.0 
141.046097 4889.0 
142.065643 20682.0 
142.45668 3983.0 
146.023758 4876.0 
151.002914 7475.0 
160.00325 6322.0 
167.06131 92443.0 
182.048462 38331.0 
193.938812 4378.0 
204.081039 5858.0 
205.07663 18576.0 
206.060883 4501.0 
208.601334 18025.0 
216.081024 19553.0 
217.076538 3733.0 
219.091934 38183.0 
231.069641 8087.0 
231.092667 21285.0 
232.077133 93478.0 
233.071854 263717.0 
234.055176 7837.0 
235.086639 14103.0 
244.064148 14528.0 
245.072189 5317.0 
246.054443 6407.0 
246.078781 35781.0 
247.063339 19563.0 
247.087631 300394.0 
248.072083 79666.0 
255.092804 4549.0 
256.077087 6302.0 
257.071655 41126.0 
257.10257 4009.0 
258.055054 3956.0 
259.056793 6722.0 
259.087555 195741.0 
260.071899 249166.0 
260.170441 3929.0 
261.067139 222241.0 
261.098999 14927.0 
262.050903 5540.0 
263.094208 5854.0 
264.06665 16238.0 
271.088959 6627.0 
272.07077 7591.0 
273.066833 29819.0 
274.04361 4126.0 
274.075043 99813.0 
275.082489 874250.0 
276.066498 207645.0 
278.045471 7136.0 
284.057831 4582.0 
285.066376 74775.0 
285.102844 16586.0 
286.079224 11213.0 
287.083832 5316.0 
288.054382 95559.0 
288.091461 8530.0 
289.064301 10360.0 
289.097443 58262.0 
290.104218 31461.0 
291.078583 15329.0 
292.982269 5660.0 
299.082611 286588.0 
299.679993 3579.0 
300.053101 40516.0 
300.086792 4500.0 
301.061707 461383.0 
302.06958 212990.0 
303.077423 5512487.0 
303.439819 4279.0 
305.093933 14339.0 
305.129364 124727.0 
307.072205 22842.0 
315.113739 256053.0 
317.092987 1111800.0 
318.066193 12900.0 
318.100555 365533.0 
331.110291 5022.0 
333.124695 2078671.0 
335.066986 18653.0 
359.103546 22383.0 
362.090942 675168.0 
365.114014 122054.0 
377.11441 2618861.0 
400.761841 4171.0 
END IONS

BEGIN IONS
NAME=N-[1-carbamoyl-2-(4-hydroxyphenyl)ethyl]acetamide CollisionEnergy:205060 M+Na
PRECURSOR_MZ=245.09
INCHI="InChI=1S/C11H14N2O3/c1-7(14)13-10(11(12)16)6-8-2-4-9(15)5-3-8/h2-5,10,15H,6H2,1H3,(H2,12,16)(H,13,14)"
SMILES=CC(O)=NC(Cc1ccc(O)cc1)C(=N)O
SPECTRUMID=CCMSLIB00010124777
60.433781 2126.0 
60.469311 2772.0 
68.083023 2163.0 
75.718498 2530.0 
95.966087 2981.0 
107.049149 19534.0 
114.591293 2645.0 
122.527359 2425.0 
141.937454 2591.0 
224.753265 2365.0 
228.062759 4536.0 
231.652512 2327.0 
244.103485 2666.0 
245.089264 3469590.0 
255.480331 3574.0 
END IONS

BEGIN IONS
NAME="2,4-Dichloro-5-[(2-nitrophenyl)sulfanyl]-3b,4,5,6,6a,7,9,9a,10,12a-decahydrocyclopenta[c]cyclopenta[4,5]pyrido[3,2,1-ij]quinoline-7-carboxylic acid CollisionEnergy:102040" M+H
PRECURSOR_MZ=517.075
INCHI="InChI=1S/C25H22Cl2N2O4S/c26-13-8-15-14-5-3-4-12(14)11-28-23(15)16(9-13)21-17(24(28)25(30)31)10-20(22(21)27)34-19-7-2-1-6-18(19)29(32)33/h1-3,5-9,12,14,17,20-22,24H,4,10-11H2,(H,30,31)"
SMILES=O=C(O)C1C2CC(Sc3ccccc3[N+](=O)[O-])C(Cl)C2c2cc(Cl)cc3c2N1CC1CC=CC31
SPECTRUMID=CCMSLIB00010113202
53.912651 2823.0 
54.29332 3040.0 
75.133888 2654.0 
90.346848 3155.0 
92.384567 2916.0 
97.028473 27388.0 
98.005997 13541.0 
138.000381 5750.0 
153.995346 3707.0 
161.096252 3812.0 
164.026657 16201.0 
194.096207 3668.0 
202.041504 4306.0 
211.852966 3112.0 
214.040955 13882.0 
215.050079 3814.0 
216.057297 34145.0 
216.078476 4524.0 
229.065231 25745.0 
230.073013 32093.0 
234.021683 13640.0 
239.048965 4207.0 
240.055954 10447.0 
241.064087 5117.0 
242.038223 3707.0 
242.043076 4670.0 
242.072861 69096.0 
246.128845 5266.0 
260.04657 37572.0 
262.062927 18244.0 
268.088165 15832.0 
278.072754 3877.0 
280.088257 398250.0 
281.095551 84048.0 
282.103851 352438.0 
284.048157 4840.0 
286.063049 5584.0 
292.132751 3985.0 
296.081879 4881.0 
298.099152 43116.0 
308.082794 4313.0 
316.064301 4472.0 
324.077972 159988.0 
324.120239 6626.0 
326.093536 306201.0 
327.101257 126692.0 
327.142395 6073.0 
362.07196 3110.0 
363.077728 13795.0 
369.111969 3275.0 
401.08786 6701.0 
415.05011 26537.0 
435.092834 50507.0 
439.053375 4125.0 
451.027527 5847.0 
453.101837 62802.0 
471.069916 5530.0 
475.028839 3543.0 
481.097504 838787.0 
517.074341 1419979.0 
END IONS

BEGIN IONS
NAME="8-((1E)-4-indan-5-yloxy-2-azabut-1-enyl)-2-[8-((1E)-4-indan-5-yloxy-2-azabut-1 -enyl)-1,6,7-trihydroxy-3-methyl-5-(methylethyl)(2-naphthyl)]-3-methyl-5-(meth ylethyl)naphthalene-1,6,7-triol CollisionEnergy:205060" M+2H]
PRECURSOR_MZ=419.209
INCHI="InChI=1S/C52H56N2O8/c1-27(2)41-37-21-29(5)43(49(57)45(37)39(47(55)51(41)59)25-53-17-19-61-35-15-13-31-9-7-11-33(31)23-35)44-30(6)22-38-42(28(3)4)52(60)48(56)40(46(38)50(44)58)26-54-18-20-62-36-16-14-32-10-8-12-34(32)24-36/h13-16,21-28,55-60H,7-12,17-20H2,1-6H3/b53-25+,54-26+"
SMILES=Cc1cc2c(C(C)C)c(O)c(O)c(C=NCCOc3ccc4c(c3)CCC4)c2c(O)c1-c1c(C)cc2c(C(C)C)c(O)c(O)c(C=NCCOc3ccc4c(c3)CCC4)c2c1O
SPECTRUMID=CCMSLIB00010125893
64.840157 3040.0 
65.830582 2487.0 
71.0858 16807.0 
76.50071 3181.0 
79.054047 3179.0 
85.101631 4925.0 
91.054466 14376.0 
92.365501 3669.0 
102.014732 3235.0 
105.069931 54986.0 
107.049156 191775.0 
115.054161 11640.0 
121.064667 5273.0 
128.062103 11394.0 
129.98732 5946.0 
132.056885 5946.0 
132.880661 2708.0 
133.064819 126405.0 
133.101028 11532.0 
134.072678 49889.0 
135.080597 27576.0 
143.085678 13862.0 
149.023453 13625.0 
149.059891 26910.0 
161.095963 57355.0 
178.122574 86004.0 
179.126801 3531.0 
199.075012 5086.0 
211.57872 6313.0 
214.062088 32431.0 
215.067947 3558.0 
219.091202 6013.0 
225.576279 13597.0 
227.069534 40840.0 
228.076797 4471.0 
230.088425 3364.0 
234.07608 3639.0 
234.581009 17961.0 
239.586044 3030.0 
241.088669 2946.0 
241.600601 5451.0 
242.092957 21782.0 
242.592026 13235.0 
243.100906 17630.0 
247.600708 4455.0 
248.105423 6547.0 
249.096024 3893.0 
250.606369 3096.0 
255.619308 12755.0 
256.1026 14331.0 
256.606781 6294.0 
257.105194 3361.0 
263.61377 4467.0 
264.116699 4519.0 
268.132446 4197.0 
269.141052 3654.0 
284.1297 4684.0 
285.13501 4497.0 
330.651062 52654.0 
331.152802 11421.0 
352.171204 3562.0 
373.217377 22017.0 
418.702423 3426.0 
419.208771 1004540.0 
419.710419 298003.0 
425.137482 11304.0 
426.143829 5080.0 
439.152069 4682.0 
441.172516 5180.0 
443.145782 11848.0 
453.132324 18605.0 
455.182068 3068.0 
465.167389 6568.0 
467.148102 16150.0 
468.154816 41143.0 
469.163208 13597.0 
473.194977 11226.0 
483.179413 98029.0 
484.181091 22692.0 
485.194397 3199.0 
500.208099 3146.0 
510.227264 12887.0 
526.222046 3473.0 
650.312622 4936.0 
660.2948 58232.0 
661.296814 12030.0 
END IONS

BEGIN IONS
NAME="2-(4-hydroxy-6-propylpyrimidin-2-ylthio)-N-(2-phenyl(4-hydroimidazo[1,2-a]pyri din-3-yl))acetamide CollisionEnergy:205060" M-H
PRECURSOR_MZ=418.134
INCHI="InChI=1S/C22H21N5O2S/c1-2-8-16-13-18(28)26-22(23-16)30-14-19(29)25-21-20(15-9-4-3-5-10-15)24-17-11-6-7-12-27(17)21/h3-7,9-13H,2,8,14H2,1H3,(H,25,29)(H,23,26,28)"
SMILES=CCCc1cc(O)nc(SCC(O)=Nc2c(-c3ccccc3)nc3ccccn23)n1
SPECTRUMID=CCMSLIB00010117829
56.073429 2710.0 
57.975159 330753.0 
65.013908 3002.0 
72.974541 19316.0 
103.919037 3334.0 
104.303726 3762.0 
107.060944 3480.0 
109.076843 26244.0 
114.985428 32420.0 
119.074623 3207.0 
121.397499 3236.0 
135.056061 168803.0 
136.240463 3870.0 
137.071701 135152.0 
149.070465 4238.0 
153.066162 13740.0 
156.043381 3528.0 
162.066757 4586.0 
168.035706 5084.0 
169.043655 134623.0 
175.533508 3050.0 
181.043823 49893.0 
182.069031 6765.0 
183.059372 126252.0 
183.076035 4174.0 
193.076904 3568.0 
208.087967 36188.0 
209.03862 85331.0 
217.187408 2960.0 
232.073807 5353.0 
233.082947 2225922.0 
301.144806 16945.0 
317.14032 30199.0 
344.151398 2276149.0 
374.145935 3875.0 
418.134186 4275.0 
END IONS

BEGIN IONS
NAME=N-ethyl-N-(4-ethylphenyl)-2-(4-hydroxyquinazolin-2-ylthio)acetamide CollisionEnergy:205060 M-H
PRECURSOR_MZ=366.128
INCHI="InChI=1S/C20H21N3O2S/c1-3-14-9-11-15(12-10-14)23(4-2)18(24)13-26-20-21-17-8-6-5-7-16(17)19(25)22-20/h5-12H,3-4,13H2,1-2H3,(H,21,22,25)"
SMILES=CCc1ccc(N(CC)C(=O)CSc2nc(O)c3ccccc3n2)cc1
SPECTRUMID=CCMSLIB00010116833
57.97525 96212.0 
82.401047 3811.0 
86.161537 3160.0 
87.925018 4435.0 
92.380119 3463.0 
102.034691 16571.0 
103.582367 2508.0 
103.920357 11211.0 
120.081413 15246.0 
123.946938 2693.0 
132.023117 2775.0 
145.040741 381910.0 
146.09726 24467.0 
148.113113 40786.0 
161.035339 18274.0 
162.00145 5924.0 
174.956268 4227.0 
176.004929 4103.0 
176.02243 3655.0 
189.012817 632156.0 
190.020401 114278.0 
190.038361 45390.0 
209.018799 6114.0 
217.007721 938147.0 
235.926804 3177.0 
261.104645 6414.0 
295.091156 64748.0 
366.128143 179923.0 
END IONS

BEGIN IONS
NAME="4-[(4-bromophenyl)methylene]-3-(3,4,5-trimethoxyphenyl)isoxazol-5-one CollisionEnergy:205060" M+H
PRECURSOR_MZ=418.028
INCHI="InChI=1S/C19H16BrNO5/c1-23-15-9-12(10-16(24-2)18(15)25-3)17-14(19(22)26-21-17)8-11-4-6-13(20)7-5-11/h4-10H,1-3H3/b14-8-"
SMILES=COc1cc(C2=NOC(=O)C2=Cc2ccc(Br)cc2)cc(OC)c1OC
SPECTRUMID=CCMSLIB00010124199
51.023499 5759.0 
53.039082 80216.0 
55.0182 6510.0 
55.054649 4148.0 
62.311291 2762.0 
64.425682 3237.0 
65.039001 41701.0 
66.046677 16632.0 
66.738167 3793.0 
67.054466 21049.0 
68.025841 6789.0 
68.997513 6743.0 
69.033836 16218.0 
71.049477 3892.0 
75.04425 21056.0 
78.046547 14305.0 
79.054466 255455.0 
81.033737 166279.0 
81.065048 5184.0 
81.070152 148331.0 
83.049156 13812.0 
85.028419 13268.0 
91.054169 14115.0 
92.025787 5109.0 
93.033234 26561.0 
94.041473 44578.0 
95.049278 52149.0 
96.056992 128584.0 
97.064529 5564.0 
99.043961 5461.0 
101.504784 3998.0 
105.03344 6369.0 
106.041077 6660.0 
107.012909 5217.0 
107.049057 22179.0 
108.056923 42802.0 
109.028526 26299.0 
109.056419 7134.0 
109.064697 193679.0 
111.044029 4473.0 
111.080544 57169.0 
113.023354 41617.0 
113.059547 39722.0 
115.040627 3501.0 
121.028214 41043.0 
121.064751 3420.0 
122.036133 164947.0 
123.043793 16045.0 
124.051857 291417.0 
125.023598 3642.0 
125.059479 13830.0 
128.046661 74162.0 
135.044098 13456.0 
137.023209 70422.0 
139.038696 13932.0 
139.075272 450128.0 
141.01796 74939.0 
143.036346 87497.0 
143.070328 23932.0 
151.038635 94746.0 
152.046631 653493.0 
153.054779 7836.0 
155.033661 5523.0 
156.041473 148257.0 
162.030991 7238.0 
165.018539 4283.0 
166.947922 4662.0 
167.034363 33803.0 
167.070648 5565.0 
168.965012 5411.0 
170.056778 5965.0 
171.031219 144597.0 
171.064804 4026.0 
179.034637 5334.0 
180.041275 29158.0 
184.036301 42749.0 
185.080856 31007.0 
193.959854 246950.0 
195.065048 3585576.0 
221.833725 3406.0 
239.96402 6805.0 
249.949203 30261.0 
263.054901 5312.0 
264.06485 13173.0 
267.959534 7158.0 
280.059692 6899.0 
308.092499 4683.0 
324.086029 7348.0 
339.110565 39185.0 
343.993408 5796.0 
367.504883 3520.0 
375.008698 4354.0 
387.008942 6423.0 
388.383698 3413.0 
390.032684 21361.0 
403.009888 3724.0 
418.027649 2276855.0 
END IONS

BEGIN IONS
NAME="8-[(2-chlorophenyl)methylthio]-3-methyl-7-[(3-methylphenyl)methyl]-1,3,7-trihy dropurine-2,6-dione CollisionEnergy:205060" M+H
PRECURSOR_MZ=427.099
INCHI="InChI=1S/C21H19ClN4O2S/c1-13-6-5-7-14(10-13)11-26-17-18(25(2)20(28)24-19(17)27)23-21(26)29-12-15-8-3-4-9-16(15)22/h3-10H,11-12H2,1-2H3,(H,24,27,28)"
SMILES=Cc1cccc(Cn2c(SCc3ccccc3Cl)nc3c2c(O)nc(=O)n3C)c1
SPECTRUMID=CCMSLIB00010123203
51.023499 2926.0 
53.039131 21965.0 
54.59016 2242.0 
57.355759 2483.0 
58.175129 2205.0 
61.19738 3500.0 
73.945641 3437.0 
77.038689 3640.0 
79.05452 79772.0 
89.038803 14319.0 
95.049332 6011.0 
98.999313 4389.0 
103.054176 48360.0 
105.069878 1378964.0 
125.015198 631190.0 
146.096878 3253.0 
153.723679 2708.0 
157.075165 3265.0 
166.041733 3150.0 
178.077362 9928.0 
179.085358 10843.0 
193.101318 19854.0 
194.10849 5050.0 
199.028305 14838.0 
211.028229 3096.0 
212.476776 2816.0 
229.077316 52372.0 
244.625061 2785.0 
269.101654 9736.0 
335.03595 24919.0 
348.302429 3080.0 
389.271851 2815.0 
427.098419 409092.0 
END IONS

BEGIN IONS
NAME="5,7,2'-Trihydroxyflavone CollisionEnergy:102040" M-H
PRECURSOR_MZ=269.046
INCHI="InChI=1S/C15H10O5/c16-8-5-11(18)15-12(19)7-13(20-14(15)6-8)9-3-1-2-4-10(9)17/h1-7,16-18H"
SMILES=O=c1cc(-c2ccccc2O)oc2cc(O)cc(O)c12
SPECTRUMID=CCMSLIB00010104774
61.78067 2717.0 
63.023571 3895.0 
65.002853 34892.0 
65.906754 2493.0 
66.74968 3396.0 
70.022537 3291.0 
80.096497 2671.0 
83.013657 16782.0 
91.816689 2899.0 
97.653381 2880.0 
99.987007 2619.0 
107.013893 102680.0 
117.03511 11279.0 
119.050201 5525.0 
123.008904 15586.0 
125.02449 3111.0 
129.416626 3117.0 
131.96637 2824.0 
136.227249 2792.0 
149.024323 13792.0 
151.00383 623465.0 
157.06572 16221.0 
159.045563 32518.0 
161.024429 14031.0 
169.065933 5296.0 
172.885681 3829.0 
181.066284 9651.0 
183.044998 30575.0 
185.024704 21208.0 
197.060883 19176.0 
200.881927 22821.0 
201.055923 62532.0 
207.045288 5583.0 
215.161911 2550.0 
225.055832 128503.0 
226.440704 2677.0 
227.034821 15259.0 
251.035309 11550.0 
267.891632 3086.0 
269.045807 3241492.0 
END IONS

BEGIN IONS
NAME=Gossypetin CollisionEnergy:102040 M+H
PRECURSOR_MZ=319.045
INCHI="InChI=1S/C15H10O8/c16-6-2-1-5(3-7(6)17)14-13(22)12(21)10-8(18)4-9(19)11(20)15(10)23-14/h1-4,16-20,22H"
SMILES=O=c1c(O)c(-c2ccc(O)c(O)c2)oc2c(O)c(O)cc(O)c12
SPECTRUMID=CCMSLIB00010113656
52.82093 2792.0 
61.561741 2501.0 
84.960243 3876.0 
118.641747 3089.0 
121.028297 19140.0 
123.043983 6285.0 
125.274063 3000.0 
127.002296 3548.0 
137.023285 51005.0 
142.026428 5675.0 
149.023361 6681.0 
153.019012 19395.0 
162.973648 13567.0 
166.996902 3846.0 
169.013 107828.0 
169.028854 5236.0 
171.028412 3492.0 
175.03923 6116.0 
180.984116 17313.0 
181.012848 37395.0 
182.020325 2842.0 
185.00705 4281.0 
189.054108 3199.0 
199.038956 11446.0 
203.03511 6022.0 
213.615143 2825.0 
217.049194 14808.0 
219.027588 3794.0 
227.033096 4292.0 
240.987381 18599.0 
243.171326 3350.0 
245.044006 56652.0 
255.028732 4202.0 
263.054871 26048.0 
273.038971 76127.0 
290.04126 13977.0 
291.046936 3614.0 
295.956848 3797.0 
301.033722 46079.0 
317.577087 4573.0 
319.044403 5452208.0 
320.525787 3880.0 
END IONS

BEGIN IONS
NAME=N-(3-methylthiophenyl)-2-[2-oxo-4-(pyrrolidinylcarbonyl)hydroquinolyl]acetamid e CollisionEnergy:102040 M+Na
PRECURSOR_MZ=444.135
INCHI="InChI=1S/C23H23N3O3S/c1-30-17-8-6-7-16(13-17)24-21(27)15-26-20-10-3-2-9-18(20)19(14-22(26)28)23(29)25-11-4-5-12-25/h2-3,6-10,13-14H,4-5,11-12,15H2,1H3,(H,24,27)"
SMILES=CSc1cccc(N=C(O)Cn2c(=O)cc(C(=O)N3CCCC3)c3ccccc32)c1
SPECTRUMID=CCMSLIB00010113424
50.027401 3285.0 
60.101849 3129.0 
61.843739 3100.0 
62.111092 3042.0 
66.737961 4169.0 
92.3703 4984.0 
101.559128 3010.0 
181.91507 3279.0 
219.769196 3291.0 
255.112228 5283.0 
283.106598 4697.0 
297.122681 3612.0 
423.639252 3810.0 
426.123444 46288.0 
429.110626 16204.0 
441.729065 5609.0 
443.640778 21507.0 
444.134766 9470233.0 
446.561096 4800.0 
462.143616 16685.0 
END IONS

BEGIN IONS
NAME=Sclareolide CollisionEnergy:102040 M+H
PRECURSOR_MZ=251.201
INCHI="InChI=1S/C16H26O2/c1-14(2)7-5-8-15(3)11(14)6-9-16(4)12(15)10-13(17)18-16/h11-12H,5-10H2,1-4H3/t11-,12+,15-,16+/m0/s1"
SMILES=CC1(C)CCCC2(C)C1CCC1(C)OC(=O)CC12
SPECTRUMID=CCMSLIB00010110776
51.497391 2462.0 
55.054821 12765.0 
57.07021 21679.0 
67.054573 15747.0 
69.070213 47465.0 
71.085876 3858.0 
79.05455 5277.0 
81.070122 91591.0 
82.399231 3101.0 
83.085739 40410.0 
85.06485 4676.0 
85.101257 16038.0 
92.377167 3818.0 
93.069748 32379.0 
95.085579 225978.0 
97.064796 5500.0 
97.101143 39021.0 
98.984093 17247.0 
105.07045 3459.0 
107.085419 78112.0 
109.064522 5598.0 
109.10112 243376.0 
111.080597 10038.0 
111.116737 15608.0 
113.964127 3583.0 
119.08535 35750.0 
121.0644 4498.0 
121.101082 109098.0 
121.110489 5264.0 
123.080498 15178.0 
123.116692 103475.0 
125.132683 12449.0 
127.075256 14304.0 
133.101288 17198.0 
133.969681 4206.0 
135.080154 3843.0 
135.11673 95752.0 
137.095871 19947.0 
137.132401 119588.0 
139.075363 41650.0 
141.091064 17709.0 
145.101044 5791.0 
147.11673 3716.0 
149.0961 17385.0 
149.132431 35843.0 
151.112091 12056.0 
151.147385 3743.0 
153.090927 54546.0 
155.106583 36794.0 
159.116699 36127.0 
161.132874 5008.0 
163.112137 17116.0 
163.147675 3262.0 
167.10675 42394.0 
169.122269 23179.0 
173.132599 25775.0 
175.148026 24608.0 
177.127533 27286.0 
181.121979 64497.0 
187.148422 3184.0 
189.163666 102431.0 
189.182617 4238.0 
191.179184 1681305.0 
195.137634 58591.0 
205.196091 5513.0 
209.946396 3345.0 
210.022278 4098.0 
210.11911 5216.0 
215.179306 178882.0 
228.03096 5578.0 
233.189621 543627.0 
251.200165 1000729.0 
END IONS

BEGIN IONS
NAME=L-Norleucine CollisionEnergy:102040 M+H
PRECURSOR_MZ=132.102
INCHI="InChI=1S/C6H13NO2/c1-2-3-4-5(7)6(8)9/h5H,2-4,7H2,1H3,(H,8,9)/t5-/m0/s1"
SMILES=CCCC[C@H](N)C(=O)O
SPECTRUMID=CCMSLIB00010103184
63.822498 55015.398438 
66.7584 96019.5 
69.070396 826416.0 
80.741798 57160.800781 
82.420303 72730.101562 
86.096901 15275600.0 
102.535004 59061.601562 
104.310997 73775.398438 
132.102997 99620.203125 
END IONS

BEGIN IONS
NAME=N-(4-methoxyphenyl)-2-[9-(4-methylphenyl)-6-oxohydropurin-8-ylthio]acetamide CollisionEnergy:102040 2M-H
PRECURSOR_MZ=841.234
INCHI="InChI=1S/C21H19N5O3S/c1-13-3-7-15(8-4-13)26-19-18(20(28)23-12-22-19)25-21(26)30-11-17(27)24-14-5-9-16(29-2)10-6-14/h3-10,12H,11H2,1-2H3,(H,24,27)(H,22,23,28)"
SMILES=COc1ccc(NC(=O)CSc2nc3c(O)ncnc3n2-c2ccc(C)cc2)cc1
SPECTRUMID=CCMSLIB00010110454
67.156723 3400.0 
92.025421 5277.0 
92.398743 5312.0 
92.42157 3236.0 
124.408836 3226.0 
155.061127 35716.0 
161.509384 3414.0 
169.469772 3500.0 
194.027924 13021.0 
208.853485 15736.0 
225.077835 145417.0 
226.750443 3872.0 
256.042297 55749.0 
257.050385 14954.0 
271.067413 4910.0 
297.045258 5323.0 
382.029205 3793.0 
420.113464 447822.0 
END IONS

BEGIN IONS
NAME=papaverine CollisionEnergy:205060 M+Na
PRECURSOR_MZ=362.136
INCHI="InChI=1S/C20H21NO4/c1-22-17-6-5-13(10-18(17)23-2)9-16-15-12-20(25-4)19(24-3)11-14(15)7-8-21-16/h5-8,10-12H,9H2,1-4H3"
SMILES=COc1ccc(Cc2nccc3cc(OC)c(OC)cc23)cc1OC
SPECTRUMID=CCMSLIB00010115065
54.167229 2479.0 
72.824677 2178.0 
75.583427 2475.0 
92.38134 2360.0 
118.406593 2474.0 
136.209793 2967.0 
167.016495 2756.0 
197.80481 2334.0 
249.303833 2239.0 
272.358215 2521.0 
310.915466 2911.0 
338.910522 4887.0 
362.135925 182288.0 
END IONS

BEGIN IONS
NAME="N-(3-{[(2-hydroxyethyl)methylamino]methyl}(4,5,6,7-tetrahydrobenzo[b]thiophen- 2-yl))benzamide CollisionEnergy:205060" M-H
PRECURSOR_MZ=343.149
INCHI="InChI=1S/C19H24N2O2S/c1-21(11-12-22)13-16-15-9-5-6-10-17(15)24-19(16)20-18(23)14-7-3-2-4-8-14/h2-4,7-8,22H,5-6,9-13H2,1H3,(H,20,23)"
SMILES=CN(CCO)Cc1c(N=C(O)c2ccccc2)sc2c1CCCC2
SPECTRUMID=CCMSLIB00010115603
61.953251 2472.0 
66.750633 2408.0 
70.593689 2234.0 
92.389076 2635.0 
128.686951 2385.0 
136.228012 2991.0 
141.52478 2398.0 
164.05397 8987.0 
167.546539 2198.0 
208.373688 2689.0 
209.542404 2280.0 
220.668625 2740.0 
259.276398 2466.0 
270.096375 10797.0 
289.134552 2457.0 
299.122528 3259.0 
342.981598 3376.0 
343.148193 156077.0 
END IONS

BEGIN IONS
NAME="1-[(4-fluorophenyl)methyl]-3-hydroxy-3-[2-oxo-2-(3,4,5-trimethoxyphenyl)ethyl] indolin-2-one CollisionEnergy:102040" M+formate
PRECURSOR_MZ=510.157
INCHI="InChI=1S/C26H24FNO6/c1-32-22-12-17(13-23(33-2)24(22)34-3)21(29)14-26(31)19-6-4-5-7-20(19)28(25(26)30)15-16-8-10-18(27)11-9-16/h4-13,31H,14-15H2,1-3H3"
SMILES=COc1cc(C(=O)CC2(O)C(=O)N(Cc3ccc(F)cc3)c3ccccc32)cc(OC)c1OC
SPECTRUMID=CCMSLIB00010108981
59.24202 2352.0 
73.971497 2336.0 
82.418243 3119.0 
101.317703 2379.0 
104.308998 3011.0 
111.09407 2312.0 
111.141434 2584.0 
112.300499 2491.0 
137.859558 2217.0 
197.56572 2529.0 
208.887726 11970.0 
209.082245 5389.0 
210.073029 16799.0 
252.082901 26376.0 
256.706665 2920.0 
392.166199 12558.0 
420.160583 37001.0 
446.142761 18650.0 
464.15097 97839.0 
535.35437 2644.0 
END IONS

BEGIN IONS
NAME="5-bromo-1-[2-(4-methylphenoxy)ethyl]-1,3-dihydropyrimidine-2,4-dione CollisionEnergy:205060" M-H
PRECURSOR_MZ=323.004
INCHI="InChI=1S/C13H13BrN2O3/c1-9-2-4-10(5-3-9)19-7-6-16-8-11(14)12(17)15-13(16)18/h2-5,8H,6-7H2,1H3,(H,15,17,18)"
SMILES=Cc1ccc(OCCn2cc(Br)c(O)nc2=O)cc1
SPECTRUMID=CCMSLIB00010125240
65.617592 2236.0 
69.280243 1952.0 
92.398087 2082.0 
92.995857 8373.0 
107.050262 209762.0 
192.988922 22093.0 
214.946198 10774.0 
216.990234 3385.0 
258.980438 10155.0 
270.306183 2610.0 
282.982788 3542.0 
302.98996 2794.0 
323.002594 5375.0 
END IONS

BEGIN IONS
NAME=3-hydroxy-5-(4-hydroxy-3-methoxyphenyl)-4-[(4-methoxyphenyl)carbonyl]-3-pyrrol in-2-one CollisionEnergy:205060 M+H
PRECURSOR_MZ=356.113
INCHI="InChI=1S/C19H17NO6/c1-25-12-6-3-10(4-7-12)17(22)15-16(20-19(24)18(15)23)11-5-8-13(21)14(9-11)26-2/h3-9,16,21,23H,1-2H3,(H,20,24)"
SMILES=COc1ccc(C(=O)C2=C(O)C(O)=NC2c2ccc(O)c(OC)c2)cc1
SPECTRUMID=CCMSLIB00010123971
53.03907 23845.0 
58.191349 2334.0 
60.553131 2393.0 
68.025978 2844.0 
73.97123 3445.0 
77.209351 3003.0 
79.017982 2892.0 
79.054382 10841.0 
84.959686 2405.0 
92.025551 13344.0 
92.398857 3393.0 
95.049232 11088.0 
102.663406 2658.0 
110.036568 3126.0 
124.002258 3877.0 
125.059387 33841.0 
135.043884 1607081.0 
152.070114 28817.0 
159.043106 3693.0 
160.038956 4657.0 
177.054138 3339.0 
203.033005 4054.0 
204.065369 15870.0 
205.04921 20090.0 
220.060074 15233.0 
221.043396 3773.0 
232.059708 14640.0 
243.101746 4817.0 
279.678772 2511.0 
310.106323 3671.0 
311.090607 341480.0 
END IONS

BEGIN IONS
NAME="(2E)-3-(2H-benzo[d]1,3-dioxolen-5-yl)-N-[N-(2-furylmethyl)carbamoyl]-N-phenylp rop-2-enamide CollisionEnergy:205060" M-H
PRECURSOR_MZ=389.114
INCHI="InChI=1S/C22H18N2O5/c25-21(11-9-16-8-10-19-20(13-16)29-15-28-19)24(17-5-2-1-3-6-17)22(26)23-14-18-7-4-12-27-18/h1-13H,14-15H2,(H,23,26)/b11-9+"
SMILES=O=C(C=Cc1ccc2c(c1)OCO2)N(C(O)=NCc1ccco1)c1ccccc1
SPECTRUMID=CCMSLIB00010122471
66.034576 14128.0 
68.995377 2425.0 
69.034233 38692.0 
70.399498 2157.0 
70.852348 2504.0 
72.033157 2632.0 
78.280083 2337.0 
89.039284 4304.0 
91.018753 3980.0 
92.050323 21009.0 
92.995293 5233.0 
93.034447 5740.0 
94.029877 3883.0 
96.045403 128222.0 
116.049973 9567.0 
117.034538 45436.0 
117.045753 14299.0 
119.050163 22859.0 
126.994797 2640.0 
135.055466 5941.0 
144.0457 40107.0 
145.029327 7018.0 
145.040741 42669.0 
161.036057 10451.0 
170.060455 3574.0 
190.035507 2759.0 
192.988327 2627.0 
198.057098 3664.0 
204.98999 3131.0 
208.076263 3139.0 
209.208313 4133.0 
215.082809 15481.0 
218.061417 3503.0 
221.071884 3281.0 
236.073639 4577.0 
238.088318 4448.0 
238.207031 2682.0 
241.06218 11188.0 
248.059326 3650.0 
249.067413 9883.0 
252.990875 3758.0 
254.987106 5543.0 
255.643143 3028.0 
261.068054 12770.0 
262.072083 8648.0 
263.082764 92463.0 
264.0672 10802.0 
266.082642 10440.0 
270.076965 5691.0 
285.068176 3271.0 
287.084412 3192.0 
291.077698 254373.0 
300.091339 2632.0 
302.414276 2891.0 
304.983124 30149.0 
309.087769 2735.0 
313.098602 4509.0 
325.100189 3324.0 
328.983551 5827.0 
343.108246 3749.0 
348.98114 2681.0 
368.980713 3977.0 
371.103882 74404.0 
375.418457 2497.0 
388.993347 11878.0 
389.114624 575106.0 
496.237396 2615.0 
510.323059 2684.0 
679.695984 2962.0 
END IONS

BEGIN IONS
NAME=2-(4-chlorophenyl)quinoline-4-carboxylic acid CollisionEnergy:102040 M+Na
PRECURSOR_MZ=306.029
INCHI="InChI=1S/C16H10ClNO2/c17-11-7-5-10(6-8-11)15-9-13(16(19)20)12-3-1-2-4-14(12)18-15/h1-9H,(H,19,20)"
SMILES=O=C(O)c1cc(-c2ccc(Cl)cc2)nc2ccccc12
SPECTRUMID=CCMSLIB00010104755
54.527458 1791.0 
55.54686 2015.0 
73.942589 2859.0 
136.191391 2291.0 
170.066223 2735.0 
202.718597 2496.0 
262.039001 357171.0 
266.624908 2278.0 
280.0495 10259.0 
283.05307 3910.0 
303.064972 13459.0 
306.028473 503800.0 
END IONS

BEGIN IONS
NAME="10-ethyl-10,10a-dimethyl-5,6,7,10a-tetrahydro-1,3-oxazolidino[4,3-a]isoquinoli n-8-one CollisionEnergy:102040" M+Na
PRECURSOR_MZ=268.131
INCHI="InChI=1S/C15H19NO2/c1-4-14(2)15(3)12-8-6-5-7-11(12)9-10-16(15)13(17)18-14/h5-8H,4,9-10H2,1-3H3"
SMILES=CCC1(C)OC(=O)N2CCc3ccccc3C21C
SPECTRUMID=CCMSLIB00010105028
50.894859 8316.0 
56.02425 6978.0 
72.47374 7541.0 
92.371773 10639.0 
96.599983 7216.0 
96.727562 7206.0 
104.279549 10951.0 
118.648933 8116.0 
120.624672 8280.0 
123.874901 8691.0 
136.205719 9013.0 
147.379807 8467.0 
173.721695 9028.0 
209.878769 16335.0 
209.899292 12957.0 
224.140701 18566.0 
268.130432 18207566.0 
286.140839 540052.0 
286.177704 11834.0 
END IONS

BEGIN IONS
NAME="N-[2-(3,4-dimethoxyphenyl)ethyl]-4-hydroxybutanamide CollisionEnergy:205060" M+Cl
PRECURSOR_MZ=302.116
INCHI="InChI=1S/C14H21NO4/c1-18-12-6-5-11(10-13(12)19-2)7-8-15-14(17)4-3-9-16/h5-6,10,16H,3-4,7-9H2,1-2H3,(H,15,17)"
SMILES=COc1ccc(CCN=C(O)CCCO)cc1OC
SPECTRUMID=CCMSLIB00010116080
51.713348 1999.0 
55.853828 2007.0 
61.270561 1950.0 
92.399529 4046.0 
136.245377 2511.0 
157.543961 2525.0 
209.382187 3852.0 
304.328247 2254.0 
END IONS

BEGIN IONS
NAME="2-{4-[(6-chloro(2H-benzo[d]1,3-dioxolan-5-yl))methylene]-2,5-dioxo(1,3-diazoli dinyl)}-N-(3-methylphenyl)acetamide CollisionEnergy:102040" 2M-H
PRECURSOR_MZ=825.148
INCHI="InChI=1S/C20H16ClN3O5/c1-11-3-2-4-13(5-11)22-18(25)9-24-19(26)15(23-20(24)27)6-12-7-16-17(8-14(12)21)29-10-28-16/h2-8H,9-10H2,1H3,(H,22,25)(H,23,27)/b15-6-"
SMILES=Cc1cccc(N=C(O)CN2C(=O)C(=Cc3cc4c(cc3Cl)OCO4)N=C2O)c1
SPECTRUMID=CCMSLIB00010110212
62.566891 3565.0 
73.959846 3047.0 
92.384377 3911.0 
96.699417 4137.0 
104.296127 4243.0 
115.488457 3169.0 
132.044983 4372.0 
136.640106 3724.0 
158.024689 7342.0 
189.067078 15456.0 
190.197647 4069.0 
211.202332 6404.0 
215.046463 7352.0 
243.040665 4121.0 
247.562622 3664.0 
261.99173 8125.0 
279.019623 4450.0 
304.994293 5425.0 
348.099457 8662.0 
374.440521 3903.0 
383.068207 5416.0 
384.076721 7526.0 
406.39032 4017.0 
412.070007 786907.0 
817.246399 3989.0 
END IONS

BEGIN IONS
NAME=N-{2-[5-(phenylmethoxy)indol-3-yl]ethyl}acetamide CollisionEnergy:102040 M+formate
PRECURSOR_MZ=353.151
INCHI="InChI=1S/C19H20N2O2/c1-14(22)20-10-9-16-12-21-19-8-7-17(11-18(16)19)23-13-15-5-3-2-4-6-15/h2-8,11-12,21H,9-10,13H2,1H3,(H,20,22)"
SMILES=CC(O)=NCCc1c[nH]c2ccc(OCc3ccccc3)cc12
SPECTRUMID=CCMSLIB00010106416
75.629784 2578.0 
82.410606 2682.0 
92.389778 3446.0 
102.94899 3337.0 
146.938828 3580.0 
148.957672 4638.0 
190.928009 3577.0 
215.498993 2543.0 
216.089432 15865.0 
216.94342 5220.0 
262.059082 3132.0 
266.98526 2634.0 
280.870514 2647.0 
294.073181 2652.0 
307.145508 39329.0 
332.978699 4812.0 
352.985779 13644.0 
353.11557 8850.0 
353.200134 3670.0 
END IONS

BEGIN IONS
NAME="(11S)-14-ethyl-12-ethylidene-8,14-diazapentacyclo[9.5.2.0<1,9>.0<2,7>.0<14,17> ]octadeca-2,4,6,9-tetraene-10-carbaldehyde, iodide CollisionEnergy:102040" M
PRECURSOR_MZ=321.196
INCHI="InChI=1S/C21H24N2O/c1-3-14-12-23(4-2)10-9-21-17-7-5-6-8-18(17)22-20(21)16(13-24)15(14)11-19(21)23/h3,5-8,13,15,19H,4,9-12H2,1-2H3/p+1/b14-3+/t15-,19?,21?,23?/m0/s1"
SMILES=CC=C1C[N+]2(CC)CCC34C(=Nc5ccccc53)C(=CO)C1CC42
SPECTRUMID=CCMSLIB00010104282
50.55365 4218.0 
55.054562 19077.0 
56.050011 34722.0 
58.065529 98190.0 
66.579773 3791.0 
67.054314 4516.0 
68.049683 8612.0 
69.069992 5982.0 
70.065392 46014.0 
72.076714 8938.0 
72.081039 228528.0 
72.085602 8855.0 
79.054329 7766.0 
81.069771 22373.0 
82.065033 19977.0 
83.085617 7491.0 
84.080879 305839.0 
90.160149 3807.0 
93.069687 21901.0 
95.08548 10143.0 
96.080658 80688.0 
98.0961 10307.0 
101.566399 4309.0 
105.06974 16796.0 
107.085213 15729.0 
108.080521 9909.0 
109.064346 5884.0 
110.096077 8068.0 
112.111977 5787.0 
118.63633 4628.0 
121.064163 4348.0 
122.095963 20316.0 
124.111076 15427.0 
125.246964 4017.0 
126.127571 231291.0 
130.06488 94139.0 
131.084869 4326.0 
132.080368 8262.0 
133.064758 9511.0 
135.080444 7918.0 
136.075897 5172.0 
136.111771 50624.0 
138.091415 4415.0 
138.127365 19486.0 
143.073578 5414.0 
144.08046 64058.0 
148.111618 9478.0 
150.090958 5252.0 
150.127365 61115.0 
154.064957 9997.0 
156.081024 46505.0 
158.05928 9465.0 
158.095566 30832.0 
162.127075 37005.0 
164.142075 6906.0 
167.072495 79324.0 
168.080475 361689.0 
169.075302 85548.0 
169.089767 6180.0 
170.059158 21978.0 
170.096329 30165.0 
171.092239 5530.0 
172.0755 21224.0 
178.122437 9862.0 
180.080353 314487.0 
181.087784 27790.0 
182.059692 6208.0 
182.080185 42676.0 
182.096252 41579.0 
183.067978 20485.0 
183.090729 6953.0 
184.075073 58771.0 
184.112061 9523.0 
185.106094 9189.0 
186.09111 33979.0 
186.113907 7382.0 
188.008072 5219.0 
190.121628 84733.0 
191.072266 19190.0 
192.080399 34712.0 
192.137894 7881.0 
193.089386 7350.0 
194.095856 125513.0 
195.105484 5247.0 
196.076233 77341.0 
196.111771 115954.0 
197.106918 376083.0 
198.090546 9521.0 
198.111938 7802.0 
199.122498 60205.0 
204.080154 9615.0 
205.087769 29051.0 
206.096832 60572.0 
207.105392 30851.0 
208.079071 32902.0 
208.112076 112264.0 
209.08342 4696.0 
209.104721 15344.0 
210.090973 23117.0 
210.115097 51506.0 
211.120422 34678.0 
212.109573 7852.0 
212.130173 46508.0 
217.088303 19255.0 
218.098022 32104.0 
219.103592 65269.0 
220.074234 14610.0 
220.111481 437051.0 
221.082092 21976.0 
221.121155 41108.0 
222.091873 45854.0 
222.127228 534098.0 
223.121735 41108.0 
224.105789 26459.0 
224.142807 24816.0 
225.139252 7936.0 
227.116776 24107.0 
231.103867 26414.0 
232.110992 69942.0 
233.118942 54188.0 
234.091431 7498.0 
234.126205 75729.0 
235.097641 35378.0 
235.123108 23412.0 
236.106186 37580.0 
236.142471 277451.0 
237.102448 31447.0 
237.13765 45250.0 
238.110947 47481.0 
238.162155 29640.0 
239.116592 22259.0 
240.124542 6014.0 
246.127411 47786.0 
247.123886 8501.0 
248.109131 18819.0 
248.142899 239255.0 
249.112259 9201.0 
249.138535 31358.0 
250.121857 270479.0 
250.157547 78141.0 
251.127792 24025.0 
251.154846 6267.0 
252.138214 192840.0 
252.168045 7203.0 
258.127777 29782.0 
259.124329 5430.0 
260.142181 42326.0 
262.122131 6418.0 
263.153229 32432.0 
264.137207 201121.0 
264.162872 17888.0 
265.132507 37461.0 
265.164337 11324.0 
266.153076 74062.0 
267.147705 27881.0 
273.137421 21066.0 
274.145416 25847.0 
274.850677 5023.0 
275.154205 21511.0 
276.138977 49037.0 
277.168884 19751.0 
278.152191 60570.0 
279.147339 8236.0 
287.153168 10064.0 
288.161652 21836.0 
291.182892 9042.0 
292.157013 24743.0 
292.192047 75180.0 
293.16452 11106.0 
293.199219 135573.0 
303.185242 135151.0 
306.167297 5721.0 
319.710754 24553.0 
320.184845 15617.0 
321.19516 25365254.0 
322.691101 24717.0 
END IONS

BEGIN IONS
NAME="1-{2-[(4-fluorophenyl)methyl](1,2,3,4-tetrahydrobeta-carbolinyl)}-4-methoxyben zene CollisionEnergy:102040" M-e
PRECURSOR_MZ=386.179
INCHI="InChI=1S/C25H23FN2O/c1-29-20-12-8-18(9-13-20)25-24-22(21-4-2-3-5-23(21)27-24)14-15-28(25)16-17-6-10-19(26)11-7-17/h2-13,25,27H,14-16H2,1H3"
SMILES=COc1ccc(C2c3[nH]c4ccccc4c3CCN2Cc2ccc(F)cc2)cc1
SPECTRUMID=CCMSLIB00010103992
73.981041 2823.0 
108.669693 3378.0 
109.044739 704633.0 
110.04805 247257.0 
130.064743 6873.0 
135.061035 23391.0 
136.063889 13441.0 
140.49939 3180.0 
143.0728 15815.0 
144.077255 5861.0 
147.635925 3303.0 
149.473343 3024.0 
156.081223 4620.0 
157.084564 4986.0 
246.110809 5899.0 
249.109406 4593.0 
250.121399 18419.0 
252.11792 141068.0 
253.121063 291457.0 
275.117096 95294.0 
276.12088 236575.0 
277.128296 80873.0 
313.441406 3251.0 
323.116241 5646.0 
340.115723 3806.0 
354.132782 23952.0 
356.110382 5169.0 
371.149048 4595.0 
385.161469 5670.0 
386.173309 6285878.0 
387.184052 11810.0 
END IONS

BEGIN IONS
NAME="methyl 2-amino-4-(2-fluorophenyl)-6-(hydroxymethyl)-8-oxo-4H-pyrano[3,2-b]pyra n-3-carboxylate CollisionEnergy:102040" M-H
PRECURSOR_MZ=346.073
INCHI="InChI=1S/C17H14FNO6/c1-23-17(22)13-12(9-4-2-3-5-10(9)18)15-14(25-16(13)19)11(21)6-8(7-20)24-15/h2-6,12,20H,7,19H2,1H3"
SMILES=COC(=O)C1=C(N)Oc2c(oc(CO)cc2=O)C1c1ccccc1F
SPECTRUMID=CCMSLIB00010110032
65.369713 2179.0 
65.998238 34419.0 
66.02108 2154.0 
72.497726 2129.0 
73.965553 2488.0 
91.26947 2014.0 
94.715401 2102.0 
95.338364 2273.0 
98.024673 146509.0 
141.019257 3228.0 
209.596054 2421.0 
209.926849 2727.0 
346.062592 17386.0 
END IONS

BEGIN IONS
NAME="1-(2,4-dihydroxy-5-methylphenyl)-2-(4-methylphenoxy)ethan-1-one CollisionEnergy:205060" M-H
PRECURSOR_MZ=271.098
INCHI="InChI=1S/C16H16O4/c1-10-3-5-12(6-4-10)20-9-16(19)13-7-11(2)14(17)8-15(13)18/h3-8,17-18H,9H2,1-2H3"
SMILES=Cc1ccc(OCC(=O)c2cc(C)c(O)cc2O)cc1
SPECTRUMID=CCMSLIB00010119744
55.691669 2720.0 
56.026039 2574.0 
65.039307 6051.0 
67.431961 2486.0 
68.997871 3221.0 
78.691467 2668.0 
79.055199 3647.0 
81.034462 5503.0 
82.418961 3428.0 
91.055107 28814.0 
92.996223 3524.0 
93.034416 6679.0 
105.03437 51933.0 
107.050217 115102.0 
108.990982 4007.0 
109.404587 2940.0 
117.034866 6159.0 
118.685463 3231.0 
119.050591 2918.0 
121.029823 4118.0 
122.037758 22381.0 
123.045143 121141.0 
135.045181 1194597.0 
136.052902 675152.0 
137.061172 15267.0 
142.992599 3275.0 
147.045166 47512.0 
148.016739 46250.0 
149.024307 156188.0 
162.032135 20479.0 
163.0401 366340.0 
164.047913 816527.0 
167.034836 86886.0 
171.934311 2910.0 
179.034775 16028.0 
196.037659 4191.0 
204.990143 19956.0 
229.086395 6080.0 
270.981812 29051.0 
271.097656 1266663.0 
END IONS

BEGIN IONS
NAME="N-((1E)-2-phenyl-1-azavinyl)-2-[(3,5-dioxo(2H,4H-1,2,4-triazin-6-yl))amino]pro panamide CollisionEnergy:102040" 2M-H
PRECURSOR_MZ=603.218
INCHI="InChI=1S/C13H14N6O3/c1-8(15-10-12(21)16-13(22)19-17-10)11(20)18-14-7-9-5-3-2-4-6-9/h2-8H,1H3,(H,15,17)(H,18,20)(H2,16,19,21,22)/b14-7+"
SMILES=CC(Nc1nnc(O)nc1O)C(O)=NN=Cc1ccccc1
SPECTRUMID=CCMSLIB00010111424
53.114429 2716.0 
58.77079 2628.0 
63.525768 2496.0 
65.947472 2929.0 
80.903999 2869.0 
84.433769 2598.0 
108.071548 2565.0 
112.05188 27997.0 
118.67379 2902.0 
121.4216 2709.0 
167.399948 2698.0 
181.037064 15417.0 
194.929169 2632.0 
301.105438 139551.0 
END IONS

BEGIN IONS
NAME="propyl 4-(3-bromo-4-methoxyphenyl)-2,7,7-trimethyl-5-oxo-1,4,6,7,8-pentahydroq uinoline-3-carboxylate CollisionEnergy:102040" M+H
PRECURSOR_MZ=462.127
INCHI="InChI=1S/C23H28BrNO4/c1-6-9-29-22(27)19-13(2)25-16-11-23(3,4)12-17(26)21(16)20(19)14-7-8-18(28-5)15(24)10-14/h7-8,10,20,25H,6,9,11-12H2,1-5H3"
SMILES=CCCOC(=O)C1=C(C)NC2=C(C(=O)CC(C)(C)C2)C1c1ccc(OC)c(Br)c1
SPECTRUMID=CCMSLIB00010105294
54.42857 4198.0 
63.362099 4125.0 
63.4566 7638.0 
63.459648 5916.0 
73.260193 4812.0 
75.713669 4735.0 
76.521233 4226.0 
100.289803 4575.0 
109.603317 4627.0 
122.201561 4758.0 
135.351288 5898.0 
150.054626 6984.0 
175.1008 10590.0 
176.384155 5790.0 
178.04953 164053.0 
189.113159 58836.0 
216.101959 84334.0 
218.115494 5609.0 
233.162369 6521.0 
233.189178 11135.0 
234.112106 11044672.0 
235.040207 10806.0 
274.978821 44231.0 
276.158997 28761448.0 
277.347015 44261.0 
304.193848 7286.0 
402.069366 239809.0 
420.065765 51629.0 
462.12616 2026975.0 
END IONS

BEGIN IONS
NAME="3-[(3-hydroxy-4-methoxyphenyl)methylene]-5,6-dimethoxy-1H-benzo[d]azolidin-2-o ne CollisionEnergy:205060" M-e
PRECURSOR_MZ=327.11
INCHI="InChI=1S/C18H17NO5/c1-22-15-5-4-10(7-14(15)20)6-12-11-8-16(23-2)17(24-3)9-13(11)19-18(12)21/h4-9,20H,1-3H3,(H,19,21)/b12-6-"
SMILES=COc1ccc(C=C2C(O)=Nc3cc(OC)c(OC)cc32)cc1O
SPECTRUMID=CCMSLIB00010120775
52.84156 2642.0 
92.374603 3430.0 
98.984253 54934.0 
104.280647 3601.0 
130.498993 3504.0 
132.04422 4777.0 
133.052261 3658.0 
151.038803 15532.0 
153.069534 5443.0 
157.96579 3003.0 
174.992065 5790.0 
178.064789 4232.0 
181.064423 19381.0 
184.075516 53611.0 
185.083374 13022.0 
195.067291 4321.0 
196.075775 117931.0 
197.059021 11568.0 
206.039246 4070.0 
206.060013 101855.0 
207.065491 3864.0 
209.046143 6029.0 
209.733032 2816.0 
210.05481 5639.0 
211.076294 3714.0 
212.070343 70023.0 
212.141403 3269.0 
213.07811 65314.0 
222.054398 25174.0 
223.062103 32252.0 
224.070404 253325.0 
225.07785 24353.0 
226.049164 4677.0 
226.086288 3906.0 
228.065018 3117.0 
228.1017 4198.0 
234.054672 105950.0 
235.063263 5601.0 
236.06926 9070.0 
237.041824 129064.0 
238.049561 17596.0 
238.085403 17219.0 
240.066193 40637.0 
240.101227 64657.0 
241.07254 131685.0 
242.080276 6845.0 
248.033707 12217.0 
250.049332 6117.0 
250.998627 3329.0 
251.035492 2967.0 
251.057343 134769.0 
252.06517 380157.0 
253.071899 52067.0 
254.043884 13468.0 
254.078491 4350.0 
256.096436 130443.0 
262.049988 50868.0 
265.037018 115541.0 
265.069611 9208.0 
266.044922 20752.0 
266.080627 41700.0 
268.060364 66982.0 
269.06781 346472.0 
270.076294 12637.0 
279.052368 15359.0 
280.060089 660295.0 
281.067688 43389.0 
282.040833 6190.0 
282.07605 14389.0 
283.084229 29597.0 
284.09137 213867.0 
294.076599 6509.0 
296.056061 4653.0 
297.063019 39231.0 
298.06958 11973.0 
310.067108 3210.0 
312.086151 290279.0 
327.10968 1959685.0 
403.377869 3222.0 
598.693481 4465.0 
END IONS

BEGIN IONS
NAME="(2E)-3-{3-[(2,3-dimethylphenoxy)methyl]-4-methoxyphenyl}-1-(4-methoxyphenyl)pr op-2-en-1-one CollisionEnergy:205060" M+Na
PRECURSOR_MZ=425.172
INCHI="InChI=1S/C26H26O4/c1-18-6-5-7-25(19(18)2)30-17-22-16-20(9-15-26(22)29-4)8-14-24(27)21-10-12-23(28-3)13-11-21/h5-16H,17H2,1-4H3/b14-8+"
SMILES=COc1ccc(C(=O)C=Cc2ccc(OC)c(COc3cccc(C)c3C)c2)cc1
SPECTRUMID=CCMSLIB00010120563
56.396599 2575.0 
61.228081 2262.0 
66.730972 2471.0 
66.734917 2541.0 
82.162117 2918.0 
82.387711 2904.0 
88.79274 2976.0 
90.976646 4020.0 
92.361588 3197.0 
97.239227 2533.0 
103.459084 2123.0 
129.851852 2873.0 
133.849518 2432.0 
151.089386 2396.0 
159.867844 2288.0 
303.096802 2574.0 
305.112549 5491.0 
334.6073 2483.0 
336.097504 12701.0 
365.191986 3909.0 
425.170715 1046514.0 
END IONS

BEGIN IONS
NAME="3,4-DIHYDROXYBENZOIC ACID CollisionEnergy:102040" M-H
PRECURSOR_MZ=153.019
INCHI="InChI=1S/C7H6O4/c8-5-2-1-4(7(10)11)3-6(5)9/h1-3,8-9H,(H,10,11)"
SMILES=O=C(O)c1ccc(O)c(O)c1
SPECTRUMID=CCMSLIB00010126109
59.246899 201941.0 
66.7687 178781.0 
81.034203 730794.0 
91.018402 220662.0 
104.325996 282365.0 
105.001999 161097.0 
108.022003 1689460.0 
109.028999 107885000.0 
153.018997 24705100.0 
153.039993 263535.0 
END IONS

BEGIN IONS
NAME=N-(5-chloro-2-methoxyphenyl)-2-(9-methyl-6-oxohydropurin-8-ylthio)acetamide CollisionEnergy:102040 2M-H
PRECURSOR_MZ=757.094
INCHI="InChI=1S/C15H14ClN5O3S/c1-21-13-12(14(23)18-7-17-13)20-15(21)25-6-11(22)19-9-5-8(16)3-4-10(9)24-2/h3-5,7H,6H2,1-2H3,(H,19,22)(H,17,18,23)"
SMILES=COc1ccc(Cl)cc1N=C(O)CSc1nc2c(O)ncnc2n1C
SPECTRUMID=CCMSLIB00010112097
54.444069 3100.0 
56.048531 2924.0 
66.757874 3066.0 
118.685127 3536.0 
136.244492 3918.0 
142.508255 3401.0 
149.046921 25489.0 
150.40329 3804.0 
180.011505 39421.0 
181.019241 11983.0 
195.034546 58578.0 
204.317276 3907.0 
212.227081 4899.0 
304.061401 77196.0 
378.043396 247148.0 
END IONS

BEGIN IONS
NAME="ethyl 2-[4-(2H-benzo[3,4-d]1,3-dioxolan-5-ylmethylene)-3-methyl-5-oxo(1,2-diaz olinyl)]-4-methyl-1,3-thiazole-5-carboxylate CollisionEnergy:205060" M+H
PRECURSOR_MZ=400.096
INCHI="InChI=1S/C19H17N3O5S/c1-4-25-18(24)16-11(3)20-19(28-16)22-17(23)13(10(2)21-22)7-12-5-6-14-15(8-12)27-9-26-14/h5-8H,4,9H2,1-3H3/b13-7+"
SMILES=CCOC(=O)c1sc(N2N=C(C)C(=Cc3ccc4c(c3)OCO4)C2=O)nc1C
SPECTRUMID=CCMSLIB00010120680
54.034248 45879.0 
58.995258 79528.0 
59.99073 14800.0 
64.084976 11677.0 
65.039017 10724.0 
67.018143 40731.0 
67.029312 60844.0 
68.99749 11704.0 
70.995377 24361.0 
73.010933 76297.0 
74.006126 104157.0 
79.05442 14130.0 
81.0448 11486.0 
85.028412 96255.0 
86.006073 86034.0 
86.98996 57333.0 
89.032761 16972.0 
89.038612 274186.0 
89.976837 16969.0 
91.008293 10022.0 
91.054367 101252.0 
92.377823 15157.0 
93.120232 11131.0 
95.990143 14945.0 
99.001244 24125.0 
99.013107 12862.0 
101.016708 380896.0 
102.000397 60492.0 
102.062889 10144.0 
103.0541 74672.0 
104.049156 26677.0 
106.052383 53950.0 
107.049057 13084.0 
111.001053 232364.0 
111.984818 59874.0 
112.021797 11894.0 
113.016747 92545.0 
114.000557 93123.0 
114.984688 50415.0 
115.054092 262895.0 
116.061821 13135.0 
117.033401 347811.0 
118.064392 17244.0 
119.048981 58238.0 
121.028267 18842.0 
122.036049 120806.0 
123.0439 19425.0 
127.031822 21068.0 
128.04921 79000.0 
129.000519 22806.0 
129.01152 765478.0 
129.995529 1331407.0 
130.065002 150371.0 
131.048965 21027.0 
132.043869 20443.0 
132.080704 12542.0 
135.043869 626468.0 
137.016418 174851.0 
138.995911 134184.0 
139.032257 718398.0 
141.011429 206876.0 
143.027313 19908.0 
143.049042 159691.0 
144.011322 20905.0 
144.05661 19319.0 
145.015213 24927.0 
145.028168 778587.0 
145.049362 21306.0 
145.063965 17125.0 
146.036484 45784.0 
146.059601 68187.0 
147.04364 257599.0 
148.003937 12124.0 
148.038498 27048.0 
150.041763 10352.0 
150.054291 78335.0 
152.027695 13634.0 
153.047714 27009.0 
154.042908 53804.0 
155.060577 25093.0 
156.044113 123014.0 
157.006363 1011854.0 
157.05217 13917.0 
157.990265 254788.0 
158.059845 272116.0 
158.998413 14033.0 
159.021469 20905.0 
159.04332 104684.0 
160.038986 998206.0 
160.075668 100236.0 
162.054932 16809.0 
163.038712 413460.0 
164.07074 13140.0 
165.012177 43924.0 
165.50061 11721.0 
169.006226 16147.0 
171.022247 60197.0 
172.038605 60232.0 
172.052765 25803.0 
173.0242 103299.0 
173.059525 1594697.0 
174.034485 12117.0 
174.053253 19753.0 
174.068375 19128.0 
175.038681 5737695.0 
176.06929 16284.0 
180.022781 25877.0 
181.00621 16343.0 
183.022003 3938718.0 
184.017853 19885.0 
185.00116 2015270.0 
186.054581 737672.0 
187.016968 180407.0 
187.036148 17750.0 
187.062546 46013.0 
188.070236 4038241.0 
190.049484 25121.0 
196.039108 69205.0 
197.038025 48837.0 
198.032852 1668814.0 
199.038269 146784.0 
201.029877 18616.0 
201.047791 59820.0 
201.065826 22590.0 
204.065018 306315.0 
209.001236 240483.0 
211.052536 44646.0 
213.065079 43080.0 
214.0495 261001.0 
216.064789 382518.0 
218.026031 56351.0 
225.046082 16359.0 
226.072968 19065.0 
227.025513 18868.0 
229.042038 50812.0 
231.07663 48160.0 
245.037109 601781.0 
246.021561 42749.0 
247.053314 18031.0 
250.027939 182748.0 
251.83165 15648.0 
253.919128 11425.0 
256.105652 19746.0 
257.03772 21459.0 
258.056396 16834.0 
259.05246 76878.0 
265.084564 16278.0 
266.091064 24632.0 
267.099701 91217.0 
268.054291 16440.0 
269.037079 393177.0 
271.052032 16385.0 
273.031982 616934.0 
275.049286 44181.0 
276.032654 74236.0 
285.03363 17664.0 
286.064697 89913.0 
287.047485 26493.0 
289.026764 60889.0 
291.042786 407925.0 
292.068481 17896.0 
296.045898 12940.0 
297.029572 139138.0 
298.063507 25562.0 
299.047821 20650.0 
303.006653 21632.0 
303.042633 314640.0 
314.058197 69288.0 
326.05954 24975.0 
327.040375 24649.0 
328.074036 256089.0 
329.058594 53858.0 
341.022797 71449.0 
342.053528 167334.0 
344.068756 188520.0 
354.054199 78208.0 
372.063904 10342377.0 
400.095184 22481128.0 
END IONS

BEGIN IONS
NAME=3-(2-Hydroxyphenyl)propionic acid CollisionEnergy:205060 M-H
PRECURSOR_MZ=165.056
INCHI="InChI=1S/C9H10O3/c10-8-4-2-1-3-7(8)5-6-9(11)12/h1-4,10H,5-6H2,(H,11,12)"
SMILES=O=C(O)CCc1ccccc1O
SPECTRUMID=CCMSLIB00010122303
51.164558 84108.0 
53.460411 90573.0 
92.364769 112286.0 
93.034447 121633.0 
97.437729 102500.0 
106.042427 9724937.0 
108.021584 109653.0 
109.788834 94952.0 
119.050179 1744632.0 
121.065903 63119120.0 
132.837082 94497.0 
136.193558 126188.0 
138.032227 3837616.0 
147.045135 4133346.0 
157.947449 130850.0 
165.055527 7432872.0 
END IONS

BEGIN IONS
NAME=xanthosine CollisionEnergy:102040 M+K
PRECURSOR_MZ=323.039
INCHI="InChI=1S/C10H12N4O6/c15-1-3-5(16)6(17)9(20-3)14-2-11-4-7(14)12-10(19)13-8(4)18/h2-3,5-6,9,15-17H,1H2,(H2,12,13,18,19)/t3-,5-,6-,9-/m1/s1"
SMILES=OC[C@H]1O[C@@H](n2cnc3c(O)nc(O)nc32)[C@H](O)[C@@H]1O
SPECTRUMID=CCMSLIB00010126657
60.6759 2503.070068 
77.572403 2375.570068 
82.417702 2348.060059 
113.706001 2303.530029 
186.742004 2413.070068 
190.996002 8993.910156 
228.681 2294.649902 
323.006012 10768.599609 
323.037994 274346.0 
END IONS

BEGIN IONS
NAME=2-(4-hydroxy-6-methylpyrimidin-2-ylthio)-N-(4-methylphenyl)acetamide CollisionEnergy:205060 M-H
PRECURSOR_MZ=288.081
INCHI="InChI=1S/C14H15N3O2S/c1-9-3-5-11(6-4-9)16-13(19)8-20-14-15-10(2)7-12(18)17-14/h3-7H,8H2,1-2H3,(H,16,19)(H,15,17,18)"
SMILES=Cc1ccc(NC(=O)CSc2nc(C)cc(O)n2)cc1
SPECTRUMID=CCMSLIB00010116122
52.18626 2584.0 
55.159771 2425.0 
57.97522 254350.0 
60.538891 2680.0 
66.744522 2950.0 
72.975128 4276.0 
80.907204 2697.0 
81.045578 12563.0 
86.317284 3135.0 
98.833076 2367.0 
104.286743 3000.0 
106.066109 3345.0 
107.024857 26224.0 
109.040703 136772.0 
114.985947 11945.0 
118.656403 3570.0 
125.035744 13665.0 
128.023514 2545.0 
131.061646 1048465.0 
140.004639 3025.0 
141.013 257857.0 
153.013199 15315.0 
154.03772 9234.0 
155.028687 161078.0 
180.051575 2562.0 
181.007446 27489.0 
214.098923 1332431.0 
244.091599 3941.0 
288.08139 167915.0 
END IONS

BEGIN IONS
NAME="4-(2H-benzo[3,4-d]1,3-dioxolan-5-ylmethylene)-3-phenylisoxazol-5-one CollisionEnergy:102040" M+H
PRECURSOR_MZ=294.076
INCHI="InChI=1S/C17H11NO4/c19-17-13(16(18-22-17)12-4-2-1-3-5-12)8-11-6-7-14-15(9-11)21-10-20-14/h1-9H,10H2/b13-8-"
SMILES=O=C1ON=C(c2ccccc2)C1=Cc1ccc2c(c1)OCO2
SPECTRUMID=CCMSLIB00010113745
50.015591 5252.0 
51.023411 7537.0 
53.039101 14121.0 
61.486488 3849.0 
64.042877 3232.0 
67.765503 3378.0 
77.038406 31190.0 
81.03376 13223.0 
95.049278 31558.0 
104.756233 6734.0 
105.03347 10181342.0 
105.209686 4014.0 
105.311813 12094.0 
136.199371 4685.0 
148.041443 4326.0 
161.023392 19122.0 
206.044434 216025.0 
209.059464 7691.0 
211.074371 15537.0 
234.039536 132179.0 
236.070694 55349.0 
239.069916 118795.0 
248.069824 22517.0 
264.064819 21061.0 
266.080963 123900.0 
292.776733 8557.0 
294.075562 10407733.0 
295.38205 11066.0 
295.418732 6785.0 
END IONS

BEGIN IONS
NAME="(3,4-dimethoxyphenyl)-N-[4-(phenylmethoxy)phenyl]carboxamide CollisionEnergy:205060" M+Na
PRECURSOR_MZ=386.136
INCHI="InChI=1S/C22H21NO4/c1-25-20-13-8-17(14-21(20)26-2)22(24)23-18-9-11-19(12-10-18)27-15-16-6-4-3-5-7-16/h3-14H,15H2,1-2H3,(H,23,24)"
SMILES=COc1ccc(C(=O)Nc2ccc(OCc3ccccc3)cc2)cc1OC
SPECTRUMID=CCMSLIB00010119015
55.622211 2774.0 
66.738731 2459.0 
73.95105 3709.0 
74.011803 2402.0 
82.393791 3334.0 
88.035202 2443.0 
104.279778 2457.0 
169.116852 2656.0 
205.710373 3002.0 
291.928894 2752.0 
295.079834 20711.0 
349.725311 2633.0 
386.136078 1714403.0 
404.241089 3078.0 
END IONS

BEGIN IONS
NAME=2-(4-hydroxyquinazolin-2-ylthio)-N-phenylacetamide CollisionEnergy:205060 M-H
PRECURSOR_MZ=310.066
INCHI="InChI=1S/C16H13N3O2S/c20-14(17-11-6-2-1-3-7-11)10-22-16-18-13-9-5-4-8-12(13)15(21)19-16/h1-9H,10H2,(H,17,20)(H,18,19,21)"
SMILES=OC(CSc1nc(O)c2ccccc2n1)=Nc1ccccc1
SPECTRUMID=CCMSLIB00010120469
50.2258 2401.0 
57.97514 217146.0 
67.973824 2432.0 
69.028282 2928.0 
76.765404 2630.0 
77.904037 2430.0 
82.40036 3461.0 
92.37587 2530.0 
92.382042 3132.0 
107.338387 3017.0 
110.849426 2745.0 
116.037743 4566.0 
117.045891 753261.0 
118.657043 2944.0 
130.156677 2600.0 
145.040802 164230.0 
157.969162 3021.0 
161.035522 42933.0 
176.004776 38876.0 
177.012802 479006.0 
177.224274 2772.0 
189.013077 75173.0 
189.031876 4713.0 
190.021042 4406.0 
190.038498 24812.0 
191.028397 225102.0 
209.660919 6008.0 
217.007339 69125.0 
225.149445 4039.0 
236.082916 2109360.0 
242.176254 16651.0 
243.518387 2942.0 
264.158325 23477.0 
310.065613 236029.0 
END IONS

BEGIN IONS
NAME=Glucose-1-phosphate CollisionEnergy:102040 M-H
PRECURSOR_MZ=259.022
INCHI="InChI=1S/C6H13O9P/c7-1-2-3(8)4(9)5(10)6(14-2)15-16(11,12)13/h2-10H,1H2,(H2,11,12,13)/t2-,3-,4+,5-,6-/m1/s1"
SMILES=O=P(O)(O)O[C@H]1O[C@H](CO)[C@@H](O)[C@H](O)[C@H]1O
SPECTRUMID=CCMSLIB00010102744
58.419498 7927.069824 
60.4632 9005.099609 
66.761902 8168.709961 
78.958801 1575360.0 
87.507401 8005.450195 
92.402603 12055.5 
96.969597 590088.0 
98.1063 8589.549805 
104.313004 9946.259766 
138.979996 231658.0 
157.852005 11070.099609 
163.263 8114.290039 
202.757996 8905.709961 
208.147003 41562.5 
241.011993 451066.0 
259.02301 874889.0 
END IONS

BEGIN IONS
NAME=Rauwolscine CollisionEnergy:102040 M+Na
PRECURSOR_MZ=377.184
INCHI="InChI=1S/C21H26N2O3/c1-26-21(25)19-15-10-17-20-14(13-4-2-3-5-16(13)22-20)8-9-23(17)11-12(15)6-7-18(19)24/h2-5,12,15,17-19,22,24H,6-11H2,1H3/t12-,15+,17+,18+,19+/m1/s1"
SMILES=COC(=O)C1C(O)CCC2CN3CCc4c([nH]c5ccccc45)C3CC21
SPECTRUMID=CCMSLIB00010105126
62.978939 3182.0 
67.590523 2347.0 
73.950363 2640.0 
79.770287 2203.0 
86.011833 2315.0 
92.375053 3989.0 
136.205475 2936.0 
160.223404 2499.0 
165.92691 2483.0 
188.131424 2383.0 
220.628784 2902.0 
353.879364 2852.0 
356.462982 2564.0 
377.183044 1120658.0 
END IONS

BEGIN IONS
NAME="5-{[(2-methyl-3-nitrophenyl)amino]azamethylene}-1,3-dihydropyrimidine-2,4,6-tr ione CollisionEnergy:102040" M+H
PRECURSOR_MZ=292.068
INCHI="InChI=1S/C11H9N5O5/c1-5-6(3-2-4-7(5)16(20)21)14-15-8-9(17)12-11(19)13-10(8)18/h2-4,14H,1H3,(H2,12,13,17,18,19)"
SMILES=Cc1c(NN=C2C(O)=NC(=O)N=C2O)cccc1[N+](=O)[O-]
SPECTRUMID=CCMSLIB00010108522
56.943439 1913.0 
57.428398 2409.0 
59.08041 2327.0 
60.54171 2444.0 
71.420822 2600.0 
73.958153 3249.0 
80.049843 19461.0 
84.959808 4201.0 
89.491531 2604.0 
92.384483 2376.0 
93.051033 4178.0 
93.057426 80976.0 
107.060387 46019.0 
109.354027 2181.0 
118.662819 2423.0 
121.052147 3773.0 
125.046944 17843.0 
135.055222 270264.0 
148.062912 3192.0 
151.050125 55422.0 
152.057922 303853.0 
201.053345 4490.0 
204.039871 5058.0 
222.050919 15183.0 
246.074615 149021.0 
247.045166 9483.0 
249.062988 2848.0 
250.045624 22767.0 
257.506744 3330.0 
274.056183 4939.0 
292.067139 530737.0 
END IONS

BEGIN IONS
NAME=Pregnenolone acetate CollisionEnergy:102040 M+H
PRECURSOR_MZ=359.258
INCHI="InChI=1S/C23H34O3/c1-14(24)19-7-8-20-18-6-5-16-13-17(26-15(2)25)9-11-22(16,3)21(18)10-12-23(19,20)4/h5,17-21H,6-13H2,1-4H3/t17?,18?,19?,20?,21?,22?,23-/m1/s1"
SMILES=CC(=O)OC1CCC2(C)C(=CCC3C2CCC2(C)C(C(C)=O)CCC32)C1
SPECTRUMID=CCMSLIB00010114606
67.054703 2400.0 
71.049469 2727.0 
81.070053 37439.0 
85.064957 15156.0 
92.411987 2672.0 
93.069672 2841.0 
95.085533 11278.0 
105.069847 5063.0 
107.085693 8922.0 
109.101082 2738.0 
119.085709 2621.0 
120.799393 2230.0 
121.101173 4801.0 
123.116547 2655.0 
129.147995 2248.0 
131.073196 2122.0 
131.085602 11005.0 
133.101273 14839.0 
135.116547 4963.0 
143.085968 3481.0 
145.10112 12431.0 
147.116653 12925.0 
149.132767 10760.0 
151.148071 3762.0 
157.100998 22155.0 
159.116547 48448.0 
161.132324 11612.0 
171.116196 5535.0 
173.13237 12677.0 
174.314148 2584.0 
175.147888 11707.0 
177.164734 3136.0 
183.116257 4863.0 
185.132187 12267.0 
187.147842 4166.0 
192.09407 2272.0 
199.148102 17670.0 
211.147781 11438.0 
215.17952 2840.0 
217.16011 4194.0 
219.172653 2465.0 
225.163223 10213.0 
228.49234 2367.0 
233.187469 4726.0 
239.179047 4067.0 
255.209671 27895.0 
257.190674 3115.0 
281.225677 131491.0 
291.463531 2504.0 
299.236542 132939.0 
341.245758 23797.0 
359.209778 5025.0 
359.256287 55088.0 
379.36264 2229.0 
END IONS

BEGIN IONS
NAME="2-ethyl-1,2,3,4-tetrahydroisoquinoline-3-carboxylic acid CollisionEnergy:205060" M+Na
PRECURSOR_MZ=228.099
INCHI="InChI=1S/C12H15NO2/c1-2-13-8-10-6-4-3-5-9(10)7-11(13)12(14)15/h3-6,11H,2,7-8H2,1H3,(H,14,15)"
SMILES=CCN1Cc2ccccc2CC1C(=O)O
SPECTRUMID=CCMSLIB00010117465
53.116039 2228.0 
55.93465 4841.0 
60.044628 4479.0 
73.945213 2584.0 
82.387154 2137.0 
90.948059 2524.0 
98.492912 1938.0 
105.934624 3886.0 
118.635483 1965.0 
128.950516 4947.0 
133.645355 2048.0 
160.111679 3793.0 
163.939606 7580.0 
186.956055 4156.0 
228.099152 216937.0 
228.23175 33922.0 
469.44339 2222.0 
END IONS

BEGIN IONS
NAME="N-(2H-benzo[3,4-d]1,3-dioxolen-5-yl)-2-{2-oxo-4-[N-benzylcarbamoyl]hydroquinol yl}acetamide CollisionEnergy:205060" M+H
PRECURSOR_MZ=456.155
INCHI="InChI=1S/C26H21N3O5/c30-24(28-18-10-11-22-23(12-18)34-16-33-22)15-29-21-9-5-4-8-19(21)20(13-25(29)31)26(32)27-14-17-6-2-1-3-7-17/h1-13H,14-16H2,(H,27,32)(H,28,30)"
SMILES=O=c1cc(C(O)=NCc2ccccc2)c2ccccc2n1CC(O)=Nc1ccc2c(c1)OCO2
SPECTRUMID=CCMSLIB00010123627
53.29496 2662.0 
65.039009 13804.0 
66.735764 2880.0 
73.942703 3203.0 
82.02861 2531.0 
82.388512 2952.0 
91.054314 698106.0 
92.057793 3904.0 
105.033577 2725.0 
128.049561 3487.0 
137.047104 11222.0 
180.081314 27632.0 
199.662277 3407.0 
204.080795 6201.0 
206.059402 4160.0 
217.088898 19547.0 
218.096146 95870.0 
232.075394 9603.0 
233.106995 22570.0 
261.102448 13065.0 
291.112762 54542.0 
319.107056 415949.0 
320.110901 4291.0 
332.139923 3931.0 
359.202789 2891.0 
456.179779 15551.0 
END IONS

BEGIN IONS
NAME=Andrographolide CollisionEnergy:102040 M+formate
PRECURSOR_MZ=395.208
INCHI="InChI=1S/C20H30O5/c1-12-4-7-16-19(2,9-8-17(23)20(16,3)11-21)14(12)6-5-13-15(22)10-25-18(13)24/h5,14-17,21-23H,1,4,6-11H2,2-3H3/b13-5+/t14-,15-,16+,17-,19+,20+/m1/s1"
SMILES=C=C1CCC2C(C)(CO)C(O)CCC2(C)C1CC=C1C(=O)OCC1O
SPECTRUMID=CCMSLIB00010110739
54.995449 2190.0 
60.566311 2425.0 
60.723869 2149.0 
68.000343 2143.0 
90.177887 2230.0 
102.068047 2642.0 
104.307518 3389.0 
122.102333 2573.0 
210.766449 2376.0 
258.913544 2843.0 
287.201416 152714.0 
319.193359 4991.0 
331.191437 450658.0 
349.20224 47015.0 
395.207306 89214.0 
END IONS

BEGIN IONS
NAME=Isoalantolactone CollisionEnergy:205060 M+H
PRECURSOR_MZ=233.154
INCHI="InChI=1S/C15H20O2/c1-9-5-4-6-15(3)8-13-11(7-12(9)15)10(2)14(16)17-13/h11-13H,1-2,4-8H2,3H3/t11?,12-,13?,15+/m0/s1"
SMILES=C=C1C(=O)OC2CC3(C)CCCC(=C)C3CC12
SPECTRUMID=CCMSLIB00010123392
53.039101 13536.0 
55.018581 2688.0 
55.054642 40978.0 
56.965221 3803.0 
57.033958 3225.0 
57.070339 5159.0 
62.830101 3133.0 
65.039009 11986.0 
67.054611 121953.0 
69.033951 11455.0 
69.070251 57705.0 
79.054489 131291.0 
81.070091 280946.0 
83.0495 4636.0 
83.085892 34966.0 
91.054314 255259.0 
93.063362 6390.0 
93.069939 172745.0 
95.049057 11704.0 
95.085579 288564.0 
97.064934 15493.0 
103.053932 20297.0 
105.069817 566604.0 
107.049133 11208.0 
107.085388 122818.0 
109.064949 12828.0 
109.101059 58205.0 
111.080643 10985.0 
115.054031 14971.0 
116.061867 14889.0 
117.069794 108528.0 
119.049232 31053.0 
119.085487 179363.0 
121.064278 20583.0 
121.101288 34985.0 
123.043983 3320.0 
123.080383 17073.0 
123.11657 3881.0 
125.059357 11429.0 
129.069748 29745.0 
130.077438 18844.0 
131.085449 357685.0 
132.093857 11838.0 
133.064743 56252.0 
133.10112 149268.0 
134.109329 4045.0 
135.044189 14680.0 
135.080185 15030.0 
135.116745 10999.0 
136.192139 3090.0 
137.059708 50644.0 
139.075012 13314.0 
141.069717 18122.0 
142.07843 4549.0 
143.08548 34145.0 
144.093277 22902.0 
145.065155 23711.0 
145.101089 294253.0 
147.080185 16318.0 
147.116898 91771.0 
148.124603 12847.0 
149.05957 11052.0 
149.095764 12287.0 
151.075302 136160.0 
154.07753 4740.0 
155.085403 56454.0 
156.09346 11861.0 
157.100937 36726.0 
158.072815 15837.0 
158.10936 11394.0 
159.08046 68817.0 
159.116745 312619.0 
160.12468 18399.0 
161.132339 207417.0 
163.074615 25842.0 
165.090179 10097.0 
167.085236 15768.0 
168.092697 4866.0 
169.100998 55595.0 
171.116455 6179.0 
172.123947 4981.0 
173.096069 162217.0 
173.131821 18173.0 
175.110992 15921.0 
177.090805 122405.0 
182.108917 45827.0 
185.132645 5789.0 
187.111359 11734.0 
187.147919 462208.0 
189.163452 13034.0 
191.106323 20905.0 
197.132355 90013.0 
200.119736 4138.0 
205.158783 22048.0 
215.142914 317251.0 
233.153229 517229.0 
END IONS

BEGIN IONS
NAME="3,6-DIMETHOXYFLAVONE CollisionEnergy:102040" M+H
PRECURSOR_MZ=283.096
INCHI="InChI=1S/C17H14O4/c1-19-12-8-9-14-13(10-12)15(18)17(20-2)16(21-14)11-6-4-3-5-7-11/h3-10H,1-2H3"
SMILES=COc1ccc2oc(-c3ccccc3)c(OC)c(=O)c2c1
SPECTRUMID=CCMSLIB00010103573
50.763821 2817.0 
66.746384 3472.0 
92.382607 3215.0 
105.033257 31106.0 
118.044113 2909.0 
135.043503 4897.0 
136.217682 3373.0 
181.064331 12824.0 
195.081055 5534.0 
211.074692 3539.0 
213.287399 4032.0 
227.10585 7163.0 
239.069107 13483.0 
240.077179 89105.0 
240.102478 5832.0 
267.064545 612420.0 
268.072296 1510256.0 
270.051666 13916.0 
281.080444 4622.0 
282.626099 3839.0 
283.095795 7676598.0 
END IONS

BEGIN IONS
NAME=Stachyose CollisionEnergy:102040 M+Na
PRECURSOR_MZ=689.211
INCHI="InChI=1S/C24H42O21/c25-1-6-10(28)14(32)17(35)21(41-6)39-3-8-11(29)15(33)18(36)22(42-8)40-4-9-12(30)16(34)19(37)23(43-9)45-24(5-27)20(38)13(31)7(2-26)44-24/h6-23,25-38H,1-5H2/t6-,7-,8-,9-,10+,11+,12-,13-,14+,15+,16+,17-,18-,19-,20+,21+,22+,23-,24+/m1/s1"
SMILES=OC[C@H]1O[C@@](CO)(O[C@H]2O[C@H](CO[C@H]3O[C@H](CO[C@H]4O[C@H](CO)[C@H](O)[C@H](O)[C@H]4O)[C@H](O)[C@H](O)[C@H]3O)[C@@H](O)[C@H](O)[C@H]2O)[C@@H](O)[C@@H]1O
SPECTRUMID=CCMSLIB00010126636
50.686798 3659.189941 
56.6082 3571.439941 
65.761497 4112.569824 
66.7491 4322.790039 
67.000198 4224.72998 
92.386902 5358.97998 
103.464996 4281.279785 
115.709999 4532.149902 
185.042007 5968.080078 
186.533997 4289.129883 
203.052002 26681.699219 
208.557999 24591.199219 
275.071991 4544.439941 
303.007996 5015.040039 
305.083008 5771.560059 
347.093994 48397.800781 
365.104004 284315.0 
437.127014 5759.339844 
441.093994 4609.990234 
467.135986 47839.199219 
509.145996 48647.601562 
527.156982 1312010.0 
689.210022 2771170.0 
END IONS

BEGIN IONS
NAME=Monorden CollisionEnergy:205060 M+H-H2O
PRECURSOR_MZ=347.068
INCHI="InChI=1S/C18H17ClO6/c1-9-6-15-14(25-15)5-3-2-4-10(20)7-11-16(18(23)24-9)12(21)8-13(22)17(11)19/h2-5,8-9,14-15,21-22H,6-7H2,1H3/b4-2+,5-3-/t9-,14-,15-/m1/s1"
SMILES=CC1CC2OC2C=CC=CC(=O)Cc2c(Cl)c(O)cc(O)c2C(=O)O1
SPECTRUMID=CCMSLIB00010121224
53.002731 4148.0 
53.03904 10804.0 
55.018379 13374.0 
55.054821 2554.0 
67.054626 15919.0 
68.997528 5838.0 
69.033943 438079.0 
71.199837 3360.0 
77.472343 2676.0 
79.054588 39356.0 
81.070236 5827.0 
82.380661 2960.0 
90.116302 2908.0 
91.054398 43479.0 
93.070061 29553.0 
95.04924 11094.0 
95.172829 2916.0 
97.064873 16978.0 
97.726463 3314.0 
99.043953 16165.0 
103.054314 24272.0 
104.272072 3752.0 
105.06971 18311.0 
107.049011 13888.0 
109.064346 4170.0 
115.054527 10516.0 
117.069603 13295.0 
119.048378 3626.0 
119.085487 13813.0 
121.064888 77504.0 
131.049164 77089.0 
131.145676 2384.0 
145.064896 11386.0 
146.072647 6201.0 
147.043701 4458.0 
148.05217 6074.0 
154.989517 64154.0 
157.004929 11840.0 
159.044067 28809.0 
160.051865 51212.0 
165.009888 5237.0 
165.07019 3752.0 
169.005692 23664.0 
169.066071 3403.0 
171.043381 4451.0 
173.571228 2672.0 
176.046677 3019.0 
177.053955 3173.0 
181.004852 56337.0 
181.064911 5298.0 
182.984299 2707.0 
183.021545 5976.0 
184.051437 4416.0 
184.999069 11392.0 
185.058548 5956.0 
185.364609 2444.0 
187.039154 12427.0 
188.0466 10342.0 
191.084442 7776.0 
192.040894 10332.0 
195.020615 59405.0 
195.08075 4200.0 
196.999954 48733.0 
197.059662 11111.0 
198.067642 4274.0 
198.979324 41669.0 
199.038528 3461.0 
200.045746 18394.0 
200.995071 39399.0 
203.085876 2804.0 
207.020828 17755.0 
209.000931 23978.0 
209.096375 10775.0 
210.979568 28236.0 
211.015503 10870.0 
212.994965 4449.0 
213.055435 4397.0 
214.06218 5843.0 
219.079941 14512.0 
220.999359 17849.0 
223.01532 54296.0 
223.073822 5459.0 
224.082077 2891.0 
224.994217 11063.0 
226.001373 3404.0 
226.064178 7822.0 
227.010468 13546.0 
228.040665 19520.0 
228.989716 13108.0 
231.021164 4186.0 
235.015976 14527.0 
235.07431 3014.0 
237.090607 16177.0 
238.097931 5122.0 
239.009918 24219.0 
247.017654 3511.0 
247.074936 9850.0 
248.082016 9869.0 
248.995087 14305.0 
249.028412 2634.0 
251.010269 95635.0 
251.070419 20411.0 
259.0159 6287.0 
261.031067 12678.0 
263.010162 41515.0 
264.989441 27031.0 
265.023529 9638.0 
265.085388 17691.0 
266.09433 17766.0 
273.066254 5343.0 
276.08139 7426.0 
277.025604 29194.0 
279.038269 3686.0 
283.052826 11751.0 
285.067169 3201.0 
286.038269 3874.0 
287.046661 6260.0 
289.025208 4927.0 
293.080414 5716.0 
294.087646 3979.0 
301.062531 41013.0 
303.041931 5038.0 
305.019653 12016.0 
305.059021 10123.0 
311.047058 24970.0 
319.07309 11688.0 
329.057037 135048.0 
347.067444 179744.0 
347.181061 5352.0 
END IONS

BEGIN IONS
NAME=4'-Hydroxy-3'-Methoxyflavone CollisionEnergy:102040 M+Na
PRECURSOR_MZ=291.063
INCHI="InChI=1S/C16H12O4/c1-19-16-8-10(6-7-12(16)17)15-9-13(18)11-4-2-3-5-14(11)20-15/h2-9,17H,1H3"
SMILES=COc1cc(-c2cc(=O)c3ccccc3o2)ccc1O
SPECTRUMID=CCMSLIB00010104420
50.748119 1967.0 
56.82478 2477.0 
66.744034 2145.0 
73.957031 2826.0 
92.380524 2705.0 
104.290512 2648.0 
118.902451 2155.0 
166.621674 2058.0 
176.084671 2316.0 
193.987442 2789.0 
266.936768 2493.0 
291.062561 474913.0 
291.157074 25124.0 
291.192688 15842.0 
309.07254 12248.0 
END IONS

BEGIN IONS
NAME=N-(2-chlorophenyl)-2-[2-oxo-4-(N-propylcarbamoyl)hydroquinolyl]acetamide CollisionEnergy:102040 M+H
PRECURSOR_MZ=398.127
INCHI="InChI=1S/C21H20ClN3O3/c1-2-11-23-21(28)15-12-20(27)25(18-10-6-3-7-14(15)18)13-19(26)24-17-9-5-4-8-16(17)22/h3-10,12H,2,11,13H2,1H3,(H,23,28)(H,24,26)"
SMILES=CCCN=C(O)c1cc(=O)n(CC(O)=Nc2ccccc2Cl)c2ccccc12
SPECTRUMID=CCMSLIB00010111913
70.45826 2707.0 
70.545143 3184.0 
71.042519 2597.0 
71.203484 2682.0 
74.292023 2746.0 
86.600922 2822.0 
92.38073 3078.0 
104.290573 2840.0 
107.404449 2530.0 
128.050522 5624.0 
130.065063 80900.0 
144.044098 13880.0 
146.059967 72855.0 
157.075958 6348.0 
158.059906 120390.0 
173.070831 6381.0 
186.054977 6463.0 
199.121643 3413.0 
201.065628 17077.0 
215.117096 12828.0 
231.112518 144370.0 
243.112518 645971.0 
245.898376 2996.0 
263.010742 30271.0 
271.10733 2144732.0 
284.138428 30147.0 
365.992584 42457.0 
398.019379 57525.0 
398.076538 5298.0 
398.235382 3095.0 
END IONS

BEGIN IONS
NAME="ethyl 3-oxo-3-(3,4,5-trimethoxyphenyl)propanoate CollisionEnergy:102040" M+Na
PRECURSOR_MZ=305.1
INCHI="InChI=1S/C14H18O6/c1-5-20-13(16)8-10(15)9-6-11(17-2)14(19-4)12(7-9)18-3/h6-7H,5,8H2,1-4H3"
SMILES=CCOC(=O)CC(=O)c1cc(OC)c(OC)c(OC)c1
SPECTRUMID=CCMSLIB00010107533
60.2673 2200.0 
84.959587 4755.0 
90.976883 19552.0 
100.667992 2603.0 
118.661903 2633.0 
168.776672 2142.0 
171.935043 2718.0 
234.317734 2688.0 
245.703781 2747.0 
290.076111 4264.0 
304.678772 5048.0 
305.099213 1750506.0 
323.108307 4908.0 
END IONS

BEGIN IONS
NAME="8-{[2-(3-bromophenyl)-5-methyl(1,3-oxazol-4-yl)]methylthio}-9-methylhydropurin -6-one CollisionEnergy:102040" M-H
PRECURSOR_MZ=429.998
INCHI="InChI=1S/C17H14BrN5O2S/c1-9-12(21-16(25-9)10-4-3-5-11(18)6-10)7-26-17-22-13-14(23(17)2)19-8-20-15(13)24/h3-6,8H,7H2,1-2H3,(H,19,20,24)"
SMILES=Cc1oc(-c2cccc(Br)c2)nc1CSc1nc2c(O)ncnc2n1C
SPECTRUMID=CCMSLIB00010111246
50.40554 2428.0 
55.444431 2400.0 
66.754799 2980.0 
73.961746 2496.0 
75.63549 2348.0 
92.387444 3276.0 
94.587799 2710.0 
110.292191 2516.0 
118.666656 2639.0 
147.031418 2894.0 
149.046417 24687.0 
157.98613 3500.0 
164.969269 2509.0 
179.004028 24803.0 
180.011337 883287.0 
180.741226 2594.0 
181.019104 277465.0 
186.097336 2628.0 
188.003433 2644.0 
205.944565 2395.0 
332.030762 3341.0 
429.998169 184069.0 
END IONS

BEGIN IONS
NAME="8-{[2-(4-chlorophenyl)-5-methyl(1,3-oxazol-4-yl)]methylthio}-2,9-dimethylhydro purin-6-one CollisionEnergy:205060" M+H
PRECURSOR_MZ=402.079
INCHI="InChI=1S/C18H16ClN5O2S/c1-9-13(22-17(26-9)11-4-6-12(19)7-5-11)8-27-18-23-14-15(24(18)3)20-10(2)21-16(14)25/h4-7H,8H2,1-3H3,(H,20,21,25)"
SMILES=Cc1nc(O)c2nc(SCc3nc(-c4ccc(Cl)cc4)oc3C)n(C)c2n1
SPECTRUMID=CCMSLIB00010124239
59.330181 3144.0 
69.03389 484505.0 
82.393806 3184.0 
111.000038 4122.0 
137.015274 6012.0 
138.010498 2998553.0 
138.994522 84135.0 
139.005295 5774.0 
145.052048 33976.0 
146.056244 21054.0 
154.043671 6931.0 
156.021347 48546.0 
156.579849 4066.0 
157.964783 3429.0 
164.068695 5519.0 
179.037308 42982.0 
187.418854 3139.0 
197.049088 780229.0 
198.033661 4127.0 
206.036636 3730146.0 
224.035538 4157.0 
247.062988 27468.0 
266.09552 4430.0 
326.070831 3540.0 
402.077576 438509.0 
406.902252 3283.0 
END IONS

BEGIN IONS
NAME="methyl 3,4,5-trimethoxy-2-[2-oxo-2-(2-phenylindol-3-yl)acetylamino]benzoate CollisionEnergy:205060" M+H
PRECURSOR_MZ=489.166
INCHI="InChI=1S/C27H24N2O7/c1-33-19-14-17(27(32)36-4)22(25(35-3)24(19)34-2)29-26(31)23(30)20-16-12-8-9-13-18(16)28-21(20)15-10-6-5-7-11-15/h5-14,28H,1-4H3,(H,29,31)"
SMILES=COC(=O)c1cc(OC)c(OC)c(OC)c1NC(=O)C(=O)c1c(-c2ccccc2)[nH]c2ccccc12
SPECTRUMID=CCMSLIB00010121023
53.09547 2715.0 
66.731537 3508.0 
104.266228 3867.0 
165.069717 654849.0 
191.07283 69058.0 
192.080582 135885.0 
193.064667 5245.0 
219.068832 15347.0 
219.231918 4773.0 
220.07547 4631629.0 
220.923859 4361.0 
236.056183 3781.0 
457.140533 5037.0 
489.195618 52578.0 
END IONS

BEGIN IONS
NAME=DEHP CollisionEnergy:102040 M+H
PRECURSOR_MZ=391.284
INCHI="InChI=1S/C24H38O4/c1-5-9-13-19(7-3)17-27-23(25)21-15-11-12-16-22(21)24(26)28-18-20(8-4)14-10-6-2/h11-12,15-16,19-20H,5-10,13-14,17-18H2,1-4H3"
SMILES=CCCCC(CC)COC(=O)c1ccccc1C(=O)OCC(CC)CCCC
SPECTRUMID=CCMSLIB00010109104
57.070572 6863619.0 
63.58379 127506.0 
71.086166 11092203.0 
89.409233 125311.0 
113.132668 1969515.0 
142.265625 137257.0 
149.0233 55868424.0 
167.033783 13291895.0 
221.393768 124456.0 
274.069397 141998.0 
279.15799 2061917.0 
300.753876 131301.0 
391.288635 266999.0 
END IONS

BEGIN IONS
NAME="3-(2-(2H-benzo[3,4-d]1,3-dioxolen-5-yl)-2-oxoethyl)-1-[(2-fluorophenyl)methyl] -3-hydroxyindolin-2-one CollisionEnergy:205060" M+H
PRECURSOR_MZ=420.124
INCHI="InChI=1S/C24H18FNO5/c25-18-7-3-1-5-16(18)13-26-19-8-4-2-6-17(19)24(29,23(26)28)12-20(27)15-9-10-21-22(11-15)31-14-30-21/h1-11,29H,12-14H2"
SMILES=O=C(CC1(O)C(=O)N(Cc2ccccc2F)c2ccccc21)c1ccc2c(c1)OCO2
SPECTRUMID=CCMSLIB00010120928
63.02346 2784.0 
65.038948 72479.0 
67.018349 3692.0 
68.997437 56622.0 
69.033981 4116.0 
71.013527 2864.0 
82.384323 2693.0 
83.657356 3214.0 
95.012878 49088.0 
103.542686 2606.0 
106.706398 2793.0 
109.028389 6951.0 
109.044807 43517.0 
125.023163 17115.0 
137.023239 3930.0 
139.038834 12204.0 
149.023239 3324139.0 
165.054108 6058.0 
180.396393 2943.0 
402.112579 18937.0 
END IONS

BEGIN IONS
NAME=2-{1-[(4-chlorophenyl)carbonyl]-5-methoxy-2-methylindol-3-yl}-N-(2-pyridylmeth yl)acetamide CollisionEnergy:205060 M+Na
PRECURSOR_MZ=470.124
INCHI="InChI=1S/C25H22ClN3O3/c1-16-21(14-24(30)28-15-19-5-3-4-12-27-19)22-13-20(32-2)10-11-23(22)29(16)25(31)17-6-8-18(26)9-7-17/h3-13H,14-15H2,1-2H3,(H,28,30)"
SMILES=COc1ccc2c(c1)c(CC(O)=NCc1ccccn1)c(C)n2C(=O)c1ccc(Cl)cc1
SPECTRUMID=CCMSLIB00010116410
58.671108 2688.0 
94.193077 3063.0 
104.021423 2777.0 
131.057693 18061.0 
162.759888 3130.0 
198.835922 2861.0 
211.82457 2662.0 
213.403458 2871.0 
238.429932 2856.0 
252.279938 3392.0 
362.05484 4278.0 
470.123474 4067098.0 
END IONS

BEGIN IONS
NAME=N-(2-fluorophenyl)-2-[4-(N-methylcarbamoyl)-2-oxohydroquinolyl]acetamide CollisionEnergy:205060 M+formate
PRECURSOR_MZ=398.116
INCHI="InChI=1S/C19H16FN3O3/c1-21-19(26)13-10-18(25)23(16-9-5-2-6-12(13)16)11-17(24)22-15-8-4-3-7-14(15)20/h2-10H,11H2,1H3,(H,21,26)(H,22,24)"
SMILES=CN=C(O)c1cc(=O)n(CC(O)=Nc2ccccc2F)c2ccccc12
SPECTRUMID=CCMSLIB00010122389
54.065239 2532.0 
64.484741 2731.0 
65.088242 2312.0 
73.387047 2235.0 
99.925423 2556.0 
101.980247 2274.0 
108.711021 2647.0 
110.041382 29610.0 
113.77002 2578.0 
116.050613 24534.0 
118.030228 3947.0 
120.18856 2383.0 
128.05069 81309.0 
130.066208 84066.0 
132.045959 2672.0 
142.066605 10318.0 
143.062256 4750.0 
144.045609 65757.0 
146.06218 3221.0 
156.046143 5099.0 
156.069702 19945.0 
158.04866 77004.0 
158.061783 72782.0 
160.040497 15797.0 
169.077621 15623.0 
171.093033 75998.0 
172.041321 16351.0 
173.072418 18187.0 
174.056107 5613.0 
176.071564 20200.0 
184.040558 27912.0 
185.072205 73360.0 
187.087524 10375.0 
201.067047 67296.0 
202.050919 23397.0 
205.862106 2456.0 
212.774414 2564.0 
215.084167 4555.0 
217.062515 12398.0 
239.707352 2514.0 
241.062317 20849.0 
247.087845 5599.0 
275.082672 4695.0 
295.088898 26141.0 
332.103943 13329.0 
352.110504 452339.0 
END IONS

BEGIN IONS
NAME=cholic acid CollisionEnergy:205060 M-H
PRECURSOR_MZ=407.28
INCHI="InChI=1S/C24H40O5/c1-13(4-7-21(28)29)16-5-6-17-22-18(12-20(27)24(16,17)3)23(2)9-8-15(25)10-14(23)11-19(22)26/h13-20,22,25-27H,4-12H2,1-3H3,(H,28,29)/t13-,14+,15-,16-,17+,18+,19-,20+,22+,23+,24-/m1/s1"
SMILES=CC(CCC(=O)O)C1CCC2C3C(O)CC4CC(O)CCC4(C)C3CC(O)C12C
SPECTRUMID=CCMSLIB00010120202
57.034061 215635.0 
60.872219 94052.0 
64.839394 93000.0 
66.751953 107733.0 
69.034271 2776435.0 
69.312363 100398.0 
71.050171 398257.0 
83.867508 89130.0 
95.050133 2175694.0 
97.065697 326272.0 
104.483551 77844.0 
109.065666 108554.0 
123.081734 479499.0 
193.160049 510253.0 
195.175552 823684.0 
205.159851 631240.0 
207.174576 723055.0 
215.14473 526297.0 
217.159897 481523.0 
231.175369 373419.0 
233.191193 1022801.0 
236.611526 88668.0 
245.189789 143009.0 
249.186172 541718.0 
251.201645 1665166.0 
269.191284 124852.0 
271.206177 601267.0 
272.184113 92427.0 
285.220856 102380.0 
287.201263 492319.0 
287.234528 106613.0 
289.21756 5899277.0 
297.222504 148111.0 
299.238861 167685.0 
309.222351 128636.0 
313.255554 111117.0 
315.270203 140132.0 
323.2388 582110.0 
325.215118 192598.0 
325.254242 2298032.0 
327.27005 707333.0 
341.248505 1806070.0 
343.264618 7741732.0 
345.279816 944694.0 
353.248535 1138463.0 
361.274597 377851.0 
363.29071 1961289.0 
369.244995 183192.0 
371.257996 681791.0 
387.25174 154654.0 
389.269501 858070.0 
405.265442 467959.0 
407.280792 92340440.0 
END IONS

BEGIN IONS
NAME="(2E)-3-(3,4-dimethoxyphenyl)-N-naphthylprop-2-enamide CollisionEnergy:205060" M-H
PRECURSOR_MZ=332.129
INCHI="InChI=1S/C21H19NO3/c1-24-19-12-10-15(14-20(19)25-2)11-13-21(23)22-18-9-5-7-16-6-3-4-8-17(16)18/h3-14H,1-2H3,(H,22,23)/b13-11+"
SMILES=COc1ccc(C=CC(O)=Nc2cccc3ccccc23)cc1OC
SPECTRUMID=CCMSLIB00010117530
63.03656 2652.0 
64.917473 2481.0 
83.601883 2454.0 
89.659393 2749.0 
91.053253 2692.0 
92.396873 3841.0 
93.03447 18356.0 
104.31057 3997.0 
105.034363 36331.0 
119.050056 43898.0 
121.029243 193851.0 
121.056923 2868.0 
121.78331 2799.0 
123.045387 4682.0 
130.992798 3503.0 
131.037125 4780.0 
132.021896 13623.0 
133.029205 76756.0 
142.065842 162823.0 
145.029388 15577.0 
146.025192 3335.0 
147.044495 30298.0 
159.032379 14253.0 
160.016739 5419.0 
168.045944 4759.0 
181.052734 45255.0 
182.061768 3266.0 
185.097061 21068.0 
186.092041 73721.0 
194.060913 16810.0 
201.092056 3707.0 
212.210739 3802.0 
213.091782 158443.0 
215.086853 10523.0 
218.060547 5685.0 
229.088455 3144.0 
230.073944 6624.0 
230.096649 3786.0 
231.081467 34847.0 
239.899323 2780.0 
243.080856 4578.0 
244.076691 3542.0 
246.091949 43187.0 
256.076294 3731.0 
258.067749 16080.0 
258.093536 39749.0 
259.076813 45056.0 
261.082275 3350.0 
270.092224 3021.0 
272.071381 21906.0 
272.968262 2979.0 
273.078796 58519.0 
274.087677 76661.0 
275.079803 135953.0 
284.07309 15748.0 
285.079041 3820.0 
286.088135 43692.0 
288.103027 22343.0 
298.087189 5895.0 
300.06723 14290.0 
301.074219 793374.0 
302.082214 162847.0 
303.07431 76092.0 
304.08371 11199.0 
314.082428 33817.0 
316.097626 287040.0 
317.10614 32920.0 
317.144104 3407.0 
332.129303 1433801.0 
END IONS

BEGIN IONS
NAME="(2E)-3-(2-chlorophenyl)-1-(2,4,6-trimethoxyphenyl)prop-2-en-1-one CollisionEnergy:102040" M+Na
PRECURSOR_MZ=355.071
INCHI="InChI=1S/C18H17ClO4/c1-21-13-10-16(22-2)18(17(11-13)23-3)15(20)9-8-12-6-4-5-7-14(12)19/h4-11H,1-3H3/b9-8+"
SMILES=COc1cc(OC)c(C(=O)C=Cc2ccccc2Cl)c(OC)c1
SPECTRUMID=CCMSLIB00010108756
53.99778 8676.0 
118.638641 12356.0 
127.055321 9995.0 
175.102448 9444.0 
185.369675 12387.0 
193.452255 10461.0 
208.279099 30830.0 
297.111389 67381.0 
303.178589 10325.0 
340.046753 21028.0 
355.070312 24353176.0 
373.081665 151416.0 
END IONS

BEGIN IONS
NAME="N-[2-(2,5-dimethylindol-3-yl)ethyl](3-nitrophenyl)carboxamide CollisionEnergy:205060" M+H
PRECURSOR_MZ=338.15
INCHI="InChI=1S/C19H19N3O3/c1-12-6-7-18-17(10-12)16(13(2)21-18)8-9-20-19(23)14-4-3-5-15(11-14)22(24)25/h3-7,10-11,21H,8-9H2,1-2H3,(H,20,23)"
SMILES=Cc1ccc2[nH]c(C)c(CCN=C(O)c3cccc([N+](=O)[O-])c3)c2c1
SPECTRUMID=CCMSLIB00010119395
68.399483 3503.0 
80.049713 7899.0 
91.054314 40382.0 
104.318466 5791.0 
105.069717 19765.0 
115.054123 7646.0 
116.062019 7954.0 
128.062149 6452.0 
129.069183 28414.0 
130.064819 51102.0 
130.075943 9997.0 
131.072906 80953.0 
131.085358 176230.0 
136.01503 35701.0 
143.08548 13371.0 
144.080414 77078.0 
145.088028 20560.0 
145.100922 78041.0 
146.096252 34315.0 
150.018555 162791.0 
153.070816 6049.0 
154.063553 5063.0 
155.085434 83388.0 
156.080505 198614.0 
157.08847 3658353.0 
158.096359 52813.0 
159.099457 51202.0 
160.110794 6030.0 
170.09584 23258.0 
171.103958 86848.0 
171.522415 5319.0 
172.111847 11842809.0 
172.703735 5626.0 
179.057526 100887.0 
193.06044 172094.0 
289.110352 5558.0 
303.115631 4364.0 
309.123169 5454.0 
321.122681 45593.0 
338.149109 1083299.0 
END IONS

BEGIN IONS
NAME="3,7-Dihydroxy-3',4'-dimethoxyflavone CollisionEnergy:205060" M+H
PRECURSOR_MZ=315.086
INCHI="InChI=1S/C17H14O6/c1-21-12-6-3-9(7-14(12)22-2)17-16(20)15(19)11-5-4-10(18)8-13(11)23-17/h3-8,18,20H,1-2H3"
SMILES=COc1ccc(-c2oc3cc(O)ccc3c(=O)c2O)cc1OC
SPECTRUMID=CCMSLIB00010116538
55.01849 6029.0 
65.039001 17765.0 
66.046959 9311.0 
66.736504 6023.0 
67.054802 6638.0 
68.997467 11190.0 
73.948067 4974.0 
75.044449 7162.0 
76.725647 6306.0 
78.046806 5115.0 
79.021606 8307.0 
79.054443 40630.0 
81.033577 36239.0 
81.070412 6211.0 
89.038292 5835.0 
90.046333 4692.0 
91.054314 17399.0 
92.026169 32057.0 
92.369797 6597.0 
93.03392 19735.0 
94.041313 9942.0 
95.012772 4750.0 
95.049217 53528.0 
105.033501 54397.0 
106.041107 9982.0 
107.049217 62680.0 
108.020912 5752.0 
108.056801 7610.0 
109.02845 9891.0 
109.065079 8275.0 
110.036171 32946.0 
111.044167 6038.0 
118.041428 23087.0 
118.642212 4565.0 
121.028381 506842.0 
121.064369 9141.0 
122.036232 45539.0 
123.043968 669754.0 
123.079849 7102.0 
124.052383 7027.0 
133.028275 40692.0 
134.036255 53876.0 
135.044067 92243.0 
136.015503 7764.0 
136.052017 27772.0 
136.199921 5544.0 
137.023285 1339059.0 
137.05957 171175.0 
138.067719 59797.0 
141.069733 7406.0 
146.036041 171386.0 
147.044327 17749.0 
147.080643 5973.0 
149.023285 362183.0 
149.059891 23714.0 
150.030914 48544.0 
151.038925 8149.0 
151.075043 65890.0 
152.062225 6777.0 
153.070862 5868.0 
154.026093 19166.0 
157.064774 6865.0 
160.015228 60541.0 
161.023056 18806.0 
162.031052 79526.0 
163.038696 196388.0 
164.046402 20283.0 
165.018799 47783.0 
165.054428 244246.0 
166.02623 6271.0 
167.033752 62433.0 
168.057449 5530.0 
169.065125 34289.0 
170.072571 5634.0 
171.079575 9455.0 
172.052689 5858.0 
173.023621 6312.0 
173.059235 23559.0 
177.055008 10531.0 
178.02594 491712.0 
179.018402 5470.0 
179.033905 51817.0 
181.06488 60988.0 
184.051819 24389.0 
185.059586 42708.0 
186.06813 10833.0 
186.934753 4932.0 
187.042297 5088.0 
187.07518 19917.0 
191.033203 23042.0 
191.070175 9142.0 
192.042007 10302.0 
193.013138 94741.0 
197.059479 267695.0 
198.067749 27394.0 
199.075027 26688.0 
201.055069 42328.0 
203.034164 10731.0 
203.071747 5806.0 
209.059311 17165.0 
210.065948 7704.0 
212.0466 75541.0 
212.200272 27789.0 
213.054382 170738.0 
214.062393 165910.0 
215.069656 112693.0 
224.047684 10478.0 
225.054138 249779.0 
226.037125 9840.0 
226.06218 237491.0 
227.032684 6890.0 
227.069702 143348.0 
227.093384 6721.0 
229.049118 102888.0 
237.054565 29526.0 
239.03299 9717.0 
240.042023 55823.0 
241.049286 116035.0 
241.078568 8479.0 
241.084564 7315.0 
242.056885 248718.0 
243.064499 181582.0 
244.073105 8668.0 
252.041061 7460.0 
253.049072 915139.0 
254.056763 321571.0 
254.087738 7935.0 
255.064728 395014.0 
256.072815 88614.0 
257.043793 240053.0 
259.097229 46571.0 
265.048523 64826.0 
266.056519 10149.0 
268.03595 34270.0 
269.043793 244760.0 
270.049316 47101.0 
271.059631 3377643.0 
272.067078 54440.0 
273.924377 5558.0 
281.006592 7213.0 
281.043915 821103.0 
282.051788 615833.0 
283.059601 1278483.0 
284.067139 204276.0 
285.038727 650070.0 
286.046844 646365.0 
286.078827 28648.0 
297.039001 71273.0 
299.054474 9971483.0 
300.061981 474732.0 
315.085632 14487278.0 
END IONS

BEGIN IONS
NAME="(3,4-dimethoxyphenyl)-N-[2-(2,7-dimethylindol-3-yl)ethyl]carboxamide CollisionEnergy:205060" M+formate
PRECURSOR_MZ=397.177
INCHI="InChI=1S/C21H24N2O3/c1-13-6-5-7-17-16(14(2)23-20(13)17)10-11-22-21(24)15-8-9-18(25-3)19(12-15)26-4/h5-9,12,23H,10-11H2,1-4H3,(H,22,24)"
SMILES=COc1ccc(C(O)=NCCc2c(C)[nH]c3c(C)cccc23)cc1OC
SPECTRUMID=CCMSLIB00010121516
68.995354 4577.0 
73.949768 2438.0 
75.466957 2802.0 
75.647118 2173.0 
78.69648 2981.0 
82.395393 3513.0 
90.933456 10289.0 
92.375267 2399.0 
96.182671 2039.0 
129.292648 2307.0 
142.187729 2638.0 
147.552078 2284.0 
180.066559 26260.0 
192.929016 3137.0 
208.26149 8025.0 
208.280807 3284.0 
351.171783 139370.0 
388.659882 3062.0 
396.982117 3105.0 
END IONS

BEGIN IONS
NAME=2-(9-ethyl-6-oxohydropurin-8-ylthio)-N-[2-(trifluoromethyl)phenyl]acetamide CollisionEnergy:102040 M+Na
PRECURSOR_MZ=420.071
INCHI="InChI=1S/C16H14F3N5O2S/c1-2-24-13-12(14(26)21-8-20-13)23-15(24)27-7-11(25)22-10-6-4-3-5-9(10)16(17,18)19/h3-6,8H,2,7H2,1H3,(H,22,25)(H,20,21,26)"
SMILES=CCn1c(SCC(O)=Nc2ccccc2C(F)(F)F)nc2c(O)ncnc21
SPECTRUMID=CCMSLIB00010108624
96.487961 3397.0 
115.995422 3292.0 
162.571854 3153.0 
187.059326 6350.0 
211.748764 3760.0 
217.013962 24033.0 
218.023102 164151.0 
256.001709 3649.0 
257.036102 3142.0 
259.024841 4062.0 
310.0383 19943.0 
332.019836 63534.0 
338.071228 53259.0 
360.051971 428700.0 
380.058289 473016.0 
400.063385 23633.0 
420.070679 5642415.0 
END IONS

BEGIN IONS
NAME="2-(4-hydroxy-6-propylpyrimidin-2-ylthio)-N-(2-phenyl(4-hydroimidazo[1,2-a]pyri din-3-yl))acetamide CollisionEnergy:205060" M+2H]
PRECURSOR_MZ=210.578
INCHI="InChI=1S/C22H21N5O2S/c1-2-8-16-13-18(28)26-22(23-16)30-14-19(29)25-21-20(15-9-4-3-5-10-15)24-17-11-6-7-12-27(17)21/h3-7,9-13H,2,8,14H2,1H3,(H,25,29)(H,23,26,28)"
SMILES=CCCc1cc(O)nc(SCC(O)=Nc2c(-c3ccccc3)nc3ccccn23)n1
SPECTRUMID=CCMSLIB00010117827
53.002689 4243.0 
53.78421 3644.0 
54.034389 17494.0 
55.018379 17859.0 
55.04211 13754.0 
56.049961 30110.0 
59.990719 8812.0 
62.254761 3444.0 
65.038986 148252.0 
65.042778 6149.0 
67.018089 34977.0 
67.041962 16766.0 
67.054581 532546.0 
68.013443 35489.0 
68.025993 26661.0 
68.049789 29699.0 
68.057907 9437.0 
69.008667 86543.0 
69.045036 26718.0 
69.070198 35877.0 
70.029037 30471.0 
70.06546 257544.0 
70.995407 3990.0 
71.049362 5549.0 
74.006058 7488.0 
77.610909 3474.0 
78.034592 19954.0 
79.041801 44696.0 
80.049721 15784.0 
81.044983 21803.0 
82.028931 729252.0 
82.065292 62629.0 
83.03196 13389.0 
83.036812 41261.0 
84.04467 17519.0 
84.080833 8146.0 
86.006126 3915.0 
87.013992 4302.0 
89.017311 4984.0 
92.049454 66799.0 
94.028893 8913.0 
94.052673 32364.0 
94.064987 37563.0 
95.036636 399646.0 
95.049011 178994.0 
95.059921 71113.0 
96.044571 184274.0 
96.050911 4181.0 
96.06321 4418.0 
101.016769 146195.0 
104.049973 13755.0 
104.277153 5223.0 
104.546837 26844.0 
105.044571 53223.0 
106.052757 4250.0 
106.065117 71378.0 
109.039879 4076.0 
109.076157 29269.0 
109.083069 3664.0 
110.005783 4507.0 
110.047272 12799.0 
110.060204 54999.0 
111.031342 27536.0 
111.554626 27656.0 
112.075577 460793.0 
113.016502 51873.0 
113.078644 16214.0 
114.024551 196283.0 
115.03215 8043.0 
116.049362 96022.0 
117.011681 53265.0 
118.053108 4437.0 
118.06498 26099.0 
119.060333 5699.0 
120.044373 39835.0 
121.038773 4719.0 
123.055252 40148.0 
123.091133 5541.0 
124.075577 1030414.0 
124.992783 104125.0 
125.078957 34673.0 
125.552078 23546.0 
126.00074 6925.0 
127.032219 26045.0 
128.040131 26239.0 
128.07016 6834.0 
129.011673 16466.0 
131.060272 243091.0 
132.064285 4933.0 
137.070847 201243.0 
138.000885 41018.0 
138.055099 4908.0 
139.086441 173280.0 
140.039856 4469.0 
141.010574 15568.0 
141.048004 6847.0 
142.01944 2133694.0 
143.022964 56101.0 
145.075272 4020.0 
151.086197 8058.0 
152.094193 39563.0 
154.031769 76844.0 
155.027084 412887.0 
155.065872 10993.0 
155.081451 38670.0 
156.034988 365801.0 
157.038101 7450.0 
166.551346 5753.0 
169.042953 129949.0 
170.050598 345580.0 
171.058411 124932.0 
179.081146 82930.0 
181.075668 109635.0 
182.083069 43108.0 
183.05896 658932.0 
183.091309 1093130.0 
184.065659 77449.0 
184.094254 78075.0 
185.073746 111354.0 
193.075592 16842.0 
194.08345 61157.0 
195.091187 49808.0 
196.058136 15330.0 
196.57988 5476.0 
201.573166 15979.0 
205.074997 5893.0 
207.091599 437547.0 
208.101349 546785.0 
209.094406 2433517.0 
210.102112 2448258.0 
210.577774 5297255.0 
211.053116 376101.0 
211.078964 812160.0 
211.104568 193831.0 
212.055878 20798.0 
220.086334 33283.0 
222.102188 365787.0 
223.084427 4815.0 
223.10733 32381.0 
231.090927 5805.0 
232.085785 7039.0 
233.09462 15799.0 
234.101318 8629.0 
235.097519 20369.0 
236.081329 607243.0 
237.085068 50856.0 
240.058777 16496.0 
250.097031 470937.0 
251.100937 64008.0 
252.056259 5229.0 
254.074234 24720.0 
264.059113 4553.0 
282.068512 88620.0 
283.07196 9136.0 
284.084534 495823.0 
285.086884 41518.0 
309.079346 272535.0 
310.082336 27337.0 
END IONS

BEGIN IONS
NAME="ethyl 1-[2-(2,3-dichlorophenoxy)ethyl]-5-hydroxy-2-methylindole-3-carboxylate CollisionEnergy:102040" M+H
PRECURSOR_MZ=408.076
INCHI="InChI=1S/C20H19Cl2NO4/c1-3-26-20(25)18-12(2)23(16-8-7-13(24)11-14(16)18)9-10-27-17-6-4-5-15(21)19(17)22/h4-8,11,24H,3,9-10H2,1-2H3"
SMILES=CCOC(=O)c1c(C)n(CCOc2cccc(Cl)c2Cl)c2ccc(O)cc12
SPECTRUMID=CCMSLIB00010112544
63.59164 3061.0 
65.641159 3350.0 
66.754417 3737.0 
73.964783 3962.0 
84.387543 3571.0 
104.303398 3350.0 
125.014977 4941.0 
129.069672 5802.0 
131.072861 36667.0 
132.080963 4647.0 
133.052139 39742.0 
135.453781 4316.0 
145.052139 6275.0 
145.08902 3516.0 
146.059753 21146.0 
146.083618 7532.0 
146.096375 156724.0 
147.067795 117519.0 
147.080093 5638.0 
148.075592 28655.0 
154.018188 19525.0 
156.080139 13349.0 
158.978012 4625.0 
159.067398 31908.0 
159.103546 4185.0 
160.075638 667629.0 
172.075394 28221.0 
173.04715 280419.0 
173.083374 272408.0 
174.056274 28728.0 
174.091263 650160.0 
174.127533 18642.0 
175.09906 252797.0 
176.070389 16024.0 
176.106812 15258.0 
186.054276 32988.0 
186.970856 13768.0 
187.099335 23893.0 
188.106873 66064.0 
188.986588 52117.0 
200.070572 134056.0 
201.078323 346163.0 
202.122696 121146.0 
203.130478 38821.0 
204.065369 39881.0 
208.052277 7047.0 
218.080627 73661.0 
230.168762 4167.0 
232.097076 4000.0 
245.031189 3565.0 
246.112244 41548.0 
248.10614 3950.0 
259.070831 3816.0 
283.07608 13824.0 
301.085236 5851.0 
306.432037 3580.0 
318.044983 5559.0 
329.116394 7056.0 
334.0401 5263.0 
335.04715 212557.0 
336.054779 475192.0 
362.034027 2735508.0 
364.085815 241299.0 
379.038055 15685.0 
380.044495 220780.0 
390.067108 4584.0 
408.075836 4934043.0 
410.220062 5656.0 
END IONS

BEGIN IONS
NAME=kinetin CollisionEnergy:205060 M+Na
PRECURSOR_MZ=238.07
INCHI="InChI=1S/C10H9N5O/c1-2-7(16-3-1)4-11-9-8-10(13-5-12-8)15-6-14-9/h1-3,5-6H,4H2,(H2,11,12,13,14,15)"
SMILES=c1coc(CNc2nc[nH]c3ncnc2-3)c1
SPECTRUMID=CCMSLIB00010116423
55.934582 3776.0 
61.011059 5252.0 
62.018688 3180.0 
66.633453 2054.0 
72.285858 2036.0 
82.390244 2227.0 
84.960258 2853.0 
102.948059 2531.0 
104.275848 3262.0 
118.647774 2377.0 
142.26123 2522.0 
153.16983 2882.0 
170.044205 5322.0 
174.985306 3945.0 
192.962219 9930.0 
196.956406 2595.0 
214.924835 7612.0 
238.069565 886310.0 
END IONS

BEGIN IONS
NAME=alpha-GalNAc CollisionEnergy:102040 M-H
PRECURSOR_MZ=220.083
INCHI="InChI=1S/C8H15NO6/c1-3(11)9-5-7(13)6(12)4(2-10)15-8(5)14/h4-8,10,12-14H,2H2,1H3,(H,9,11)/t4-,5-,6+,7-,8+/m1/s1"
SMILES=CC(O)=N[C@H]1[C@@H](O)O[C@H](CO)[C@H](O)[C@@H]1O
SPECTRUMID=CCMSLIB00010102642
58.005699 3907.800049 
59.013401 23728.900391 
71.013496 4923.140137 
82.435699 2024.060059 
89.024399 15642.5 
92.4179 2787.110107 
100.040001 31609.099609 
101.024002 14748.200195 
116.928001 2159.860107 
119.035004 2597.429932 
136.326996 2022.359985 
170.218994 1996.560059 
220.145996 15280.200195 
END IONS

BEGIN IONS
NAME=naringin CollisionEnergy:205060 M+Na
PRECURSOR_MZ=603.168
INCHI="InChI=1S/C27H32O14/c1-10-20(32)22(34)24(36)26(37-10)41-25-23(35)21(33)18(9-28)40-27(25)38-13-6-14(30)19-15(31)8-16(39-17(19)7-13)11-2-4-12(29)5-3-11/h2-7,10,16,18,20-30,32-36H,8-9H2,1H3/t10-,16-,18+,20-,21+,22+,23-,24+,25+,26-,27+/m0/s1"
SMILES=CC1OC(OC2C(Oc3cc(O)c4c(c3)OC(c3ccc(O)cc3)CC4=O)OC(CO)C(O)C2O)C(O)C(O)C1O
SPECTRUMID=CCMSLIB00010123042
51.023071 2780.0 
51.026649 2799.0 
55.130249 2675.0 
55.187809 2777.0 
68.591743 2937.0 
71.049477 12331.0 
73.971672 3121.0 
85.028473 5894.0 
101.387589 3591.0 
104.314537 4723.0 
116.526619 3388.0 
136.251907 2918.0 
169.046524 4108.0 
185.042252 7612.0 
185.44342 3883.0 
295.057159 28640.0 
331.099335 255856.0 
337.054535 7263.0 
439.097931 4135.0 
457.109589 85451.0 
483.115021 6031.0 
603.167725 2812928.0 
END IONS

BEGIN IONS
NAME=scopoletin CollisionEnergy:102040 M+Na
PRECURSOR_MZ=215.031
INCHI="InChI=1S/C10H8O4/c1-13-9-4-6-2-3-10(12)14-8(6)5-7(9)11/h2-5,11H,1H3"
SMILES=COc1cc2ccc(=O)oc2cc1O
SPECTRUMID=CCMSLIB00010108241
50.65947 1998.0 
51.567451 1854.0 
53.82045 2328.0 
54.914989 2359.0 
56.96516 17246.0 
58.804749 2242.0 
69.020203 2496.0 
70.781273 2250.0 
73.945473 3097.0 
74.096657 9553.0 
79.016563 2888.0 
79.021431 66589.0 
82.393433 2418.0 
84.959877 13286.0 
96.532753 2885.0 
98.974922 2424.0 
104.280647 2666.0 
106.999817 12025.0 
108.493134 10102.0 
111.055153 2113.0 
116.004929 42875.0 
118.645523 2668.0 
119.918251 3211.0 
130.117645 2191.0 
131.352448 2220.0 
134.012833 4223.0 
136.767517 2271.0 
136.974045 9992.0 
143.017517 10672.0 
152.022034 16704.0 
154.984879 21636.0 
155.00798 31845.0 
155.510391 4260.0 
156.502121 4753.0 
158.927948 4616.0 
163.997971 4661.0 
164.013794 145076.0 
164.515564 33305.0 
165.012344 3447.0 
165.507462 83216.0 
166.008728 14097.0 
173.019287 904212.0 
173.520935 192815.0 
173.538635 4003.0 
174.018478 47365.0 
174.512665 54461.0 
174.985687 4249.0 
175.014313 11378.0 
175.242828 2441.0 
175.521194 12355.0 
176.024368 2864.0 
177.015381 3529.0 
182.024429 233426.0 
182.526062 49314.0 
183.024216 9951.0 
184.527344 63695.0 
185.029755 19233.0 
192.041534 32431.0 
193.04483 4526.0 
193.533096 5650.0 
194.01564 74568.0 
194.516586 21267.0 
195.015518 5840.0 
195.510162 10349.0 
203.02092 146651.0 
203.522095 48800.0 
204.020172 16811.0 
204.932785 4550.0 
214.529175 12916.0 
215.031693 68326.0 
215.088806 3546.0 
215.125153 35041.0 
232.927902 3727.0 
250.938187 2807.0 
251.99379 16130.0 
270.005005 2820.0 
293.988831 3135.0 
305.345978 2365.0 
307.235413 2481.0 
311.997284 13858.0 
313.006287 2587.0 
333.660492 2448.0 
365.285278 2644.0 
439.311523 2584.0 
440.325287 2791.0 
END IONS

BEGIN IONS
NAME=Peracetate Quercetin CollisionEnergy:205060 M+Na
PRECURSOR_MZ=535.085
INCHI="InChI=1S/C25H20O12/c1-11(26)32-17-9-20(35-14(4)29)22-21(10-17)37-24(25(23(22)31)36-15(5)30)16-6-7-18(33-12(2)27)19(8-16)34-13(3)28/h6-10H,1-5H3"
SMILES=CC(=O)Oc1cc(OC(C)=O)c2c(=O)c(OC(C)=O)c(-c3ccc(OC(C)=O)c(OC(C)=O)c3)oc2c1
SPECTRUMID=CCMSLIB00010121007
50.46159 2871.0 
51.13052 2701.0 
74.484169 2822.0 
78.548714 2713.0 
94.20507 3445.0 
118.640648 3360.0 
129.970764 3651.0 
140.070694 2828.0 
183.71843 3395.0 
203.181442 3126.0 
277.782013 3404.0 
327.048615 12328.0 
367.041656 16725.0 
409.052002 5615.0 
451.062866 113884.0 
492.067322 13094.0 
493.073425 1100107.0 
494.072754 14653.0 
534.099121 19224.0 
535.084229 2613033.0 
END IONS

BEGIN IONS
NAME=ethyl 4-oxo-2-phenylhydroquinoline-6-carboxylate CollisionEnergy:102040 M-H
PRECURSOR_MZ=292.098
INCHI="InChI=1S/C18H15NO3/c1-2-22-18(21)13-8-9-15-14(10-13)17(20)11-16(19-15)12-6-4-3-5-7-12/h3-11H,2H2,1H3,(H,19,20)"
SMILES=CCOC(=O)c1ccc2[nH]c(-c3ccccc3)cc(=O)c2c1
SPECTRUMID=CCMSLIB00010103482
65.347839 3432.0 
75.935059 3016.0 
82.41111 4232.0 
82.572578 2530.0 
87.92527 3394.0 
89.660141 2727.0 
103.920189 4719.0 
145.066116 23980.0 
188.070267 3495.0 
193.734283 2851.0 
213.138947 4276.0 
219.070221 14388.0 
220.076767 767596.0 
221.539581 2888.0 
222.056183 63209.0 
223.064102 4588.0 
227.059479 6837.0 
264.066589 607902.0 
291.740967 5023.0 
292.098175 5086373.0 
END IONS

BEGIN IONS
NAME=2-{1-[(4-chlorophenyl)carbonyl]-5-methoxy-2-methylindol-3-yl}-N-(2-pyridylmeth yl)acetamide CollisionEnergy:102040 M+formate
PRECURSOR_MZ=492.133
INCHI="InChI=1S/C25H22ClN3O3/c1-16-21(14-24(30)28-15-19-5-3-4-12-27-19)22-13-20(32-2)10-11-23(22)29(16)25(31)17-6-8-18(26)9-7-17/h3-13H,14-15H2,1-2H3,(H,28,30)"
SMILES=COc1ccc2c(c1)c(CC(O)=NCc1ccccn1)c(C)n2C(=O)c1ccc(Cl)cc1
SPECTRUMID=CCMSLIB00010105076
52.170479 2718.0 
81.961014 2416.0 
118.68399 2983.0 
134.534668 2644.0 
154.99054 51130.0 
208.491379 9973.0 
208.512085 3067.0 
293.116028 10767.0 
297.054199 3208.0 
308.104004 2866.0 
308.140839 62898.0 
446.128601 25962.0 
492.134033 11527.0 
END IONS

BEGIN IONS
NAME="N-{2-[(6,7-dimethoxyisoquinolyl)methyl]-4,5-dimethoxyphenyl}-2-(1,1-dioxothiol an-3-ylthio)acetamide CollisionEnergy:205060" M+formate
PRECURSOR_MZ=591.148
INCHI="InChI=1S/C26H30N2O7S2/c1-32-22-10-16-5-7-27-21(19(16)12-24(22)34-3)9-17-11-23(33-2)25(35-4)13-20(17)28-26(29)14-36-18-6-8-37(30,31)15-18/h5,7,10-13,18H,6,8-9,14-15H2,1-4H3,(H,28,29)"
SMILES=COc1cc(Cc2nccc3cc(OC)c(OC)cc23)c(N=C(O)CSC2CCS(=O)(=O)C2)cc1OC
SPECTRUMID=CCMSLIB00010120450
60.081009 2993.0 
73.973602 3879.0 
92.403267 3392.0 
92.425392 2464.0 
99.44722 2945.0 
104.311096 3344.0 
203.170273 2606.0 
211.294785 3183.0 
281.093567 3836.0 
293.068115 3339.0 
309.088531 16832.0 
324.111145 5944.0 
339.135895 4807.0 
427.133118 38397.0 
501.37973 2840.0 
END IONS

BEGIN IONS
NAME=Caffeicacid CollisionEnergy:205060 2M-H
PRECURSOR_MZ=359.077
INCHI="InChI=1S/C9H8O4/c10-7-3-1-6(5-8(7)11)2-4-9(12)13/h1-5,10-11H,(H,12,13)/b4-2-"
SMILES=O=C(O)C=Cc1ccc(O)c(O)c1
SPECTRUMID=CCMSLIB00010121711
63.144329 2386.0 
68.434792 2432.0 
72.14077 2120.0 
78.219009 2563.0 
80.084511 1981.0 
92.387779 2764.0 
104.299622 2374.0 
108.64991 2225.0 
135.04512 42343.0 
179.034775 28058.0 
226.276703 2696.0 
328.713837 2376.0 
349.232361 2605.0 
END IONS

BEGIN IONS
NAME=cytosine CollisionEnergy:102040 M+H
PRECURSOR_MZ=112.051
INCHI="InChI=1S/C4H5N3O/c5-3-1-2-6-4(8)7-3/h1-2H,(H3,5,6,7,8)"
SMILES=N=c1ccnc(O)[nH]1
SPECTRUMID=CCMSLIB00010103130
52.018902 2307580.0 
66.752502 1211480.0 
67.0299 4822260.0 
68.013702 5264920.0 
68.370499 1251120.0 
69.045303 83355696.0 
71.024399 2165890.0 
82.411301 1343450.0 
84.802803 1174190.0 
86.392197 1194590.0 
94.040398 28607600.0 
95.024399 219368000.0 
111.742996 1518370.0 
112.051003 1429229952.0 
112.360001 1635510.0 
END IONS

BEGIN IONS
NAME="2-methoxy-5-(piperidylthioxomethyl)phenyl 3,4,5-trimethoxybenzoate CollisionEnergy:205060" M+Na
PRECURSOR_MZ=468.145
INCHI="InChI=1S/C23H27NO6S/c1-26-17-9-8-15(22(31)24-10-6-5-7-11-24)12-18(17)30-23(25)16-13-19(27-2)21(29-4)20(14-16)28-3/h8-9,12-14H,5-7,10-11H2,1-4H3"
SMILES=COc1ccc(C(=S)N2CCCCC2)cc1OC(=O)c1cc(OC)c(OC)c(OC)c1
SPECTRUMID=CCMSLIB00010123560
67.652634 3033.0 
78.560303 3418.0 
92.358994 3948.0 
118.637978 2970.0 
120.467216 3000.0 
132.610687 3106.0 
137.293243 2858.0 
185.3694 2753.0 
189.670822 2836.0 
195.065384 13446.0 
203.031326 21011.0 
453.121979 6989.0 
468.144745 4073553.0 
END IONS

BEGIN IONS
NAME=4'-Methoxy-8-methylflavone CollisionEnergy:205060 M+Na
PRECURSOR_MZ=289.083
INCHI="InChI=1S/C17H14O3/c1-11-4-3-5-14-15(18)10-16(20-17(11)14)12-6-8-13(19-2)9-7-12/h3-10H,1-2H3"
SMILES=COc1ccc(-c2cc(=O)c3cccc(C)c3o2)cc1
SPECTRUMID=CCMSLIB00010115324
61.86132 2430.0 
72.084488 2554.0 
73.950867 2194.0 
84.960182 9321.0 
86.609306 2360.0 
90.976913 40985.0 
101.947807 2593.0 
107.669159 2389.0 
168.932922 2992.0 
207.610413 4084.0 
207.633209 5953.0 
220.934433 21649.0 
289.083374 834888.0 
307.094025 37791.0 
END IONS

BEGIN IONS
NAME="1-[(7-methyl-3-oxo-2H,4H-benzo[3,4-e]1,4-oxazaperhydroin-6-yl)sulfonyl]pyrroli dine-2-carboxylic acid CollisionEnergy:102040" M+Na
PRECURSOR_MZ=363.062
INCHI="InChI=1S/C14H16N2O6S/c1-8-5-11-9(15-13(17)7-22-11)6-12(8)23(20,21)16-4-2-3-10(16)14(18)19/h5-6,10H,2-4,7H2,1H3,(H,15,17)(H,18,19)"
SMILES=Cc1cc2c(cc1S(=O)(=O)N1CCCC1C(=O)O)N=C(O)CO2
SPECTRUMID=CCMSLIB00010109427
104.272469 3399.0 
124.690819 3098.0 
136.197937 2901.0 
210.927414 5025.0 
251.700806 2870.0 
271.828369 3008.0 
342.620667 3005.0 
363.06131 5230153.0 
381.073547 11071.0 
END IONS

BEGIN IONS
NAME=D-Mannose CollisionEnergy:102040 M-H
PRECURSOR_MZ=179.056
INCHI="InChI=1S/C6H12O6/c7-1-2-3(8)4(9)5(10)6(11)12-2/h2-11H,1H2/t2-,3-,4+,5+,6?/m1/s1"
SMILES=OC[C@H]1OC(O)[C@@H](O)[C@@H](O)[C@@H]1O
SPECTRUMID=CCMSLIB00010126148
58.005699 2535.389893 
59.013401 33267.0 
66.770401 2231.439941 
70.075203 1932.689941 
71.013702 17167.5 
71.145401 2309.969971 
72.992897 3501.090088 
78.959099 2681.379883 
85.744499 2476.389893 
89.0243 26245.5 
92.412201 2520.669922 
96.969498 11256.200195 
101.024002 14142.700195 
104.327003 2310.790039 
113.025002 3021.649902 
118.702003 2461.320068 
118.981003 3073.689941 
119.035004 11999.900391 
122.893997 2628.199951 
135.082993 2913.22998 
136.266006 2293.459961 
158.938995 7708.569824 
165.417999 2006.209961 
178.815002 55090.199219 
178.843994 8170.399902 
178.901993 28984.0 
179.056 3200.97998 
179.072006 24496.699219 
END IONS

BEGIN IONS
NAME=Lagochiline CollisionEnergy:102040 M+formate
PRECURSOR_MZ=401.254
INCHI="InChI=1S/C20H36O5/c1-14-4-5-15-17(2,12-22)16(24)6-7-18(15,3)20(14)9-8-19(13-23,25-20)10-11-21/h14-16,21-24H,4-13H2,1-3H3/t14?,15?,16?,17-,18-,19?,20?/m0/s1"
SMILES=CC1CCC2C(C)(CO)C(O)CCC2(C)C12CCC(CO)(CCO)O2
SPECTRUMID=CCMSLIB00010107874
57.156219 2213.0 
57.664028 2374.0 
66.745293 2664.0 
81.04232 2498.0 
82.401367 3030.0 
130.006058 2540.0 
364.848816 2918.0 
400.831421 5287.0 
401.2547 453851.0 
END IONS

BEGIN IONS
NAME=thymine CollisionEnergy:102040 M+H
PRECURSOR_MZ=127.05
INCHI="InChI=1S/C5H6N2O2/c1-3-2-6-5(9)7-4(3)8/h2H,1H3,(H2,6,7,8,9)"
SMILES=Cc1cnc(O)nc1O
SPECTRUMID=CCMSLIB00010110849
50.993919 80343.0 
53.908249 81301.0 
54.034649 404094.0 
55.796169 85854.0 
56.05024 492611.0 
60.89613 70998.0 
62.881031 70605.0 
71.354279 64699.0 
72.112099 68478.0 
73.95195 79712.0 
74.506523 63964.0 
77.581497 68373.0 
78.704559 69752.0 
81.045403 115489.0 
82.02935 917032.0 
84.045013 4031267.0 
95.018883 75440.0 
100.034843 68722.0 
104.282562 81588.0 
109.039993 3573088.0 
110.02404 13430415.0 
127.050407 44090460.0 
END IONS

BEGIN IONS
NAME=3-indol-3-yl-2-[(2-methyl-5-phenyl(3-furyl))carbonylamino]propanoic acid CollisionEnergy:102040 2M-H
PRECURSOR_MZ=775.277
INCHI="InChI=1S/C23H20N2O4/c1-14-18(12-21(29-14)15-7-3-2-4-8-15)22(26)25-20(23(27)28)11-16-13-24-19-10-6-5-9-17(16)19/h2-10,12-13,20,24H,11H2,1H3,(H,25,26)(H,27,28)"
SMILES=Cc1oc(-c2ccccc2)cc1C(O)=NC(Cc1c[nH]c2ccccc12)C(=O)O
SPECTRUMID=CCMSLIB00010111541
67.197723 3258.0 
86.847893 3386.0 
100.003883 15218.0 
104.307899 4149.0 
116.050163 42581.0 
119.049927 22143.0 
142.066147 5111.0 
157.065445 192946.0 
200.071289 84073.0 
214.087097 135550.0 
226.088837 4837.0 
230.327744 4515.0 
240.066467 62872.0 
258.076874 285512.0 
309.367462 3454.0 
343.145142 46471.0 
387.13501 2303460.0 
427.677948 4073.0 
466.866364 3967.0 
775.277039 13415.0 
END IONS

BEGIN IONS
NAME="N-(2-{1-[(3,4,5-trimethoxyphenyl)carbonyl]-8-1,2,3,4-tetrahydroquinolyloxy}eth yl)acetamide CollisionEnergy:205060" M+formate
PRECURSOR_MZ=473.193
INCHI="InChI=1S/C23H28N2O6/c1-15(26)24-10-12-31-18-9-5-7-16-8-6-11-25(21(16)18)23(27)17-13-19(28-2)22(30-4)20(14-17)29-3/h5,7,9,13-14H,6,8,10-12H2,1-4H3,(H,24,26)"
SMILES=COc1cc(C(=O)N2CCCc3cccc(OCCN=C(C)O)c32)cc(OC)c1OC
SPECTRUMID=CCMSLIB00010116547
60.55088 2355.0 
104.307808 3178.0 
143.188019 2366.0 
200.880783 5722.0 
210.122589 2305.0 
297.628754 2555.0 
END IONS

BEGIN IONS
NAME="N-(4-(2H,3H-benzo[e]1,4-dioxin-6-yl)(1,3-thiazol-2-yl))(3,4,5-trimethoxyphenyl )carboxamide CollisionEnergy:205060" M+Na
PRECURSOR_MZ=451.093
INCHI="InChI=1S/C21H20N2O6S/c1-25-17-9-13(10-18(26-2)19(17)27-3)20(24)23-21-22-14(11-30-21)12-4-5-15-16(8-12)29-7-6-28-15/h4-5,8-11H,6-7H2,1-3H3,(H,22,23,24)"
SMILES=COc1cc(C(O)=Nc2nc(-c3ccc4c(c3)OCCO4)cs2)cc(OC)c1OC
SPECTRUMID=CCMSLIB00010118751
77.834251 2633.0 
78.114273 2733.0 
100.049568 2857.0 
104.28582 3505.0 
136.213791 3126.0 
140.631653 2290.0 
140.645523 2309.0 
219.370789 2931.0 
451.09259 998453.0 
806.849731 3121.0 
853.576721 3202.0 
END IONS

BEGIN IONS
NAME="4-oxo-1,2,3-trihydrocyclopenta[1,2-c]chromen-7-yl benzoate CollisionEnergy:102040" M+H
PRECURSOR_MZ=307.096
INCHI="InChI=1S/C19H14O4/c20-18(12-5-2-1-3-6-12)22-13-9-10-15-14-7-4-8-16(14)19(21)23-17(15)11-13/h1-3,5-6,9-11H,4,7-8H2"
SMILES=O=C(Oc1ccc2c3c(c(=O)oc2c1)CCC3)c1ccccc1
SPECTRUMID=CCMSLIB00010106435
50.105869 2416.0 
51.02359 3573.0 
53.038979 37549.0 
57.06538 2350.0 
61.913891 2395.0 
65.788193 2537.0 
77.038834 4590.0 
87.093918 3560.0 
87.280449 3036.0 
92.392357 3090.0 
95.048973 15360.0 
97.860588 2829.0 
105.033363 2020772.0 
125.456009 2631.0 
166.930557 2999.0 
201.054596 3013.0 
215.385727 2720.0 
229.048798 6055.0 
305.707123 3632.0 
307.095551 4003184.0 
320.041718 3301.0 
END IONS

BEGIN IONS
NAME=6-bromo-3-{1-[(4-methylphenyl)carbonyl]-5-phenyl(2-pyrazolin-3-yl)}-4-phenylhy droquinolin-2-one CollisionEnergy:102040 M+Na
PRECURSOR_MZ=584.094
INCHI="InChI=1S/C32H24BrN3O2/c1-20-12-14-23(15-13-20)32(38)36-28(21-8-4-2-5-9-21)19-27(35-36)30-29(22-10-6-3-7-11-22)25-18-24(33)16-17-26(25)34-31(30)37/h2-18,28H,19H2,1H3,(H,34,37)"
SMILES=Cc1ccc(C(=O)N2N=C(c3c(O)nc4ccc(Br)cc4c3-c3ccccc3)CC2c2ccccc2)cc1
SPECTRUMID=CCMSLIB00010112879
92.410118 4330.0 
104.323463 4647.0 
119.04921 17544.0 
158.947556 5536.0 
189.239761 4092.0 
229.341965 4406.0 
319.544739 4790.0 
320.04361 17412.0 
346.978607 18639.0 
449.024353 6383.0 
451.037201 6884.0 
480.03006 63954.0 
505.176392 8429.0 
566.083862 20768.0 
569.069519 8107.0 
580.460388 22364.0 
583.087402 18137.0 
583.587585 306866.0 
584.094055 18293004.0 
587.762329 28674.0 
END IONS

BEGIN IONS
NAME=7-Benzyloxytryptamine CollisionEnergy:102040 2M+H
PRECURSOR_MZ=533.291
INCHI="InChI=1S/C17H18N2O/c18-10-9-14-11-19-17-15(14)7-4-8-16(17)20-12-13-5-2-1-3-6-13/h1-8,11,19H,9-10,12,18H2"
SMILES=NCCc1c[nH]c2c(OCc3ccccc3)cccc12
SPECTRUMID=CCMSLIB00010106430
57.725578 2981.0 
91.054337 385752.0 
92.378304 3542.0 
113.643013 3125.0 
125.443573 3125.0 
125.833847 3126.0 
157.968964 2896.0 
220.641159 2838.0 
250.12236 892291.0 
267.148834 633722.0 
462.460693 3108.0 
533.286072 2938.0 
533.452454 11694.0 
END IONS

BEGIN IONS
NAME="(3,5-dimethoxyphenyl)-N-(1-methylbenzimidazol-6-yl)carboxamide CollisionEnergy:205060" M+H
PRECURSOR_MZ=312.134
INCHI="InChI=1S/C17H17N3O3/c1-20-10-18-15-5-4-12(8-16(15)20)19-17(21)11-6-13(22-2)9-14(7-11)23-3/h4-10H,1-3H3,(H,19,21)"
SMILES=COc1cc(OC)cc(C(O)=Nc2ccc3ncn(C)c3c2)c1
SPECTRUMID=CCMSLIB00010115037
52.531219 7568.0 
53.038879 5962.0 
55.018391 7326.0 
65.038918 32751.0 
66.046494 7177.0 
67.054428 12137.0 
68.025627 18028.0 
68.997513 25570.0 
69.033852 5968.0 
77.038872 7328.0 
79.017868 21816.0 
79.054352 73899.0 
80.049667 94278.0 
81.033539 50507.0 
81.069923 19806.0 
83.048958 7282.0 
83.910378 6087.0 
92.025513 33149.0 
93.033241 5868.0 
94.041069 39336.0 
94.064911 9964.0 
95.049019 87652.0 
105.033623 7829.0 
105.04406 7863.0 
107.012703 12681.0 
107.048447 10757.0 
108.020172 78677.0 
108.044083 339937.0 
109.064552 99283.0 
111.043549 21184.0 
120.068359 8372.0 
121.028297 82483.0 
121.075752 126300.0 
122.03595 574734.0 
123.043747 45282.0 
124.051483 108878.0 
125.059471 144048.0 
131.059692 51467.0 
132.055527 12140.0 
133.039429 45397.0 
134.047134 20464.0 
135.054489 37035.0 
137.059326 66495.0 
139.075012 100494.0 
141.054321 1039025.0 
146.071045 504677.0 
147.078842 1325396.0 
148.049179 8604.0 
148.062851 356468.0 
148.085724 110721.0 
149.070694 2277525.0 
150.030243 8495.0 
150.053421 5511.0 
150.557953 5592.0 
151.038635 13505402.0 
155.069855 1867170.0 
159.065674 8949.0 
164.070328 18745.0 
165.05426 2845702.0 
173.057526 6036.0 
174.065781 1274090.0 
178.085449 21891.0 
183.090057 10326.0 
196.099533 8359.0 
197.106537 25367.0 
200.079239 9623.0 
202.82753 5973.0 
208.086639 21808.0 
211.088547 15213.0 
212.080185 21070.0 
225.102356 35343.0 
226.096725 141328.0 
236.08136 19976.0 
237.087891 11870.0 
238.096619 116657.0 
239.078873 24315.0 
239.105728 17236.0 
240.112259 37299.0 
250.099075 7303.0 
252.112579 11483.0 
253.100052 43555.0 
254.091522 9011671.0 
265.083771 6859.0 
266.088684 7428.0 
267.098633 11624.0 
268.077484 6465.0 
268.107025 225203.0 
269.114929 400656.0 
280.106659 50528.0 
281.077332 45063.0 
282.086975 35568.0 
282.121582 5905.0 
294.121826 69342.0 
296.062195 7710.0 
296.101868 590583.0 
297.109802 1979892.0 
310.11673 22570.0 
310.710144 6544.0 
312.133179 20157306.0 
END IONS

BEGIN IONS
NAME="(2E)-1-(2H,3H-benzo[e]1,4-dioxin-6-yl)-3-(2,3,4-trimethoxyphenyl)prop-2-en-1-o ne CollisionEnergy:102040" M+H
PRECURSOR_MZ=357.133
INCHI="InChI=1S/C20H20O6/c1-22-17-9-5-13(19(23-2)20(17)24-3)4-7-15(21)14-6-8-16-18(12-14)26-11-10-25-16/h4-9,12H,10-11H2,1-3H3/b7-4+"
SMILES=COc1ccc(C=CC(=O)c2ccc3c(c2)OCCO3)c(OC)c1OC
SPECTRUMID=CCMSLIB00010114331
50.054211 2564.0 
51.226528 2475.0 
51.88213 2874.0 
53.397141 2323.0 
54.843189 2588.0 
73.871483 2889.0 
90.97731 3601.0 
122.665993 2842.0 
129.949524 3252.0 
149.05986 763539.0 
149.229858 2658.0 
153.055267 3038.0 
161.059647 27466.0 
163.039017 1036625.0 
163.946091 2944.0 
169.085403 6717.0 
177.054703 3520.0 
178.063034 6585.0 
185.372223 2834.0 
189.054672 631635.0 
190.062164 13927.0 
191.033859 73629.0 
193.086243 13842.0 
195.065216 165644.0 
206.057205 71512.0 
220.933685 5457.0 
221.080872 253422.0 
272.820831 3060.0 
277.865234 3603.0 
283.096466 3302.0 
315.122375 1304316.0 
342.107239 4754.0 
357.132935 1307683.0 
END IONS

BEGIN IONS
NAME="7-amino-2,4-dioxo-5-phenyl-1,3-dihydro-5H-pyrano[2,3-d]pyrimidine-6-carbonitri le CollisionEnergy:205060" M-H
PRECURSOR_MZ=281.068
INCHI="InChI=1S/C14H10N4O3/c15-6-8-9(7-4-2-1-3-5-7)10-12(19)17-14(20)18-13(10)21-11(8)16/h1-5,9H,16H2,(H2,17,18,19,20)"
SMILES=N#CC1=C(N)Oc2nc(O)nc(O)c2C1c1ccccc1
SPECTRUMID=CCMSLIB00010126008
54.449589 2063.0 
58.836391 2236.0 
65.014153 344223.0 
76.276947 1941.0 
86.601372 2176.0 
115.920853 11541.0 
135.106964 2232.0 
136.221146 2021.0 
144.923813 2357.0 
146.345123 3083.0 
172.041336 14376.0 
215.046494 138101.0 
END IONS

BEGIN IONS
NAME=8-Methylflavone CollisionEnergy:102040 M+Na
PRECURSOR_MZ=259.073
INCHI="InChI=1S/C16H12O2/c1-11-6-5-9-13-14(17)10-15(18-16(11)13)12-7-3-2-4-8-12/h2-10H,1H3"
SMILES=Cc1cccc2c(=O)cc(-c3ccccc3)oc12
SPECTRUMID=CCMSLIB00010103656
70.205559 1980.0 
79.021431 3126.0 
102.499229 2189.0 
118.628433 3160.0 
120.724663 2472.0 
136.825043 2081.0 
155.974121 3059.0 
186.618164 2788.0 
188.845322 2346.0 
224.450119 2479.0 
227.112305 4408.0 
235.958542 3126.0 
259.072815 377616.0 
259.283844 15728.0 
259.312256 2208.0 
277.083374 11453.0 
END IONS

BEGIN IONS
NAME="2-(2,4-difluorophenoxy)-N-[2-(7-ethyl-2-methylindol-3-yl)ethyl]acetamide CollisionEnergy:205060" M+Na
PRECURSOR_MZ=395.154
INCHI="InChI=1S/C21H22F2N2O2/c1-3-14-5-4-6-17-16(13(2)25-21(14)17)9-10-24-20(26)12-27-19-8-7-15(22)11-18(19)23/h4-8,11,25H,3,9-10,12H2,1-2H3,(H,24,26)"
SMILES=CCc1cccc2c(CCN=C(O)COc3ccc(F)cc3F)c(C)[nH]c12
SPECTRUMID=CCMSLIB00010119335
59.70792 2872.0 
82.388908 4098.0 
91.292374 2554.0 
95.034264 3082.0 
127.024353 3804.0 
157.953232 2655.0 
159.233521 2882.0 
170.58905 3001.0 
185.12001 14081.0 
209.067337 4351.0 
209.088699 5749.0 
225.13559 5568.0 
266.138733 16739.0 
395.153809 3549286.0 
END IONS

BEGIN IONS
NAME="2-{1-[(4-chlorophenyl)carbonyl]-5-methoxy-2-methylindol-3-yl}-N-[(3,4,5-trimet hoxyphenyl)methyl]acetamide CollisionEnergy:102040" M+H
PRECURSOR_MZ=537.179
INCHI="InChI=1S/C29H29ClN2O6/c1-17-22(15-27(33)31-16-18-12-25(36-3)28(38-5)26(13-18)37-4)23-14-21(35-2)10-11-24(23)32(17)29(34)19-6-8-20(30)9-7-19/h6-14H,15-16H2,1-5H3,(H,31,33)"
SMILES=COc1ccc2c(c1)c(CC(O)=NCc1cc(OC)c(OC)c(OC)c1)c(C)n2C(=O)c1ccc(Cl)cc1
SPECTRUMID=CCMSLIB00010110413
66.755753 3693.0 
68.833809 2592.0 
74.873253 2941.0 
76.704071 3493.0 
83.489059 2842.0 
84.548981 2999.0 
92.394897 3692.0 
137.059509 7424.0 
138.029388 3757.0 
138.067703 6289.0 
138.994446 248259.0 
148.051712 57142.0 
166.062378 18236.0 
166.086502 4818.0 
174.091537 21283.0 
181.08577 3541986.0 
289.026581 3742.0 
312.077393 39573.0 
318.088013 22326.0 
319.07312 43800.0 
340.073151 5755.0 
369.09848 58747.0 
395.295288 3048.0 
492.154297 13336.0 
505.156219 3920.0 
519.164307 14339.0 
537.177612 383493.0 
END IONS

BEGIN IONS
NAME=N-(2-oxohydropyrimidin-4-yl)benzamide CollisionEnergy:205060 M-H
PRECURSOR_MZ=214.062
INCHI="InChI=1S/C11H9N3O2/c15-10(8-4-2-1-3-5-8)13-9-6-7-12-11(16)14-9/h1-7H,(H2,12,13,14,15,16)"
SMILES=O=C(N=c1ccnc(O)[nH]1)c1ccccc1
SPECTRUMID=CCMSLIB00010117558
51.41592 2335.0 
55.625351 2483.0 
55.710621 2506.0 
60.824051 1980.0 
65.014191 8854.0 
67.029694 44380.0 
82.411217 2811.0 
94.037498 2886.0 
98.368156 2233.0 
120.04541 110419.0 
136.232162 2988.0 
144.045593 12417.0 
145.04071 152547.0 
150.809982 2799.0 
155.86795 3372.0 
169.913956 2355.0 
171.056458 498097.0 
186.038696 8720.0 
214.06218 1042678.0 
295.862488 2377.0 
408.636597 2265.0 
432.332001 2332.0 
END IONS

BEGIN IONS
NAME="2-(5-methyl-1,3-dioxobenzo[c]azolin-2-yl)acetic acid CollisionEnergy:205060" M+H
PRECURSOR_MZ=220.06
INCHI="InChI=1S/C11H9NO4/c1-6-2-3-7-8(4-6)11(16)12(10(7)15)5-9(13)14/h2-4H,5H2,1H3,(H,13,14)"
SMILES=Cc1ccc2c(c1)C(=O)N(CC(=O)O)C2=O
SPECTRUMID=CCMSLIB00010123007
51.041969 2195.0 
54.809608 1973.0 
54.892448 1876.0 
84.726807 2169.0 
91.054321 11572.0 
110.924843 2508.0 
118.065063 3561.0 
119.048714 11215.0 
144.043915 4002.0 
146.06015 8844.0 
147.043854 56095.0 
174.054794 734468.0 
177.291656 2303.0 
END IONS

BEGIN IONS
NAME="methyl 5-(2H-benzo[3,4-d]1,3-dioxolan-5-ylcarbonylamino)-4-cyano-3-methylthiop hene-2-carboxylate CollisionEnergy:102040" M-H
PRECURSOR_MZ=343.039
INCHI="InChI=1S/C16H12N2O5S/c1-8-10(6-17)15(24-13(8)16(20)21-2)18-14(19)9-3-4-11-12(5-9)23-7-22-11/h3-5H,7H2,1-2H3,(H,18,19)"
SMILES=COC(=O)c1sc(N=C(O)c2ccc3c(c2)OCO3)c(C#N)c1C
SPECTRUMID=CCMSLIB00010108210
57.975128 5586.0 
63.272141 2763.0 
68.995613 5356.0 
72.155533 2772.0 
80.316383 2644.0 
93.034492 106356.0 
97.410294 2640.0 
117.948624 3134.0 
118.992752 13630.0 
121.029427 50520.0 
123.00222 22891.0 
135.002258 43828.0 
141.456558 2810.0 
142.992401 22533.0 
162.996826 26445.0 
174.019089 3734.0 
180.989548 4948.0 
185.399918 3602.0 
192.989639 30044.0 
194.015045 44067.0 
195.023178 26201.0 
206.898178 6712.0 
213.030579 2961.0 
216.986786 3072.0 
223.052353 5995.0 
228.036392 17262.0 
251.044449 3119.0 
254.015121 6119.0 
255.023163 85034.0 
256.03125 48256.0 
274.885742 13236.0 
282.981262 13748.0 
283.017639 105417.0 
284.026062 30944.0 
292.98291 6852.0 
302.983185 10147.0 
307.108917 5714.0 
313.029663 11511.0 
315.044586 313796.0 
322.990479 5691.0 
341.024078 13320.0 
342.981079 664545.0 
343.03894 4041675.0 
488.008759 3215.0 
491.019043 2956.0 
END IONS

BEGIN IONS
NAME="8-[(4-chlorophenyl)methylthio]-3-methyl-7-[(3-methylphenyl)methyl]-1,3,7-trihy dropurine-2,6-dione CollisionEnergy:102040" M+H
PRECURSOR_MZ=427.099
INCHI="InChI=1S/C21H19ClN4O2S/c1-13-4-3-5-15(10-13)11-26-17-18(25(2)20(28)24-19(17)27)23-21(26)29-12-14-6-8-16(22)9-7-14/h3-10H,11-12H2,1-2H3,(H,24,27,28)"
SMILES=Cc1cccc(Cn2c(SCc3ccc(Cl)cc3)nc3c2c(O)nc(=O)n3C)c1
SPECTRUMID=CCMSLIB00010112162
50.556351 2840.0 
51.023602 3512.0 
53.03896 3834.0 
56.849361 3530.0 
79.054443 45504.0 
89.038513 7618.0 
95.049156 4269.0 
103.054062 31802.0 
104.287247 3876.0 
105.069817 2467453.0 
125.015137 2532468.0 
133.974716 4523.0 
168.987579 5273.0 
193.101135 44530.0 
194.109222 6408.0 
195.851395 3214.0 
199.028458 104938.0 
205.05246 5548.0 
211.028732 21661.0 
211.202835 3709.0 
229.077454 118091.0 
233.04718 4714.0 
264.034973 6527.0 
269.103058 20868.0 
301.074982 6210.0 
302.081665 5605.0 
315.091064 4891.0 
335.036224 101794.0 
391.125336 3726.0 
408.221191 3272.0 
427.098145 4020671.0 
END IONS

BEGIN IONS
NAME="8-{[2-(2,3-dimethoxyphenyl)-5-methyl(1,3-oxazol-4-yl)]methylthio}-2,9-dimethyl hydropurin-6-one CollisionEnergy:102040" M+Na
PRECURSOR_MZ=450.121
INCHI="InChI=1S/C20H21N5O4S/c1-10-13(23-19(29-10)12-7-6-8-14(27-4)16(12)28-5)9-30-20-24-15-17(25(20)3)21-11(2)22-18(15)26/h6-8H,9H2,1-5H3,(H,21,22,26)"
SMILES=COc1cccc(-c2nc(CSc3nc4c(O)nc(C)nc4n3C)c(C)o2)c1OC
SPECTRUMID=CCMSLIB00010106820
61.862801 4023.0 
74.479553 4167.0 
83.461456 3387.0 
103.054337 4009.0 
104.266708 4060.0 
105.06955 6800.0 
125.463898 3960.0 
130.064728 4432.0 
131.049301 3779.0 
135.080505 24562.0 
136.189392 3799.0 
137.059692 40787.0 
145.065018 4972.0 
149.048416 4188.0 
157.051666 6025.0 
158.059998 56031.0 
159.066849 4646.0 
160.050339 3902.0 
161.059677 8315.0 
162.067551 70172.0 
163.075363 5857.0 
164.070175 122240.0 
172.076004 7570.0 
186.053024 16513.0 
188.069901 9273.0 
189.078583 5367.0 
190.08609 104493.0 
200.069733 7450.0 
204.066788 5142.0 
217.014999 9645.0 
217.073349 116679.0 
218.023041 354091.0 
219.030945 1238452.0 
232.096634 2389059.0 
238.046432 36082.0 
239.054382 58609.0 
240.062439 171822.0 
255.089981 4740.0 
271.045166 21668.0 
287.076691 16295.0 
346.765137 4141.0 
392.0784 113545.0 
406.092712 41130.0 
420.073212 213406.0 
434.088959 77399.0 
435.096344 338011.0 
449.11319 4597.0 
450.120117 12934260.0 
END IONS

BEGIN IONS
NAME=RETRORSINE CollisionEnergy:102040 M+Na
PRECURSOR_MZ=374.157
INCHI="InChI=1S/C18H25NO6/c1-3-12-8-11(2)18(23,10-20)17(22)24-9-13-4-6-19-7-5-14(15(13)19)25-16(12)21/h3-4,11,14-15,20,23H,5-10H2,1-2H3/b12-3-/t11-,14-,15-,18-/m1/s1"
SMILES=CC=C1CC(C)C(O)(CO)C(=O)OCC2=CCN3CCC(OC1=O)C23
SPECTRUMID=CCMSLIB00010104457
59.415531 3089.0 
64.973427 2661.0 
65.379227 2496.0 
90.962143 2764.0 
91.573441 2535.0 
94.064888 2550.0 
120.08065 466137.0 
131.625687 2534.0 
138.09111 5413.0 
158.860474 2409.0 
167.054047 3132.0 
167.184357 2707.0 
177.778793 2621.0 
198.550156 2716.0 
202.690567 2588.0 
209.077789 4701.0 
215.379745 3332.0 
218.983734 3066.0 
237.072937 43915.0 
255.083221 75187.0 
330.166321 4568.0 
374.156555 3216626.0 
END IONS

BEGIN IONS
NAME="2-{[(2,5-dichlorophenyl)sulfonyl]methylamino}-1-(2-1,2,3,4-tetrahydroisoquinol yl)ethan-1-one CollisionEnergy:205060" M+Na
PRECURSOR_MZ=435.031
INCHI="InChI=1S/C18H18Cl2N2O3S/c1-21(26(24,25)17-10-15(19)6-7-16(17)20)12-18(23)22-9-8-13-4-2-3-5-14(13)11-22/h2-7,10H,8-9,11-12H2,1H3"
SMILES=CN(CC(=O)N1CCc2ccccc2C1)S(=O)(=O)c1cc(Cl)ccc1Cl
SPECTRUMID=CCMSLIB00010120212
60.03627 2857.0 
62.039028 2423.0 
69.451103 3085.0 
85.62886 2585.0 
90.548431 3370.0 
104.28437 3118.0 
105.069847 3969.0 
193.224976 3475.0 
211.084351 7623.0 
216.213089 3091.0 
220.459137 3122.0 
330.093811 29492.0 
435.02951 6386285.0 
453.039062 7251.0 
END IONS

BEGIN IONS
NAME="2-[(4-methylthiophenyl)sulfonyl]-1,2,3,4-tetrahydroisoquinoline CollisionEnergy:205060" M+Na
PRECURSOR_MZ=342.059
INCHI="InChI=1S/C16H17NO2S2/c1-20-15-6-8-16(9-7-15)21(18,19)17-11-10-13-4-2-3-5-14(13)12-17/h2-9H,10-12H2,1H3"
SMILES=CSc1ccc(S(=O)(=O)N2CCc3ccccc3C2)cc1
SPECTRUMID=CCMSLIB00010117720
65.343643 1842.0 
68.204514 1991.0 
73.133591 2183.0 
84.959709 3168.0 
105.993843 2292.0 
120.567413 2328.0 
244.653824 2486.0 
342.059113 235284.0 
END IONS

BEGIN IONS
NAME="2-[(1Z)-2-(2H-benzo[3,4-d]1,3-dioxolan-5-ylcarbonylamino)-2-azavinyl]-4,6-dibr omophenyl 3-fluorobenzoate CollisionEnergy:102040" M+H
PRECURSOR_MZ=562.925
INCHI="InChI=1S/C22H13Br2FN2O5/c23-15-6-14(10-26-27-21(28)12-4-5-18-19(8-12)31-11-30-18)20(17(24)9-15)32-22(29)13-2-1-3-16(25)7-13/h1-10H,11H2,(H,27,28)/b26-10-"
SMILES=O=C(Oc1c(Br)cc(Br)cc1C=NN=C(O)c1ccc2c(c1)OCO2)c1cccc(F)c1
SPECTRUMID=CCMSLIB00010113804
79.017967 26601.0 
84.143608 3286.0 
95.012619 5798.0 
95.0289 27313.0 
99.024139 14653.0 
113.039513 54494.0 
114.32074 3519.0 
123.023987 5531806.0 
123.380478 4514.0 
136.195786 4058.0 
141.034454 60219.0 
148.039154 118999.0 
149.023254 2114352.0 
168.821136 3738.0 
196.945877 5862.0 
240.017548 19997.0 
258.029663 4799.0 
275.865143 72161.0 
285.067322 23268.0 
333.101624 4018.0 
422.896606 65543.0 
480.85791 16187.0 
498.863708 109257.0 
516.873901 126395.0 
521.881165 37332.0 
539.891357 36878.0 
562.924072 2723771.0 
671.889099 4019.0 
874.099548 4462.0 
END IONS

BEGIN IONS
NAME=methyl 2-(3-oxo-2-pentylcyclopentyl)acetate CollisionEnergy:102040 M+Na
PRECURSOR_MZ=249.146
INCHI="InChI=1S/C13H22O3/c1-3-4-5-6-11-10(7-8-12(11)14)9-13(15)16-2/h10-11H,3-9H2,1-2H3"
SMILES=CCCCCC1C(CCC1=O)CC(=O)OC
SPECTRUMID=CCMSLIB00010102395
70.193962 8314.044922 
82.434227 9314.019531 
85.795982 8415.857422 
92.227142 8116.439453 
110.179138 9018.152344 
116.445946 8867.995117 
139.909714 8297.676758 
157.868469 9970.09375 
202.586746 9875.973633 
249.14534 2879829.75 
256.527191 10291.915039 
260.215698 9676.735352 
END IONS

BEGIN IONS
NAME="(2,4-dichlorophenyl)-N-[2-(2-methylindol-3-yl)ethyl]carboxamide CollisionEnergy:102040" M+Na
PRECURSOR_MZ=369.053
INCHI="InChI=1S/C18H16Cl2N2O/c1-11-13(14-4-2-3-5-17(14)22-11)8-9-21-18(23)15-7-6-12(19)10-16(15)20/h2-7,10,22H,8-9H2,1H3,(H,21,23)"
SMILES=Cc1[nH]c2ccccc2c1CCN=C(O)c1ccc(Cl)cc1Cl
SPECTRUMID=CCMSLIB00010108575
50.373779 2757.0 
50.776371 2534.0 
53.234169 2716.0 
54.276661 2509.0 
104.288673 3008.0 
115.256683 2502.0 
118.036324 2810.0 
136.206467 3475.0 
140.693588 3300.0 
152.948517 2997.0 
158.09639 24317.0 
159.099533 2980.0 
176.582123 3371.0 
211.522949 3962.0 
277.022217 3823.0 
368.543457 17321.0 
369.052887 5838160.0 
END IONS

BEGIN IONS
NAME=2-(2-aminopropanoylamino)pentanoic acid CollisionEnergy:205060 2M-H
PRECURSOR_MZ=375.225
INCHI="InChI=1S/C8H16N2O3/c1-3-4-6(8(12)13)10-7(11)5(2)9/h5-6H,3-4,9H2,1-2H3,(H,10,11)(H,12,13)"
SMILES=CCCC(N=C(O)C(C)N)C(=O)O
SPECTRUMID=CCMSLIB00010117197
82.420952 2568.0 
116.07148 3989.0 
116.360001 2605.0 
118.855553 2517.0 
124.740334 2272.0 
143.118896 12715.0 
151.379196 2121.0 
153.719635 2420.0 
184.52626 2542.0 
187.108932 49773.0 
210.715912 3695.0 
248.518219 2386.0 
249.22403 2704.0 
END IONS

BEGIN IONS
NAME="(3,4-dimethoxyphenyl)-N-(2-phenyl(2-hydrobenzotriazol-5-yl))carboxamide CollisionEnergy:102040" M+Na
PRECURSOR_MZ=397.127
INCHI="InChI=1S/C21H18N4O3/c1-27-19-11-8-14(12-20(19)28-2)21(26)22-15-9-10-17-18(13-15)24-25(23-17)16-6-4-3-5-7-16/h3-13H,1-2H3,(H,22,26)"
SMILES=COc1ccc(C(O)=Nc2ccc3nn(-c4ccccc4)nc3c2)cc1OC
SPECTRUMID=CCMSLIB00010109152
51.747051 2251.0 
52.641201 2964.0 
63.174252 2316.0 
64.900223 2346.0 
73.258507 2646.0 
111.02549 2497.0 
118.649292 3298.0 
119.085533 4247.0 
153.386871 2445.0 
212.731659 2490.0 
397.126617 1256135.0 
415.137726 55180.0 
END IONS

BEGIN IONS
NAME=Octinoxate CollisionEnergy:102040 M+H
PRECURSOR_MZ=291.195
INCHI="InChI=1S/C18H26O3/c1-4-6-7-15(5-2)14-21-18(19)13-10-16-8-11-17(20-3)12-9-16/h8-13,15H,4-7,14H2,1-3H3/b13-10+"
SMILES=CCCCC(CC)COC(=O)C=Cc1ccc(OC)cc1
SPECTRUMID=CCMSLIB00010113123
53.016411 2305.0 
57.070351 142914.0 
71.085899 191120.0 
75.994904 2435.0 
76.62957 3036.0 
82.398956 3136.0 
90.975937 2779.0 
103.05423 3036.0 
115.946831 2719.0 
118.255661 2687.0 
118.656937 3061.0 
121.065132 2915.0 
125.042557 2635.0 
133.064713 148120.0 
137.059784 3196.0 
161.059647 2785942.0 
178.06218 6000.0 
179.07016 1807369.0 
291.158356 4620.0 
291.193268 6575.0 
END IONS

BEGIN IONS
NAME=Baccatin III CollisionEnergy:205060 M+Cl
PRECURSOR_MZ=621.211
INCHI="InChI=1S/C31H38O11/c1-15-19(34)13-31(38)26(41-27(37)18-10-8-7-9-11-18)24-29(6,20(35)12-21-30(24,14-39-21)42-17(3)33)25(36)23(40-16(2)32)22(15)28(31,4)5/h7-11,19-21,23-24,26,34-35,38H,12-14H2,1-6H3/t19-,20-,21+,23+,24-,26-,29+,30-,31+/m0/s1"
SMILES=CC(=O)OC1C(=O)C2(C)C(O)CC3OCC3(OC(C)=O)C2C(OC(=O)c2ccccc2)C2(O)CC(O)C(C)=C1C2(C)C
SPECTRUMID=CCMSLIB00010124035
60.548038 3123.0 
66.753304 3380.0 
74.685013 2678.0 
116.574913 2921.0 
184.214066 2519.0 
267.011108 3331.0 
319.694061 2826.0 
END IONS

BEGIN IONS
NAME="(2,6-dichlorophenyl)-N-[2-(2-methylindol-3-yl)ethyl]carboxamide CollisionEnergy:102040" M+formate
PRECURSOR_MZ=391.062
INCHI="InChI=1S/C18H16Cl2N2O/c1-11-12(13-5-2-3-8-16(13)22-11)9-10-21-18(23)17-14(19)6-4-7-15(17)20/h2-8,22H,9-10H2,1H3,(H,21,23)"
SMILES=Cc1[nH]c2ccccc2c1CCN=C(O)c1c(Cl)cccc1Cl
SPECTRUMID=CCMSLIB00010107345
51.736591 2210.0 
61.98793 3537.0 
66.744949 2517.0 
71.802338 2318.0 
77.651413 2048.0 
136.216492 2528.0 
174.95639 5325.0 
230.984863 3021.0 
241.389481 2572.0 
254.984879 2905.0 
266.985931 26229.0 
280.982758 17849.0 
286.992249 18011.0 
295.438721 2458.0 
304.983643 19306.0 
306.996887 11652.0 
330.980682 8361.0 
344.980164 16777.0 
345.056213 25404.0 
346.878815 2413.0 
370.973785 16939.0 
379.125397 2560.0 
390.97821 41940.0 
END IONS

BEGIN IONS
NAME=methyl 2-(2-oxo-4-propylchromen-7-yloxy)-2-phenylacetate CollisionEnergy:205060 M+H
PRECURSOR_MZ=353.138
INCHI="InChI=1S/C21H20O5/c1-3-7-15-12-19(22)26-18-13-16(10-11-17(15)18)25-20(21(23)24-2)14-8-5-4-6-9-14/h4-6,8-13,20H,3,7H2,1-2H3"
SMILES=CCCc1cc(=O)oc2cc(OC(C(=O)OC)c3ccccc3)ccc12
SPECTRUMID=CCMSLIB00010116126
53.039131 37194.0 
58.27943 3007.0 
58.516319 2676.0 
65.039093 2682.0 
66.046822 2799.0 
67.054482 4199.0 
72.139809 2560.0 
79.05439 3385.0 
84.96019 4081.0 
90.528084 2642.0 
91.054398 210945.0 
91.671806 2776.0 
93.070122 50598.0 
95.049156 13714.0 
103.054047 3059.0 
105.033638 27929.0 
107.049629 3447.0 
118.041153 33349.0 
118.66655 3571.0 
121.064812 1519514.0 
123.930054 2535.0 
125.667877 2660.0 
131.049347 11630.0 
133.064926 3470.0 
135.043625 3125.0 
148.051971 86192.0 
149.059647 179824.0 
149.073181 5775.0 
150.067154 4193.0 
159.081039 2934.0 
161.059616 25685.0 
165.070435 4146.0 
167.086151 5340.0 
176.08255 4782.0 
187.074966 11527.0 
195.080795 5863.0 
204.077682 47291.0 
204.095673 5068.0 
205.08493 4803.0 
219.117645 3947.0 
222.103714 5851.0 
222.803864 3215.0 
247.110397 4786.0 
250.097946 6675.0 
263.071106 9579.0 
265.121643 25516.0 
292.108704 15504.0 
293.116852 257151.0 
294.127075 2875.0 
313.202332 2715.0 
321.111481 25272.0 
353.138 803154.0 
END IONS

BEGIN IONS
NAME=2-Amino-3-hydroxybenzoic acid CollisionEnergy:102040 M+H-H2O
PRECURSOR_MZ=136.039
INCHI="InChI=1S/C7H7NO3/c8-6-4(7(10)11)2-1-3-5(6)9/h1-3,9H,8H2,(H,10,11)"
SMILES=Nc1c(O)cccc1C(=O)O
SPECTRUMID=CCMSLIB00010102989
53.039501 1460490.0 
54.034599 1523640.0 
80.050102 58140000.0 
93.202202 317011.0 
94.330498 293608.0 
95.037003 3636890.0 
108.044998 71418896.0 
123.031998 7809490.0 
126.055 1987620.0 
136.039001 111065000.0 
END IONS

BEGIN IONS
NAME="(3,4-dimethoxyphenyl)-N-(2-phenylpropyl)carboxamide CollisionEnergy:102040" M+H
PRECURSOR_MZ=300.159
INCHI="InChI=1S/C18H21NO3/c1-13(14-7-5-4-6-8-14)12-19-18(20)15-9-10-16(21-2)17(11-15)22-3/h4-11,13H,12H2,1-3H3,(H,19,20)"
SMILES=COc1ccc(C(O)=NCC(C)c2ccccc2)cc1OC
SPECTRUMID=CCMSLIB00010105313
50.152809 2632.0 
50.890129 3196.0 
62.146111 3172.0 
65.03907 3856.0 
73.957626 3145.0 
79.054497 7059.0 
82.400612 3305.0 
91.054367 1254390.0 
100.659439 3020.0 
104.288887 4066.0 
105.035141 3012.0 
107.049004 37422.0 
109.028862 9932.0 
119.08548 240486.0 
124.051826 424603.0 
126.031479 3644.0 
139.075272 714421.0 
144.079788 3535.0 
155.069595 12401.0 
162.091278 32654.0 
164.070145 3413.0 
165.05455 3694330.0 
166.747345 3201.0 
182.081024 99620.0 
201.319305 3102.0 
209.488708 3605.0 
223.905807 3246.0 
277.030701 5783.0 
279.537506 3557.0 
300.158905 4835072.0 
END IONS

BEGIN IONS
NAME="N-(2,5-dimethylphenyl)-2-(9-methyl-6-oxohydropurin-8-ylthio)acetamide CollisionEnergy:205060" 2M-H
PRECURSOR_MZ=685.213
INCHI="InChI=1S/C16H17N5O2S/c1-9-4-5-10(2)11(6-9)19-12(22)7-24-16-20-13-14(21(16)3)17-8-18-15(13)23/h4-6,8H,7H2,1-3H3,(H,19,22)(H,17,18,23)"
SMILES=Cc1ccc(C)c(N=C(O)CSc2nc3c(O)ncnc3n2C)c1
SPECTRUMID=CCMSLIB00010120297
51.827492 2992.0 
61.419731 2864.0 
64.93895 2644.0 
66.463257 3030.0 
73.977821 4090.0 
79.0298 5317.0 
118.694008 3182.0 
134.023026 4848.0 
138.013107 3613.0 
148.938354 2635.0 
149.046524 69282.0 
174.708008 3277.0 
179.003357 21499.0 
180.010925 100504.0 
180.027252 5580.0 
181.018875 50262.0 
195.034836 4421.0 
221.012161 4642.0 
234.344849 3420.0 
251.578613 3426.0 
268.120422 4549.0 
316.376221 3245.0 
342.102356 141590.0 
342.146729 6308.0 
406.286865 3208.0 
419.18338 3246.0 
421.888214 2842.0 
END IONS

BEGIN IONS
NAME="(3,4-dimethoxyphenyl)-N-(4-bromo-3-methylphenyl)carboxamide CollisionEnergy:102040" M-H
PRECURSOR_MZ=348.024
INCHI="InChI=1S/C16H16BrNO3/c1-10-8-12(5-6-13(10)17)18-16(19)11-4-7-14(20-2)15(9-11)21-3/h4-9H,1-3H3,(H,18,19)"
SMILES=COc1ccc(C(=O)Nc2ccc(Br)c(C)c2)cc1OC
SPECTRUMID=CCMSLIB00010108439
50.46706 2214.0 
66.748734 2651.0 
67.018272 2531.0 
71.021118 2657.0 
78.91404 4484.0 
78.918694 79891.0 
95.013741 3080.0 
105.022049 28036.0 
107.013641 24313.0 
120.043091 2632.0 
122.735367 3306.0 
123.008598 3015.0 
129.254364 2548.0 
185.418671 3151.0 
209.239502 2986.0 
209.257248 4936.0 
301.98175 9988.0 
303.264496 3677.0 
303.998505 50698.0 
316.967407 33015.0 
317.977173 395878.0 
331.947876 6793.0 
331.993134 269219.0 
333.000641 228700.0 
348.024414 1988949.0 
END IONS

BEGIN IONS
NAME=Ribitol///ribitol///D-ribitol CollisionEnergy:102040 M-H
PRECURSOR_MZ=151.061
INCHI="InChI=1S/C5H12O5/c6-1-3(8)5(10)4(9)2-7/h3-10H,1-2H2/t3-,4+,5-"
SMILES=OC[C@H](O)[C@H](O)[C@H](O)CO
SPECTRUMID=CCMSLIB00010126377
55.018398 457808.0 
57.033798 166584.0 
58.005501 581478.0 
59.013302 6526920.0 
71.013496 15514200.0 
72.992699 566104.0 
73.029198 1660680.0 
73.979401 115811.0 
75.008301 176896.0 
82.428497 145542.0 
83.013603 1698670.0 
84.120697 117598.0 
85.029503 1455650.0 
87.008499 1016110.0 
87.077301 109565.0 
89.0243 15872000.0 
92.412102 153144.0 
99.008797 141930.0 
101.024002 16218500.0 
103.039001 153637.0 
113.024002 918935.0 
118.691002 113782.0 
119.035004 1998520.0 
131.035004 539094.0 
133.050003 586646.0 
136.255005 132050.0 
149.044998 198984.0 
151.061005 4339180.0 
END IONS

BEGIN IONS
NAME="(2E)-3-(2,4-dichlorophenyl)-1-[4-(tert-butyl)phenyl]prop-2-en-1-one CollisionEnergy:102040" M+H
PRECURSOR_MZ=333.081
INCHI="InChI=1S/C19H18Cl2O/c1-19(2,3)15-8-4-14(5-9-15)18(22)11-7-13-6-10-16(20)12-17(13)21/h4-12H,1-3H3/b11-7+"
SMILES=CC(C)(C)c1ccc(C(=O)C=Cc2ccc(Cl)cc2Cl)cc1
SPECTRUMID=CCMSLIB00010105599
52.789688 12291.0 
53.002838 33513.0 
56.473011 13088.0 
57.039661 18455.0 
57.0704 18796522.0 
80.6548 14208.0 
87.430077 14815.0 
92.376549 15402.0 
93.156754 17095.0 
103.054176 397999.0 
105.033463 111063.0 
118.650719 24851.0 
131.049179 560213.0 
136.007568 83400.0 
158.975891 22614.0 
161.095947 394139.0 
170.976257 1510271.0 
174.971558 60682.0 
198.971207 8203111.0 
209.097198 31587.0 
235.003616 16365.0 
241.040955 83222.0 
242.04834 30978.0 
259.007874 94069.0 
261.994965 366158.0 
275.002136 15095.0 
277.017914 19421206.0 
296.99823 14708.0 
297.104431 34877.0 
309.514618 16187.0 
309.876556 18383.0 
318.046936 101496.0 
333.080231 27993994.0 
END IONS

BEGIN IONS
NAME="9-(4-nitrophenylthio)-4-oxo-5-oxatricyclo[4.2.1.0<3,7>]nonane-2-carboxylic aci d CollisionEnergy:102040" 2M-H
PRECURSOR_MZ=669.085
INCHI="InChI=1S/C15H13NO6S/c17-14(18)10-9-5-8-11(10)15(19)22-12(8)13(9)23-7-3-1-6(2-4-7)16(20)21/h1-4,8-13H,5H2,(H,17,18)"
SMILES=O=C1OC2C3CC(C2Sc2ccc([N+](=O)[O-])cc2)C(C(=O)O)C13
SPECTRUMID=CCMSLIB00010109359
63.903049 3046.0 
66.752129 3245.0 
71.013527 190711.0 
74.406914 3632.0 
75.084312 3074.0 
104.295677 3865.0 
115.003777 527642.0 
123.998894 3740.0 
136.776215 3328.0 
138.019592 4661.0 
153.996918 669935.0 
154.730865 3402.0 
158.334885 3816.0 
174.956329 17432.0 
180.012726 4415.0 
198.957169 3724.0 
208.244751 15467.0 
218.028152 8008.0 
219.20079 3625.0 
246.058929 23076.0 
283.85025 3609.0 
290.049622 38440.0 
303.245178 5336.0 
334.039276 2653137.0 
375.188416 3695.0 
464.997803 5788.0 
612.071533 3441.0 
669.088501 39830.0 
END IONS

BEGIN IONS
NAME="N-(2,4-dioxo(1,3-dihydropyrimidin-5-yl))-2-phenoxypropanamide CollisionEnergy:102040" M-H
PRECURSOR_MZ=274.083
INCHI="InChI=1S/C13H13N3O4/c1-8(20-9-5-3-2-4-6-9)11(17)15-10-7-14-13(19)16-12(10)18/h2-8H,1H3,(H,15,17)(H2,14,16,18,19)"
SMILES=CC(Oc1ccccc1)C(O)=Nc1cnc(O)nc1O
SPECTRUMID=CCMSLIB00010111216
51.817001 2199.0 
60.554379 2112.0 
63.7747 2478.0 
73.974564 2528.0 
79.588493 2847.0 
82.422783 3617.0 
84.958961 2472.0 
92.405388 2771.0 
93.03463 186242.0 
93.04554 11955.0 
109.040947 5152.0 
110.024979 5622.0 
125.023193 66849.0 
126.030792 13687.0 
136.015076 5970.0 
137.035706 524095.0 
137.590012 2457.0 
149.836487 3129.0 
152.045807 4834.0 
159.0569 4380.0 
180.041565 125420.0 
231.076172 20583.0 
243.278107 2931.0 
245.417191 2510.0 
274.083557 1359547.0 
END IONS

BEGIN IONS
NAME="(3,4-diethoxyphenyl)-N-(4-bromophenyl)carboxamide CollisionEnergy:205060" M+H
PRECURSOR_MZ=364.054
INCHI="InChI=1S/C17H18BrNO3/c1-3-21-15-10-5-12(11-16(15)22-4-2)17(20)19-14-8-6-13(18)7-9-14/h5-11H,3-4H2,1-2H3,(H,19,20)"
SMILES=CCOc1ccc(C(=O)Nc2ccc(Br)cc2)cc1OCC
SPECTRUMID=CCMSLIB00010120507
53.039021 12744.0 
53.352619 2488.0 
61.28347 2943.0 
65.038933 111691.0 
66.743896 3572.0 
68.997498 4871.0 
71.013069 13023.0 
81.033684 19011.0 
91.041679 19477.0 
91.054298 51325.0 
93.033508 200061.0 
93.069878 119038.0 
95.048943 3924.0 
103.054047 26793.0 
109.028282 15427.0 
110.036438 17094.0 
111.043938 1197096.0 
121.039124 3036.0 
121.064613 144020.0 
127.039177 11446.0 
134.060089 24390.0 
137.023224 977278.0 
137.033569 47120.0 
138.067535 4143.0 
139.07515 506586.0 
142.949554 4173.0 
165.054413 1431717.0 
167.10643 174744.0 
167.11911 2777.0 
169.959702 495877.0 
183.369949 2717.0 
193.085617 826050.0 
197.954529 78595.0 
209.233658 6850.0 
209.253647 4537.0 
215.966827 3660.0 
319.99118 3603.0 
334.080688 6592.0 
364.053284 1737532.0 
406.822693 3510.0 
742.277588 3288.0 
END IONS

BEGIN IONS
NAME="2-methoxyethyl 2-amino-7,7-dimethyl-5-oxo-4-(3-pyridyl)-4H-6,7,8-trihydrochrom ene-3-carboxylate CollisionEnergy:205060" M-H
PRECURSOR_MZ=371.161
INCHI="InChI=1S/C20H24N2O5/c1-20(2)9-13(23)16-14(10-20)27-18(21)17(19(24)26-8-7-25-3)15(16)12-5-4-6-22-11-12/h4-6,11,15H,7-10,21H2,1-3H3"
SMILES=COCCOC(=O)C1=C(N)OC2=C(C(=O)CC(C)(C)C2)C1c1cccnc1
SPECTRUMID=CCMSLIB00010115958
53.003849 2159.0 
55.04377 2192.0 
65.998192 90783.0 
72.421997 2208.0 
74.82663 2728.0 
82.424744 3084.0 
96.416367 2212.0 
104.312859 2415.0 
121.498619 2585.0 
139.076218 58478.0 
142.050766 46062.0 
184.239487 2412.0 
383.432831 2486.0 
387.080963 2479.0 
END IONS

BEGIN IONS
NAME=2-[2-(4-methylphenyl)-4-oxochromen-3-yloxy]ethanenitrile CollisionEnergy:102040 M+Na
PRECURSOR_MZ=314.079
INCHI="InChI=1S/C18H13NO3/c1-12-6-8-13(9-7-12)17-18(21-11-10-19)16(20)14-4-2-3-5-15(14)22-17/h2-9H,11H2,1H3"
SMILES=Cc1ccc(-c2oc3ccccc3c(=O)c2OCC#N)cc1
SPECTRUMID=CCMSLIB00010104099
51.842369 2588.0 
51.891232 2601.0 
56.200661 2350.0 
56.43248 2815.0 
59.331829 2481.0 
59.51178 2530.0 
60.517368 2859.0 
74.753304 2779.0 
150.484543 2405.0 
218.341171 2834.0 
267.928284 4077.0 
274.059631 2615709.0 
292.069885 3859.0 
314.078522 819279.0 
315.085144 26700.0 
END IONS

BEGIN IONS
NAME="methyl 5-methyl-5,15-diazahexacyclo[14.2.2.1<1,5>.0<8,16>.0<8,21>.0<9,14>]heni cosa-9,11,13-triene-17-carboxylate, iodide CollisionEnergy:102040" M+H]
PRECURSOR_MZ=177.115
INCHI="InChI=1S/C22H29N2O2/c1-24-12-5-8-20-9-10-22(16(14-20)18(25)26-2)21(11-13-24,19(20)24)15-6-3-4-7-17(15)23-22/h3-4,6-7,16,19,23H,5,8-14H2,1-2H3/q+1"
SMILES=COC(=O)C1CC23CCC[N+]4(C)CCC5(c6ccccc6NC15CC2)C34
SPECTRUMID=CCMSLIB00010104911
55.934811 18413.0 
66.268753 2856.0 
70.958 4591.0 
71.283043 2092.0 
79.054626 11310.0 
81.069939 9435.0 
88.968727 15361.0 
94.098534 2259.0 
94.900398 2688.0 
104.270447 2905.0 
107.085327 18779.0 
107.950089 8276.0 
112.751228 2059.0 
125.96077 4606.0 
128.95047 59837.0 
131.001694 2736.0 
135.926575 18275.0 
135.945251 28546.0 
144.080261 19569.0 
146.961151 39351.0 
147.10405 559490.0 
147.60553 68682.0 
149.011902 9450.0 
153.936386 32507.0 
153.955597 19182.0 
153.980026 2742.0 
158.960983 15335.0 
162.124786 2136.0 
167.617264 4726.0 
169.978271 3768.0 
176.97139 3256.0 
177.114517 261726.0 
177.616272 35485.0 
185.106949 12305.0 
187.122742 10398.0 
209.314926 2606.0 
293.201019 4094.0 
END IONS

BEGIN IONS
NAME=3-(4-chlorophenyl)-7-hydroxychromen-2-one CollisionEnergy:102040 2M-H
PRECURSOR_MZ=543.041
INCHI="InChI=1S/C15H9ClO3/c16-11-4-1-9(2-5-11)13-7-10-3-6-12(17)8-14(10)19-15(13)18/h1-8,17H"
SMILES=O=c1oc2cc(O)ccc2cc1-c1ccc(Cl)cc1
SPECTRUMID=CCMSLIB00010105709
59.908081 2452.0 
78.009842 2886.0 
82.416321 2831.0 
104.292549 3566.0 
199.964554 2986.0 
210.09375 2664.0 
240.419189 3233.0 
253.665558 2954.0 
271.01651 173118.0 
303.086487 3322.0 
304.304199 2949.0 
553.644958 2687.0 
END IONS

BEGIN IONS
NAME="8-{[(3-chloro-4-imidazolylphenyl)amino]sulfonyl}-4,6-dimethylhydroquinolin-2-o ne CollisionEnergy:102040" 2M-H
PRECURSOR_MZ=855.135
INCHI="InChI=1S/C20H17ClN4O3S/c1-12-7-15-13(2)9-19(26)23-20(15)18(8-12)29(27,28)24-14-3-4-17(16(21)10-14)25-6-5-22-11-25/h3-11,24H,1-2H3,(H,23,26)"
SMILES=Cc1cc(S(=O)(=O)Nc2ccc(-n3ccnc3)c(Cl)c2)c2nc(O)cc(C)c2c1
SPECTRUMID=CCMSLIB00010105995
64.370567 3040.0 
67.055077 3215.0 
67.18634 3229.0 
73.222054 3360.0 
73.975433 3463.0 
104.319702 4398.0 
115.749947 3249.0 
130.306976 4025.0 
136.248489 3571.0 
232.73468 3720.0 
427.06311 199888.0 
END IONS

BEGIN IONS
NAME="1,2,6,6,10,17,20-heptamethyl-17-[N-(3-nitrophenyl)carbamoyl]-12-oxopentacyclo[ 12.8.0.0<2,11>.0<5,10>.0<15,20>]docos-13-en-7-yl acetate CollisionEnergy:102040" M+H
PRECURSOR_MZ=633.39
INCHI="InChI=1S/C38H52N2O6/c1-23(41)46-30-13-14-36(6)29(33(30,2)3)12-15-38(8)31(36)28(42)21-26-27-22-35(5,17-16-34(27,4)18-19-37(26,38)7)32(43)39-24-10-9-11-25(20-24)40(44)45/h9-11,20-21,27,29-31H,12-19,22H2,1-8H3,(H,39,43)"
SMILES=CC(=O)OC1CCC2(C)C(CCC3(C)C2C(=O)C=C2C4CC(C)(C(O)=Nc5cccc([N+](=O)[O-])c5)CCC4(C)CCC23C)C1(C)C
SPECTRUMID=CCMSLIB00010110598
91.054497 9638.0 
93.070122 55168.0 
95.049202 7428.0 
95.085663 198013.0 
97.064682 6952.0 
97.101021 9485.0 
105.069901 58488.0 
107.085533 138224.0 
109.064713 8358.0 
109.101173 108830.0 
118.645882 5802.0 
119.085602 188583.0 
121.064697 22043.0 
121.101219 157592.0 
123.080353 10743.0 
123.116837 93912.0 
125.096237 6844.0 
131.085175 19513.0 
133.101212 137198.0 
135.080658 45352.0 
135.11676 243902.0 
137.096024 6702.0 
137.132385 65783.0 
139.111496 24098.0 
143.085068 9396.0 
145.101318 38776.0 
147.116806 104921.0 
149.096161 133423.0 
149.132446 53644.0 
157.101151 30066.0 
159.116684 56035.0 
161.096344 29030.0 
161.132431 92595.0 
163.111664 25733.0 
163.147858 34792.0 
169.101318 5750.0 
171.116821 34820.0 
173.132446 106935.0 
175.11293 30220.0 
175.148117 333471.0 
177.127533 7372.0 
177.163605 98408.0 
183.115967 6574.0 
185.132492 21683.0 
187.148193 45192.0 
189.12851 24346.0 
189.163742 903163.0 
191.141449 8017.0 
191.179413 72561.0 
197.132507 23963.0 
199.148163 101720.0 
201.127335 6312.0 
201.163818 44225.0 
203.142853 21514.0 
203.179153 9156.0 
211.148499 21152.0 
213.1642 31371.0 
215.143372 65502.0 
215.179581 18854.0 
217.158798 271141.0 
217.194534 9437.0 
219.174301 22183.0 
225.163101 4983.0 
226.658264 4289.0 
227.143127 5629.0 
227.179565 40119.0 
229.15654 6390.0 
229.195206 10486.0 
231.174332 7992.0 
233.189651 7156.0 
235.168884 17037.0 
239.180023 10129.0 
241.195114 26705.0 
243.210114 21782.0 
245.189697 35973.0 
247.10817 7464.0 
251.180359 5980.0 
253.194412 67109.0 
255.211777 8151.0 
257.162476 4479.0 
257.188293 31048.0 
259.204193 6567.0 
261.123596 29686.0 
265.196564 5408.0 
267.210052 28023.0 
269.19104 5410.0 
269.226685 7328.0 
271.205292 118875.0 
277.180023 28284.0 
283.206787 6026.0 
285.221619 17852.0 
287.140137 16761.0 
293.22583 5090.0 
297.221497 5066.0 
301.155029 31978.0 
303.488861 4910.0 
307.245514 5000.0 
311.236237 7916.0 
327.169495 5449.0 
333.25531 5071.0 
341.184509 18152.0 
355.20163 187540.0 
381.178864 5335.0 
389.320679 94876.0 
407.330475 151676.0 
411.229523 5471.0 
419.232544 7858.0 
433.24942 16342.0 
435.269897 5589.0 
437.242279 122805.0 
449.24292 18621.0 
449.342102 7220.0 
467.351624 72697.0 
485.280701 6243.0 
555.354736 52989.0 
573.368408 88515.0 
629.27124 10361.0 
633.389771 11046743.0 
637.552917 19970.0 
674.416016 29403.0 
END IONS

BEGIN IONS
NAME=N-(3-methoxyphenyl)-2-[9-(4-methylphenyl)-6-oxohydropurin-8-ylthio]acetamide CollisionEnergy:102040 M+H
PRECURSOR_MZ=422.128
INCHI="InChI=1S/C21H19N5O3S/c1-13-6-8-15(9-7-13)26-19-18(20(28)23-12-22-19)25-21(26)30-11-17(27)24-14-4-3-5-16(10-14)29-2/h3-10,12H,11H2,1-2H3,(H,24,27)(H,22,23,28)"
SMILES=COc1cccc(N=C(O)CSc2nc3c(O)ncnc3n2-c2ccc(C)cc2)c1
SPECTRUMID=CCMSLIB00010111261
52.61095 2959.0 
54.634819 3113.0 
56.727322 2851.0 
73.960083 3586.0 
76.926117 3728.0 
82.78981 3616.0 
92.383797 4146.0 
96.224289 3320.0 
117.304382 3170.0 
122.925323 3561.0 
147.067307 18910.0 
186.092148 12473.0 
190.032028 6650.0 
212.081451 111944.0 
213.090515 41477.0 
216.05957 6358.0 
223.302658 3907.0 
230.038223 83157.0 
238.084244 16071.0 
244.053589 897848.0 
257.04892 234075.0 
257.079987 7979.0 
262.064178 68611.0 
271.064484 2642019.0 
297.727203 7199.0 
299.059357 9532295.0 
300.399078 14533.0 
404.116516 16822.0 
422.00293 26649.0 
422.127502 1014573.0 
END IONS

BEGIN IONS
NAME=3-(2-chlorophenyl)-7-hydroxy-4-methylchromen-2-one CollisionEnergy:102040 M+H
PRECURSOR_MZ=287.047
INCHI="InChI=1S/C16H11ClO3/c1-9-11-7-6-10(18)8-14(11)20-16(19)15(9)12-4-2-3-5-13(12)17/h2-8,18H,1H3"
SMILES=Cc1c(-c2ccccc2Cl)c(=O)oc2cc(O)ccc12
SPECTRUMID=CCMSLIB00010107337
68.997559 14117.0 
72.099136 3141.0 
77.938744 3799.0 
91.054153 17429.0 
92.367752 6001.0 
94.04126 17040.0 
103.718262 3093.0 
107.048866 7085.0 
119.049019 75792.0 
123.043762 5872.0 
125.014893 17119.0 
129.994232 3507.0 
131.049057 21824.0 
137.014709 67508.0 
138.244583 3266.0 
138.99437 5289.0 
142.600204 3504.0 
147.044067 45391.0 
149.015137 75047.0 
157.581924 3762.0 
165.010452 17710.0 
165.070557 5925.0 
167.085342 41148.0 
178.078094 6134.0 
179.084473 11630.0 
180.09346 13072.0 
181.064606 17616.0 
189.046539 5775.0 
191.061172 4165.0 
195.080536 88165.0 
196.087997 87671.0 
205.063614 3550.0 
207.080917 25768.0 
208.087814 139363.0 
213.045731 7875.0 
223.07486 176520.0 
224.082733 635204.0 
225.046249 3392.0 
228.032211 23630.0 
231.056656 536927.0 
241.039215 5692.0 
244.027405 52626.0 
251.069412 98831.0 
252.076202 7388.0 
259.051239 137165.0 
285.788544 12602.0 
286.033691 12318.0 
287.046326 11099148.0 
288.311859 12236.0 
END IONS

BEGIN IONS
NAME="5-(indol-3-ylmethylene)-1,3-diphenyl-1,3-dihydropyrimidine-2,4,6-trione CollisionEnergy:205060" M-H
PRECURSOR_MZ=406.12
INCHI="InChI=1S/C25H17N3O3/c29-23-21(15-17-16-26-22-14-8-7-13-20(17)22)24(30)28(19-11-5-2-6-12-19)25(31)27(23)18-9-3-1-4-10-18/h1-16,26H"
SMILES=O=C1C(=Cc2c[nH]c3ccccc23)C(=O)N(c2ccccc2)C(=O)N1c1ccccc1
SPECTRUMID=CCMSLIB00010120552
59.85643 3391.0 
70.309174 3220.0 
73.774658 2802.0 
78.014183 2692.0 
93.443398 3054.0 
102.714943 2720.0 
136.271347 3046.0 
140.050369 522373.0 
144.045105 38691.0 
155.03743 2932.0 
162.158386 3619.0 
162.173645 3198.0 
165.045441 180476.0 
166.053635 12913.0 
167.061096 117744.0 
168.045258 1603233.0 
241.077423 6247.0 
242.085602 4449.0 
243.092636 2483908.0 
287.082397 25582.0 
406.119781 1762802.0 
END IONS

BEGIN IONS
NAME=4-[(3-oxobenzo[b]thiophen-2-ylidene)methyl]phenyl benzoate CollisionEnergy:205060 M+Na
PRECURSOR_MZ=381.056
INCHI=InChI=1S/C22H14O3S/c23-21-18-8-4-5-9-19(18)26-20(21)14-15-10-12-17(13-11-15)25-22(24)16-6-2-1-3-7-16/h1-14H/b20-14+
SMILES=O=C(Oc1ccc(C=C2Sc3ccccc3C2=O)cc1)c1ccccc1
SPECTRUMID=CCMSLIB00010125956
53.732552 2096.0 
55.433121 2037.0 
60.52747 2237.0 
69.090347 2296.0 
80.629211 2149.0 
83.405159 2228.0 
92.36232 3046.0 
97.129601 2393.0 
104.266144 3467.0 
118.629547 2347.0 
120.480812 2316.0 
126.238998 2533.0 
133.917572 2458.0 
157.944427 2618.0 
206.773743 2338.0 
381.054932 213142.0 
381.278961 71466.0 
402.280823 2412.0 
END IONS

BEGIN IONS
NAME=(2E)-3-[4-methoxy-3-(phenoxymethyl)phenyl]prop-2-enoic acid CollisionEnergy:102040 M-H
PRECURSOR_MZ=283.098
INCHI="InChI=1S/C17H16O4/c1-20-16-9-7-13(8-10-17(18)19)11-14(16)12-21-15-5-3-2-4-6-15/h2-11H,12H2,1H3,(H,18,19)/b10-8+"
SMILES=COc1ccc(C=CC(=O)O)cc1COc1ccccc1
SPECTRUMID=CCMSLIB00010113642
50.58746 2376.0 
52.762199 2173.0 
59.977509 2565.0 
71.55677 2039.0 
72.168251 2656.0 
90.471581 2207.0 
93.034523 743389.0 
103.098511 2082.0 
105.070717 2678.0 
112.985161 4262.0 
115.583717 2218.0 
119.050323 4309.0 
120.275459 2500.0 
131.376633 2531.0 
133.066101 4854.0 
147.045303 3070.0 
152.978546 3801.0 
174.033096 9749.0 
189.056137 3735.0 
193.066696 11059.0 
206.022247 13354.0 
207.081573 31546.0 
216.990417 12255.0 
223.076965 20636.0 
239.082123 3541.0 
239.107819 37489.0 
239.202164 4998.0 
242.989227 2516.0 
251.071365 91349.0 
254.985306 4990.0 
264.975861 3553.0 
282.979095 71193.0 
283.098511 247708.0 
283.13501 46950.0 
283.191345 42817.0 
END IONS

BEGIN IONS
NAME=N-(2-indol-3-ylethyl)[(4-nitrophenyl)methoxy]carboxamide CollisionEnergy:102040 M+formate
PRECURSOR_MZ=384.12
INCHI="InChI=1S/C18H17N3O4/c22-18(25-12-13-5-7-15(8-6-13)21(23)24)19-10-9-14-11-20-17-4-2-1-3-16(14)17/h1-8,11,20H,9-10,12H2,(H,19,22)"
SMILES=O=[N+]([O-])c1ccc(COC(O)=NCCc2c[nH]c3ccccc23)cc1
SPECTRUMID=CCMSLIB00010110774
66.743713 2535.0 
75.060158 3223.0 
80.409302 2289.0 
82.401466 2386.0 
84.589371 2617.0 
100.518044 2462.0 
105.507919 2549.0 
131.624817 2369.0 
152.035461 2403.0 
175.382019 2388.0 
185.072174 156859.0 
188.034943 2823.0 
191.677628 2372.0 
208.32637 11030.0 
220.631744 2872.0 
338.114624 170868.0 
383.995178 3848.0 
407.875732 2399.0 
END IONS

BEGIN IONS
NAME=2'-Hydroxy-a-naphthoflavone CollisionEnergy:205060 2M-H
PRECURSOR_MZ=575.15
INCHI="InChI=1S/C19H12O3/c20-16-8-4-3-7-14(16)18-11-17(21)15-10-9-12-5-1-2-6-13(12)19(15)22-18/h1-11,20H"
SMILES=O=c1cc(-c2ccccc2O)oc2c1ccc1ccccc12
SPECTRUMID=CCMSLIB00010115017
58.791061 2152.0 
59.648998 2686.0 
65.020058 2734.0 
77.640503 3036.0 
80.855179 2866.0 
92.384789 3592.0 
104.294167 2512.0 
117.034378 12508.0 
136.221115 3851.0 
280.705841 2617.0 
287.071503 12950.0 
305.901886 2740.0 
504.406952 2907.0 
END IONS

BEGIN IONS
NAME="4-Hydroxy-2',3,4',6'-tetramethoxychalcone CollisionEnergy:205060" M-H
PRECURSOR_MZ=343.119
INCHI="InChI=1S/C19H20O6/c1-22-13-10-17(24-3)19(18(11-13)25-4)15(21)8-6-12-5-7-14(20)16(9-12)23-2/h5-11,20H,1-4H3/b8-6+"
SMILES=COc1cc(OC)c(C(=O)C=Cc2ccc(O)c(OC)c2)c(OC)c1
SPECTRUMID=CCMSLIB00010118036
60.076481 2169.0 
92.377922 2919.0 
104.050873 2447.0 
121.028954 3271.0 
123.045067 5751.0 
131.013336 3640.0 
132.021271 10603.0 
133.029694 51249.0 
138.909988 3113.0 
139.041046 2748.0 
148.016678 2921.0 
149.024338 6065.0 
153.054581 8790.0 
156.921204 2455.0 
160.0168 38581.0 
165.018799 10706.0 
177.055862 13328.0 
182.037704 3282.0 
183.045502 3476.0 
193.029404 9771.0 
200.012039 3342.0 
206.897964 3976.0 
208.389465 13221.0 
211.040543 25894.0 
221.023529 13700.0 
222.03244 68766.0 
223.040817 3705.0 
224.04747 6135.0 
225.055069 12095.0 
226.028336 2509.0 
226.063019 5196.0 
227.035263 33935.0 
235.04126 3500.0 
236.047852 14624.0 
237.054977 30979.0 
238.02803 22239.0 
239.035156 33415.0 
241.050201 20006.0 
241.07637 2966.0 
242.058716 13513.0 
249.01857 30691.0 
253.050598 107186.0 
254.058563 75774.0 
255.029999 80378.0 
257.082886 17502.0 
266.021698 40175.0 
267.029755 19409.0 
269.045593 18807.0 
269.082031 22273.0 
270.053406 91368.0 
281.045441 88010.0 
282.053833 16184.0 
283.025055 98886.0 
283.057709 6567.0 
285.076965 67122.0 
297.041931 21012.0 
297.074493 3261.0 
298.048309 385115.0 
300.100128 4190.0 
303.41861 4855.0 
313.071594 93297.0 
327.325439 2805.0 
328.095367 338772.0 
343.118744 815903.0 
END IONS

BEGIN IONS
NAME=3-phenyl-2-pyrrolylpropanoic acid CollisionEnergy:205060 M-H+2Na
PRECURSOR_MZ=260.066
INCHI="InChI=1S/C13H13NO2/c15-13(16)12(14-8-4-5-9-14)10-11-6-2-1-3-7-11/h1-9,12H,10H2,(H,15,16)"
SMILES=O=C(O)C(Cc1ccccc1)n1cccc1
SPECTRUMID=CCMSLIB00010121545
54.30201 2157.0 
66.772163 2288.0 
69.28701 2153.0 
85.795273 2307.0 
98.93792 2116.0 
110.191277 2194.0 
117.506317 2264.0 
148.864624 2147.0 
155.069504 2951.0 
165.054871 3878.0 
166.057663 3081.0 
168.525208 2254.0 
225.442123 2498.0 
244.275391 2348.0 
260.065399 553041.0 
END IONS

BEGIN IONS
NAME=N6-isopentyl adenosine CollisionEnergy:205060 M+Na
PRECURSOR_MZ=358.149
INCHI="InChI=1S/C15H21N5O4/c1-8(2)3-4-16-13-10-14(18-6-17-13)20(7-19-10)15-12(23)11(22)9(5-21)24-15/h3,6-7,9,11-12,15,21-23H,4-5H2,1-2H3,(H,16,17,18)/t9-,11-,12-,15-/m1/s1"
SMILES=CC(=CCNC1=C2C(=NC=N1)N(C=N2)[C@H]3[C@@H]([C@@H]([C@H](O3)CO)O)O)C
SPECTRUMID=CCMSLIB00010102009
75.925247 3437.216797 
89.148872 3048.536377 
104.213676 3419.806152 
118.720512 4015.992188 
143.630127 3906.527344 
184.29541 3370.60498 
226.105804 3817.586182 
248.648941 3116.626709 
321.248535 4210.349609 
358.144379 194166.671875 
358.363861 6804.631348 
666.546753 3662.011963 
END IONS

BEGIN IONS
NAME=2-(9-ethyl-6-oxohydropurin-8-ylthio)-N-(3-ethylphenyl)acetamide CollisionEnergy:205060 M-H
PRECURSOR_MZ=356.119
INCHI="InChI=1S/C17H19N5O2S/c1-3-11-6-5-7-12(8-11)20-13(23)9-25-17-21-14-15(22(17)4-2)18-10-19-16(14)24/h5-8,10H,3-4,9H2,1-2H3,(H,20,23)(H,18,19,24)"
SMILES=CCc1cccc(N=C(O)CSc2nc3c(O)ncnc3n2CC)c1
SPECTRUMID=CCMSLIB00010120871
57.975029 54035.0 
59.811771 3193.0 
60.539379 3899.0 
65.014099 49015.0 
65.998001 19966.0 
66.743057 4408.0 
69.074791 3260.0 
75.092308 3092.0 
82.40065 4388.0 
92.025208 50635.0 
93.045639 187391.0 
108.020332 3924.0 
118.656708 3858.0 
120.056267 6580.0 
121.04155 3490.0 
122.036133 3860.0 
123.997467 6746.0 
134.023285 20941.0 
135.031189 960150.0 
135.7146 3483.0 
137.004776 11011.0 
138.012558 7594.0 
138.984085 4365.0 
139.032898 6843.0 
145.07666 15913.0 
147.031479 11601.0 
148.526215 2985.0 
151.992203 3858.0 
152.028931 41650.0 
158.061035 309073.0 
161.046814 26706.0 
163.0625 1213938.0 
165.99501 37653.0 
166.044571 32024.0 
167.003098 102362.0 
168.99472 13636.0 
173.046631 11047.0 
176.070938 3543.0 
179.003281 1101745.0 
179.056381 36692.0 
181.018051 5471.0 
192.049026 135206.0 
193.019104 38204.0 
193.806305 2808.0 
193.836044 4722.0 
194.026718 1892740.0 
195.034485 702657.0 
207.034561 60426.0 
207.053909 4202.0 
209.050095 206827.0 
211.098145 11979.0 
212.099762 4475.0 
235.029449 161257.0 
254.104782 83994.0 
282.13562 120785.0 
284.563202 4444.0 
284.60083 4040.0 
298.112579 4841.0 
313.112579 15033.0 
356.118744 1133725.0 
END IONS

BEGIN IONS
NAME="1,2,6,6,10,17,20-heptamethyl-17-[N-(3-nitrophenyl)carbamoyl]-12-oxopentacyclo[ 12.8.0.0<2,11>.0<5,10>.0<15,20>]docos-13-en-7-yl acetate CollisionEnergy:102040" 2M-H
PRECURSOR_MZ=1263.76
INCHI="InChI=1S/C38H52N2O6/c1-23(41)46-30-13-14-36(6)29(33(30,2)3)12-15-38(8)31(36)28(42)21-26-27-22-35(5,17-16-34(27,4)18-19-37(26,38)7)32(43)39-24-10-9-11-25(20-24)40(44)45/h9-11,20-21,27,29-31H,12-19,22H2,1-8H3,(H,39,43)"
SMILES=CC(=O)OC1CCC2(C)C(CCC3(C)C2C(=O)C=C2C4CC(C)(C(O)=Nc5cccc([N+](=O)[O-])c5)CCC4(C)CCC23C)C1(C)C
SPECTRUMID=CCMSLIB00010110600
92.382004 12541.0 
93.069023 9298.0 
107.036827 17008.0 
117.048172 8794.0 
117.595558 7503.0 
118.66214 10097.0 
137.035599 936187.0 
338.749512 9371.0 
465.335999 42909.0 
557.347717 13629.0 
571.354736 309728.0 
601.332153 16363.0 
631.376282 25998664.0 
632.380798 42375.0 
1263.760132 177380.0 
END IONS

BEGIN IONS
NAME=4-[(4-hydroxyphenyl)methylene]-3-phenylisoxazol-5-one CollisionEnergy:102040 M-H
PRECURSOR_MZ=264.067
INCHI="InChI=1S/C16H11NO3/c18-13-8-6-11(7-9-13)10-14-15(17-20-16(14)19)12-4-2-1-3-5-12/h1-10,18H/b14-10-"
SMILES=O=C1ON=C(c2ccccc2)C1=Cc1ccc(O)cc1
SPECTRUMID=CCMSLIB00010112231
54.2243 2351.0 
70.982452 2422.0 
82.40873 2634.0 
102.612862 2579.0 
104.297127 3125.0 
108.594582 2146.0 
117.034691 14149.0 
121.029121 2708.0 
131.037735 395095.0 
136.222961 3621.0 
159.03273 74296.0 
186.019913 3958.0 
192.081863 10667.0 
220.077194 73522.0 
236.071899 102190.0 
264.066895 1255353.0 
271.243073 2853.0 
END IONS

BEGIN IONS
NAME=6-ethoxy-4-hydroxy-3-benzylhydroquinolin-2-one CollisionEnergy:102040 2M-H
PRECURSOR_MZ=589.234
INCHI="InChI=1S/C18H17NO3/c1-2-22-13-8-9-16-14(11-13)17(20)15(18(21)19-16)10-12-6-4-3-5-7-12/h3-9,11H,2,10H2,1H3,(H2,19,20,21)"
SMILES=CCOc1ccc2nc(O)c(Cc3ccccc3)c(O)c2c1
SPECTRUMID=CCMSLIB00010104253
84.908302 3000.0 
99.056587 2980.0 
104.282471 3676.0 
111.577301 2607.0 
112.985313 19585.0 
157.964203 3920.0 
159.355774 3452.0 
248.960678 11218.0 
265.074402 201392.0 
294.113617 673641.0 
316.946777 6406.0 
384.940491 3055.0 
END IONS

BEGIN IONS
NAME=valinomycin CollisionEnergy:102040 M-H
PRECURSOR_MZ=1109.62
INCHI="InChI=1S/C54H90N6O18/c1-22(2)34-49(67)73-31(19)43(61)55-38(26(9)10)53(71)77-41(29(15)16)47(65)59-36(24(5)6)51(69)75-33(21)45(63)57-39(27(11)12)54(72)78-42(30(17)18)48(66)60-35(23(3)4)50(68)74-32(20)44(62)56-37(25(7)8)52(70)76-40(28(13)14)46(64)58-34/h22-42H,1-21H3,(H,55,61)(H,56,62)(H,57,63)(H,58,64)(H,59,65)(H,60,66)/t31-,32-,33-,34+,35+,36+,37-,38-,39-,40+,41+,42+/m0/s1"
SMILES=CC1OC(=O)C(C(C)C)N=C(O)C(C(C)C)OC(=O)C(C(C)C)N=C(O)C(C)OC(=O)C(C(C)C)N=C(O)C(C(C)C)OC(=O)C(C(C)C)N=C(O)C(C)OC(=O)C(C(C)C)N=C(O)C(C(C)C)OC(=O)C(C(C)C)N=C1O
SPECTRUMID=CCMSLIB00010112636
89.024239 8411.0 
100.077263 10098.0 
116.071579 119602.0 
116.080109 7225.0 
117.055832 23274.0 
136.247833 9229.0 
144.103256 41313.0 
154.121704 5904.0 
170.082291 6643.0 
172.133926 80384.0 
188.092651 360196.0 
198.11438 9447.0 
216.124023 876250.0 
274.645996 5494.0 
387.213379 281916.0 
558.304932 94061.0 
586.33429 253832.0 
636.775085 5342.0 
757.294983 5803.0 
757.423706 341253.0 
928.513489 847075.0 
938.533875 7513.0 
956.544739 1362370.0 
1109.622803 615404.0 
END IONS

BEGIN IONS
NAME="6-ethyl-4-[(4-{[5-methyl-2-(4-methylphenyl)(1,3-oxazol-4-yl)]methyl}piperaziny l)methyl]chromen-2-one CollisionEnergy:205060" M+H
PRECURSOR_MZ=458.244
INCHI="InChI=1S/C28H31N3O3/c1-4-21-7-10-26-24(15-21)23(16-27(32)34-26)17-30-11-13-31(14-12-30)18-25-20(3)33-28(29-25)22-8-5-19(2)6-9-22/h5-10,15-16H,4,11-14,17-18H2,1-3H3"
SMILES=CCc1ccc2oc(=O)cc(CN3CCN(Cc4nc(-c5ccc(C)cc5)oc4C)CC3)c2c1
SPECTRUMID=CCMSLIB00010118435
56.04982 12281.0 
59.049419 7324.0 
65.038872 59683.0 
67.05455 5563.0 
69.033836 447609.0 
69.277771 5324.0 
70.065407 24434.0 
74.096657 8171.0 
83.060547 97100.0 
84.068413 61704.0 
85.076218 92558.0 
86.084084 9685.0 
91.054237 219219.0 
97.075844 32440.0 
99.091629 12431.0 
103.041542 7322.0 
116.049507 57227.0 
117.057449 29805.0 
117.069733 137057.0 
118.065033 19203300.0 
119.022621 6247.0 
119.049103 231443.0 
119.058617 13759.0 
124.3862 5860.0 
128.061371 11519.0 
131.085831 6235.0 
134.059265 6002.0 
136.075592 62353.0 
143.071793 15563.0 
158.094666 10273.0 
159.078476 70107.0 
159.093765 61391.0 
160.110916 5769.0 
161.059952 7489.0 
175.075607 31364.0 
178.123474 8647.0 
185.43808 8385.0 
186.091156 26513608.0 
186.748505 8628.0 
187.076187 6815.0 
188.105728 53745.0 
189.091492 11458.0 
194.081253 157388.0 
227.117798 133400.0 
229.075394 8451.0 
230.117157 19470.0 
246.149948 40938.0 
262.106384 170027.0 
271.14267 74406.0 
273.159149 719408.0 
285.159515 9419.0 
327.53125 6819.0 
341.18573 22066.0 
372.1604 25390.0 
458.242828 3385802.0 
END IONS

BEGIN IONS
NAME=NSC688795 CollisionEnergy:102040 M+Na
PRECURSOR_MZ=243.063
INCHI="InChI=1S/C12H12O4/c1-7-4-11(13)16-10-6-8(14-2)5-9(15-3)12(7)10/h4-6H,1-3H3"
SMILES=COc1cc(OC)c2c(C)cc(=O)oc2c1
SPECTRUMID=CCMSLIB00010105442
65.876511 1976.0 
69.689484 2152.0 
73.940002 2210.0 
74.92234 2184.0 
84.959892 25232.0 
104.264702 2308.0 
121.446564 2145.0 
162.972961 12497.0 
164.968781 12227.0 
180.984955 21379.0 
182.979492 24002.0 
192.931976 2090.0 
200.988968 2365.0 
243.062424 1059952.0 
243.287064 8118.0 
261.073547 29609.0 
END IONS

BEGIN IONS
NAME=2-[4-(N-methylcarbamoyl)-2-oxohydroquinolyl]-N-[3-(trifluoromethyl)phenyl]acet amide CollisionEnergy:102040 M+formate
PRECURSOR_MZ=448.113
INCHI="InChI=1S/C20H16F3N3O3/c1-24-19(29)15-10-18(28)26(16-8-3-2-7-14(15)16)11-17(27)25-13-6-4-5-12(9-13)20(21,22)23/h2-10H,11H2,1H3,(H,24,29)(H,25,27)"
SMILES=CN=C(O)c1cc(=O)n(CC(O)=Nc2cccc(C(F)(F)F)c2)c2ccccc12
SPECTRUMID=CCMSLIB00010112037
92.395714 4240.0 
123.097298 2902.0 
127.94046 2468.0 
128.04982 4596.0 
130.066513 17712.0 
132.045273 5338.0 
144.045364 17737.0 
156.068588 2741.0 
157.997406 2881.0 
158.049728 22979.0 
158.060608 26156.0 
160.038956 56482.0 
169.078033 4369.0 
171.092789 108556.0 
171.108795 4544.0 
173.072342 23819.0 
176.072189 14334.0 
184.040573 29829.0 
185.072098 54363.0 
187.088074 15530.0 
201.067398 42431.0 
202.051346 19180.0 
202.115005 2507.0 
215.082581 22703.0 
217.062866 17977.0 
241.061905 23653.0 
345.08548 40988.0 
345.82074 2587.0 
402.107269 975096.0 
422.18692 2733.0 
END IONS

BEGIN IONS
NAME=9-ethyl-8-[(4-methylphenyl)methylthio]hydropurin-6-one CollisionEnergy:205060 M+H
PRECURSOR_MZ=301.112
INCHI="InChI=1S/C15H16N4OS/c1-3-19-13-12(14(20)17-9-16-13)18-15(19)21-8-11-6-4-10(2)5-7-11/h4-7,9H,3,8H2,1-2H3,(H,16,17,20)"
SMILES=CCn1c(SCc2ccc(C)cc2)nc2c(O)ncnc21
SPECTRUMID=CCMSLIB00010117335
50.01561 4554.0 
51.023491 7809.0 
53.039169 7502.0 
64.28244 3197.0 
65.039093 4162.0 
66.82061 3180.0 
77.03878 22088.0 
79.054489 542484.0 
81.033783 7890.0 
94.174896 3551.0 
95.049294 34933.0 
103.054153 328296.0 
104.062538 4104.0 
104.785782 4345.0 
104.79287 11475.0 
105.069839 13943319.0 
105.347969 7699.0 
130.055161 3924.0 
150.128036 4032.0 
157.9478 4040.0 
169.017853 106913.0 
197.04892 324288.0 
252.066483 3643.0 
301.110992 818522.0 
319.01535 3986.0 
END IONS

BEGIN IONS
NAME=ellipticine CollisionEnergy:205060 M-H
PRECURSOR_MZ=245.108
INCHI="InChI=1S/C17H14N2/c1-10-14-9-18-8-7-12(14)11(2)17-16(10)13-5-3-4-6-15(13)19-17/h3-9,19H,1-2H3"
SMILES=Cc1c2ccncc2c(C)c2c1[nH]c1ccccc12
SPECTRUMID=CCMSLIB00010116174
83.387016 2374.0 
101.469566 2350.0 
118.662758 2629.0 
134.320557 2289.0 
146.961731 2855.0 
230.084793 23362.0 
243.092728 9282.0 
244.101501 27172.0 
245.108398 2183763.0 
262.889374 4287.0 
276.091156 4127.0 
END IONS

BEGIN IONS
NAME=4-aminobenzoic acid CollisionEnergy:205060 M-H
PRECURSOR_MZ=136.04
INCHI="InChI=1S/C7H7NO2/c8-6-3-1-5(2-4-6)7(9)10/h1-4H,8H2,(H,9,10)"
SMILES=Nc1ccc(C(=O)O)cc1
SPECTRUMID=CCMSLIB00010117703
53.724251 3016.0 
60.684471 3088.0 
90.919403 3068.0 
92.050613 1298984.0 
92.376633 3803.0 
104.284348 4799.0 
135.895325 4756.0 
136.040604 106089.0 
136.863098 5675.0 
136.892288 3552.0 
END IONS

BEGIN IONS
NAME=2-[4-(2-hydroxyethyl)piperazinyl]-N-[6-(methylsulfonyl)benzothiazol-2-yl]aceta mide CollisionEnergy:102040 M-H
PRECURSOR_MZ=397.101
INCHI="InChI=1S/C16H22N4O4S2/c1-26(23,24)12-2-3-13-14(10-12)25-16(17-13)18-15(22)11-20-6-4-19(5-7-20)8-9-21/h2-3,10,21H,4-9,11H2,1H3,(H,17,18,22)"
SMILES=CS(=O)(=O)c1ccc2nc(N=C(O)CN3CCN(CCO)CC3)sc2c1
SPECTRUMID=CCMSLIB00010109354
60.552311 3322.0 
77.67421 3460.0 
79.457207 3046.0 
79.95723 3718.0 
82.421387 2940.0 
89.02243 2962.0 
90.93338 3719.0 
98.209923 2752.0 
104.309982 3708.0 
118.683632 3303.0 
148.011047 12618.0 
164.005081 5546.0 
178.992355 6467.0 
180.000427 6706.0 
189.350494 2976.0 
211.119354 3171.0 
214.250748 3009.0 
225.987793 49602.0 
226.995941 1525263.0 
238.255692 3086.0 
318.119568 3302.0 
321.101044 10897.0 
350.106567 21718.0 
397.101685 4444806.0 
END IONS

BEGIN IONS
NAME=Isocorydine CollisionEnergy:102040 M+H
PRECURSOR_MZ=342.17
INCHI="InChI=1S/C20H23NO4/c1-21-8-7-12-10-15(24-3)20(25-4)18-16(12)13(21)9-11-5-6-14(23-2)19(22)17(11)18/h5-6,10,13,22H,7-9H2,1-4H3/t13-/m0/s1"
SMILES=COc1ccc2c(c1O)-c1c(OC)c(OC)cc3c1C(C2)N(C)CC3
SPECTRUMID=CCMSLIB00010104092
53.943951 4259.0 
58.065639 10805.0 
73.535782 4148.0 
73.587151 4065.0 
75.383102 4189.0 
76.298912 4740.0 
77.054817 4367.0 
81.520721 6060.0 
81.525574 5398.0 
81.783112 4286.0 
82.391609 5829.0 
87.82798 4305.0 
88.288757 5263.0 
102.426628 6537.0 
106.055687 4197.0 
106.564293 4362.0 
165.070724 7542.0 
178.076294 5900.0 
189.071457 11276.0 
191.085022 160963.0 
192.093384 8465.0 
193.100876 24689.0 
194.072647 30810.0 
195.080231 7314.0 
203.086121 9502.0 
205.064972 28701.0 
205.099991 6551.0 
206.070312 8816.0 
207.079803 11012.0 
208.088242 56191.0 
209.095062 28500.0 
218.071671 18742.0 
219.080124 278449.0 
220.088028 72835.0 
221.095505 103746.0 
222.067688 8493.0 
222.100021 4957.0 
223.111298 124640.0 
224.082489 47547.0 
231.079575 33434.0 
233.059647 8809.0 
233.09584 58710.0 
234.064941 6370.0 
235.074814 84028.0 
236.082626 1084425.0 
237.090408 87343.0 
237.416672 4442.0 
238.063278 10727.0 
239.106155 27327.0 
246.066956 24828.0 
247.074783 649643.0 
248.082672 2538579.0 
249.057816 8963.0 
249.090118 182233.0 
250.099213 43899.0 
251.10611 1242574.0 
252.077286 42413.0 
253.085266 55697.0 
254.091934 6006.0 
261.090881 93224.0 
262.098297 109783.0 
263.069702 57166.0 
264.077545 2366742.0 
265.085266 1026707.0 
266.058746 6982.0 
266.092285 19081.0 
267.100861 458864.0 
268.108978 67255.0 
277.085419 23326.0 
278.092773 76367.0 
279.100922 8271473.0 
280.108612 2084045.0 
281.080078 846735.0 
281.111572 26369.0 
284.103607 45174.0 
285.111511 10730.0 
286.118683 18641.0 
293.117432 22901.0 
294.123047 20354.0 
295.096283 7243.0 
296.103607 2292760.0 
298.121185 10191.0 
299.126648 162475.0 
299.162262 8512.0 
310.142303 29515.0 
311.126892 8145622.0 
313.1409 40666.0 
325.14151 24104.0 
327.145264 24191.0 
342.169159 19640348.0 
END IONS

BEGIN IONS
NAME="6-amino-1-phenyl-1,3-dihydropyrimidine-2,4-dione CollisionEnergy:102040" M+Na
PRECURSOR_MZ=226.059
INCHI="InChI=1S/C10H9N3O2/c11-8-6-9(14)12-10(15)13(8)7-4-2-1-3-5-7/h1-6H,11H2,(H,12,14,15)"
SMILES=Nc1cc(O)nc(=O)n1-c1ccccc1
SPECTRUMID=CCMSLIB00010112056
66.735252 2054.0 
67.184067 1832.0 
73.945831 2981.0 
100.906181 2170.0 
113.022888 2270.0 
142.003113 2056.0 
157.958206 2576.0 
202.972458 2625.0 
220.906326 9734.0 
226.036682 3906.0 
226.058975 56723.0 
226.09642 4194.0 
226.140686 9851.0 
226.159683 9989.0 
228.043793 3796.0 
END IONS

BEGIN IONS
NAME=N-Benzoyl-DL-alanine CollisionEnergy:102040 2M-H
PRECURSOR_MZ=385.14
INCHI="InChI=1S/C10H11NO3/c1-7(10(13)14)11-9(12)8-5-3-2-4-6-8/h2-7H,1H3,(H,11,12)(H,13,14)"
SMILES=CC(N=C(O)c1ccccc1)C(=O)O
SPECTRUMID=CCMSLIB00010108083
101.638367 2224.0 
118.353432 2482.0 
118.683189 2378.0 
130.212845 2984.0 
148.076736 90472.0 
188.228668 2437.0 
192.066589 717567.0 
209.892258 2823.0 
209.91217 5102.0 
216.988922 3018.0 
225.416321 2352.0 
303.242767 4242.0 
375.215485 2530.0 
END IONS

BEGIN IONS
NAME=3-indol-3-yl-2-[2-(2-methylphenoxy)acetylamino]propanoic acid CollisionEnergy:102040 2M-H
PRECURSOR_MZ=703.277
INCHI="InChI=1S/C20H20N2O4/c1-13-6-2-5-9-18(13)26-12-19(23)22-17(20(24)25)10-14-11-21-16-8-4-3-7-15(14)16/h2-9,11,17,21H,10,12H2,1H3,(H,22,23)(H,24,25)"
SMILES=Cc1ccccc1OCC(O)=NC(Cc1c[nH]c2ccccc12)C(=O)O
SPECTRUMID=CCMSLIB00010109626
58.66959 3108.0 
70.029442 7701.0 
72.008774 23754.0 
74.024429 18426.0 
84.00882 8206.0 
102.452026 3154.0 
104.302719 3898.0 
106.066002 20503.0 
107.050247 506359.0 
113.011803 20372.0 
114.019661 280681.0 
116.050652 47464.0 
118.67627 3310.0 
120.081543 30129.0 
142.065521 4123.0 
147.045837 4294.0 
153.235779 3412.0 
154.19902 3644.0 
156.081528 5564.0 
157.076797 46868.0 
159.092316 13498.0 
164.072144 72496.0 
169.077057 14825.0 
186.05632 5284.0 
199.088425 17730.0 
203.082565 118707.0 
208.903625 14668.0 
222.077118 95617.0 
243.077408 103561.0 
249.139099 7142.0 
303.245026 4792.0 
351.135193 2971296.0 
406.235535 4188.0 
583.126953 4114.0 
703.277527 17816.0 
END IONS

BEGIN IONS
NAME=HELIOTRINE CollisionEnergy:205060 M+Na
PRECURSOR_MZ=336.178
INCHI="InChI=1S/C16H27NO5/c1-10(2)16(20,11(3)21-4)15(19)22-9-12-5-7-17-8-6-13(18)14(12)17/h5,10-11,13-14,18,20H,6-9H2,1-4H3/t11?,13-,14+,16?/m0/s1"
SMILES=COC(C)C(O)(C(=O)OCC1=CCN2CCC(O)C12)C(C)C
SPECTRUMID=CCMSLIB00010115592
64.154694 2968.0 
64.974876 2997.0 
67.042 4419.0 
80.049698 18140.0 
81.05735 4787.0 
82.065353 87380.0 
89.762444 2543.0 
94.065109 164089.0 
96.080757 135595.0 
101.848419 2747.0 
101.950073 5170.0 
104.268646 3183.0 
106.582741 2898.0 
110.059868 21297.0 
120.080673 75868.0 
136.075745 15185.0 
138.091248 754963.0 
153.088562 13959.0 
160.073059 3174.0 
178.082718 4049.0 
197.973557 3863.0 
199.093842 170026.0 
257.976288 5043.0 
294.919312 2965.0 
336.177521 3599149.0 
END IONS

BEGIN IONS
NAME="(2H,3H-benzo[3,4-e]1,4-dioxin-6-ylsulfonyl)[2-(2,5-dimethylindol-3-yl)ethyl]am ine CollisionEnergy:102040" M+formate
PRECURSOR_MZ=431.128
INCHI="InChI=1S/C20H22N2O4S/c1-13-3-5-18-17(11-13)16(14(2)22-18)7-8-21-27(23,24)15-4-6-19-20(12-15)26-10-9-25-19/h3-6,11-12,21-22H,7-10H2,1-2H3"
SMILES=Cc1ccc2[nH]c(C)c(CCNS(=O)(=O)c3ccc4c(c3)OCCO4)c2c1
SPECTRUMID=CCMSLIB00010109377
50.0616 2385.0 
62.99958 2149.0 
68.630043 2621.0 
70.578346 2280.0 
80.640808 2851.0 
92.402847 3314.0 
112.946503 2424.0 
122.024902 4612.0 
174.955719 3230.0 
209.026108 5688.0 
214.018036 349671.0 
256.64624 2611.0 
313.109344 2575.0 
385.123108 450052.0 
390.988007 3677.0 
410.976929 2949.0 
430.979553 23423.0 
END IONS

BEGIN IONS
NAME="3,4-DIHYDROXYBENZOIC ACID CollisionEnergy:102040" M+H
PRECURSOR_MZ=155.034
INCHI="InChI=1S/C7H6O4/c8-5-2-1-4(7(10)11)3-6(5)9/h1-3,8-9H,(H,10,11)"
SMILES=O=C(O)c1ccc(O)c(O)c1
SPECTRUMID=CCMSLIB00010113864
51.940731 18427.0 
52.1026 2968.0 
55.98851 3502.0 
64.265297 3443.0 
65.039253 314006.0 
67.935623 6471.0 
72.937721 4634.0 
81.034126 14577.0 
83.049477 4688.0 
83.930328 14746.0 
85.945953 4028.0 
89.765503 3501.0 
93.033974 628052.0 
102.948753 4932.0 
104.26442 4043.0 
109.028763 88432.0 
111.044373 2108561.0 
113.941841 3445.0 
113.964058 6605.0 
117.935402 8484.0 
118.943466 17237.0 
119.951347 8003.0 
131.950851 15816.0 
136.185715 4854.0 
137.023285 340177.0 
137.66803 3732.0 
140.950989 13332.0 
146.974762 3345.0 
149.961197 25008.0 
155.033737 411842.0 
155.153442 3948.0 
END IONS

BEGIN IONS
NAME="(2E)-3-(2,4-dichlorophenyl)-1-(4-bromophenyl)prop-2-en-1-one CollisionEnergy:205060" M+H
PRECURSOR_MZ=354.929
INCHI=InChI=1S/C15H9BrCl2O/c16-12-5-1-11(2-6-12)15(19)8-4-10-3-7-13(17)9-14(10)18/h1-9H/b8-4+
SMILES=O=C(C=Cc1ccc(Cl)cc1Cl)c1ccc(Br)cc1
SPECTRUMID=CCMSLIB00010124595
51.02346 6274.0 
55.01807 2512.0 
57.336319 2344.0 
68.464546 2510.0 
75.023109 3622.0 
77.251907 2855.0 
79.018013 3754.0 
82.944969 12881.0 
88.853554 2321.0 
90.976562 12054.0 
92.383392 2764.0 
102.045982 13115.0 
130.041122 79119.0 
130.948883 12841.0 
136.007355 126385.0 
146.97554 10530.0 
150.029831 2813.0 
163.005722 5073.0 
170.976074 464255.0 
172.959595 3247.0 
174.970688 22965.0 
178.077499 45319.0 
180.963593 4411.0 
182.94342 214246.0 
198.971024 347606.0 
205.065979 3555.0 
206.072449 32945.0 
208.958664 13914.0 
209.583237 2367.0 
212.002167 15975.0 
212.038437 4785.0 
213.046249 68415.0 
218.867874 25995.0 
241.040924 140768.0 
241.883713 2779.0 
243.42572 2622.0 
267.398804 2804.0 
275.003723 19114.0 
276.009918 198848.0 
308.897797 14666.0 
318.95163 35154.0 
331.914948 10285.0 
336.91925 3997.0 
354.927948 634530.0 
355.280243 15106.0 
444.910614 2680.0 
730.913025 3105.0 
END IONS

BEGIN IONS
NAME=lincomycin CollisionEnergy:205060 M+Na
PRECURSOR_MZ=429.203
INCHI="InChI=1S/C18H34N2O6S/c1-5-6-10-7-11(20(3)8-10)17(25)19-12(9(2)21)16-14(23)13(22)15(24)18(26-16)27-4/h9-16,18,21-24H,5-8H2,1-4H3,(H,19,25)/t9-,10-,11+,12-,13+,14-,15-,16-,18-/m1/s1"
SMILES=CCCC1CC(C(O)=NC(C(C)O)C2OC(SC)C(O)C(O)C2O)N(C)C1
SPECTRUMID=CCMSLIB00010120444
69.348213 2237.0 
70.023323 2579.0 
92.379784 2526.0 
104.276993 2716.0 
118.639511 3416.0 
126.127388 28574.0 
153.451706 2266.0 
194.115631 13095.0 
276.086639 23229.0 
411.191498 15991.0 
429.202423 729980.0 
END IONS

BEGIN IONS
NAME="N-(2,6-dimethylphenyl)-2-(4-chlorophenyl)-2-{N-[2-(2-methylindol-3-yl)ethyl]ac etylamino}acetamide CollisionEnergy:205060" M+H
PRECURSOR_MZ=488.21
INCHI="InChI=1S/C29H30ClN3O2/c1-18-8-7-9-19(2)27(18)32-29(35)28(22-12-14-23(30)15-13-22)33(21(4)34)17-16-24-20(3)31-26-11-6-5-10-25(24)26/h5-15,28,31H,16-17H2,1-4H3,(H,32,35)"
SMILES=CC(=O)N(CCc1c(C)[nH]c2ccccc12)C(C(O)=Nc1c(C)cccc1C)c1ccc(Cl)cc1
SPECTRUMID=CCMSLIB00010124095
80.864754 2823.0 
85.321953 3009.0 
91.054337 4099.0 
115.054337 3187.0 
117.057297 3610.0 
117.069977 5225.0 
127.012291 4759.0 
130.065033 12541.0 
131.085846 3997.0 
143.073044 118222.0 
144.080765 4034.0 
155.072388 3257.0 
156.080856 21256.0 
157.088593 49218.0 
158.096527 1602471.0 
160.076645 4916.0 
169.076416 16014.0 
170.083633 17491.0 
171.090958 4406.0 
172.099731 24167.0 
173.101257 3309.0 
182.096771 3144.0 
214.10997 14542.0 
223.780441 2580.0 
243.104675 5426.0 
244.148621 3177.0 
280.070618 12568.0 
297.093567 27022.0 
339.118835 35449.0 
367.120941 163015.0 
443.14389 22214.0 
488.674072 25265.0 
489.138916 4003.0 
729.202942 5002.0 
END IONS

BEGIN IONS
NAME=ST077127 CollisionEnergy:102040 M-H
PRECURSOR_MZ=431.098
INCHI="InChI=1S/C21H20O10/c22-6-8-4-10-14(11(24)5-8)18(27)15-9(16(10)25)2-1-3-12(15)30-21-20(29)19(28)17(26)13(7-23)31-21/h1-5,13,17,19-24,26,28-29H,6-7H2"
SMILES=O=C1c2cc(CO)cc(O)c2C(=O)c2c(OC3OC(CO)C(O)C(O)C3O)cccc21
SPECTRUMID=CCMSLIB00010113025
57.21236 2643.0 
71.01358 14246.0 
75.00856 3430.0 
85.02916 4603.0 
89.024406 4021.0 
92.382843 3146.0 
101.024597 61135.0 
113.024483 38676.0 
161.04628 6866.0 
165.040848 31526.0 
175.025192 44328.0 
207.931564 5507.0 
207.954605 9659.0 
223.039841 3651.0 
225.055969 13227.0 
237.054825 4009.0 
240.015686 4817.0 
240.042953 145610.0 
241.051392 15884.0 
249.056259 5225.0 
253.051361 86640.0 
254.058868 50256.0 
255.066528 158275.0 
265.050934 203293.0 
267.039154 3970.0 
267.066193 33035.0 
268.038818 16528.0 
269.045959 3526918.0 
271.06189 7277.0 
277.049835 5291.0 
279.066345 12325.0 
281.047638 5867.0 
282.053497 122368.0 
282.088501 5010.0 
283.061554 129777.0 
293.045807 495893.0 
294.884888 3868.0 
305.046265 20783.0 
307.061493 3717.0 
311.056519 238176.0 
317.103851 3249.0 
323.056396 36309.0 
335.055969 18717.0 
341.063568 4078.0 
371.077179 7253.0 
431.098785 109576.0 
431.163971 5394.0 
447.288757 3821.0 
END IONS

BEGIN IONS
NAME=3-(2-bromophenoxy)-4-oxochromen-7-yl furan-2-carboxylate CollisionEnergy:205060 M+Na
PRECURSOR_MZ=448.963
INCHI=InChI=1S/C20H11BrO6/c21-14-4-1-2-5-15(14)27-18-11-25-17-10-12(7-8-13(17)19(18)22)26-20(23)16-6-3-9-24-16/h1-11H
SMILES=O=C(Oc1ccc2c(=O)c(Oc3ccccc3Br)coc2c1)c1ccco1
SPECTRUMID=CCMSLIB00010124611
64.785744 2550.0 
73.943039 3250.0 
84.763733 2589.0 
90.139999 2416.0 
95.01284 15976.0 
101.847809 2708.0 
104.553368 2457.0 
116.367447 2340.0 
199.071991 3113.0 
208.522659 4299.0 
208.542847 5742.0 
309.803802 3110.0 
448.962738 1775915.0 
466.972595 6091.0 
END IONS

BEGIN IONS
NAME="1,3-bisbenzyl-4-hydroxyhydroquinolin-2-one CollisionEnergy:205060" M-H
PRECURSOR_MZ=340.134
INCHI="InChI=1S/C23H19NO2/c25-22-19-13-7-8-14-21(19)24(16-18-11-5-2-6-12-18)23(26)20(22)15-17-9-3-1-4-10-17/h1-14,25H,15-16H2"
SMILES=O=c1c(Cc2ccccc2)c(O)c2ccccc2n1Cc1ccccc1
SPECTRUMID=CCMSLIB00010117544
51.51487 26904.0 
52.040051 24044.0 
57.381279 24768.0 
59.149681 25085.0 
66.743294 28505.0 
71.116867 26832.0 
73.9533 36801.0 
82.397507 31384.0 
95.535492 27928.0 
134.413406 28697.0 
144.046387 41072.0 
154.153275 31862.0 
168.510803 29359.0 
172.040375 514254.0 
205.089874 46233.0 
207.068817 67383.0 
209.389191 52942.0 
209.407806 34863.0 
220.076843 273525.0 
221.085541 121355.0 
234.053757 48799.0 
234.092743 130993.0 
248.07193 596165.0 
248.097549 34174.0 
249.079788 20114092.0 
271.099396 32778.0 
281.070648 374840.0 
306.956726 28625.0 
339.123535 107006.0 
340.134552 83230784.0 
341.750763 34902.0 
END IONS

BEGIN IONS
NAME="N-(2H-benzo[3,4-d]1,3-dioxolen-5-yl)-2-[4-(N,N-diethylcarbamoyl)-2-oxohydroqui nolyl]acetamide CollisionEnergy:102040" M+Na
PRECURSOR_MZ=444.153
INCHI="InChI=1S/C23H23N3O5/c1-3-25(4-2)23(29)17-12-22(28)26(18-8-6-5-7-16(17)18)13-21(27)24-15-9-10-19-20(11-15)31-14-30-19/h5-12H,3-4,13-14H2,1-2H3,(H,24,27)"
SMILES=CCN(CC)C(=O)c1cc(=O)n(CC(O)=Nc2ccc3c(c2)OCO3)c2ccccc12
SPECTRUMID=CCMSLIB00010114239
56.08297 2853.0 
56.109169 2608.0 
66.400558 3890.0 
68.791603 2741.0 
82.499352 3011.0 
85.036278 3242.0 
100.298889 3144.0 
122.013344 2944.0 
200.777374 3030.0 
209.35405 3434.0 
313.190918 3246.0 
426.142609 16929.0 
444.152161 5345792.0 
END IONS

BEGIN IONS
NAME="2',3'-Dimethoxyflavone CollisionEnergy:205060" M+H
PRECURSOR_MZ=283.096
INCHI="InChI=1S/C17H14O4/c1-19-15-9-5-7-12(17(15)20-2)16-10-13(18)11-6-3-4-8-14(11)21-16/h3-10H,1-2H3"
SMILES=COc1cccc(-c2cc(=O)c3ccccc3o2)c1OC
SPECTRUMID=CCMSLIB00010115885
63.199829 3059.0 
65.03923 12146.0 
66.046959 4290.0 
82.38942 2897.0 
91.054283 24032.0 
92.025848 29507.0 
93.033813 5383.0 
94.041443 10150.0 
95.049454 3036.0 
105.033737 21478.0 
107.049347 40163.0 
118.041473 40103.0 
119.04921 23268.0 
120.020599 18566.0 
120.057129 15497.0 
121.028526 867612.0 
122.036186 39983.0 
126.961807 2887.0 
131.048874 5810.0 
134.036072 19831.0 
135.044037 73464.0 
137.023849 22067.0 
138.031219 50004.0 
146.036087 29116.0 
147.044098 226162.0 
148.051819 42893.0 
151.039566 3875.0 
157.95607 3618.0 
163.554886 3088.0 
165.069733 17117.0 
166.077835 13999.0 
169.064789 4206.0 
170.072693 5291.0 
171.04541 3080.0 
175.038788 3419.0 
181.065613 14429.0 
183.080826 6728.0 
185.060074 16963.0 
193.06546 15430.0 
194.073044 46340.0 
195.081314 3442.0 
197.060043 19145.0 
198.067978 51178.0 
205.06543 5349.0 
208.256439 13672.0 
209.059601 32729.0 
210.067719 31050.0 
211.076614 19829.0 
212.08223 3708.0 
213.054657 4026.0 
221.059738 183268.0 
222.067673 38313.0 
223.075104 26214.0 
225.054672 110584.0 
226.062485 71603.0 
236.947983 12554.0 
237.05455 542716.0 
238.062225 4576.0 
239.07019 369410.0 
240.079056 5929.0 
249.054001 58913.0 
250.062027 86731.0 
251.07016 123635.0 
253.04982 74774.0 
254.057327 107409.0 
255.064789 50303.0 
259.966949 5174.0 
265.050201 48696.0 
267.065063 950197.0 
268.073395 69412.0 
283.096375 2164772.0 
END IONS

BEGIN IONS
NAME=folic acid CollisionEnergy:205060 M-H
PRECURSOR_MZ=440.132
INCHI="InChI=1S/C19H19N7O6/c20-19-25-15-14(17(30)26-19)23-11(8-22-15)7-21-10-3-1-9(2-4-10)16(29)24-12(18(31)32)5-6-13(27)28/h1-4,8,12,21H,5-7H2,(H,24,29)(H,27,28)(H,31,32)(H3,20,22,25,26,30)/t12-/m0/s1"
SMILES=N=c1nc(O)c2nc(CNc3ccc(C(=O)NC(CCC(=O)O)C(=O)O)cc3)cnc2[nH]1
SPECTRUMID=CCMSLIB00010123418
62.304771 3117.0 
66.009216 21161.0 
72.432411 3162.0 
76.394997 3429.0 
84.045357 32995.0 
85.029327 6786.0 
92.050499 133440.0 
92.416962 4059.0 
102.05603 60189.0 
104.025223 6141.0 
104.331177 3743.0 
105.033546 4374.0 
106.041153 7092.0 
109.368629 3512.0 
116.565353 2913.0 
117.046387 22129.0 
119.036339 70290.0 
120.020439 11534.0 
128.035461 133016.0 
131.036484 3571.0 
132.044281 586495.0 
133.028656 4414.0 
133.052185 14034.0 
135.056564 125387.0 
136.040604 131864.0 
146.046021 48790.0 
146.961243 16951.0 
147.031433 13983.0 
147.056641 55037.0 
157.039749 19059.0 
159.092834 4730.0 
161.072479 17114.0 
162.042282 79850.0 
164.034363 83152.0 
170.072632 3850.0 
174.042511 48325.0 
174.956757 15300.0 
175.050171 662699.0 
176.058243 52042.0 
177.103622 148988.0 
197.083755 5001.0 
198.065933 3069.0 
203.083206 64663.0 
207.040039 383523.0 
208.676361 17167.0 
220.08522 6831.0 
221.093521 129846.0 
222.078659 23243.0 
224.09462 38118.0 
225.077423 3438.0 
247.074982 3858.0 
249.089294 7413.0 
250.0737 13611.0 
265.08374 19779.0 
267.100006 47656.0 
268.084076 38507.0 
269.064148 3597.0 
282.135681 5554.0 
284.104553 4588.0 
291.135956 5384.0 
292.096344 23354.0 
292.145172 3219.0 
293.079651 61721.0 
303.847717 6705.0 
304.852295 4224.0 
304.914459 12960.0 
308.115082 4772.0 
309.146027 13146.0 
310.106293 18070.0 
311.090027 425465.0 
318.830872 4261.0 
326.125031 6053.0 
327.845245 4298.0 
334.144165 14241.0 
335.127014 34437.0 
336.115845 4928.0 
352.152161 11133.0 
353.136719 43994.0 
354.116089 4436.0 
371.837219 4626.0 
378.132202 41968.0 
379.117645 4894.0 
396.142395 98825.0 
397.126617 5358.0 
421.812103 3939.0 
422.122742 99001.0 
423.105713 5213.0 
440.132843 2080035.0 
761.934265 4099.0 
END IONS

BEGIN IONS
NAME=Phorbol 12-myristate 13-acetate CollisionEnergy:102040 M+Na
PRECURSOR_MZ=639.387
INCHI="InChI=1S/C36H56O8/c1-7-8-9-10-11-12-13-14-15-16-17-18-29(39)43-32-24(3)35(42)27(30-33(5,6)36(30,32)44-25(4)38)20-26(22-37)21-34(41)28(35)19-23(2)31(34)40/h19-20,24,27-28,30,32,37,41-42H,7-18,21-22H2,1-6H3/t24-,27+,28-,30-,32-,34-,35-,36-/m1/s1"
SMILES=CCCCCCCCCCCCCC(=O)OC1C(C)C2(O)C(C=C(CO)CC3(O)C(=O)C(C)=CC32)C2C(C)(C)C12OC(C)=O
SPECTRUMID=CCMSLIB00010114246
51.052849 3804.0 
52.820469 3620.0 
66.747269 4832.0 
67.188782 3734.0 
69.033447 23464.0 
80.215813 4259.0 
83.009979 4674.0 
83.048897 16146.0 
92.385933 4335.0 
105.544083 3702.0 
107.04895 4253.0 
107.08522 5146.0 
109.064827 4800.0 
113.058029 4453.0 
121.101181 5897.0 
121.855667 3889.0 
135.079742 7690.0 
143.085892 4577.0 
147.079422 7293.0 
157.100616 8034.0 
159.080322 18640.0 
159.116074 19625.0 
161.095444 8889.0 
171.079803 6299.0 
171.116241 8451.0 
173.095779 14144.0 
173.131927 5130.0 
175.074677 4812.0 
181.100922 7692.0 
185.095245 19609.0 
186.102814 17973.0 
187.110519 15080.0 
193.100464 5955.0 
195.081085 5074.0 
195.118683 11580.0 
197.095093 9625.0 
199.110809 41242.0 
201.126175 8547.0 
207.116196 5299.0 
209.095673 23473.0 
210.1035 8618.0 
211.111145 32207.0 
213.127274 8951.0 
223.111389 39637.0 
225.089218 6946.0 
225.127396 8815.0 
227.107132 6655.0 
232.123184 5516.0 
235.109863 17039.0 
236.118759 8272.0 
236.239319 4313.0 
237.126907 4768.0 
238.856964 4020.0 
239.10643 5480.0 
239.14064 4894.0 
241.121521 22977.0 
244.243301 4734.0 
247.146118 6923.0 
250.133316 9482.0 
251.10788 11213.0 
251.142761 25106.0 
251.19632 5296.0 
253.123108 7727.0 
253.15712 4506.0 
260.118469 9393.0 
265.158661 40866.0 
267.139282 31329.0 
267.165833 4680.0 
269.117737 5697.0 
269.151764 7764.0 
275.141693 17418.0 
278.128601 7617.0 
281.150909 4125.0 
283.16803 52486.0 
293.153259 97159.0 
293.209991 6936.0 
300.110352 30392.0 
311.163239 191324.0 
315.134521 50069.0 
317.11026 5809.0 
317.895203 4019.0 
318.122162 233158.0 
329.174896 82726.0 
333.145325 464775.0 
351.156006 2332824.0 
353.173492 5629.0 
369.166443 97928.0 
389.19516 22338.0 
392.181976 28154.0 
411.177032 2320607.0 
452.203857 14695.0 
579.364807 281849.0 
579.468567 9352.0 
639.385803 5641802.0 
643.581177 4440.0 
657.396362 9399.0 
END IONS

BEGIN IONS
NAME=D-Pyroglutamic acid CollisionEnergy:102040 M+Na
PRECURSOR_MZ=152.032
INCHI="InChI=1S/C5H7NO3/c7-4-2-1-3(6-4)5(8)9/h3H,1-2H2,(H,6,7)(H,8,9)/t3-/m1/s1"
SMILES=O=C(O)C1CCC(O)=N1
SPECTRUMID=CCMSLIB00010113492
55.953419 3266.0 
96.045036 4793.0 
104.279556 3348.0 
105.833939 2864.0 
121.436653 2704.0 
124.039383 3374.0 
124.086761 20316.0 
143.081619 3650.0 
151.938553 6905.0 
151.978516 4283.0 
152.017426 4347.0 
152.031815 20648.0 
152.056778 2856.0 
152.070557 4408.0 
END IONS

BEGIN IONS
NAME=ferulic acid CollisionEnergy:205060 M-H
PRECURSOR_MZ=193.051
INCHI="InChI=1S/C10H10O4/c1-14-9-6-7(2-4-8(9)11)3-5-10(12)13/h2-6,11H,1H3,(H,12,13)/b5-3+"
SMILES=COc1cc(C=CC(=O)O)ccc1O
SPECTRUMID=CCMSLIB00010122924
66.903778 10763.0 
82.255379 8648.0 
82.409393 13654.0 
89.039803 11940.0 
90.933823 12793.0 
93.034576 16636.0 
96.499001 9660.0 
106.042603 44024.0 
109.029022 9285.0 
111.008339 11031.0 
117.03495 18523.0 
119.179718 9754.0 
121.02951 55362.0 
133.029724 171836.0 
134.037521 2670507.0 
137.024597 410361.0 
139.040222 145313.0 
149.025024 13523.0 
149.060928 469692.0 
149.074219 19310.0 
150.032394 49774.0 
157.992737 13661.0 
178.027313 1220698.0 
191.263382 9442.0 
193.050766 840444.0 
211.940704 8992.0 
END IONS

BEGIN IONS
NAME="11-{3-chloro-4-[(2-fluorophenyl)methoxy]phenyl}-3,3-dimethyl-2,3,4-trihydro-5H ,10H,11H-benzo[b]benzo[2,1-f]1,4-diazepin-1-one CollisionEnergy:102040" M+Na
PRECURSOR_MZ=499.156
INCHI="InChI=1S/C28H26ClFN2O2/c1-28(2)14-23-26(24(33)15-28)27(32-22-10-6-5-9-21(22)31-23)17-11-12-25(19(29)13-17)34-16-18-7-3-4-8-20(18)30/h3-13,27,31-32H,14-16H2,1-2H3"
SMILES=CC1(C)CC(=O)C2=C(C1)Nc1ccccc1NC2c1ccc(OCc2ccccc2F)c(Cl)c1
SPECTRUMID=CCMSLIB00010104603
51.184891 2848.0 
66.738518 2802.0 
73.94738 2844.0 
80.160103 2708.0 
90.976784 4840.0 
104.276894 3651.0 
119.738876 2865.0 
157.958893 2898.0 
226.951218 5061.0 
241.133652 4404.0 
255.313934 3542.0 
263.115509 17940.0 
310.135376 2871.0 
332.151855 3693.0 
333.038544 3835.0 
342.132477 10974.0 
375.087952 3524.0 
389.101593 202195.0 
390.113098 6999.0 
441.200348 6541.0 
446.658691 2736.0 
499.154572 3240344.0 
END IONS

BEGIN IONS
NAME="2-amino-5-oxo-4-(3,4,5-trimethoxyphenyl)-4H-pyrano[3,2-c]chromene-3-carbonitri le CollisionEnergy:102040" M-H
PRECURSOR_MZ=405.109
INCHI="InChI=1S/C22H18N2O6/c1-26-15-8-11(9-16(27-2)20(15)28-3)17-13(10-23)21(24)30-19-12-6-4-5-7-14(12)29-22(25)18(17)19/h4-9,17H,24H2,1-3H3"
SMILES=COc1cc(C2C(C#N)=C(N)Oc3c2c(=O)oc2ccccc32)cc(OC)c1OC
SPECTRUMID=CCMSLIB00010108668
56.79707 2549.0 
65.014214 2654492.0 
66.748482 3434.0 
82.407784 2560.0 
86.20871 2842.0 
118.65937 2746.0 
144.858093 2835.0 
157.982803 2809.0 
173.596909 3071.0 
211.974014 4072.0 
268.867798 11676.0 
320.977112 3488.0 
336.85965 4094.0 
404.976562 6337.0 
405.1091 192757.0 
END IONS

BEGIN IONS
NAME="2-phenoxyethyl 6-(3-chloro-4-hydroxy-5-methoxyphenyl)-3,4-dimethyl-2-oxo-1,3,6 -trihydropyrimidine-5-carboxylate CollisionEnergy:102040" 2M+H
PRECURSOR_MZ=893.256
INCHI="InChI=1S/C22H23ClN2O6/c1-13-18(21(27)31-10-9-30-15-7-5-4-6-8-15)19(24-22(28)25(13)2)14-11-16(23)20(26)17(12-14)29-3/h4-8,11-12,19,26H,9-10H2,1-3H3,(H,24,28)"
SMILES=COc1cc(C2N=C(O)N(C)C(C)=C2C(=O)OCCOc2ccccc2)cc(Cl)c1O
SPECTRUMID=CCMSLIB00010110622
75.055527 26561.0 
78.835808 4348.0 
89.817017 4015.0 
90.280724 4019.0 
92.900284 4427.0 
93.069679 7409.0 
98.060066 470739.0 
107.50396 4942.0 
120.617668 4619.0 
121.064774 102558.0 
137.380585 4300.0 
142.049606 15478.0 
151.049896 42855.0 
155.738586 4293.0 
157.981522 4371.0 
169.060379 31392.0 
176.271637 3731.0 
193.995804 4830.0 
209.036423 5397.0 
211.015717 9522.0 
212.010727 501370.0 
224.046982 5910.0 
233.16655 3979.0 
235.015274 184951.0 
236.127838 378441.0 
238.064041 5465.0 
252.04599 4829.0 
262.107147 84761.0 
266.057343 96455.0 
289.117554 198857.0 
309.06308 333590.0 
310.083923 24266.0 
334.614319 4974.0 
353.088196 33722.0 
362.67215 4713.0 
404.124481 94907.0 
447.131165 2335114.0 
END IONS

BEGIN IONS
NAME=3-Ureidopropionic acid CollisionEnergy:102040 M-H+2Na
PRECURSOR_MZ=177.025
INCHI="InChI=1S/C4H8N2O3/c5-4(9)6-2-1-3(7)8/h1-2H2,(H,7,8)(H3,5,6,9)"
SMILES=N=C(O)NCCC(=O)O
SPECTRUMID=CCMSLIB00010126836
62.724701 4721.470215 
66.759804 4825.810059 
87.977402 730855.0 
88.375099 3869.060059 
91.112602 4032.139893 
110.515999 4710.089844 
112.037003 8463.400391 
134.018997 900426.0 
159.014008 18637.5 
159.998001 191663.0 
177.024002 257774.0 
END IONS

BEGIN IONS
NAME="3-({5-[(3-carboxypropanoyloxy)methyl]-1,2,14,18,18-pentamethyl-8-(1-methylviny l)pentacyclo[11.8.0.0<2,10>.0<5,9>.0<14,19>]henicos-17-yl}oxycarbonyl)propanoi c acid CollisionEnergy:205060" M+formate
PRECURSOR_MZ=687.411
INCHI="InChI=1S/C38H58O8/c1-23(2)24-14-19-38(22-45-31(43)12-10-29(39)40)21-20-36(6)25(33(24)38)8-9-27-35(5)17-16-28(46-32(44)13-11-30(41)42)34(3,4)26(35)15-18-37(27,36)7/h24-28,33H,1,8-22H2,2-7H3,(H,39,40)(H,41,42)"
SMILES=C=C(C)C1CCC2(COC(=O)CCC(=O)O)CCC3(C)C(CCC4C5(C)CCC(OC(=O)CCC(=O)O)C(C)(C)C5CCC43C)C12
SPECTRUMID=CCMSLIB00010125207
55.018459 14565.0 
56.523701 2722.0 
58.688709 2603.0 
66.755508 2828.0 
71.013512 16987.0 
83.728958 3127.0 
92.395607 2940.0 
95.778572 2713.0 
99.008774 438233.0 
104.305344 3808.0 
118.676552 3024.0 
135.221252 2959.0 
148.956955 3608.0 
163.247086 3420.0 
210.105621 4005.0 
210.126114 3849.0 
221.372437 3082.0 
520.562195 3136.0 
541.390381 66907.0 
641.403503 67287.0 
END IONS

BEGIN IONS
NAME=4alpha-PMA CollisionEnergy:102040 M+H
PRECURSOR_MZ=617.405
INCHI="InChI=1S/C36H56O8/c1-7-8-9-10-11-12-13-14-15-16-17-18-29(39)43-32-24(3)35(42)27(30-33(5,6)36(30,32)44-25(4)38)20-26(22-37)21-34(41)28(35)19-23(2)31(34)40/h19-20,24,27-28,30,32,37,41-42H,7-18,21-22H2,1-6H3/t24-,27+,28-,30-,32-,34+,35-,36-/m1/s1"
SMILES=CCCCCCCCCCCCCC(=O)OC1C(C)C2(O)C(C=C(CO)CC3(O)C(=O)C(C)=CC32)C2C(C)(C)C12OC(C)=O
SPECTRUMID=CCMSLIB00010112832
58.27853 3300.0 
69.034203 4875.0 
81.070442 4644.0 
82.404984 4280.0 
83.04953 4154.0 
86.416054 2879.0 
91.054718 5505.0 
93.070038 17164.0 
95.08596 5724.0 
99.004723 3456.0 
105.070038 6924.0 
107.085571 29781.0 
109.065079 5043.0 
116.502403 3174.0 
119.085381 10552.0 
121.064941 14780.0 
121.101173 88336.0 
121.110313 4876.0 
131.085602 5805.0 
133.064758 6739.0 
135.080643 12616.0 
139.075348 11697.0 
143.085251 5415.0 
145.100616 6866.0 
145.916565 2823.0 
147.080627 5039.0 
149.095932 79543.0 
157.100998 7348.0 
159.080795 7567.0 
159.116745 4478.0 
161.059464 3953.0 
161.096451 4138.0 
163.075348 23980.0 
163.112 3571.0 
167.106354 3907.0 
168.23851 2899.0 
169.101547 5170.0 
171.079681 3663.0 
171.117279 11247.0 
173.096344 15688.0 
173.132919 13473.0 
175.075592 3777.0 
181.085495 7191.0 
181.102402 4731.0 
183.117294 6055.0 
185.095581 4718.0 
187.111298 6574.0 
189.090652 4280.0 
195.117325 5776.0 
197.096085 3237.0 
197.133026 5080.0 
199.111496 31002.0 
201.127487 16555.0 
206.859573 3044.0 
209.096313 5613.0 
211.110825 5868.0 
213.090607 3620.0 
214.663223 3190.0 
215.106842 3738.0 
223.112305 25346.0 
223.149246 3632.0 
223.315674 2819.0 
224.119583 4472.0 
225.127655 13015.0 
227.107086 14054.0 
227.142868 4065.0 
229.120651 3561.0 
232.127151 3881.0 
237.125977 11669.0 
237.165024 6304.0 
241.122986 32089.0 
241.149765 3439.0 
243.139771 4256.0 
247.148026 17654.0 
251.107147 6751.0 
251.140427 9803.0 
253.121536 23260.0 
255.138168 4042.0 
255.172775 3837.0 
259.133179 10877.0 
265.158417 46496.0 
267.14035 3510.0 
269.116974 17674.0 
269.153625 38601.0 
271.132599 44188.0 
275.142761 12447.0 
278.130493 6739.0 
283.168915 101169.0 
287.128845 7322.0 
293.15332 86471.0 
301.178925 13951.0 
311.163788 310430.0 
313.143036 12897.0 
329.174225 288308.0 
347.18512 20385.0 
353.172302 28812.0 
365.031586 3452.0 
371.185486 45167.0 
389.195007 160062.0 
539.36969 3498.0 
617.391541 41465.0 
637.425415 3686.0 
END IONS

BEGIN IONS
NAME=8-[(2-chlorophenyl)methylthio]-9-(4-methylphenyl)hydropurin-6-one CollisionEnergy:102040 M+Na
PRECURSOR_MZ=405.055
INCHI="InChI=1S/C19H15ClN4OS/c1-12-6-8-14(9-7-12)24-17-16(18(25)22-11-21-17)23-19(24)26-10-13-4-2-3-5-15(13)20/h2-9,11H,10H2,1H3,(H,21,22,25)"
SMILES=Cc1ccc(-n2c(SCc3ccccc3Cl)nc3c(O)ncnc32)cc1
SPECTRUMID=CCMSLIB00010112167
82.394783 3140.0 
109.205421 3006.0 
119.774063 2668.0 
127.012283 4476.0 
130.605713 2709.0 
279.030609 114315.0 
280.03833 174879.0 
347.094482 20896.0 
364.025604 17083.0 
364.078522 2804.0 
369.075958 5226.0 
404.544128 5774.0 
405.053864 2876063.0 
419.486084 3348.0 
END IONS

BEGIN IONS
NAME=4-[(3-oxobenzo[b]thiophen-2-ylidene)methyl]phenyl benzoate CollisionEnergy:102040 M+Na
PRECURSOR_MZ=381.056
INCHI=InChI=1S/C22H14O3S/c23-21-18-8-4-5-9-19(18)26-20(21)14-15-10-12-17(13-11-15)25-22(24)16-6-2-1-3-7-16/h1-14H/b20-14+
SMILES=O=C(Oc1ccc(C=C2Sc3ccccc3C2=O)cc1)c1ccccc1
SPECTRUMID=CCMSLIB00010114625
77.607452 2355.0 
87.170021 2412.0 
121.471138 2530.0 
136.206604 2576.0 
174.391922 2424.0 
184.894226 2507.0 
211.517227 3507.0 
240.912079 4073.0 
334.899689 4465.0 
381.055115 1040279.0 
381.278259 181333.0 
END IONS

BEGIN IONS
NAME="N-[(1E)-2-(2-hydroxynaphthyl)-1-azavinyl]-2-(3,5-dioxo(2H,4H-1,2,4-triazin-6-y l))acetamide CollisionEnergy:205060" M+Na
PRECURSOR_MZ=362.086
INCHI="InChI=1S/C16H13N5O4/c22-13-6-5-9-3-1-2-4-10(9)11(13)8-17-20-14(23)7-12-15(24)18-16(25)21-19-12/h1-6,8,22H,7H2,(H,20,23)(H2,18,21,24,25)/b17-8+"
SMILES=OC(Cc1nnc(O)nc1O)=NN=Cc1c(O)ccc2ccccc12
SPECTRUMID=CCMSLIB00010120118
55.93491 3367.0 
60.454861 2292.0 
67.160522 2145.0 
72.937576 2983.0 
82.392799 3369.0 
92.370743 3378.0 
104.276497 2608.0 
111.609413 2183.0 
111.842773 2061.0 
131.965942 2782.0 
157.955048 2925.0 
164.664917 2894.0 
176.006363 17454.0 
218.028122 13206.0 
239.96904 3312.0 
265.725891 2469.0 
321.063171 3085.0 
339.076843 20620.0 
362.085541 959656.0 
END IONS

BEGIN IONS
NAME="N-(3,4-dimethylphenyl)-2-[2-oxo-4-(N-propylcarbamoyl)hydroquinolyl]acetamide CollisionEnergy:205060" M-H
PRECURSOR_MZ=390.182
INCHI="InChI=1S/C23H25N3O3/c1-4-11-24-23(29)19-13-22(28)26(20-8-6-5-7-18(19)20)14-21(27)25-17-10-9-15(2)16(3)12-17/h5-10,12-13H,4,11,14H2,1-3H3,(H,24,29)(H,25,27)"
SMILES=CCCN=C(O)c1cc(=O)n(CC(=O)Nc2ccc(C)c(C)c2)c2ccccc12
SPECTRUMID=CCMSLIB00010121829
59.01339 17716.0 
59.275452 2894.0 
66.747131 3689.0 
80.050209 4112.0 
86.061256 3847.0 
92.050407 17129.0 
92.385178 3769.0 
100.07666 13586.0 
115.055473 47330.0 
116.050499 125875.0 
118.029778 4799.0 
120.081879 199885.0 
128.050598 583780.0 
130.066223 508971.0 
130.078033 5671.0 
131.036926 5685.0 
132.045776 30318.0 
142.066406 28220.0 
143.061508 7381.0 
144.045532 1679348.0 
146.02475 15545.0 
146.060959 24499.0 
152.070999 3490.0 
156.045761 43889.0 
156.069351 36441.0 
157.053635 13269.0 
157.077087 44581.0 
158.048401 188762.0 
158.061371 365979.0 
160.040466 218349.0 
160.055725 6580.0 
160.076691 50859.0 
167.062088 6356.0 
169.077469 13879.0 
172.040482 133448.0 
174.05658 40921.0 
176.071976 105308.0 
182.049225 18510.0 
183.055878 3962.0 
183.093353 20476.0 
184.040497 158716.0 
189.043015 5434.0 
195.09285 16035.0 
197.108826 50561.0 
198.331039 3047.0 
199.124207 297739.0 
201.103485 181549.0 
201.121002 3611.0 
202.051041 75322.0 
209.030441 3484.0 
213.103485 183844.0 
215.118942 40754.0 
225.104736 5424.0 
227.083542 5810.0 
229.098312 295266.0 
231.114365 14948.0 
237.528656 3426.0 
243.113937 128376.0 
245.093262 175473.0 
269.093262 145481.0 
275.103882 172345.0 
287.105286 12420.0 
298.305756 3218.0 
305.129791 551180.0 
319.107208 16620.0 
319.146576 3672.0 
337.120636 22425.0 
349.116852 6100.0 
390.182831 625073.0 
END IONS

BEGIN IONS
NAME="{[2-(2,5-dimethylindol-3-yl)ethyl]amino}-N-(4-chlorophenyl)carboxamide CollisionEnergy:205060" M-H
PRECURSOR_MZ=340.122
INCHI="InChI=1S/C19H20ClN3O/c1-12-3-8-18-17(11-12)16(13(2)22-18)9-10-21-19(24)23-15-6-4-14(20)5-7-15/h3-8,11,22H,9-10H2,1-2H3,(H2,21,23,24)"
SMILES=Cc1ccc2[nH]c(C)c(CCN=C(O)Nc3ccc(Cl)cc3)c2c1
SPECTRUMID=CCMSLIB00010118526
73.961807 2998.0 
79.232803 2427.0 
82.40535 2880.0 
84.273232 2688.0 
97.978577 3012.0 
98.979141 2922.0 
126.011772 1597973.0 
144.082138 3614.0 
158.097351 25002.0 
170.001328 4705.0 
187.124207 3032207.0 
189.079437 3809.0 
213.1035 113829.0 
340.123138 38176.0 
END IONS

BEGIN IONS
NAME=2-methoxyethyl 1-{2-[(2-chloro-4-nitrophenyl)amino]ethyl}-5-hydroxy-2-methylbe nzo[g]indole-3-carboxylate CollisionEnergy:102040 M+formate
PRECURSOR_MZ=542.134
INCHI="InChI=1S/C25H24ClN3O6/c1-15-23(25(31)35-12-11-34-2)19-14-22(30)17-5-3-4-6-18(17)24(19)28(15)10-9-27-21-8-7-16(29(32)33)13-20(21)26/h3-8,13-14,27,30H,9-12H2,1-2H3"
SMILES=COCCOC(=O)c1c(C)n(CCNc2ccc([N+](=O)[O-])cc2Cl)c2c1cc(O)c1ccccc12
SPECTRUMID=CCMSLIB00010113320
55.72559 2332.0 
56.9011 2176.0 
73.966469 2561.0 
82.412132 2801.0 
104.299377 2646.0 
104.307411 3396.0 
176.974976 2744.0 
185.955063 3212.0 
208.602341 12350.0 
298.109375 18368.0 
347.490875 2576.0 
350.237518 2763.0 
391.560547 3290.0 
496.128143 17114.0 
END IONS

BEGIN IONS
NAME=2'-DEOXYURIDINE CollisionEnergy:102040 M+formate
PRECURSOR_MZ=273.073
INCHI="InChI=1S/C9H12N2O5/c12-4-6-5(13)3-8(16-6)11-2-1-7(14)10-9(11)15/h1-2,5-6,8,12-13H,3-4H2,(H,10,14,15)/t5-,6+,8+/m0/s1"
SMILES=O=c1nc(O)ccn1C1CC(O)C(CO)O1
SPECTRUMID=CCMSLIB00010114255
66.91568 2587.0 
68.013611 12973.0 
70.029259 9819.0 
75.994614 2895.0 
82.029388 4132.0 
87.60257 3076.0 
92.384583 3141.0 
94.029427 12123.0 
95.024849 9760.0 
96.008408 3206.0 
96.045013 5801.0 
98.024529 50374.0 
101.023819 3667.0 
104.287033 2475.0 
108.008911 58891.0 
110.024597 53139.0 
111.019157 5068.0 
112.040527 27016.0 
124.003326 4625.0 
124.04023 2714.0 
125.011589 65078.0 
125.035294 4204.0 
126.006866 88164.0 
136.040863 5742.0 
137.035477 5993.0 
139.051605 4131.0 
140.035126 231265.0 
141.030304 338490.0 
150.017838 2762.0 
151.014755 9127.0 
162.609985 2708.0 
168.015945 4715.0 
168.030121 15618.0 
183.040878 710957.0 
184.061432 35338.0 
198.040375 5666.0 
220.645401 2740.0 
227.067307 241489.0 
228.892349 3458.0 
229.000137 3282.0 
230.066818 12385.0 
273.072937 957493.0 
END IONS

BEGIN IONS
NAME="2H-benzo[3,4-d]1,3-dioxolen-5-yl 4-[(3,5-dimethyl-1-phenylpyrazol-4-yl)methyl] piperazinyl ketone CollisionEnergy:102040" M+Na
PRECURSOR_MZ=441.19
INCHI="InChI=1S/C24H26N4O3/c1-17-21(18(2)28(25-17)20-6-4-3-5-7-20)15-26-10-12-27(13-11-26)24(29)19-8-9-22-23(14-19)31-16-30-22/h3-9,14H,10-13,15-16H2,1-2H3"
SMILES=Cc1nn(-c2ccccc2)c(C)c1CN1CCN(C(=O)c2ccc3c(c2)OCO3)CC1
SPECTRUMID=CCMSLIB00010107754
53.42318 2930.0 
74.087822 3575.0 
82.402489 3217.0 
88.108932 2887.0 
168.638367 3100.0 
247.834503 2954.0 
432.395447 3225.0 
441.189392 5225936.0 
END IONS

BEGIN IONS
NAME=Pinocembrine CollisionEnergy:102040 M-H
PRECURSOR_MZ=255.066
INCHI="InChI=1S/C15H12O4/c16-10-6-11(17)15-12(18)8-13(19-14(15)7-10)9-4-2-1-3-5-9/h1-7,13,16-17H,8H2/t13-/m1/s1"
SMILES=O=C1CC(c2ccccc2)Oc2cc(O)cc(O)c21
SPECTRUMID=CCMSLIB00010105649
54.57666 4743.0 
55.931862 4224.0 
58.035969 4445.0 
60.556931 5840.0 
63.02364 70330.0 
65.00293 159939.0 
67.018646 6218.0 
83.013771 286920.0 
95.012756 4788.0 
106.115097 5312.0 
107.013947 330620.0 
108.021637 6447.0 
123.008911 12398.0 
125.024567 45554.0 
129.4552 5082.0 
133.029602 12406.0 
136.016251 31880.0 
137.863632 4837.0 
141.07077 11858.0 
145.06601 302886.0 
151.003647 849686.0 
158.951309 24162.0 
164.011856 111217.0 
167.087097 21497.0 
169.014221 30093.0 
169.065765 181994.0 
171.04512 239873.0 
172.053177 49405.0 
177.019775 35817.0 
183.081436 68144.0 
185.061508 61635.0 
187.07634 257958.0 
193.066345 24830.0 
196.001358 38280.0 
208.242859 24692.0 
211.076614 394573.0 
213.055756 971559.0 
227.070923 84508.0 
254.004868 12269.0 
254.057709 9736.0 
255.066498 23169856.0 
256.134918 12087.0 
END IONS

BEGIN IONS
NAME=hesperetin CollisionEnergy:205060 2M-H
PRECURSOR_MZ=603.151
INCHI="InChI=1S/C16H14O6/c1-21-13-3-2-8(4-10(13)18)14-7-12(20)16-11(19)5-9(17)6-15(16)22-14/h2-6,14,17-19H,7H2,1H3/t14-/m0/s1"
SMILES=COc1ccc(C2CC(=O)c3c(O)cc(O)cc3O2)cc1O
SPECTRUMID=CCMSLIB00010116264
66.760971 3415.0 
71.684601 2803.0 
73.975014 2906.0 
82.424927 2574.0 
90.533447 3080.0 
92.403023 3990.0 
174.183228 3171.0 
205.574814 2791.0 
261.492798 2638.0 
301.072388 20514.0 
313.741516 2897.0 
441.070862 2654.0 
END IONS

BEGIN IONS
NAME="8-{[2-(4-ethoxy-3-methoxyphenyl)-5-methyl(1,3-oxazol-4-yl)]methylthio}-2,9-dim ethylhydropurin-6-one CollisionEnergy:205060" M+H
PRECURSOR_MZ=442.154
INCHI="InChI=1S/C21H23N5O4S/c1-6-29-15-8-7-13(9-16(15)28-5)20-24-14(11(2)30-20)10-31-21-25-17-18(26(21)4)22-12(3)23-19(17)27/h7-9H,6,10H2,1-5H3,(H,22,23,27)"
SMILES=CCOc1ccc(-c2nc(CSc3nc4c(O)nc(C)nc4n3C)c(C)o2)cc1OC
SPECTRUMID=CCMSLIB00010121994
61.289299 3155.0 
65.22187 3311.0 
66.731194 4038.0 
69.033867 50944.0 
83.04937 4006.0 
95.049171 4127.0 
96.906319 3791.0 
104.270554 3399.0 
107.036507 8222.0 
118.645973 4269.0 
122.035973 7529.0 
135.019669 7567.0 
135.031357 209732.0 
148.039047 18424.0 
149.047684 10350.0 
149.059616 59734.0 
149.088852 3991.0 
150.05484 4594551.0 
151.038727 26032.0 
168.065582 14967.0 
175.062744 19743.0 
176.070633 6934.0 
177.090958 5233.0 
178.08609 1572991.0 
188.070251 6124.0 
191.080978 15711.0 
197.049713 40554.0 
203.056885 44050.0 
216.066132 30143.0 
217.073975 4997.0 
218.080917 2029720.0 
246.112091 6332593.0 
259.237061 3976.0 
287.137482 15634.0 
442.153137 274074.0 
END IONS

BEGIN IONS
NAME="N-{2-[(6,7-dimethoxyisoquinolyl)methyl]-4,5-dimethoxyphenyl}(4-fluorophenyl)ca rboxamide CollisionEnergy:205060" M+H
PRECURSOR_MZ=477.182
INCHI="InChI=1S/C27H25FN2O5/c1-32-23-12-17-9-10-29-22(20(17)14-25(23)34-3)11-18-13-24(33-2)26(35-4)15-21(18)30-27(31)16-5-7-19(28)8-6-16/h5-10,12-15H,11H2,1-4H3,(H,30,31)"
SMILES=COc1cc(Cc2nccc3cc(OC)c(OC)cc23)c(NC(=O)c2ccc(F)cc2)cc1OC
SPECTRUMID=CCMSLIB00010115897
50.015518 27112.0 
51.017429 4498.0 
51.020821 6034.0 
51.023411 96619.0 
57.081558 3849.0 
71.029472 101460.0 
74.015251 7840.0 
75.023003 40851.0 
79.018143 38844.0 
91.054466 5763.0 
95.02919 25779.0 
99.023872 24051.0 
113.039597 70240.0 
115.054108 19166.0 
117.07019 3585.0 
123.023918 3029089.0 
128.049683 7826.0 
133.065002 7530.0 
141.055725 4254.0 
142.065033 24323.0 
144.08046 5265.0 
145.064499 4371.0 
148.051682 32509.0 
156.044373 34267.0 
157.051208 5389.0 
159.067596 28588.0 
160.051422 4578.0 
160.075546 18555.0 
170.059479 29521.0 
171.06752 501537.0 
172.075439 38982.0 
174.054489 25441.0 
174.091461 5316.0 
175.075134 39892.0 
187.062546 60939.0 
188.069992 27362.0 
190.08667 8034.0 
192.065659 6242.0 
202.085907 653148.0 
203.09375 34900.0 
204.064087 5516.0 
228.081589 18467.0 
234.091248 7799.0 
243.111725 4603.0 
248.070038 18625.0 
249.078323 31678.0 
250.085617 105246.0 
251.092621 5422.0 
252.101685 17031.0 
256.076202 20110.0 
262.083374 6337.0 
263.093079 31736.0 
264.065002 15178.0 
264.10083 37742.0 
276.101074 5066.0 
277.072174 8814.0 
277.104004 6091.0 
278.080536 203301.0 
278.112427 10588.0 
279.088379 126403.0 
280.095978 22524.0 
291.08725 17509.0 
292.060699 8209.0 
292.095306 95637.0 
293.066345 8714.0 
293.103699 272281.0 
294.111359 287987.0 
295.109253 6267.0 
306.075653 61103.0 
306.111542 8756.0 
307.081726 19664.0 
307.118256 64578.0 
308.086609 24407.0 
308.116119 36733.0 
309.123871 6100.0 
311.138062 29820.0 
320.091095 4818.0 
321.098022 56706.0 
322.106384 1861148.0 
323.104767 32003.0 
324.115326 6063.0 
333.088379 4691.0 
335.102478 22191.0 
337.129913 195219.0 
338.137634 139321.0 
339.137054 120520.0 
341.106964 5480.0 
353.107086 9306.0 
357.106049 18740.0 
358.123199 13417.0 
368.095062 7188.0 
369.102325 30015.0 
370.108612 16463.0 
371.118988 58294.0 
373.134613 15873.0 
381.102173 14490.0 
382.110016 8565.0 
383.118866 24552.0 
384.089661 20156.0 
385.092712 18246.0 
385.136139 17278.0 
386.111481 17006.0 
388.13324 22358.0 
397.096527 7153.0 
398.103333 14361.0 
399.112427 191929.0 
400.119812 8248.0 
401.130737 117144.0 
411.111694 18889.0 
413.076172 5056.0 
413.129761 119508.0 
414.140991 42779.0 
415.145477 240004.0 
416.125092 62668.0 
425.127991 5187.0 
427.104828 138990.0 
428.116669 23626.0 
429.123169 149303.0 
432.159576 33943.0 
441.119202 4078.0 
443.138947 1367631.0 
444.147827 17457.0 
459.170166 296993.0 
461.146759 25584.0 
462.155792 13942.0 
477.180908 4772918.0 
END IONS

BEGIN IONS
NAME=oligomycin A CollisionEnergy:102040 M+formate
PRECURSOR_MZ=835.521
INCHI="InChI=1S/C45H74O11/c1-12-34-17-15-13-14-16-27(4)42(51)44(11,53)43(52)32(9)40(50)31(8)39(49)30(7)38(48)26(3)18-21-37(47)54-41-29(6)35(20-19-34)55-45(33(41)10)23-22-25(2)36(56-45)24-28(5)46/h13-15,17-18,21,25-36,38,40-42,46,48,50-51,53H,12,16,19-20,22-24H2,1-11H3/b14-13+,17-15+,21-18+/t25-,26-,27+,28+,29+,30-,31-,32-,33-,34-,35-,36-,38+,40+,41+,42-,44+,45-/m1/s1"
SMILES=CCC1C=CC=CCC(C)C(O)C(C)(O)C(=O)C(C)C(O)C(C)C(=O)C(C)C(O)C(C)C=CC(=O)OC2C(C)C(CC1)OC1(CCC(C)C(CC(C)O)O1)C2C
SPECTRUMID=CCMSLIB00010112929
61.748711 3846.0 
64.926697 2870.0 
71.013344 25664.0 
78.005539 3926.0 
81.034332 15019.0 
82.397163 3871.0 
92.378693 4667.0 
93.514442 3339.0 
93.596733 4019.0 
94.071068 3033.0 
109.029533 14835.0 
113.061043 23004.0 
127.428818 3397.0 
129.055649 7997.0 
135.082245 3567.0 
136.170807 2929.0 
150.224228 3669.0 
195.10318 5472.0 
243.125092 11512.0 
270.43811 4018.0 
380.322876 3707.0 
401.957367 3507.0 
545.385071 6151.0 
573.38092 93078.0 
626.41626 4069.0 
641.443176 3888.0 
687.448914 4951.0 
835.515503 4441.0 
END IONS

BEGIN IONS
NAME="2-{[1-(4-methylphenyl)-5-phenyl-1,2,4-triazol-3-yl]carbonylamino}acetic acid CollisionEnergy:205060" M+Na
PRECURSOR_MZ=359.111
INCHI="InChI=1S/C18H16N4O3/c1-12-7-9-14(10-8-12)22-17(13-5-3-2-4-6-13)20-16(21-22)18(25)19-11-15(23)24/h2-10H,11H2,1H3,(H,19,25)(H,23,24)"
SMILES=Cc1ccc(-n2nc(C(=O)NCC(=O)O)nc2-c2ccccc2)cc1
SPECTRUMID=CCMSLIB00010118196
54.7477 2706.0 
79.410393 2419.0 
90.380211 2362.0 
155.058228 2406.0 
157.961594 2514.0 
194.096085 49268.0 
213.089493 2609.0 
229.020401 2912.0 
247.488388 2435.0 
258.099701 78684.0 
302.090515 14531.0 
359.110596 1582226.0 
377.120209 4838.0 
END IONS

BEGIN IONS
NAME="3-[(3-chloro-4-fluorophenyl)amino]-1-(3,4,5-trimethoxyphenyl)propan-1-one CollisionEnergy:205060" M+H
PRECURSOR_MZ=368.106
INCHI="InChI=1S/C18H19ClFNO4/c1-23-16-8-11(9-17(24-2)18(16)25-3)15(22)6-7-21-12-4-5-14(20)13(19)10-12/h4-5,8-10,21H,6-7H2,1-3H3"
SMILES=COc1cc(C(=O)CCNc2ccc(F)c(Cl)c2)cc(OC)c1OC
SPECTRUMID=CCMSLIB00010116490
65.039337 2648.0 
71.029533 2763.0 
78.427467 3043.0 
79.949219 2816.0 
95.11203 2870.0 
95.723686 2984.0 
109.06485 15393.0 
112.950577 2579.0 
122.04007 44830.0 
122.823036 2937.0 
123.047897 102652.0 
129.998138 44552.0 
131.005844 16164.0 
135.370087 3311.0 
137.05986 17024.0 
138.010468 4716.0 
138.067032 3093.0 
139.039169 15801.0 
154.062546 676562.0 
158.016876 4002066.0 
169.086044 402169.0 
193.085938 13001.0 
199.044525 3623.0 
211.096588 1073206.0 
230.802414 2953.0 
248.554321 3692.0 
368.106079 5013.0 
371.274841 2980.0 
465.34903 3128.0 
475.555969 3534.0 
END IONS

BEGIN IONS
NAME="N-[5-(2-methylpropyl)-4-oxo(1,3-dioxan-5-yl)]benzamide CollisionEnergy:102040" M+H
PRECURSOR_MZ=278.139
INCHI="InChI=1S/C15H19NO4/c1-11(2)8-15(9-19-10-20-14(15)18)16-13(17)12-6-4-3-5-7-12/h3-7,11H,8-10H2,1-2H3,(H,16,17)"
SMILES=CC(C)CC1(N=C(O)c2ccccc2)COCOC1=O
SPECTRUMID=CCMSLIB00010108589
50.927422 2382.0 
51.023621 3194.0 
53.039089 31224.0 
68.830994 2824.0 
69.070122 13419.0 
72.044746 300114.0 
73.028648 3224.0 
77.038933 11130.0 
78.071571 2868.0 
79.054787 2987.0 
81.033638 3910.0 
81.070023 22375.0 
83.085533 4848.0 
95.049316 10824.0 
97.064621 18379.0 
98.096481 30580.0 
99.080597 3438.0 
100.039307 53944.0 
100.112061 32050.0 
101.223137 2906.0 
101.936028 2781.0 
104.049606 5891.0 
104.294273 3324.0 
104.456917 2405.0 
104.755928 2745.0 
105.03347 3396509.0 
110.096283 26308.0 
112.1119 56136.0 
118.049294 4500.0 
122.059967 226242.0 
127.075394 4561.0 
128.106888 596518.0 
129.09082 166675.0 
132.335709 2899.0 
138.090469 3207.0 
146.060257 3947.0 
156.101807 120563.0 
169.544373 2875.0 
176.070633 3623.0 
202.101044 6191.0 
202.122345 157146.0 
204.064987 11975.0 
213.921799 5304.0 
220.132828 115828.0 
222.075806 430376.0 
231.932602 2907.0 
232.132935 90508.0 
248.127777 190672.0 
249.112442 11169.0 
250.143234 107089.0 
260.12735 17691.0 
275.828247 3197.0 
278.138184 401218.0 
END IONS

BEGIN IONS
NAME="7-(2H-benzo[3,4-d]1,3-dioxolen-5-yloxymethyl)-4,5,6-trimethoxy-3-hydroisobenzo furan-1-one CollisionEnergy:205060" M+Na
PRECURSOR_MZ=397.089
INCHI="InChI=1S/C19H18O8/c1-21-16-11(7-24-10-4-5-13-14(6-10)27-9-26-13)15-12(8-25-19(15)20)17(22-2)18(16)23-3/h4-6H,7-9H2,1-3H3"
SMILES=COc1c2c(c(COc3ccc4c(c3)OCO4)c(OC)c1OC)C(=O)OC2
SPECTRUMID=CCMSLIB00010119909
58.667961 2448.0 
63.2939 2450.0 
76.139313 2452.0 
104.296066 3024.0 
160.012726 195836.0 
174.296844 2760.0 
190.742783 2549.0 
229.046967 24816.0 
245.040878 35613.0 
246.048706 5930.0 
260.06488 104583.0 
292.054565 71544.0 
339.084442 5197.0 
369.092987 3096.0 
397.088379 1082675.0 
END IONS

BEGIN IONS
NAME="2-[(4-methylphenyl)sulfonyl]-1-({[(4-methylphenyl)sulfonyl]amino}methyl)-1,2,3 ,4-tetrahydroisoquinoline CollisionEnergy:205060" M+H
PRECURSOR_MZ=471.141
INCHI="InChI=1S/C24H26N2O4S2/c1-18-7-11-21(12-8-18)31(27,28)25-17-24-23-6-4-3-5-20(23)15-16-26(24)32(29,30)22-13-9-19(2)10-14-22/h3-14,24-25H,15-17H2,1-2H3"
SMILES=Cc1ccc(S(=O)(=O)NCC2c3ccccc3CCN2S(=O)(=O)c2ccc(C)cc2)cc1
SPECTRUMID=CCMSLIB00010118888
50.30727 3504.0 
53.002659 4682.0 
55.018471 50703.0 
59.847031 3522.0 
61.463848 3558.0 
62.936062 3459.0 
65.039078 505205.0 
66.046928 3909.0 
67.018356 3569.0 
67.054703 256681.0 
67.058861 8422.0 
68.997459 4476.0 
69.045029 5214.0 
70.206528 3906.0 
77.039268 4502.0 
79.054497 5408.0 
90.682869 3696.0 
91.054451 1188728.0 
92.374268 4044.0 
93.216789 3877.0 
95.049202 85658.0 
103.05442 87724.0 
105.069923 79869.0 
107.049591 4223.0 
109.064873 375786.0 
115.054314 358586.0 
116.049019 4323.0 
116.051323 4280.0 
116.062141 283339.0 
117.057838 41532.0 
117.069931 832180.0 
118.077812 9212.0 
119.060478 414780.0 
128.04953 3629.0 
128.06221 35693.0 
129.070084 34632.0 
130.065201 279417.0 
131.072174 13139.0 
132.080887 2404321.0 
133.088455 8983.0 
139.021255 29039.0 
142.065552 4834.0 
143.073044 93862.0 
144.080902 5953114.0 
145.065735 22865.0 
145.088638 901995.0 
146.059998 8255.0 
146.096466 35820.0 
155.016129 440968.0 
155.060059 21844.0 
159.091827 34596.0 
160.076584 14506.0 
160.099319 34527.0 
161.107346 578904.0 
198.074585 3779.0 
199.4953 3807.0 
199.518539 4053.0 
223.053802 24472.0 
246.493423 4029.0 
286.089752 62488.0 
300.105042 4055960.0 
315.115417 16472.0 
316.123779 145534.0 
351.436371 4665.0 
415.935486 4156.0 
471.140564 667759.0 
END IONS

BEGIN IONS
NAME="methyl 2-amino-4-(2,4-dichlorophenyl)-6-(hydroxymethyl)-8-oxo-4H-pyrano[3,2-b] pyran-3-carboxylate CollisionEnergy:205060" M+H
PRECURSOR_MZ=398.019
INCHI="InChI=1S/C17H13Cl2NO6/c1-24-17(23)13-12(9-3-2-7(18)4-10(9)19)15-14(26-16(13)20)11(22)5-8(6-21)25-15/h2-5,12,21H,6,20H2,1H3"
SMILES=COC(=O)C1=C(N)Oc2c(oc(CO)cc2=O)C1c1ccc(Cl)cc1Cl
SPECTRUMID=CCMSLIB00010123159
55.018188 18709.0 
56.96537 3893.0 
64.913429 2814.0 
67.018257 45058.0 
68.025543 3783.0 
68.997467 4733.0 
73.967796 3174.0 
83.012939 6017.0 
85.028282 4385.0 
95.012718 25009.0 
96.020042 4544.0 
97.02771 4273.0 
100.039192 4181.0 
103.43985 3156.0 
110.723297 3157.0 
115.054466 6939.0 
124.01561 5416.0 
125.014771 19621.0 
127.157463 3271.0 
128.061905 33723.0 
136.004333 3542.0 
136.23761 4189.0 
143.033401 6211.0 
144.056458 15763.0 
149.015305 4079.0 
151.030899 5755.0 
153.010513 6745.0 
154.988708 5412.0 
158.976105 6076.0 
163.030716 6591.0 
165.009964 79220.0 
166.318649 3465.0 
166.989136 39750.0 
170.975494 16080.0 
171.044022 26515.0 
172.955307 55549.0 
178.989304 6478.0 
179.025711 28324.0 
181.004517 15134.0 
182.975967 14538.0 
184.051743 36535.0 
186.022552 7148.0 
189.009949 15600.0 
190.016495 3805.0 
191.025696 36815.0 
193.004944 144422.0 
195.97139 14400.0 
196.956223 3250.0 
197.986389 5483.0 
198.970612 18784.0 
200.025909 4029.0 
201.033554 7142.0 
202.018097 4619.0 
205.00502 26003.0 
207.020538 250745.0 
207.970261 23367.0 
208.990906 22542.0 
210.971802 6011.0 
213.981155 16499.0 
216.018143 3722.0 
217.004196 3987.0 
218.012939 46822.0 
219.021683 41352.0 
223.96579 7790.0 
224.986908 6183.0 
229.027191 8173.0 
229.049515 6228.0 
230.013611 3974.0 
230.057312 31763.0 
231.02153 4525.0 
234.008179 34528.0 
235.015274 526350.0 
237.031387 5565.0 
247.015015 97300.0 
249.980667 4373.0 
252.049271 18005.0 
256.015228 6893.0 
257.023254 13396.0 
260.02356 6052.0 
263.010132 4741205.0 
264.018036 533074.0 
264.042297 10650.0 
265.025635 482177.0 
266.996368 5304.0 
276.01889 23155.0 
278.044739 3727.0 
279.989746 4120.0 
285.018311 29082.0 
286.027313 6710.0 
288.02124 3532.0 
289.026093 6300.0 
289.985443 23868.0 
291.992218 15931.0 
294.991913 37759.0 
298.986572 103252.0 
299.994812 94185.0 
300.032104 6213.0 
302.019165 5811.0 
303.001678 4225.0 
317.010315 3902.0 
319.986603 6944.0 
322.98645 5229.0 
325.001923 17128.0 
330.015869 15380.0 
337.996643 16223.0 
347.983582 27773.0 
352.997284 182511.0 
353.046082 7598.0 
362.042114 8131.0 
365.99234 1785343.0 
380.007599 18889.0 
380.9953 4495.0 
384.003387 4869.0 
398.018646 1506336.0 
END IONS

BEGIN IONS
NAME=3-Deazauridine CollisionEnergy:102040 M+H
PRECURSOR_MZ=244.082
INCHI="InChI=1S/C10H13NO6/c12-4-6-8(15)9(16)10(17-6)11-2-1-5(13)3-7(11)14/h1-3,6,8-10,12-13,15-16H,4H2"
SMILES=O=c1cc(O)ccn1C1OC(CO)C(O)C1O
SPECTRUMID=CCMSLIB00010114367
50.538471 2270.0 
55.018139 4727.0 
57.033909 13603.0 
61.010948 3627.0 
63.43837 2136.0 
66.523621 2450.0 
69.03373 9694.0 
71.922073 2389.0 
73.028641 12780.0 
75.916649 2507.0 
79.021591 2740.0 
80.928543 2890.0 
82.397942 2636.0 
84.960007 19110.0 
85.028252 16642.0 
92.378754 3936.0 
97.02816 4681.0 
103.038696 2477.0 
112.039169 2338654.0 
115.038673 17723.0 
133.049347 44972.0 
163.976517 10487.0 
165.958191 14494.0 
165.971146 13249.0 
180.983658 5383.0 
181.986481 11268.0 
182.980255 9957.0 
183.966507 30934.0 
183.98288 13154.0 
210.014923 5844.0 
243.970856 4260.0 
244.081024 44641.0 
261.944458 3117.0 
END IONS

BEGIN IONS
NAME="1,2,3,4,5,6,7,8,9,10-decahydrobenzo[a][12]annulen-12-yl-N-[6-(1,2,3,4,5,6,7,8, 9,10-decahydrobenzo[a][12]annulen-12-ylcarbonylamino)hexyl]carboxamide CollisionEnergy:102040" M+Na
PRECURSOR_MZ=639.289
INCHI="InChI=1S/C32H44N2O10/c35-31(25-5-7-27-29(23-25)43-21-17-39-13-11-37-15-19-41-27)33-9-3-1-2-4-10-34-32(36)26-6-8-28-30(24-26)44-22-18-40-14-12-38-16-20-42-28/h5-8,23-24H,1-4,9-22H2,(H,33,35)(H,34,36)"
SMILES=OC(=NCCCCCCN=C(O)c1ccc2c(c1)OCCOCCOCCO2)c1ccc2c(c1)OCCOCCOCCO2
SPECTRUMID=CCMSLIB00010111319
55.09594 3913.0 
67.302017 3826.0 
83.221184 4165.0 
92.375412 4864.0 
96.835716 4461.0 
157.966187 4687.0 
209.918839 4798.0 
213.064072 5216.0 
216.332672 4234.0 
247.093643 38311.0 
273.072693 88164.0 
278.075867 6265.0 
389.203644 88225.0 
415.1828 225814.0 
437.169586 6495.0 
495.207062 17496.0 
521.225159 9881.0 
551.237427 8109.0 
581.256958 15188.0 
595.262512 4902.0 
609.277832 9184.0 
611.287231 18389.0 
635.114807 9492.0 
639.287903 16414736.0 
643.503479 9181.0 
END IONS

BEGIN IONS
NAME="{2-[(3,5-dimethoxyphenyl)carbonylamino]phenyl}-N-(2,3-dimethylphenyl)carboxami de CollisionEnergy:102040" M+Na
PRECURSOR_MZ=427.163
INCHI="InChI=1S/C24H24N2O4/c1-15-8-7-11-21(16(15)2)25-24(28)20-9-5-6-10-22(20)26-23(27)17-12-18(29-3)14-19(13-17)30-4/h5-14H,1-4H3,(H,25,28)(H,26,27)"
SMILES=COc1cc(OC)cc(C(O)=Nc2ccccc2C(O)=Nc2cccc(C)c2C)c1
SPECTRUMID=CCMSLIB00010107362
79.561447 2787.0 
79.823547 2737.0 
104.288811 3103.0 
124.928429 3157.0 
174.112106 3354.0 
190.221695 2904.0 
226.018219 17617.0 
228.015488 16799.0 
268.13327 45423.0 
304.743896 3291.0 
409.151733 17287.0 
424.887543 3412.0 
427.162415 6054949.0 
END IONS

BEGIN IONS
NAME="ethyl 2-amino-6-(hydroxymethyl)-8-oxo-4-(3-pyridyl)-4H-pyrano[3,2-b]pyran-3-ca rboxylate CollisionEnergy:102040" M+H
PRECURSOR_MZ=345.108
INCHI="InChI=1S/C17H16N2O6/c1-2-23-17(22)13-12(9-4-3-5-19-7-9)15-14(25-16(13)18)11(21)6-10(8-20)24-15/h3-7,12,20H,2,8,18H2,1H3"
SMILES=CCOC(=O)C1=C(N)Oc2c(oc(CO)cc2=O)C1c1cccnc1
SPECTRUMID=CCMSLIB00010107113
66.737587 2214.0 
92.369957 2981.0 
107.645607 2636.0 
134.09642 2623.0 
204.064423 4567.0 
208.663422 2597.0 
232.060043 28428.0 
238.034775 2803.0 
253.060364 9024.0 
271.071686 10887.0 
272.052155 4357.0 
281.054993 9851.0 
299.027191 5613.0 
299.065613 169082.0 
313.115051 2719.0 
317.076233 3468.0 
345.107361 347676.0 
366.115387 2979.0 
END IONS

BEGIN IONS
NAME=GLUTARIC ACID CollisionEnergy:205060 M+H-H2O
PRECURSOR_MZ=115.039
INCHI="InChI=1S/C5H8O4/c6-4(7)2-1-3-5(8)9/h1-3H2,(H,6,7)(H,8,9)"
SMILES=O=C(O)CCCC(=O)O
SPECTRUMID=CCMSLIB00010125329
51.077141 2024.0 
55.018421 8585.0 
55.055031 1899.0 
56.965359 36494.0 
57.93541 4765.0 
59.049728 2384.0 
67.510269 4184.0 
68.399559 2057.0 
69.034264 2423.0 
69.070221 12365.0 
72.937462 9574.0 
73.93013 4501.0 
73.938118 10102.0 
74.046799 7524.0 
75.332336 1997.0 
86.686951 2035.0 
87.044388 217085.0 
88.25972 1861.0 
90.015007 2314.0 
91.057472 4205.0 
91.948387 2430.0 
92.056503 3721.0 
97.06488 8831.0 
99.020493 3355.0 
115.074783 2393.0 
115.094963 11777.0 
214.035583 2211.0 
END IONS

BEGIN IONS
NAME=riboflavin CollisionEnergy:102040 M+Cl
PRECURSOR_MZ=411.108
INCHI="InChI=1S/C17H20N4O6/c1-7-3-9-10(4-8(7)2)21(5-11(23)14(25)12(24)6-22)15-13(18-9)16(26)20-17(27)19-15/h3-4,11-12,14,22-25H,5-6H2,1-2H3,(H,20,26,27)/t11-,12+,14-/m0/s1"
SMILES=Cc1cc2nc3c(O)nc(=O)nc-3n(C[C@H](O)[C@H](O)[C@H](O)CO)c2cc1C
SPECTRUMID=CCMSLIB00010126486
56.243801 7544.359863 
68.888702 8319.410156 
71.721298 8209.070312 
88.923798 8924.360352 
102.693001 9863.339844 
104.330002 11209.5 
182.147995 8985.030273 
208.643997 46685.699219 
212.082993 64407.5 
241.072006 19355.099609 
255.089005 663172.0 
275.778015 10421.299805 
302.220001 9952.410156 
308.489014 11591.5 
375.131012 606562.0 
411.106995 146552.0 
END IONS

BEGIN IONS
NAME=phloretin CollisionEnergy:102040 M-H
PRECURSOR_MZ=273.077
INCHI="InChI=1S/C15H14O5/c16-10-4-1-9(2-5-10)3-6-12(18)15-13(19)7-11(17)8-14(15)20/h1-2,4-5,7-8,16-17,19-20H,3,6H2"
SMILES=O=C(CCc1ccc(O)cc1)c1c(O)cc(O)cc1O
SPECTRUMID=CCMSLIB00010106332
52.595749 4506.0 
53.843719 4081.0 
57.034149 15439.0 
57.041111 3393.0 
65.002876 16079.0 
81.034317 495326.0 
82.390823 5080.0 
83.01339 126186.0 
93.03434 92184.0 
95.049957 7434.0 
99.044647 14910.0 
104.278679 5541.0 
107.013802 23488.0 
118.643707 5020.0 
119.050041 1038769.0 
122.037773 4465.0 
123.044991 1530452.0 
125.024162 677959.0 
135.045029 8907.0 
145.065796 4398.0 
147.045349 9550.0 
149.024017 29749.0 
151.003494 119978.0 
151.016647 7255.0 
155.039276 4383.0 
163.075958 14278.0 
165.275452 3718.0 
166.027023 44464.0 
167.034653 7467646.0 
179.034653 204825.0 
185.062119 4101.0 
187.076309 81194.0 
189.055283 128244.0 
189.072372 5391.0 
213.383347 5252.0 
229.086807 175182.0 
229.111801 7411.0 
231.067154 5568.0 
255.066147 19326.0 
273.076721 12176202.0 
END IONS

BEGIN IONS
NAME=2-methoxyethyl 1-{3-[(2-chloro-4-nitrophenyl)amino]propyl}-5-hydroxy-2-methyli ndole-3-carboxylate CollisionEnergy:102040 M-H
PRECURSOR_MZ=460.128
INCHI="InChI=1S/C22H24ClN3O6/c1-14-21(22(28)32-11-10-31-2)17-13-16(27)5-7-20(17)25(14)9-3-8-24-19-6-4-15(26(29)30)12-18(19)23/h4-7,12-13,24,27H,3,8-11H2,1-2H3"
SMILES=COCCOC(=O)c1c(C)n(CCCNc2ccc([N+](=O)[O-])cc2Cl)c2ccc(O)cc12
SPECTRUMID=CCMSLIB00010113801
66.758148 4170.0 
85.951492 3464.0 
92.495644 3143.0 
98.742943 3499.0 
98.996178 3342.0 
105.061363 3012.0 
110.225311 2881.0 
115.065643 3736.0 
116.050507 7545.0 
125.537781 3793.0 
128.035263 69278.0 
130.146027 4121.0 
137.036087 5137.0 
145.053802 3709.0 
146.061523 24482.0 
147.01947 35927.0 
155.985703 78650.0 
163.051544 6268.0 
170.996689 168502.0 
172.040405 166526.0 
174.056259 7896.0 
176.035309 4895.0 
184.003113 3864.0 
185.448685 4135.0 
186.056183 4324.0 
189.042953 13626.0 
190.0513 26774.0 
194.997696 7810.0 
197.011856 28266.0 
203.009766 53872.0 
208.804977 7356.0 
208.82576 4766.0 
216.065079 5243.0 
227.045715 6985.0 
238.986053 32400.0 
247.062408 3413.0 
247.08522 188990.0 
248.092972 2474236.0 
249.051834 115216.0 
257.093414 6624.0 
285.028564 306608.0 
355.98526 4847.0 
414.086151 661411.0 
460.12851 4898829.0 
END IONS

BEGIN IONS
NAME=N-formylmethionylleucylphenylalanine CollisionEnergy:102040 M+H
PRECURSOR_MZ=438.206
INCHI="InChI=1S/C21H31N3O5S/c1-14(2)11-17(23-19(26)16(22-13-25)9-10-30-3)20(27)24-18(21(28)29)12-15-7-5-4-6-8-15/h4-8,13-14,16-18H,9-12H2,1-3H3,(H,22,25)(H,23,26)(H,24,27)(H,28,29)"
SMILES=CSCCC(N=CO)C(O)=NC(CC(C)C)C(O)=NC(Cc1ccccc1)C(=O)O
SPECTRUMID=CCMSLIB00010107394
50.831249 3601.0 
56.049938 84263.0 
61.011108 63333.0 
61.014011 4205.0 
68.264816 3923.0 
69.070267 9217.0 
71.085876 7848.0 
80.226357 4029.0 
85.890404 7873.0 
86.096672 10851767.0 
86.303513 9196.0 
89.042221 49394.0 
98.096413 20221.0 
103.054176 21639.0 
104.052803 463110.0 
104.255989 4821.0 
106.461777 3898.0 
107.048553 6153.0 
108.287193 3982.0 
111.055023 18355.0 
116.053169 32082.0 
116.555298 3969.0 
120.080833 1947489.0 
123.054741 14008.0 
131.049454 31444.0 
132.048035 6588.0 
137.84726 3895.0 
149.060303 37007.0 
151.123047 4314.0 
159.058426 32007.0 
160.042694 109274.0 
166.086319 2230038.0 
172.115402 51507.0 
179.117935 111389.0 
197.129166 15687.0 
199.126312 22575.0 
206.24054 4367.0 
207.11322 4515.0 
217.136795 78734.0 
227.121185 219166.0 
245.131729 679509.0 
255.115982 497738.0 
255.147614 7388.0 
271.965698 4502.0 
273.126495 3654900.0 
279.170074 634075.0 
289.154419 9393.0 
374.197205 4559.0 
390.203247 7299.0 
392.200439 50662.0 
395.291138 4519.0 
396.879639 3987.0 
401.971344 3985.0 
410.210602 16076.0 
420.19458 1331371.0 
438.205109 309370.0 
END IONS

BEGIN IONS
NAME=AKOS003672986 CollisionEnergy:205060 M+H
PRECURSOR_MZ=358.238
INCHI="InChI=1S/C22H31NO3/c1-4-23-10-20(3)6-5-17(25)22-15(20)7-13(18(22)23)21-9-12(11(2)19(21)26)14(24)8-16(21)22/h12-13,15-19,25-26H,2,4-10H2,1,3H3/t12?,13-,15?,16?,17-,18+,19+,20-,21-,22-/m0/s1"
SMILES=C=C1C2CC3(C1O)C1CC4C5(C)CCC(O)C4(C1N(CC)C5)C3CC2=O
SPECTRUMID=CCMSLIB00010117098
51.985039 43431.0 
52.820061 43996.0 
55.05476 215325.0 
56.04995 4366198.0 
58.065601 6247723.0 
60.081249 53024.0 
62.964081 46851.0 
65.038902 75671.0 
67.054626 920220.0 
68.144081 42361.0 
69.070427 209376.0 
70.065437 354509.0 
72.081093 932298.0 
79.049591 79805.0 
79.05452 1559354.0 
81.033607 59340.0 
81.070099 1588188.0 
82.065247 405417.0 
83.085251 52860.0 
84.080917 821762.0 
86.096642 67043.0 
91.054359 2073884.0 
91.351532 50928.0 
92.37561 52581.0 
93.069969 1552192.0 
93.07634 95940.0 
94.065277 100330.0 
95.049011 291281.0 
95.085617 1220132.0 
96.081032 208284.0 
98.096458 4243708.0 
103.054192 184859.0 
104.06147 56680.0 
105.069809 3734156.0 
107.049156 607633.0 
107.085373 854029.0 
108.080704 204030.0 
109.064743 280034.0 
109.101189 457016.0 
110.096413 1504157.0 
112.11187 84389.0 
115.054283 248216.0 
117.06971 1345512.0 
119.085564 1647316.0 
121.06485 974009.0 
121.101273 268592.0 
122.096619 172168.0 
124.112457 104548.0 
128.062393 292249.0 
129.069733 1811413.0 
130.077652 230394.0 
131.085419 1780386.0 
131.096436 64400.0 
133.065048 606057.0 
133.10112 1014378.0 
135.080658 118470.0 
135.116714 107584.0 
136.210709 65471.0 
138.127701 111234.0 
141.069748 888940.0 
142.077789 455707.0 
143.08548 2580860.0 
144.093369 77180.0 
145.064819 237409.0 
145.10112 2109755.0 
147.080078 208746.0 
147.116821 1558903.0 
148.112213 112883.0 
149.060059 91257.0 
149.132828 100699.0 
151.075821 105020.0 
153.069946 212496.0 
154.077484 349697.0 
155.08551 1548142.0 
156.09317 388886.0 
157.064972 116452.0 
157.100998 2292409.0 
158.096054 365521.0 
159.080551 235646.0 
159.116547 884263.0 
160.11174 115953.0 
161.059677 192484.0 
161.132614 240191.0 
162.127396 777394.0 
164.143616 78064.0 
165.070023 372037.0 
166.077499 116724.0 
167.085327 844637.0 
168.093338 219846.0 
169.101013 2744986.0 
170.109268 81274.0 
171.081131 249576.0 
171.116653 3287669.0 
172.110504 107445.0 
172.124649 303447.0 
173.095337 62648.0 
173.132431 802490.0 
174.127197 62023.0 
176.143967 72619.0 
178.077698 81344.0 
179.085358 615720.0 
180.09343 283609.0 
181.10112 1460631.0 
182.109619 97969.0 
183.079971 347818.0 
183.116714 928266.0 
185.096329 290946.0 
185.132553 1599209.0 
187.113556 69713.0 
187.132736 72461.0 
187.149414 104310.0 
188.143173 219718.0 
190.158798 350106.0 
191.086044 180566.0 
192.092636 106266.0 
193.101181 911348.0 
194.108322 175901.0 
195.080948 195638.0 
195.116837 1369620.0 
196.123627 104961.0 
197.095413 475501.0 
197.131775 537315.0 
198.128296 75917.0 
199.111877 242276.0 
199.147949 98526.0 
200.143127 1058256.0 
204.091644 60497.0 
205.101227 373270.0 
206.109207 204257.0 
207.116516 757949.0 
208.124344 108557.0 
209.096039 222676.0 
209.132233 899817.0 
209.250137 118499.0 
210.141357 85350.0 
211.112274 297972.0 
211.148254 237798.0 
213.091553 61570.0 
213.128204 80536.0 
214.158859 1863432.0 
215.166458 886523.0 
218.109772 64051.0 
219.11673 343426.0 
220.124985 269545.0 
221.097351 63414.0 
221.131592 609614.0 
222.140823 207788.0 
223.111664 296226.0 
223.148041 539123.0 
225.090942 114488.0 
225.126953 219615.0 
225.163925 232520.0 
227.104919 77019.0 
228.173355 93123.0 
233.131485 93917.0 
234.140594 87778.0 
235.112625 62401.0 
235.122025 67484.0 
235.147858 594623.0 
236.155838 67688.0 
237.125687 422205.0 
237.163757 607522.0 
240.176453 74891.0 
249.132797 56036.0 
249.162811 365819.0 
251.146133 128293.0 
251.179352 794906.0 
253.158661 59677.0 
265.158569 87804.0 
277.160004 224408.0 
279.17395 418920.0 
280.202087 71838.0 
292.169678 54582.0 
293.189148 236722.0 
293.639954 50613.0 
294.184418 369358.0 
294.221741 269700.0 
295.167816 79429.0 
298.177887 411925.0 
299.187073 104984.0 
306.185669 116393.0 
307.193359 53508.0 
312.232025 251758.0 
322.216003 2009411.0 
331.071259 57112.0 
338.211273 115325.0 
340.226562 94510072.0 
358.237 127756280.0 
END IONS

BEGIN IONS
NAME=glycine CollisionEnergy:102040 M+H
PRECURSOR_MZ=76.0393
INCHI="InChI=1S/C2H5NO2/c3-1-2(4)5/h1,3H2,(H,4,5)"
SMILES=NCC(=O)O
SPECTRUMID=CCMSLIB00010103311
52.1068 1945.910034 
57.449402 1923.26001 
58.0658 116570.0 
59.0737 80029.601562 
62.4823 1895.22998 
65.2771 1905.790039 
66.512398 1770.430054 
70.038399 1977.859985 
76.039902 43615.0 
76.076401 34094.398438 
END IONS

BEGIN IONS
NAME=CHLOROGENIC ACID CollisionEnergy:102040 M-H
PRECURSOR_MZ=353.088
INCHI="InChI=1S/C16H18O9/c17-9-3-1-8(5-10(9)18)2-4-13(20)25-12-7-16(24,15(22)23)6-11(19)14(12)21/h1-5,11-12,14,17-19,21,24H,6-7H2,(H,22,23)/b4-2+/t11-,12-,14-,16+/m1/s1"
SMILES=O=C(C=Cc1ccc(O)c(O)c1)OC1CC(O)(C(=O)O)CC(O)C1O
SPECTRUMID=CCMSLIB00010113654
82.418533 2947.0 
85.029114 2996.0 
89.471474 2461.0 
93.772408 2313.0 
102.948639 9807.0 
104.309776 2391.0 
104.77919 2385.0 
118.943939 3034.0 
128.189987 2669.0 
136.239899 2655.0 
146.938828 21307.0 
158.011383 2574.0 
161.0242 15491.0 
179.035141 10292.0 
190.92836 23885.0 
191.056213 1321130.0 
203.550049 2379.0 
203.901642 2505.0 
212.879501 4399.0 
262.860779 2573.0 
280.869293 9884.0 
353.088379 161689.0 
618.046021 2446.0 
END IONS

BEGIN IONS
NAME=ectoine CollisionEnergy:102040 M+H
PRECURSOR_MZ=143.082
INCHI="InChI=1S/C6H10N2O2/c1-4-7-3-2-5(8-4)6(9)10/h5H,2-3H2,1H3,(H,7,8)(H,9,10)/t5-/m0/s1"
SMILES=CC1=NCC[C@@H](C(=O)O)N1
SPECTRUMID=CCMSLIB00010126507
52.301701 49270.800781 
56.050301 2711790.0 
68.050201 9791080.0 
73.076797 2446900.0 
82.417503 74053.296875 
84.045097 650951.0 
86.060799 228534.0 
92.398903 79044.703125 
96.829201 68388.0 
97.076599 106353000.0 
97.325401 54686.0 
98.084702 98401.296875 
101.070999 11631600.0 
102.055 776202.0 
104.308998 56810.898438 
125.070999 787312.0 
142.639008 69267.601562 
143.082001 108069000.0 
END IONS

BEGIN IONS
NAME=CHEBI:39547 CollisionEnergy:102040 M-H+Na
PRECURSOR_MZ=184.094
INCHI="InChI=1S/C7H15NO3/c1-8(2,3)5-6(9)4-7(10)11/h6,9H,4-5H2,1-3H3/p+1/t6-/m1/s1"
SMILES=C[N+](C)(C)C[C@H](O)CC(=O)O
SPECTRUMID=CCMSLIB00010103106
82.408501 39138.601562 
87.093903 36226.0 
125.021004 7974250.0 
129.460999 38219.699219 
136.229004 38827.898438 
143.031006 60221.5 
175.869995 40598.898438 
184.093994 2051290.0 
END IONS

BEGIN IONS
NAME=1-ethyl-2(1H)-quinolone CollisionEnergy:205060 M+H
PRECURSOR_MZ=174.091
INCHI="InChI=1S/C11H11NO/c1-2-12-10-6-4-3-5-9(10)7-8-11(12)13/h3-8H,2H2,1H3"
SMILES=CCN1C(=O)C=CC2=CC=CC=C21
SPECTRUMID=CCMSLIB00010102310
65.632248 62204.929688 
67.441589 61698.617188 
128.049515 2020153.125 
132.044754 112628.585938 
134.973068 65977.515625 
140.216019 51367.296875 
140.248062 58572.703125 
146.060135 18628362.0 
174.091476 16332235.0 
END IONS

BEGIN IONS
NAME="N-(2,4-dichlorophenyl)(4-hydroxy-2-oxo(3-hydroquinolyl))carboxamide CollisionEnergy:205060" M-H
PRECURSOR_MZ=347.0
INCHI="InChI=1S/C16H10Cl2N2O3/c17-8-5-6-12(10(18)7-8)20-16(23)13-14(21)9-3-1-2-4-11(9)19-15(13)22/h1-7H,(H,20,23)(H2,19,21,22)"
SMILES=OC(=Nc1ccc(Cl)cc1Cl)c1c(O)nc2ccccc2c1O
SPECTRUMID=CCMSLIB00010125898
51.526131 2080.0 
52.06049 2308.0 
65.998093 28768.0 
73.97744 2438.0 
102.035141 3961.0 
115.255447 2360.0 
117.256737 2498.0 
142.029922 369270.0 
159.973419 8583.0 
160.040588 11195.0 
186.019852 262805.0 
278.723083 2411.0 
347.000763 166814.0 
END IONS

BEGIN IONS
NAME="2-[1-(4-methoxyphenyl)(1,2,3,4-tetrahydrobeta-carbolin-2-yl)]-N-naphthylacetam ide CollisionEnergy:102040" M-H
PRECURSOR_MZ=460.203
INCHI="InChI=1S/C30H27N3O2/c1-35-22-15-13-21(14-16-22)30-29-25(24-10-4-5-11-27(24)32-29)17-18-33(30)19-28(34)31-26-12-6-8-20-7-2-3-9-23(20)26/h2-16,30,32H,17-19H2,1H3,(H,31,34)"
SMILES=COc1ccc(C2c3[nH]c4ccccc4c3CCN2CC(O)=Nc2cccc3ccccc23)cc1
SPECTRUMID=CCMSLIB00010107371
62.456299 2845.0 
70.257408 2791.0 
85.10643 2785.0 
97.865936 3259.0 
110.021553 2732.0 
138.943268 2414.0 
142.066193 579554.0 
184.07695 6230.0 
199.071091 2571.0 
199.087784 130555.0 
211.087555 25655.0 
223.087341 25114.0 
232.076645 43507.0 
233.084595 163470.0 
236.108322 52937.0 
248.108307 58874.0 
249.966248 3308.0 
259.088013 16048.0 
260.095062 26437.0 
275.119141 318621.0 
291.150543 23442.0 
317.12915 14635.0 
355.982666 3899.0 
460.203308 1089394.0 
END IONS

BEGIN IONS
NAME="methylethyl 4-(3-bromo-4-hydroxy-5-methoxyphenyl)-2,7,7-trimethyl-5-oxo-1,4,6, 7,8-pentahydroquinoline-3-carboxylate CollisionEnergy:205060" M-H
PRECURSOR_MZ=476.108
INCHI="InChI=1S/C23H28BrNO5/c1-11(2)30-22(28)18-12(3)25-15-9-23(4,5)10-16(26)20(15)19(18)13-7-14(24)21(27)17(8-13)29-6/h7-8,11,19,25,27H,9-10H2,1-6H3"
SMILES=COc1cc(C2C(C(=O)OC(C)C)=C(C)NC3=C2C(=O)CC(C)(C)C3)cc(Br)c1O
SPECTRUMID=CCMSLIB00010120281
68.99781 3777.0 
78.735367 5054.0 
78.918694 7821243.0 
81.033607 4324.0 
82.402573 5103.0 
84.109749 4642.0 
89.115128 4710.0 
94.06636 5954.0 
104.290833 4279.0 
136.218292 4247.0 
140.494659 3877.0 
145.798553 3873.0 
146.098068 3919.0 
149.047684 4619.0 
160.077026 6487.0 
162.056458 46368.0 
170.097687 39525.0 
172.076935 221737.0 
174.004471 4496.0 
176.07222 6167.0 
177.079605 22744.0 
180.103088 14996.0 
185.932388 2521378.0 
186.092163 72014.0 
188.108215 354829.0 
188.128036 6931.0 
190.087463 55651.0 
192.103302 5405.0 
200.955841 567788.0 
202.087952 7578.0 
204.139725 6810.0 
213.079926 6673.0 
214.087738 22252.0 
216.066895 105556.0 
219.091034 16245.0 
231.090088 25591.0 
232.097412 32450.0 
232.135406 8269.0 
238.051437 24817.0 
256.134918 4094.0 
258.113739 31393.0 
263.080841 7930.0 
274.145233 371546.0 
292.099121 5203.0 
293.106689 26456.0 
294.11319 22025.0 
321.101044 14100.0 
336.125641 5419.0 
342.601135 4169.0 
372.610901 3794.0 
374.041046 7474.0 
386.002991 34406.0 
396.180603 4732.0 
401.026459 3993.0 
416.051544 33833.0 
461.084595 7357.0 
476.108582 5028184.0 
478.843018 6578.0 
END IONS

BEGIN IONS
NAME=L-valine CollisionEnergy:102040 M+H
PRECURSOR_MZ=118.086
INCHI="InChI=1S/C5H11NO2/c1-3(2)4(6)5(7)8/h3-4H,6H2,1-2H3,(H,7,8)/t4-/m0/s1"
SMILES=CC(C)[C@H](N)C(=O)O
SPECTRUMID=CCMSLIB00010103198
53.0606 24156.0 
55.054901 823232.0 
57.057999 63189.300781 
58.0658 253726.0 
59.073601 308612.0 
63.570999 25913.699219 
67.572098 30512.199219 
72.081398 8145420.0 
73.980103 43569.199219 
82.43 40325.699219 
116.924004 27210.300781 
118.085999 1759810.0 
END IONS

BEGIN IONS
NAME=4033-40-3 CollisionEnergy:102040 M+Na
PRECURSOR_MZ=197.053
INCHI="InChI=1S/C6H10N2O4/c1-3(9)8-4(6(11)12)2-5(7)10/h4H,2H2,1H3,(H2,7,10)(H,8,9)(H,11,12)/t4-/m0/s1"
SMILES=CC(O)=N[C@@H](CC(=N)O)C(=O)O
SPECTRUMID=CCMSLIB00010103252
50.162399 9688.94043 
53.7682 9338.980469 
87.517799 8255.389648 
104.300003 10313.299805 
106.000999 9566.80957 
132.959 15708.400391 
138.904007 9662.25 
144.173004 8722.870117 
155.042999 132645.0 
155.973999 51832.300781 
173.985001 16450.0 
180.026993 367012.0 
197.052994 428778.0 
END IONS

BEGIN IONS
NAME="N-{2-[(6,7-dimethoxyisoquinolyl)methyl]-4,5-dimethoxyphenyl}-2-(1,1-dioxothiol an-3-ylthio)acetamide CollisionEnergy:102040" M+Na
PRECURSOR_MZ=569.139
INCHI="InChI=1S/C26H30N2O7S2/c1-32-22-10-16-5-7-27-21(19(16)12-24(22)34-3)9-17-11-23(33-2)25(35-4)13-20(17)28-26(29)14-36-18-6-8-37(30,31)15-18/h5,7,10-13,18H,6,8-9,14-15H2,1-4H3,(H,28,29)"
SMILES=COc1cc(Cc2nccc3cc(OC)c(OC)cc23)c(N=C(O)CSC2CCS(=O)(=O)C2)cc1OC
SPECTRUMID=CCMSLIB00010109108
53.440849 3109.0 
55.146969 2599.0 
58.73233 2587.0 
61.687599 2673.0 
65.958267 2648.0 
71.337807 2632.0 
82.409576 3450.0 
137.303345 2768.0 
185.414062 3214.0 
214.980545 11096.0 
362.121246 3382.0 
377.146576 255950.0 
451.129456 18675.0 
487.651184 3157.0 
569.137756 1783594.0 
END IONS

BEGIN IONS
NAME=(6-chloro-2-iminochromen-3-yl)-N-(4-ethylphenyl)carboxamide CollisionEnergy:205060 M+Na
PRECURSOR_MZ=349.071
INCHI="InChI=1S/C18H15ClN2O2/c1-2-11-3-6-14(7-4-11)21-18(22)15-10-12-9-13(19)5-8-16(12)23-17(15)20/h3-10,20H,2H2,1H3,(H,21,22)"
SMILES=CCc1ccc(NC(=O)c2cc3cc(Cl)ccc3oc2=N)cc1
SPECTRUMID=CCMSLIB00010117164
50.98703 2264.0 
52.15852 2257.0 
57.306271 2241.0 
75.991699 2689.0 
84.08152 2334.0 
104.315697 2408.0 
136.249084 2397.0 
203.763962 2269.0 
304.804138 2175.0 
349.071014 179294.0 
349.234131 3145.0 
END IONS

BEGIN IONS
NAME=Robison ester CollisionEnergy:102040 M-H
PRECURSOR_MZ=259.022
INCHI="InChI=1S/C6H13O9P/c7-3-2(1-14-16(11,12)13)15-6(10)5(9)4(3)8/h2-10H,1H2,(H2,11,12,13)/t2-,3-,4+,5-,6?/m1/s1"
SMILES=O=P(O)(O)OC[C@H]1OC(O)[C@H](O)[C@@H](O)[C@@H]1O
SPECTRUMID=CCMSLIB00010102679
51.907501 9796.830078 
54.611599 10772.299805 
60.613899 9817.969727 
77.3013 11134.900391 
78.958801 681590.0 
94.257301 10427.599609 
96.969597 2884150.0 
101.024002 17344.699219 
104.323997 15084.700195 
132.949005 11425.400391 
137.431 12018.900391 
138.979996 191521.0 
168.990997 154491.0 
194.746994 11142.599609 
199.001999 194497.0 
223.001999 26334.599609 
259.02301 258327.0 
END IONS

BEGIN IONS
NAME=uric acid CollisionEnergy:102040 M-H
PRECURSOR_MZ=167.021
INCHI="InChI=1S/C5H4N4O3/c10-3-1-2(7-4(11)6-1)8-5(12)9-3/h(H4,6,7,8,9,10,11,12)"
SMILES=Oc1nc(O)c2nc(O)[nH]c2n1
SPECTRUMID=CCMSLIB00010102705
50.319901 8440.330078 
60.601299 8444.94043 
69.009201 91637.296875 
79.957199 89136.0 
82.421097 10664.5 
96.020401 299332.0 
97.004303 82459.5 
105.248001 11422.299805 
116.375999 9317.530273 
118.685997 12592.0 
122.023003 15750.400391 
123.031998 18945.5 
124.014999 2501370.0 
124.933998 11002.5 
142.026001 103498.0 
148.973007 71393.5 
166.832993 15254.700195 
166.988007 122947.0 
167.020996 4958070.0 
END IONS

BEGIN IONS
NAME="N-[4-(pyrrolidinylmethyl)phenyl](3,4,5-trimethoxyphenyl)carboxamide CollisionEnergy:205060" M-H
PRECURSOR_MZ=369.182
INCHI="InChI=1S/C21H26N2O4/c1-25-18-12-16(13-19(26-2)20(18)27-3)21(24)22-17-8-6-15(7-9-17)14-23-10-4-5-11-23/h6-9,12-13H,4-5,10-11,14H2,1-3H3,(H,22,24)"
SMILES=COc1cc(C(=O)Nc2ccc(CN3CCCC3)cc2)cc(OC)c1OC
SPECTRUMID=CCMSLIB00010115465
65.002876 12504.0 
79.018753 2471.0 
81.034363 13247.0 
82.411018 2489.0 
93.034409 5794.0 
109.029503 17937.0 
110.810501 2570.0 
120.008904 16522.0 
120.993027 15733.0 
125.024803 4103.0 
135.032455 15660.0 
136.226486 3142.0 
136.931885 3874.0 
137.024307 78280.0 
153.01915 23437.0 
155.034668 20190.0 
163.999084 13454.0 
164.927628 4678.0 
185.415482 2616.0 
187.064575 2766.0 
254.045105 25456.0 
267.11322 5587.0 
269.06897 51727.0 
284.091187 30853.0 
295.108093 55364.0 
301.05899 14830.0 
308.117584 3462.0 
311.139618 9398.0 
321.122223 5271.0 
323.102692 27826.0 
324.111298 128846.0 
331.106262 4686.0 
338.125732 30550.0 
339.134766 161550.0 
353.152283 20380.0 
354.157898 30082.0 
369.181854 551846.0 
END IONS

BEGIN IONS
NAME=ABSCISIC ACID CollisionEnergy:205060 M+Na
PRECURSOR_MZ=287.125
INCHI="InChI=1S/C15H20O4/c1-10(7-13(17)18)5-6-15(19)11(2)8-12(16)9-14(15,3)4/h5-8,19H,9H2,1-4H3,(H,17,18)/b6-5+,10-7-"
SMILES=CC(C=CC1(O)C(C)=CC(=O)CC1(C)C)=CC(=O)O
SPECTRUMID=CCMSLIB00010119596
50.75053 2434.0 
66.741699 3153.0 
70.390602 2615.0 
90.458321 2448.0 
92.374863 2491.0 
104.284409 2762.0 
119.241837 2252.0 
168.7995 2667.0 
186.936111 4351.0 
220.913071 2461.0 
245.930252 3335.0 
263.904236 14949.0 
263.940552 10453.0 
269.113708 9465.0 
287.124786 2678224.0 
END IONS

BEGIN IONS
NAME=2-[2-(4-methylphenoxy)acetylamino]-3-phenylpropanoic acid CollisionEnergy:205060 M-H
PRECURSOR_MZ=312.124
INCHI="InChI=1S/C18H19NO4/c1-13-7-9-15(10-8-13)23-12-17(20)19-16(18(21)22)11-14-5-3-2-4-6-14/h2-10,16H,11-12H2,1H3,(H,19,20)(H,21,22)"
SMILES=Cc1ccc(OCC(O)=NC(Cc2ccccc2)C(=O)O)cc1
SPECTRUMID=CCMSLIB00010118740
50.486389 2598.0 
51.231461 2553.0 
51.430809 2577.0 
66.738663 2599.0 
66.918243 2704.0 
70.029457 3547.0 
72.008759 68304.0 
74.024452 15387.0 
82.39563 2792.0 
85.016853 11297.0 
91.297417 2887.0 
93.034622 4661.0 
103.054909 3409.0 
104.284912 3997.0 
106.042648 6775.0 
106.059891 3215.0 
106.066299 272666.0 
107.050331 3439867.0 
108.021927 6151.0 
113.011971 175448.0 
118.066383 68503.0 
119.050194 78796.0 
121.066391 10824.0 
122.250366 3511.0 
123.045097 15435.0 
130.066498 12963.0 
136.201569 3590.0 
138.032516 3815.0 
146.06163 16953.0 
146.961288 3822.0 
147.045258 447454.0 
147.964508 3105.0 
149.060669 20891.0 
158.061172 5093.0 
160.076553 4533.0 
162.056763 11542.0 
164.071838 432447.0 
174.055679 30974.0 
175.922211 3183.0 
176.07196 46594.0 
182.578583 3157.0 
204.066635 330308.0 
223.113739 3254.0 
254.119034 4045.0 
312.124237 1619880.0 
END IONS

BEGIN IONS
NAME=N-(2-methoxy-5-methylphenyl)-2-(9-methyl-6-oxohydropurin-8-ylthio)acetamide CollisionEnergy:102040 M+Na
PRECURSOR_MZ=382.094
INCHI="InChI=1S/C16H17N5O3S/c1-9-4-5-11(24-3)10(6-9)19-12(22)7-25-16-20-13-14(21(16)2)17-8-18-15(13)23/h4-6,8H,7H2,1-3H3,(H,19,22)(H,17,18,23)"
SMILES=COc1ccc(C)cc1N=C(O)CSc1nc2c(O)ncnc2n1C
SPECTRUMID=CCMSLIB00010110534
60.528412 2677.0 
61.790779 2610.0 
66.731934 2913.0 
173.043533 14979.0 
174.538925 3260.0 
186.050858 5947.0 
202.998672 3043.0 
204.00705 76671.0 
216.006989 5287.0 
217.015533 23659.0 
218.022842 147990.0 
232.039383 12785.0 
245.009628 88340.0 
290.100433 3482.0 
330.904755 3164.0 
350.068573 3584.0 
353.927917 2891.0 
367.068665 38983.0 
382.093536 4133835.0 
398.215942 3227.0 
END IONS

BEGIN IONS
NAME="(2S,3S)-2-[(2S,3S)-3-(4-hydroxy-3-methoxyphenyl)-2-(hydroxymethyl)(2H,3H-benzo [e]1,4-dioxin-6-yl)]-3,5,7-trihydroxychroman-4-one CollisionEnergy:205060" 2M-H
PRECURSOR_MZ=963.235
INCHI="InChI=1S/C25H22O10/c1-32-17-6-11(2-4-14(17)28)24-20(10-26)33-16-5-3-12(7-18(16)34-24)25-23(31)22(30)21-15(29)8-13(27)9-19(21)35-25/h2-9,20,23-29,31H,10H2,1H3/t20-,23+,24-,25?/m0/s1"
SMILES=COc1cc(C2Oc3cc(C4Oc5cc(O)cc(O)c5C(=O)C4O)ccc3OC2CO)ccc1O
SPECTRUMID=CCMSLIB00010122355
66.745491 6245.0 
78.301483 5287.0 
82.398697 4766.0 
82.404167 4659.0 
83.01358 23747.0 
95.013893 18975.0 
100.324944 4198.0 
107.013718 19238.0 
111.008774 10041.0 
121.029907 14528.0 
124.016533 37765.0 
125.024277 230866.0 
135.045044 4122.0 
137.024445 5371.0 
139.039978 5162.0 
146.037323 23750.0 
147.04509 6052.0 
149.024765 18750.0 
151.003632 79872.0 
152.011292 97725.0 
153.019028 6865.0 
159.044937 17307.0 
161.061264 9622.0 
163.379562 4197.0 
164.047806 7092.0 
169.013565 4806.0 
178.998596 47782.0 
187.040161 6992.0 
201.05687 5346.0 
215.035324 9838.0 
227.034744 9429.0 
229.050446 17212.0 
255.029922 8504.0 
257.04657 8187.0 
258.05719 4484.0 
273.039978 28366.0 
284.033722 5039.0 
301.0354 89546.0 
451.1008 6868.0 
453.119354 18858.0 
458.497375 4208.0 
463.103363 27203.0 
481.11438 696612.0 
624.305115 4868.0 
END IONS

BEGIN IONS
NAME=harmol///HarmolHCl2H2O///Harmol CollisionEnergy:102040 M+H
PRECURSOR_MZ=199.087
INCHI="InChI=1S/C12H10N2O/c1-7-12-10(4-5-13-7)9-3-2-8(15)6-11(9)14-12/h2-6,14-15H,1H3"
SMILES=Cc1nccc2c1[nH]c1cc(O)ccc12
SPECTRUMID=CCMSLIB00010104500
53.49464 3714.0 
55.02438 3425.0 
61.010811 6111.0 
61.998131 3972.0 
74.096779 66684.0 
84.960136 5395.0 
94.543999 4121.0 
100.075447 19230.0 
131.049606 5135.0 
159.005478 39880.0 
171.091736 95941.0 
175.983459 8300.0 
180.982346 6611.0 
182.116608 8120.0 
184.063049 38336.0 
198.078018 45467.0 
198.35759 50026.0 
199.086517 39153016.0 
199.820114 46279.0 
END IONS

BEGIN IONS
NAME=N-(3-chloro-4-methoxyphenyl)-2-(4-hydroxyquinazolin-2-ylthio)acetamide CollisionEnergy:205060 M+Na
PRECURSOR_MZ=398.034
INCHI="InChI=1S/C17H14ClN3O3S/c1-24-14-7-6-10(8-12(14)18)19-15(22)9-25-17-20-13-5-3-2-4-11(13)16(23)21-17/h2-8H,9H2,1H3,(H,19,22)(H,20,21,23)"
SMILES=COc1ccc(N=C(O)CSc2nc(O)c3ccccc3n2)cc1Cl
SPECTRUMID=CCMSLIB00010122535
63.346588 2279.0 
66.732658 3694.0 
75.560219 2277.0 
80.948158 4307.0 
82.628159 2627.0 
97.968857 2913.0 
132.044067 3742.0 
133.049835 2501.0 
144.080658 3522.0 
205.251938 2796.0 
217.096527 2656.0 
222.314056 2507.0 
229.097794 4542.0 
240.06134 3007.0 
241.003677 53620.0 
241.962982 2668.0 
257.091431 16139.0 
265.669281 2679.0 
324.046967 4072.0 
397.523773 3921.0 
398.032867 1439507.0 
END IONS

BEGIN IONS
NAME=2-amino-7-hydroxy-4-(3-nitrophenyl)-4H-chromene-3-carbonitrile CollisionEnergy:205060 M-H
PRECURSOR_MZ=308.068
INCHI="InChI=1S/C16H11N3O4/c17-8-13-15(9-2-1-3-10(6-9)19(21)22)12-5-4-11(20)7-14(12)23-16(13)18/h1-7,15,20H,18H2"
SMILES=N#CC1=C(N)Oc2cc(O)ccc2C1c1cccc([N+](=O)[O-])c1
SPECTRUMID=CCMSLIB00010120907
57.079041 2107.0 
60.050671 2257.0 
62.983311 2092.0 
65.014168 18884.0 
65.998299 2388.0 
90.034431 9362.0 
102.035156 2697.0 
108.021721 10216.0 
114.034889 70629.0 
116.05024 11716.0 
117.046333 3139.0 
122.024986 5476.0 
141.045883 69179.0 
142.029892 25777.0 
157.040604 3748.0 
158.024673 130474.0 
160.040359 25796.0 
180.057053 3280.0 
185.03566 189086.0 
196.039398 2569.0 
208.052689 13465.0 
211.040649 2489.0 
218.063721 3296.0 
220.040588 3710.0 
229.025467 5110.0 
234.05574 3997.0 
238.050751 18353.0 
242.045822 53217.0 
253.094559 2523.0 
308.067474 501450.0 
END IONS

BEGIN IONS
NAME="(6-bromo(8-hydropyrazolo[1,5-a]pyrimidin-2-yl))-N-(4-methyl-2-oxochromen-7-yl) carboxamide CollisionEnergy:102040" M+Na
PRECURSOR_MZ=420.991
INCHI="InChI=1S/C17H11BrN4O3/c1-9-4-16(23)25-14-5-11(2-3-12(9)14)20-17(24)13-6-15-19-7-10(18)8-22(15)21-13/h2-8H,1H3,(H,20,24)"
SMILES=Cc1cc(=O)oc2cc(N=C(O)c3cc4ncc(Br)cn4n3)ccc12
SPECTRUMID=CCMSLIB00010113580
60.546421 2659.0 
62.877998 2086.0 
80.726547 2368.0 
92.390503 3157.0 
104.301659 3226.0 
122.9515 2518.0 
125.219818 2253.0 
250.0867 3248.0 
297.31076 2365.0 
332.982391 2483.0 
379.417267 2841.0 
380.25412 2616.0 
381.769775 2854.0 
414.625793 2548.0 
420.989594 420179.0 
421.218506 19076.0 
439.000122 62673.0 
END IONS

BEGIN IONS
NAME=methyl 2-[(3-methoxy-4-prop-2-enyloxyphenyl)methylene]-3-oxobenzo[b]furan-5-ca rboxylate CollisionEnergy:205060 M-e
PRECURSOR_MZ=366.11
INCHI="InChI=1S/C21H18O6/c1-4-9-26-17-7-5-13(10-18(17)24-2)11-19-20(22)15-12-14(21(23)25-3)6-8-16(15)27-19/h4-8,10-12H,1,9H2,2-3H3/b19-11+"
SMILES=C=CCOc1ccc(C=C2Oc3ccc(C(=O)OC)cc3C2=O)cc1OC
SPECTRUMID=CCMSLIB00010118371
66.867706 2188.0 
91.05426 14919.0 
97.024353 2335.0 
119.013153 3008.0 
119.049187 16686.0 
121.027893 2786.0 
136.015259 4061.0 
145.02858 10703.0 
147.043808 10906.0 
151.039169 13368.0 
165.018051 5351.0 
165.071121 4097.0 
178.078186 9359.0 
179.033813 103598.0 
179.08522 4497.0 
181.064804 15109.0 
182.072647 15122.0 
191.0345 3954.0 
192.056992 9245.0 
197.094589 2869.0 
209.05954 13783.0 
210.067154 17039.0 
223.075943 2887.0 
237.054047 26737.0 
238.061539 4800.0 
238.173676 2377.0 
251.070099 17191.0 
254.056854 21513.0 
265.050232 12031.0 
266.056885 49723.0 
267.064514 12393.0 
269.079559 21394.0 
279.06485 39324.0 
282.052216 129394.0 
294.051147 32012.0 
295.061279 32421.0 
297.075592 125579.0 
310.047272 30342.0 
325.070374 480518.0 
335.090759 2716.0 
366.113403 54077.0 
367.119263 4403.0 
END IONS

BEGIN IONS
NAME=6-Methoxychromone-3-carboxaldehyde CollisionEnergy:102040 M+H
PRECURSOR_MZ=205.05
INCHI="InChI=1S/C11H8O4/c1-14-8-2-3-10-9(4-8)11(13)7(5-12)6-15-10/h2-6H,1H3"
SMILES=COc1ccc2occ(C=O)c(=O)c2c1
SPECTRUMID=CCMSLIB00010113200
53.00296 3532.0 
64.197769 2604.0 
66.739929 2605.0 
92.38578 2682.0 
104.29686 2668.0 
113.963837 5877.0 
119.567741 2712.0 
121.064598 2870.0 
122.773956 3029.0 
134.036209 4844.0 
140.514038 3417.0 
149.022812 13480.0 
149.520233 4689.0 
150.503799 3461.0 
151.039459 19332.0 
160.17894 3160.0 
161.026672 3843.0 
162.031281 30462.0 
171.548706 2830.0 
175.038406 5491.0 
177.054474 26330.0 
190.025681 42395.0 
203.03273 21669.0 
205.049515 6296877.0 
213.642288 3074.0 
221.044327 971025.0 
END IONS

BEGIN IONS
NAME=baicalein CollisionEnergy:205060 M+H
PRECURSOR_MZ=271.06
INCHI="InChI=1S/C15H10O5/c16-9-6-11(8-4-2-1-3-5-8)20-12-7-10(17)14(18)15(19)13(9)12/h1-7,17-19H"
SMILES=O=c1cc(-c2ccccc2)oc2cc(O)c(O)c(O)c12
SPECTRUMID=CCMSLIB00010122265
52.648472 2482.0 
53.039021 2742.0 
56.965149 12212.0 
58.325089 3639.0 
68.997269 13580.0 
84.273651 2722.0 
87.311371 2343.0 
91.376221 2659.0 
92.375137 2966.0 
95.012833 65870.0 
103.054176 154557.0 
105.033386 70668.0 
115.054031 11299.0 
121.629936 2689.0 
123.007584 515444.0 
129.033173 11122.0 
131.048111 2822.0 
141.018082 98462.0 
141.069778 23871.0 
151.002884 17782.0 
153.033264 2899.0 
155.048248 4817.0 
160.003754 3939.0 
169.013016 149286.0 
169.064926 11491.0 
179.048386 10625.0 
197.059235 18874.0 
207.045151 6433.0 
225.05571 74450.0 
229.049606 37040.0 
243.053131 4819.0 
247.892548 4022.0 
253.049225 221088.0 
270.051819 10881.0 
271.059723 3224582.0 
END IONS

BEGIN IONS
NAME=3-indol-3-yl-N-(4-methylphenyl)-2-[(2-methylpropoxy)carbonylamino]propanamide CollisionEnergy:102040 M+Na
PRECURSOR_MZ=416.194
INCHI="InChI=1S/C23H27N3O3/c1-15(2)14-29-23(28)26-21(22(27)25-18-10-8-16(3)9-11-18)12-17-13-24-20-7-5-4-6-19(17)20/h4-11,13,15,21,24H,12,14H2,1-3H3,(H,25,27)(H,26,28)"
SMILES=Cc1ccc(NC(=O)C(Cc2c[nH]c3ccccc23)N=C(O)OCC(C)C)cc1
SPECTRUMID=CCMSLIB00010107996
54.42382 3238.0 
75.654457 3272.0 
82.394608 4216.0 
105.033524 64551.0 
119.085472 34799.0 
120.088821 19347.0 
130.065918 6231.0 
154.777893 3059.0 
234.182816 3159.0 
281.080841 113439.0 
281.122284 5199.0 
292.097809 6364.0 
295.437531 3904.0 
316.142273 49588.0 
342.121338 197260.0 
356.266541 51974.0 
416.194519 9218045.0 
END IONS

BEGIN IONS
NAME=3-Amino-5-hydroxybenzoic acid CollisionEnergy:102040 M-H
PRECURSOR_MZ=152.035
INCHI="InChI=1S/C7H7NO3/c8-5-1-4(7(10)11)2-6(9)3-5/h1-3,9H,8H2,(H,10,11)"
SMILES=Nc1cc(O)cc(C(=O)O)c1
SPECTRUMID=CCMSLIB00010113927
56.895229 1839.0 
60.896511 1911.0 
73.944733 3120.0 
92.364532 2428.0 
94.029602 4504.0 
103.920227 3989.0 
104.273018 2138.0 
108.04557 426241.0 
152.035263 150609.0 
152.055801 2636.0 
END IONS

BEGIN IONS
NAME="7-(4-methoxyphenyl)-1,3-dimethyl-8-(2-pyridylmethyl)-1,3,5-trihydro-4-imidazol ino[1,2-h]purine-2,4-dione CollisionEnergy:205060" M-H
PRECURSOR_MZ=415.152
INCHI="InChI=1S/C22H20N6O3/c1-25-19-18(20(29)26(2)22(25)30)28-13-17(14-7-9-16(31-3)10-8-14)27(21(28)24-19)12-15-6-4-5-11-23-15/h4-11,13H,12H2,1-3H3"
SMILES=COc1ccc(-c2cn3c4c(=O)n(C)c(=O)n(C)c4nc3n2Cc2ccccn2)cc1
SPECTRUMID=CCMSLIB00010116649
55.792721 2618.0 
66.009201 5113.0 
75.740997 2645.0 
82.409897 3564.0 
85.145447 2245.0 
92.388969 4804.0 
98.100754 2648.0 
99.243118 2602.0 
101.526382 2833.0 
104.297127 2730.0 
109.602722 2901.0 
110.698776 2518.0 
118.029869 24035.0 
136.038925 17865.0 
140.842514 2877.0 
148.95668 2786.0 
178.037323 23599.0 
179.057663 14040.0 
193.060577 117209.0 
201.741333 2788.0 
204.052368 29430.0 
207.069092 11359.0 
237.077927 5417.0 
265.073059 12006.0 
273.078247 5742.0 
278.913818 5271.0 
294.099121 5047.0 
300.090607 5895.0 
307.070587 13594.0 
314.106079 15137.0 
321.086029 4358.0 
322.094604 465249.0 
328.085297 22105.0 
342.097687 10750.0 
343.106293 12870.0 
355.794525 2884.0 
357.110779 5654.0 
371.126038 35465.0 
383.12616 6438.0 
384.098511 11790.0 
385.104675 47516.0 
398.119324 4007.0 
399.121246 131204.0 
400.128998 272035.0 
415.152557 778690.0 
END IONS

BEGIN IONS
NAME=pantothenic acid CollisionEnergy:102040 M+H
PRECURSOR_MZ=220.118
INCHI="InChI=1S/C9H17NO5/c1-9(2,5-11)7(14)8(15)10-4-3-6(12)13/h7,11,14H,3-5H2,1-2H3,(H,10,15)(H,12,13)/t7-/m0/s1"
SMILES=CC(C)(CO)[C@@H](O)C(O)=NCCC(=O)O
SPECTRUMID=CCMSLIB00010126898
55.000999 159506.0 
55.5135 159112.0 
57.070599 930350.0 
59.049801 899765.0 
67.054802 287713.0 
69.070396 1468040.0 
70.029404 787659.0 
72.044899 3372590.0 
73.028801 661628.0 
73.979103 174881.0 
82.4282 207343.0 
83.735298 173106.0 
85.065201 2462550.0 
86.096901 393652.0 
87.080704 275019.0 
90.055397 38997900.0 
95.049698 1444370.0 
98.024002 2884630.0 
100.040001 927254.0 
103.075996 2638040.0 
113.059998 896824.0 
116.033997 5600700.0 
124.075996 3809650.0 
135.559006 161980.0 
136.259003 194097.0 
142.085999 2519090.0 
143.393997 193110.0 
153.983994 185079.0 
156.102005 319147.0 
160.095993 1038100.0 
166.085999 1071130.0 
174.113007 1328820.0 
184.095993 10024400.0 
202.106995 15909500.0 
205.992004 165219.0 
220.117996 20086100.0 
END IONS

BEGIN IONS
NAME=methyl 4-(N-{2-[2-methyl-5-(phenylmethoxy)indol-3-yl]ethyl}carbamoyl)benzoate CollisionEnergy:102040 M+formate
PRECURSOR_MZ=487.187
INCHI="InChI=1S/C27H26N2O4/c1-18-23(14-15-28-26(30)20-8-10-21(11-9-20)27(31)32-2)24-16-22(12-13-25(24)29-18)33-17-19-6-4-3-5-7-19/h3-13,16,29H,14-15,17H2,1-2H3,(H,28,30)"
SMILES=COC(=O)c1ccc(C(=O)NCCc2c(C)[nH]c3ccc(OCc4ccccc4)cc23)cc1
SPECTRUMID=CCMSLIB00010110238
79.434303 2693.0 
98.803452 2647.0 
100.928619 2230.0 
112.985603 4569.0 
118.724091 2714.0 
159.093033 2844.0 
185.500824 2889.0 
190.649521 2449.0 
191.059082 6388.0 
216.107651 2443.0 
223.048447 37823.0 
245.166702 2920.0 
266.988617 4081.0 
316.984131 13245.0 
324.172821 4214.0 
350.126984 97962.0 
366.180939 3251.0 
380.00647 2746.0 
382.973541 4781.0 
388.240204 11737.0 
402.980804 10077.0 
412.666016 2555.0 
441.182068 222892.0 
466.978821 4159.0 
486.980377 29162.0 
487.269684 12860.0 
891.136108 2898.0 
968.289062 3381.0 
END IONS

BEGIN IONS
NAME=biochanin A CollisionEnergy:102040 M-H
PRECURSOR_MZ=283.061
INCHI="InChI=1S/C16H12O5/c1-20-11-4-2-9(3-5-11)12-8-21-14-7-10(17)6-13(18)15(14)16(12)19/h2-8,17-18H,1H3"
SMILES=COc1ccc(-c2coc3cc(O)cc(O)c3c2=O)cc1
SPECTRUMID=CCMSLIB00010104472
64.015533 44778.0 
66.744034 46181.0 
68.850166 55304.0 
87.673462 38765.0 
104.282219 40298.0 
123.652321 39569.0 
132.022247 287929.0 
135.009293 178403.0 
196.053848 104237.0 
209.867798 84372.0 
211.040314 252752.0 
212.048431 249593.0 
223.04039 282269.0 
224.047775 816601.0 
226.027527 323648.0 
239.034592 1066258.0 
240.043015 648460.0 
266.891998 55908.0 
267.029938 1896511.0 
268.037964 70573552.0 
269.190125 63302.0 
281.817291 220344.0 
283.061279 172219168.0 
284.314606 208215.0 
303.412231 51696.0 
END IONS

BEGIN IONS
NAME=myricetin CollisionEnergy:205060 M-H
PRECURSOR_MZ=317.03
INCHI="InChI=1S/C15H10O8/c16-6-3-7(17)11-10(4-6)23-15(14(22)13(11)21)5-1-8(18)12(20)9(19)2-5/h1-4,16-20,22H"
SMILES=O=c1c(O)c(-c2cc(O)c(O)c(O)c2)oc2cc(O)cc(O)c12
SPECTRUMID=CCMSLIB00010119550
57.03418 8343.0 
63.023659 327183.0 
65.002937 562682.0 
67.529984 3134.0 
81.034523 72702.0 
82.412613 4509.0 
83.013718 391097.0 
91.01889 6747.0 
92.394737 3639.0 
93.034523 6371.0 
95.013779 5852.0 
107.013893 1076995.0 
108.021599 6504.0 
108.993118 17761.0 
109.029457 1024300.0 
111.009216 5134.0 
112.985527 99203.0 
119.013931 7212.0 
120.796959 3555.0 
121.029877 4220.0 
123.008789 15966.0 
124.016609 31254.0 
125.024338 98034.0 
135.009079 25002.0 
136.016296 6171.0 
137.024384 2006141.0 
145.029617 3471.0 
148.016449 4497.0 
149.024155 14018.0 
151.003601 2396382.0 
152.011932 24925.0 
153.019196 4019.0 
155.03511 74220.0 
159.045807 8112.0 
161.024628 6526.0 
163.003723 83361.0 
163.04068 3923.0 
164.01123 44001.0 
165.019226 181092.0 
169.014145 275596.0 
170.386703 3372.0 
171.045441 6261.0 
175.040359 18310.0 
177.019699 13335.0 
178.99855 813223.0 
179.035721 16436.0 
180.973648 4094.0 
183.045044 19139.0 
185.024429 5929.0 
189.020248 3924.0 
190.998779 17594.0 
191.034775 31829.0 
192.006271 69973.0 
193.013977 53686.0 
196.001404 8226.0 
199.039627 18169.0 
201.02037 5387.0 
203.034821 21378.0 
211.269348 6385.0 
217.014236 13050.0 
217.05098 5672.0 
219.029465 15633.0 
221.045242 4782.0 
227.034454 48409.0 
229.011948 4510.0 
229.050644 4501.0 
231.030518 3768.0 
243.02916 31743.0 
245.045502 17495.0 
255.030502 7619.0 
261.0401 20258.0 
271.024841 164825.0 
288.883423 3468.0 
289.036011 15470.0 
299.019562 20212.0 
300.026398 6265.0 
300.543549 4260.0 
303.415588 4444.0 
305.746216 3750.0 
317.030212 5290783.0 
333.55835 3716.0 
END IONS

BEGIN IONS
NAME=Galangin CollisionEnergy:205060 M-H
PRECURSOR_MZ=269.046
INCHI="InChI=1S/C15H10O5/c16-9-6-10(17)12-11(7-9)20-15(14(19)13(12)18)8-4-2-1-3-5-8/h1-7,16-17,19H"
SMILES=O=c1c(O)c(-c2ccccc2)oc2cc(O)cc(O)c12
SPECTRUMID=CCMSLIB00010118869
59.01339 20852.0 
59.611111 1857.0 
62.300041 2020.0 
65.4263 2345.0 
75.195808 2254.0 
75.902702 2170.0 
78.235222 2345.0 
82.423393 3333.0 
118.692436 2229.0 
136.247253 2751.0 
143.04985 2651.0 
158.019867 2349.0 
169.065872 9405.0 
171.04512 3196.0 
172.88649 22882.0 
175.297836 2075.0 
185.061172 2672.0 
195.046829 2419.0 
197.059906 2807.0 
199.039307 2315.0 
200.881271 16716.0 
201.149689 25596.0 
213.055496 3642.0 
222.028595 2217.0 
227.034317 2389.0 
230.924973 2436.0 
239.033493 2138.0 
241.048035 2568.0 
263.56958 2208.0 
269.045654 178698.0 
269.175842 8350.0 
END IONS

BEGIN IONS
NAME="3,5-Diiodo-L-tyrosine CollisionEnergy:102040" M+H
PRECURSOR_MZ=433.874
INCHI="InChI=1S/C9H9I2NO3/c10-5-1-4(2-6(11)8(5)13)3-7(12)9(14)15/h1-2,7,13H,3,12H2,(H,14,15)/t7-/m0/s1"
SMILES=N[C@@H](Cc1cc(I)c(O)c(I)c1)C(=O)O
SPECTRUMID=CCMSLIB00010103141
60.105801 146727.0 
60.2798 151044.0 
60.554401 179054.0 
66.746002 149881.0 
66.759399 145864.0 
73.974098 184011.0 
75.383797 146818.0 
78.743896 151481.0 
92.4039 212346.0 
107.049004 265043.0 
133.052002 532535.0 
134.059998 1280880.0 
136.244995 235032.0 
208.723007 809481.0 
208.742996 183133.0 
219.936996 1541430.0 
233.953003 1556090.0 
243.936996 976587.0 
243.960999 180569.0 
249.436996 170471.0 
259.954987 838296.0 
260.963989 9815800.0 
261.946991 700193.0 
271.933014 1177340.0 
288.936005 312082.0 
289.942993 10300500.0 
370.84201 1298250.0 
374.835999 3144080.0 
387.868011 42984400.0 
398.835999 327367.0 
416.846008 14472200.0 
418.95401 206266.0 
433.872986 37258400.0 
END IONS

BEGIN IONS
NAME=acacetin CollisionEnergy:102040 M-H
PRECURSOR_MZ=283.061
INCHI="InChI=1S/C16H12O5/c1-20-11-4-2-9(3-5-11)14-8-13(19)16-12(18)6-10(17)7-15(16)21-14/h2-8,17-18H,1H3"
SMILES=COc1ccc(-c2cc(=O)c3c(O)cc(O)cc3o2)cc1
SPECTRUMID=CCMSLIB00010107711
50.231979 2843.0 
60.468361 2502.0 
61.46648 2488.0 
88.535973 2673.0 
92.386971 3108.0 
96.807327 2681.0 
104.295982 3059.0 
118.663986 3008.0 
133.029312 35510.0 
136.220764 2514.0 
152.978119 5510.0 
163.156433 2685.0 
164.419586 2513.0 
184.505081 2682.0 
211.038895 3841.0 
218.920135 3276.0 
224.047577 34520.0 
236.930969 17516.0 
239.034866 4799.0 
240.041931 16672.0 
240.065521 2618.0 
267.030121 27458.0 
268.037811 687709.0 
283.061279 2673854.0 
415.812073 2908.0 
END IONS

BEGIN IONS
NAME=alpha-GalNAc CollisionEnergy:102040 M+H-H2O
PRECURSOR_MZ=204.087
INCHI="InChI=1S/C8H15NO6/c1-3(11)9-5-7(13)6(12)4(2-10)15-8(5)14/h4-8,10,12-14H,2H2,1H3,(H,9,11)/t4-,5-,6+,7-,8+/m1/s1"
SMILES=CC(O)=N[C@H]1[C@@H](O)O[C@H](CO)[C@H](O)[C@@H]1O
SPECTRUMID=CCMSLIB00010126730
56.050201 20947.199219 
56.937599 19828.900391 
60.044998 736231.0 
63.734299 17470.599609 
63.903599 18968.199219 
67.1026 23616.099609 
68.050003 30176.5 
72.0448 75741.5 
73.314796 20267.5 
80.050003 46714.398438 
81.0336 28779.599609 
84.0448 1529410.0 
84.050499 52083.0 
96.0448 588069.0 
97.028603 262881.0 
98.060402 610768.0 
99.043503 24643.099609 
100.074997 20765.699219 
104.317001 29486.300781 
108.043999 170139.0 
109.028999 120574.0 
114.054001 25446.199219 
116.070999 25406.599609 
122.907997 22968.599609 
124.245003 20013.0 
126.055 3670430.0 
127.029999 20119.099609 
127.039001 207884.0 
138.054993 1825640.0 
144.065002 2258210.0 
150.054001 31990.699219 
168.065002 406436.0 
186.076004 679205.0 
204.085999 279388.0 
END IONS

BEGIN IONS
NAME=vincamine CollisionEnergy:205060 M+H
PRECURSOR_MZ=355.202
INCHI="InChI=1S/C21H26N2O3/c1-3-20-10-6-11-22-12-9-15-14-7-4-5-8-16(14)23(17(15)18(20)22)21(25,13-20)19(24)26-2/h4-5,7-8,18,25H,3,6,9-13H2,1-2H3/t18-,20+,21+/m1/s1"
SMILES=CCC12CCCN3CCc4c(n(c5ccccc45)C(O)(C(=O)OC)C1)C32
SPECTRUMID=CCMSLIB00010115388
51.864079 97305.0 
53.757141 107646.0 
55.018219 195085.0 
55.054531 127552.0 
56.049889 1416082.0 
58.065491 509094.0 
67.054497 901485.0 
68.049744 1086514.0 
70.065407 5341297.0 
73.954689 111492.0 
79.054352 877905.0 
81.070091 536119.0 
82.065247 250742.0 
82.396667 113131.0 
83.049156 2372644.0 
84.080948 901767.0 
91.05423 1378737.0 
92.377541 116682.0 
93.069923 1671719.0 
94.065277 200387.0 
95.049118 231730.0 
95.085449 2130723.0 
96.080673 765886.0 
98.096367 885972.0 
100.075478 170378.0 
103.053917 480654.0 
105.069687 1253359.0 
106.064972 468281.0 
107.049179 154818.0 
107.085228 1448595.0 
108.080589 843323.0 
109.064262 170247.0 
109.100693 211592.0 
110.096313 4087698.0 
111.103867 928191.0 
112.112007 909098.0 
115.054108 250933.0 
117.069649 1951164.0 
118.064507 231101.0 
118.65168 158376.0 
119.074089 96456.0 
119.085373 250977.0 
120.080338 478901.0 
121.064697 725902.0 
122.059418 898585.0 
122.096367 1021020.0 
123.080254 1847003.0 
123.10379 480252.0 
124.075218 820860.0 
124.111832 3565030.0 
128.061417 108491.0 
129.069656 657899.0 
130.064926 2089183.0 
131.072708 270994.0 
132.080246 817054.0 
133.064499 761368.0 
134.096252 3633020.0 
135.080017 1193704.0 
135.090759 105555.0 
135.103928 138943.0 
136.075424 416018.0 
136.11145 178222.0 
137.096878 149179.0 
138.127533 446308.0 
140.100998 108535.0 
143.072433 1228393.0 
144.080551 44497416.0 
146.0961 654966.0 
148.074875 155743.0 
150.090988 474314.0 
151.075134 710641.0 
152.106674 13999345.0 
154.064713 144258.0 
154.086334 216521.0 
156.08046 1750196.0 
157.088348 258167.0 
158.0961 2534272.0 
160.075089 191907.0 
160.111954 624062.0 
162.091064 2538515.0 
164.106476 695576.0 
165.091522 181428.0 
167.071609 582572.0 
168.08078 1121065.0 
169.087021 460571.0 
170.05986 1071156.0 
170.096268 1399908.0 
171.091232 486912.0 
172.075424 136422.0 
172.112183 489209.0 
174.090866 262189.0 
177.0923 140155.0 
179.0858 167242.0 
180.080582 1405526.0 
180.100754 223399.0 
181.087982 1349491.0 
182.081406 176540.0 
182.096786 1494554.0 
183.104385 212954.0 
184.074814 480015.0 
184.113144 189480.0 
185.10614 152208.0 
186.091324 499043.0 
186.125275 110199.0 
188.105499 130744.0 
191.072189 213158.0 
192.080032 422714.0 
192.099274 161416.0 
193.085663 298293.0 
193.103561 173769.0 
194.096085 1377054.0 
194.117157 2210142.0 
195.103073 707430.0 
196.076218 188251.0 
196.094986 372009.0 
196.111862 642984.0 
197.106003 160409.0 
198.091171 525237.0 
198.12706 555586.0 
202.086105 228432.0 
204.080154 1137488.0 
204.09848 101958.0 
205.087936 1651451.0 
206.09584 3257449.0 
206.116486 259000.0 
207.101257 1182397.0 
208.075211 586185.0 
208.111496 3556782.0 
209.120209 1956852.0 
209.273651 414159.0 
210.090393 172370.0 
210.12854 1466678.0 
211.122055 112230.0 
212.107681 383138.0 
212.127487 8840134.0 
216.099869 149520.0 
217.088074 611663.0 
218.095932 1299440.0 
218.116928 182592.0 
219.103683 2699232.0 
220.112167 3366463.0 
221.119934 2556752.0 
222.090698 249905.0 
222.102112 167100.0 
222.127304 4581435.0 
223.134171 641842.0 
224.105408 238811.0 
224.145798 2329718.0 
226.086044 217411.0 
226.120789 926930.0 
228.100998 148874.0 
230.425079 144812.0 
231.101349 305079.0 
232.111313 803806.0 
233.083176 385842.0 
233.119446 725506.0 
234.089249 219039.0 
234.127136 7702524.0 
235.135345 2086757.0 
236.106735 603690.0 
236.142883 3044013.0 
237.078003 809780.0 
237.114151 168650.0 
237.139618 684235.0 
238.085846 877254.0 
238.122147 1073714.0 
238.158966 235395.0 
239.093521 2847121.0 
239.153076 439460.0 
240.100891 582432.0 
245.143097 128746.0 
246.126999 1163304.0 
247.12384 228412.0 
248.10321 198313.0 
248.14418 3415114.0 
249.146378 1433684.0 
250.0849 1012716.0 
250.124069 178692.0 
250.158615 2875118.0 
251.093201 1100948.0 
252.101044 2593392.0 
252.136353 507704.0 
253.109161 2246623.0 
253.169418 1103234.0 
254.115768 744782.0 
260.142883 614962.0 
262.119507 1201687.0 
262.148529 183330.0 
263.151794 168475.0 
264.10141 3778292.0 
264.134979 366306.0 
265.108948 9249107.0 
266.117065 6859261.0 
266.151672 1147759.0 
267.124298 6857021.0 
267.15625 174000.0 
268.132507 10283651.0 
274.121216 208659.0 
275.116577 559506.0 
276.09668 238325.0 
276.127014 754617.0 
277.135315 382182.0 
277.168549 3346924.0 
278.117584 3536009.0 
278.178802 989055.0 
279.124573 9515923.0 
280.132446 44793040.0 
281.141174 407602.0 
282.148529 1651296.0 
288.136383 126533.0 
290.116333 1317290.0 
291.125397 1862849.0 
292.132202 5065152.0 
293.14032 2724666.0 
294.147858 42114184.0 
295.179535 5804121.0 
305.163391 621561.0 
306.147736 1386934.0 
307.14328 5055005.0 
308.162872 18566806.0 
309.159821 1027905.0 
309.193268 119402.0 
310.179047 883513.0 
320.162384 1275762.0 
326.171906 249024.0 
337.18988 52991388.0 
355.20047 183929024.0 
END IONS

BEGIN IONS
NAME=quercetin CollisionEnergy:205060 M-H
PRECURSOR_MZ=301.035
INCHI="InChI=1S/C15H10O7/c16-7-4-10(19)12-11(5-7)22-15(14(21)13(12)20)6-1-2-8(17)9(18)3-6/h1-5,16-19,21H"
SMILES=O=c1c(O)c(-c2ccc(O)c(O)c2)oc2cc(O)cc(O)c12
SPECTRUMID=CCMSLIB00010118463
63.023579 107543.0 
65.002876 194719.0 
82.406616 2423.0 
83.013634 121567.0 
88.243294 2882.0 
93.034477 53794.0 
95.013618 4816.0 
107.013863 308714.0 
108.993607 3209.0 
109.029617 30009.0 
119.049713 2752.0 
121.029518 226570.0 
123.009506 2800.0 
124.017143 4683.0 
125.024353 12232.0 
133.030518 3372.0 
135.008621 2613.0 
135.046265 4220.0 
136.93248 17272.0 
137.024567 3321.0 
139.040298 32086.0 
143.051331 2502.0 
146.960938 5214.0 
148.016006 2672.0 
149.024307 42347.0 
151.003769 533743.0 
152.011047 4041.0 
157.066696 2675.0 
159.0457 14001.0 
161.024658 16868.0 
163.003891 17675.0 
163.04007 10887.0 
164.011536 20470.0 
164.927551 22534.0 
169.014252 50837.0 
173.06131 10176.0 
175.039612 9306.0 
177.055328 3782.0 
178.998642 147922.0 
183.044937 5608.0 
187.03981 17377.0 
193.014221 9795.0 
196.001038 4839.0 
199.040268 5282.0 
201.055984 15691.0 
211.03981 15180.0 
214.913391 27506.0 
227.035324 16649.0 
229.050232 12488.0 
230.02272 3399.0 
232.925858 20577.0 
238.606796 2419.0 
243.030838 6151.0 
245.045456 19710.0 
254.907074 13654.0 
255.029678 9728.0 
256.038757 3493.0 
262.321167 2547.0 
273.042084 18816.0 
284.029846 3116.0 
300.028595 3342.0 
301.03537 928668.0 
END IONS

BEGIN IONS
NAME=Phorbol 12-myristate 13-acetate CollisionEnergy:102040 M+formate
PRECURSOR_MZ=661.396
INCHI="InChI=1S/C36H56O8/c1-7-8-9-10-11-12-13-14-15-16-17-18-29(39)43-32-24(3)35(42)27(30-33(5,6)36(30,32)44-25(4)38)20-26(22-37)21-34(41)28(35)19-23(2)31(34)40/h19-20,24,27-28,30,32,37,41-42H,7-18,21-22H2,1-6H3/t24-,27+,28-,30-,32-,34-,35-,36-/m1/s1"
SMILES=CCCCCCCCCCCCCC(=O)OC1C(C)C2(O)C(C=C(CO)CC3(O)C(=O)C(C)=CC32)C2C(C)(C)C12OC(C)=O
SPECTRUMID=CCMSLIB00010114245
58.237209 2565.0 
59.013329 22192.0 
66.751709 3320.0 
69.015793 2842.0 
70.469757 2575.0 
79.981438 3071.0 
84.09375 3034.0 
93.876404 2610.0 
95.372757 3003.0 
107.815643 2702.0 
136.226059 3004.0 
168.873001 2966.0 
209.191376 3177.0 
220.673203 3257.0 
227.202438 22567.0 
250.876648 3137.0 
274.127472 3072.0 
291.139313 3889.0 
603.062317 3194.0 
615.28418 5098.0 
615.390564 86114.0 
661.398743 33083.0 
END IONS

BEGIN IONS
NAME=CCG-208483 CollisionEnergy:102040 M+H-H2O
PRECURSOR_MZ=747.504
INCHI="InChI=1S/C43H72O11/c1-12-30(35(46)27(8)34(45)28(9)36-23(4)21-24(5)37(51-36)31(13-2)39(47)48)38-25(6)22-26(7)42(52-38)18-15-32(44)43(54-42)20-19-40(11,53-43)33-16-17-41(49,14-3)29(10)50-33/h15,18,23-34,36-38,44-45,49H,12-14,16-17,19-22H2,1-11H3,(H,47,48)/t23-,24-,25-,26+,27-,28-,29-,30-,31+,32+,33+,34+,36+,37?,38-,40-,41+,42-,43-/m0/s1"
SMILES=CCC(C(=O)O)C1OC(C(C)C(O)C(C)C(=O)C(CC)C2OC3(C=CC(O)C4(CCC(C)(C5CCC(O)(CC)C(C)O5)O4)O3)C(C)CC2C)C(C)CC1C
SPECTRUMID=CCMSLIB00010110196
55.05479 7462.0 
57.033989 16373.0 
57.07032 4842.0 
65.133553 3942.0 
67.05455 6954.0 
69.03376 42212.0 
69.070267 40760.0 
71.049469 17271.0 
73.958168 3388.0 
81.052002 7750.0 
81.070084 40235.0 
83.085762 8004.0 
85.065109 6059.0 
92.382538 4677.0 
93.070007 21114.0 
95.049217 22132.0 
95.085449 73704.0 
97.064827 50867.0 
97.101387 5933.0 
99.044167 8890.0 
99.080116 30535.0 
101.059799 8636.0 
105.070068 17382.0 
105.909698 4036.0 
107.085167 63365.0 
109.065079 20427.0 
109.101112 49725.0 
111.080292 54397.0 
113.059799 5584.0 
113.096413 15415.0 
119.085663 24418.0 
121.064949 6805.0 
121.100929 37788.0 
123.080307 26988.0 
123.116631 52955.0 
125.09623 14917.0 
127.075409 19030.0 
133.101212 19094.0 
135.079941 12581.0 
135.116608 63408.0 
137.095856 17732.0 
137.132385 103652.0 
139.075211 29415.0 
139.112167 22750.0 
141.091095 4172.0 
141.127609 36891.0 
145.100464 6357.0 
147.081055 6210.0 
147.116745 61797.0 
149.05986 22973.0 
149.096237 22329.0 
149.132309 6706.0 
151.07515 14465.0 
151.111588 59079.0 
153.127304 31877.0 
161.096313 4662.0 
161.132919 25943.0 
163.111526 43774.0 
163.148743 5384.0 
165.090454 4131.0 
165.127289 159029.0 
167.106812 6855.0 
169.122437 31767.0 
171.116348 8749.0 
173.132812 4317.0 
175.111603 6450.0 
175.147888 28861.0 
177.091949 4691.0 
179.142242 32692.0 
181.122345 61884.0 
181.158936 16799.0 
183.137772 78797.0 
185.117004 8545.0 
189.126984 40343.0 
191.106552 15688.0 
191.14299 18381.0 
193.159058 30219.0 
197.153931 4372.0 
199.131546 36617.0 
203.106506 17218.0 
203.14386 16839.0 
205.086014 17098.0 
207.137512 67925.0 
209.152603 7093.0 
215.106308 41641.0 
217.121964 47545.0 
220.670074 4056.0 
221.117081 20368.0 
221.153015 50040.0 
225.14798 71803.0 
233.26062 4373.0 
239.163986 56790.0 
241.159119 8222.0 
245.153122 8435.0 
249.153183 5016.0 
249.184692 19647.0 
251.199661 33658.0 
257.150726 4454.0 
259.169617 20131.0 
264.815002 3773.0 
269.151764 44995.0 
277.143372 9332.0 
283.169708 16762.0 
287.164032 47016.0 
301.179871 44690.0 
303.19516 7328.0 
303.23114 6070.0 
313.215942 8599.0 
321.240967 57994.0 
337.213654 6727.0 
339.252441 50974.0 
355.225769 94084.0 
357.264587 19198.0 
369.24054 7491.0 
373.236359 348033.0 
381.277985 4945.0 
391.246979 353722.0 
399.288025 44345.0 
417.299103 7295.0 
425.265839 8345.0 
437.30188 5313.0 
443.27832 29862.0 
455.315491 83023.0 
461.292206 7019.0 
473.325745 83763.0 
491.335388 71379.0 
648.859314 4327.0 
693.471313 17993.0 
711.480713 58282.0 
729.492249 280280.0 
747.502808 1537094.0 
END IONS

BEGIN IONS
NAME=(2Z)-2-[(4-butoxyphenyl)carbonylamino]-3-(4-chlorophenyl)-N-[2-(2-methylindol- 3-yl)ethyl]prop-2-enamide CollisionEnergy:205060 M-H
PRECURSOR_MZ=528.206
INCHI="InChI=1S/C31H32ClN3O3/c1-3-4-19-38-25-15-11-23(12-16-25)30(36)35-29(20-22-9-13-24(32)14-10-22)31(37)33-18-17-26-21(2)34-28-8-6-5-7-27(26)28/h5-16,20,34H,3-4,17-19H2,1-2H3,(H,33,37)(H,35,36)/b29-20-"
SMILES=CCCCOc1ccc(C(=O)NC(=Cc2ccc(Cl)cc2)C(O)=NCCc2c(C)[nH]c3ccccc23)cc1
SPECTRUMID=CCMSLIB00010122430
81.848213 3088.0 
88.508957 2394.0 
93.034492 4214.0 
99.329468 2792.0 
108.021744 3794.0 
118.029823 37967.0 
125.016113 6323.0 
135.000275 10328.0 
146.024414 30747.0 
150.011658 40806.0 
156.081711 5192.0 
159.032669 16664.0 
160.040588 20732.0 
163.403168 2610.0 
173.108292 43110.0 
192.103607 4642.0 
199.087494 25364.0 
208.772385 4413.0 
208.790283 4581.0 
212.966263 2852.0 
216.034821 3111.0 
216.103424 4502.0 
221.012253 11267.0 
243.021698 442382.0 
244.029022 60143.0 
255.023712 9542.0 
270.032837 19121.0 
270.950989 2673.0 
271.041962 3268.0 
295.030457 3945.0 
296.035736 39123.0 
297.041748 4711.0 
301.061584 5490.0 
301.100037 145793.0 
309.044067 15390.0 
328.113373 4874.0 
353.104889 30058.0 
355.340302 2834.0 
363.7052 2995.0 
369.826294 2983.0 
510.194 5672.0 
528.206177 532047.0 
END IONS

BEGIN IONS
NAME=kaempferol CollisionEnergy:102040 M+H
PRECURSOR_MZ=287.055
INCHI="InChI=1S/C15H10O6/c16-8-3-1-7(2-4-8)15-14(20)13(19)12-10(18)5-9(17)6-11(12)21-15/h1-6,16-18,20H"
SMILES=O=c1c(O)c(-c2ccc(O)cc2)oc2cc(O)cc(O)c12
SPECTRUMID=CCMSLIB00010106027
52.13084 3448.0 
68.997581 5427.0 
73.960716 4456.0 
82.406883 3738.0 
92.386787 4222.0 
105.033623 8390.0 
107.049004 7645.0 
110.901176 3871.0 
111.007607 46873.0 
121.028526 136526.0 
127.039291 5632.0 
133.028427 41191.0 
135.043533 4416.0 
137.023331 38391.0 
141.070084 4189.0 
145.063828 5510.0 
147.043503 26739.0 
153.018188 172416.0 
157.063843 5340.0 
165.018127 146709.0 
169.066452 4181.0 
175.03981 4433.0 
183.028885 80701.0 
185.060059 22647.0 
189.053207 14828.0 
197.058884 8144.0 
203.035751 5375.0 
203.068283 4029.0 
213.054199 83708.0 
231.064896 57995.0 
241.005203 4601.0 
241.048935 79038.0 
258.052094 69806.0 
259.059692 40014.0 
263.055206 4894.0 
269.043274 24198.0 
270.051544 7301.0 
285.793854 25919.0 
286.047699 6092.0 
287.05484 19327476.0 
288.320038 28238.0 
END IONS

BEGIN IONS
NAME=d-Dethiobiotin CollisionEnergy:102040 M-H
PRECURSOR_MZ=213.124
INCHI="InChI=1S/C10H18N2O3/c1-7-8(12-10(15)11-7)5-3-2-4-6-9(13)14/h7-8H,2-6H2,1H3,(H,13,14)(H2,11,12,15)/t7-,8+/m0/s1"
SMILES=C[C@@H]1N=C(O)N[C@@H]1CCCCCC(=O)O
SPECTRUMID=CCMSLIB00010126482
51.255501 225697.0 
51.875599 230230.0 
54.7929 205200.0 
66.761398 231147.0 
69.504303 215318.0 
82.419296 368853.0 
85.750999 241107.0 
92.402199 344502.0 
136.242996 273657.0 
169.134995 6422630.0 
170.119003 7054390.0 
185.378998 229946.0 
209.125 1068580.0 
213.125 38511700.0 
END IONS

BEGIN IONS
NAME="4-{[3-(3,4-dimethoxyphenyl)-3-oxopropyl]amino}benzoic acid CollisionEnergy:102040" M-H
PRECURSOR_MZ=328.119
INCHI="InChI=1S/C18H19NO5/c1-23-16-8-5-13(11-17(16)24-2)15(20)9-10-19-14-6-3-12(4-7-14)18(21)22/h3-8,11,19H,9-10H2,1-2H3,(H,21,22)"
SMILES=COc1ccc(C(=O)CCNc2ccc(C(=O)O)cc2)cc1OC
SPECTRUMID=CCMSLIB00010105264
58.609089 3056.0 
66.751312 2919.0 
82.408493 2427.0 
92.050568 13441.0 
92.387978 3013.0 
104.296928 2718.0 
107.880989 2932.0 
118.922333 2600.0 
119.050369 6071.0 
120.044983 3186.0 
123.008919 4490.0 
124.016281 5850.0 
136.040573 13389.0 
138.032333 6337.0 
148.040421 170994.0 
149.060898 26007.0 
150.032166 115861.0 
153.019943 2518.0 
163.736526 2685.0 
165.055771 1848365.0 
179.071411 61924.0 
187.437866 2693.0 
191.746307 2652.0 
191.945938 10202.0 
243.989166 17421.0 
263.995911 3393.0 
313.054077 3928.0 
313.095764 164574.0 
328.119141 1895564.0 
END IONS

BEGIN IONS
NAME=Biotin CollisionEnergy:102040 2M-H
PRECURSOR_MZ=487.169
INCHI="InChI=1S/C10H16N2O3S/c13-8(14)4-2-1-3-7-9-6(5-16-7)11-10(15)12-9/h6-7,9H,1-5H2,(H,13,14)(H2,11,12,15)/t6?,7-,9?/m0/s1"
SMILES=O=C(O)CCCCC1SCC2N=C(O)NC21
SPECTRUMID=CCMSLIB00010110448
52.833221 2465.0 
72.179092 2507.0 
74.006172 2928.0 
92.38723 3546.0 
92.490372 2637.0 
104.291229 2642.0 
113.842796 2728.0 
131.528046 2517.0 
150.404526 2610.0 
165.103561 4080.0 
166.087555 27603.0 
196.944824 2486.0 
199.091461 6333.0 
200.075867 42729.0 
207.997482 18619.0 
243.081268 775823.0 
353.788147 3032.0 
398.837219 2985.0 
487.168427 11061.0 
END IONS

BEGIN IONS
NAME="4-{[3-(3,4-dimethoxyphenyl)-3-oxopropyl]amino}benzoic acid CollisionEnergy:205060" M-H
PRECURSOR_MZ=328.119
INCHI="InChI=1S/C18H19NO5/c1-23-16-8-5-13(11-17(16)24-2)15(20)9-10-19-14-6-3-12(4-7-14)18(21)22/h3-8,11,19H,9-10H2,1-2H3,(H,21,22)"
SMILES=COc1ccc(C(=O)CCNc2ccc(C(=O)O)cc2)cc1OC
SPECTRUMID=CCMSLIB00010116603
52.04768 2274.0 
52.85524 2257.0 
61.987911 4880.0 
67.018768 2161.0 
82.613487 2492.0 
84.150558 2317.0 
90.169601 2649.0 
92.050499 106754.0 
92.39106 2352.0 
107.049873 5812.0 
108.021721 14015.0 
109.029472 5653.0 
111.008827 6179.0 
118.672432 3047.0 
119.050232 152725.0 
120.045464 73447.0 
121.029533 19307.0 
122.037354 90198.0 
123.009033 25950.0 
123.045158 10619.0 
124.016571 57181.0 
125.024109 4656.0 
135.044556 24594.0 
136.040131 11415.0 
137.024872 5183.0 
138.032242 58924.0 
148.0271 4308.0 
148.04039 132484.0 
149.024231 14147.0 
149.060883 32584.0 
150.032242 465875.0 
152.011108 10617.0 
153.019714 20610.0 
153.590866 2510.0 
154.027298 4572.0 
163.040207 33339.0 
165.021576 42820.0 
165.055771 672720.0 
179.071274 46368.0 
191.947495 4106.0 
243.988983 11147.0 
313.09549 74059.0 
328.119232 414048.0 
END IONS

BEGIN IONS
NAME="3,6,3',4'-Tetramethoxyflavone CollisionEnergy:102040" M+Na
PRECURSOR_MZ=365.1
INCHI="InChI=1S/C19H18O6/c1-21-12-6-8-14-13(10-12)17(20)19(24-4)18(25-14)11-5-7-15(22-2)16(9-11)23-3/h5-10H,1-4H3"
SMILES=COc1ccc2oc(-c3ccc(OC)c(OC)c3)c(OC)c(=O)c2c1
SPECTRUMID=CCMSLIB00010103950
69.661652 28812.0 
82.393494 29580.0 
88.804161 25756.0 
92.371033 45849.0 
92.553459 23276.0 
130.25058 22544.0 
136.200806 24968.0 
180.693741 25522.0 
192.765594 25252.0 
194.19397 29084.0 
210.169403 35349.0 
335.052399 60812.0 
350.075531 3163421.0 
365.098999 88389224.0 
383.109497 750668.0 
END IONS

BEGIN IONS
NAME=N-Acetyl-L-glutamic acid CollisionEnergy:205060 M-H
PRECURSOR_MZ=188.056
INCHI="InChI=1S/C7H11NO5/c1-4(9)8-5(7(12)13)2-3-6(10)11/h5H,2-3H2,1H3,(H,8,9)(H,10,11)(H,12,13)/t5-/m0/s1"
SMILES=CC(O)=NC(CCC(=O)O)C(=O)O
SPECTRUMID=CCMSLIB00010125371
58.0294 228536.0 
59.01342 734597.0 
74.024437 19976.0 
82.029823 13382.0 
84.045113 81396.0 
85.029251 10387.0 
88.372437 11224.0 
88.861053 10575.0 
88.97718 10695.0 
98.02478 22707.0 
98.061157 25317.0 
100.040298 49927.0 
100.076881 434870.0 
102.056168 1790222.0 
104.288879 16771.0 
118.656151 11881.0 
126.05603 88927.0 
128.035477 1579042.0 
136.212173 13024.0 
144.066864 429457.0 
146.046158 163604.0 
170.046127 336206.0 
188.056702 557817.0 
END IONS

BEGIN IONS
NAME="methyl 4-(3-bromo-5-ethoxy-4-hydroxyphenyl)-7-(4-methoxyphenyl)-2-methyl-5-oxo -1,4,6,7,8-pentahydroquinoline-3-carboxylate CollisionEnergy:102040" M+formate
PRECURSOR_MZ=586.108
INCHI="InChI=1S/C27H28BrNO6/c1-5-35-22-13-17(10-19(28)26(22)31)24-23(27(32)34-4)14(2)29-20-11-16(12-21(30)25(20)24)15-6-8-18(33-3)9-7-15/h6-10,13,16,24,29,31H,5,11-12H2,1-4H3"
SMILES=CCOc1cc(C2C(C(=O)OC)=C(C)NC3=C2C(=O)CC(c2ccc(OC)cc2)C3)cc(Br)c1O
SPECTRUMID=CCMSLIB00010112666
53.446678 2491.0 
73.964241 3163.0 
75.605141 2428.0 
78.918648 31492.0 
79.434189 2626.0 
120.106506 2838.0 
143.974579 2828.0 
179.015259 2355.0 
185.932266 14392.0 
186.939926 4277.0 
198.588028 2700.0 
204.592484 2822.0 
207.581757 4911.0 
207.605896 16109.0 
303.22171 5051.0 
324.125671 5577.0 
540.102661 147658.0 
595.710083 2723.0 
END IONS

BEGIN IONS
NAME="9-(4-methylphenyl)-8-[(5-methyl-2-phenyl(1,3-oxazol-4-yl))methylthio]hydropuri n-6-one CollisionEnergy:205060" M+Na
PRECURSOR_MZ=452.115
INCHI="InChI=1S/C23H19N5O2S/c1-14-8-10-17(11-9-14)28-20-19(21(29)25-13-24-20)27-23(28)31-12-18-15(2)30-22(26-18)16-6-4-3-5-7-16/h3-11,13H,12H2,1-2H3,(H,24,25,29)"
SMILES=Cc1ccc(-n2c(SCc3nc(-c4ccccc4)oc3C)nc3c(O)ncnc32)cc1
SPECTRUMID=CCMSLIB00010117585
58.217281 3043.0 
69.033783 43641.0 
73.942574 2863.0 
81.902046 2543.0 
82.967033 2582.0 
104.049393 524569.0 
122.059677 2646.0 
172.0755 393439.0 
200.000336 3253.0 
279.030487 125504.0 
279.065704 4288.0 
280.037964 37997.0 
281.046051 99687.0 
333.854584 3276.0 
452.11441 2069457.0 
END IONS

BEGIN IONS
NAME="1,2,6,6,10,17,20-heptamethyl-17-[N-(2-nitrophenyl)carbamoyl]-12-oxopentacyclo[ 12.8.0.0<2,11>.0<5,10>.0<15,20>]docos-13-en-7-yl acetate CollisionEnergy:205060" M+H
PRECURSOR_MZ=633.39
INCHI="InChI=1S/C38H52N2O6/c1-23(41)46-30-14-15-36(6)29(33(30,2)3)13-16-38(8)31(36)28(42)21-24-25-22-35(5,18-17-34(25,4)19-20-37(24,38)7)32(43)39-26-11-9-10-12-27(26)40(44)45/h9-12,21,25,29-31H,13-20,22H2,1-8H3,(H,39,43)"
SMILES=CC(=O)OC1CCC2(C)C(CCC3(C)C2C(=O)C=C2C4CC(C)(C(O)=Nc5ccccc5[N+](=O)[O-])CCC4(C)CCC23C)C1(C)C
SPECTRUMID=CCMSLIB00010125294
91.054253 120036.0 
92.366753 4685.0 
93.069962 231485.0 
93.076653 8534.0 
95.049149 29007.0 
95.085579 487618.0 
97.065033 39476.0 
97.10096 23009.0 
103.053886 8740.0 
105.069817 292307.0 
107.049179 10141.0 
107.08548 432576.0 
109.064903 37757.0 
109.101097 245878.0 
110.669838 4938.0 
111.080269 20870.0 
117.069481 29538.0 
119.085457 607493.0 
121.039368 25906.0 
121.064537 36828.0 
121.101112 435079.0 
123.080307 55590.0 
123.116676 114363.0 
125.095901 6358.0 
128.061707 4941.0 
129.069687 10023.0 
131.085434 80814.0 
133.064301 8149.0 
133.101028 427805.0 
135.080444 102524.0 
135.116669 311434.0 
135.128616 7615.0 
137.096039 24606.0 
137.132401 41636.0 
139.05011 42138.0 
139.111481 25525.0 
142.077698 5503.0 
143.085526 42934.0 
144.093155 5691.0 
145.088593 7144.0 
145.101028 140579.0 
146.109146 7605.0 
147.080612 35484.0 
147.116653 262167.0 
149.096008 280335.0 
149.132462 78905.0 
150.163879 4575.0 
151.111588 10252.0 
155.08461 7031.0 
156.093246 8928.0 
157.100998 107800.0 
158.108871 7485.0 
159.080368 24894.0 
159.116653 152944.0 
160.124237 5552.0 
161.096237 88886.0 
161.132294 188497.0 
163.111557 38725.0 
163.147934 35756.0 
165.127213 6335.0 
169.101028 34103.0 
171.116669 78496.0 
172.124252 5864.0 
173.096985 44180.0 
173.132339 206618.0 
175.111954 86183.0 
175.147995 327631.0 
177.127213 9957.0 
177.163742 83568.0 
183.116852 34844.0 
184.124451 6941.0 
185.132263 46297.0 
187.111511 23305.0 
187.147827 90100.0 
189.127136 39030.0 
189.163559 736791.0 
191.141769 17699.0 
191.178848 30846.0 
195.117615 6838.0 
197.132385 56563.0 
199.111847 7171.0 
199.147919 122528.0 
201.126984 25918.0 
201.163269 54710.0 
203.1427 21189.0 
209.131577 9860.0 
211.148148 39650.0 
213.163788 45955.0 
215.142975 93742.0 
215.179962 24474.0 
217.158417 172706.0 
219.174866 7534.0 
223.147827 5946.0 
224.156662 4968.0 
225.163559 24141.0 
227.179474 35033.0 
229.158722 26127.0 
229.194565 16177.0 
231.174026 21393.0 
235.168228 14028.0 
237.164536 7723.0 
238.170547 5887.0 
239.179184 22360.0 
241.194153 16860.0 
243.174545 10063.0 
243.210175 32112.0 
245.19017 21663.0 
253.194763 64411.0 
255.210602 6285.0 
257.189697 19291.0 
259.204224 5759.0 
265.194672 7427.0 
265.716125 3854.0 
267.210419 24726.0 
269.225311 5444.0 
271.205627 93295.0 
277.17926 32909.0 
283.205017 9875.0 
285.220917 19199.0 
293.226349 8272.0 
355.201111 29985.0 
389.319214 34675.0 
398.803833 4365.0 
407.330292 86544.0 
437.242767 17188.0 
467.351868 143315.0 
531.402039 4306.0 
555.354492 8278.0 
573.369751 64026.0 
633.147095 253185.0 
633.38916 4934185.0 
819.980103 4799.0 
END IONS

BEGIN IONS
NAME=(2E)-3-{4-methoxy-3-[(4-nitrophenoxy)methyl]phenyl}-1-phenylprop-2-en-1-one CollisionEnergy:102040 M+Na
PRECURSOR_MZ=412.116
INCHI="InChI=1S/C23H19NO5/c1-28-23-14-8-17(7-13-22(25)18-5-3-2-4-6-18)15-19(23)16-29-21-11-9-20(10-12-21)24(26)27/h2-15H,16H2,1H3/b13-7+"
SMILES=COc1ccc(C=CC(=O)c2ccccc2)cc1COc1ccc([N+](=O)[O-])cc1
SPECTRUMID=CCMSLIB00010110854
60.53437 3130.0 
125.94252 2795.0 
156.60173 2998.0 
282.121429 3658.0 
283.6138 2782.0 
366.119476 37357.0 
390.620605 2676.0 
412.114594 1860189.0 
END IONS

BEGIN IONS
NAME="2-[(dibenzo[b,d]furan-2-ylsulfonyl)methylamino]acetic acid CollisionEnergy:102040" M-H
PRECURSOR_MZ=318.044
INCHI="InChI=1S/C15H13NO5S/c1-16(9-15(17)18)22(19,20)10-6-7-14-12(8-10)11-4-2-3-5-13(11)21-14/h2-8H,9H2,1H3,(H,17,18)"
SMILES=CN(CC(=O)O)S(=O)(=O)c1ccc2oc3ccccc3c2c1
SPECTRUMID=CCMSLIB00010108674
51.873878 2696.0 
63.962009 31322.0 
64.969902 26108.0 
79.681908 2745.0 
82.437187 3161.0 
104.335136 3059.0 
104.342323 2650.0 
112.985611 21014.0 
113.989113 11361.0 
118.709297 3077.0 
143.049866 5780.0 
145.545303 2909.0 
167.050339 726607.0 
183.045807 24953.0 
185.061737 5966.0 
196.078201 4164.0 
210.310654 5955.0 
210.328629 3289.0 
211.039948 99061.0 
231.012207 3271167.0 
260.038879 69715.0 
288.062897 6423.0 
318.044159 1751393.0 
318.111572 53215.0 
END IONS

BEGIN IONS
NAME=3-[2-(4-fluorophenyl)-2-oxoethyl]-4-hydroxychromen-2-one CollisionEnergy:205060 M-H
PRECURSOR_MZ=297.057
INCHI="InChI=1S/C17H11FO4/c18-11-7-5-10(6-8-11)14(19)9-13-16(20)12-3-1-2-4-15(12)22-17(13)21/h1-8,20H,9H2"
SMILES=O=C(Cc1c(O)c2ccccc2oc1=O)c1ccc(F)cc1
SPECTRUMID=CCMSLIB00010122941
54.510601 2498.0 
60.54781 2314.0 
66.749222 2086.0 
68.99511 3275.0 
73.963753 2850.0 
82.409264 2255.0 
88.108704 2466.0 
92.927483 3179.0 
93.0345 28782.0 
108.021584 9156.0 
112.985497 4741.0 
117.034653 3088.0 
118.992378 13992.0 
121.045769 28210.0 
130.676682 2130.0 
130.992538 15532.0 
133.046219 2809.0 
134.802063 2442.0 
148.016815 11251.0 
149.040863 5414.0 
165.034698 3112.0 
176.011505 10736.0 
176.028137 11136.0 
177.035629 89042.0 
180.989655 4937.0 
183.01149 2963.0 
225.073364 17809.0 
228.986755 3175.0 
230.986374 10636.0 
253.066956 13904.0 
296.977112 33730.0 
297.056549 150162.0 
297.153168 15229.0 
END IONS

BEGIN IONS
NAME=vanillin CollisionEnergy:205060 M+H
PRECURSOR_MZ=153.055
INCHI="InChI=1S/C8H8O3/c1-11-8-4-6(5-9)2-3-7(8)10/h2-5,10H,1H3"
SMILES=COc1cc(C=O)ccc1O
SPECTRUMID=CCMSLIB00010122675
52.933861 2569.0 
53.325249 2745.0 
53.528141 3227.0 
55.554218 2848.0 
56.181721 2850.0 
56.965271 22482.0 
65.038971 2725225.0 
67.054497 4107.0 
70.942146 61203.0 
70.958183 22377.0 
72.937263 3477.0 
73.964882 3430.0 
74.931183 4026.0 
78.708282 3004.0 
79.021294 4123.0 
79.05439 7014.0 
84.95993 4894.0 
88.952347 19602.0 
88.968849 4446.0 
93.033562 1583834.0 
97.065102 28073.0 
102.021332 4456.0 
104.518852 3215.0 
107.049026 12559.0 
109.027977 3613.0 
110.036186 394818.0 
111.043999 4389999.0 
111.96833 37785.0 
113.047997 4947.0 
124.051857 16197.0 
125.059639 1925566.0 
129.978851 21409.0 
130.016602 6698.0 
134.059967 66469.0 
153.054489 883073.0 
END IONS

BEGIN IONS
NAME=reserpine CollisionEnergy:102040 M+H
PRECURSOR_MZ=609.281
INCHI="InChI=1S/C33H40N2O9/c1-38-19-7-8-20-21-9-10-35-16-18-13-27(44-32(36)17-11-25(39-2)30(41-4)26(12-17)40-3)31(42-5)28(33(37)43-6)22(18)15-24(35)29(21)34-23(20)14-19/h7-8,11-12,14,18,22,24,27-28,31,34H,9-10,13,15-16H2,1-6H3/t18-,22+,24-,27-,28+,31+/m1/s1"
SMILES=COC(=O)C1C2CC3c4[nH]c5cc(OC)ccc5c4CCN3CC2CC(OC(=O)c2cc(OC)c(OC)c(OC)c2)C1OC
SPECTRUMID=CCMSLIB00010110971
56.049789 9631.0 
58.05455 4330.0 
65.038857 4397.0 
68.049698 5810.0 
70.065247 18761.0 
71.049294 27471.0 
71.185089 5083.0 
71.829323 4144.0 
75.044373 9949.0 
79.054337 24920.0 
80.049507 16990.0 
81.03373 5636.0 
91.053963 27321.0 
94.064987 39854.0 
97.064873 5109.0 
104.286827 5200.0 
105.070183 6662.0 
106.064774 24250.0 
108.080193 17827.0 
109.064346 29828.0 
111.043633 46384.0 
113.06015 5687.0 
115.053947 9155.0 
117.069778 7940.0 
118.065132 16997.0 
120.080681 42710.0 
121.064651 7451.0 
121.113564 4162.0 
123.080116 18962.0 
124.052094 9878.0 
126.091049 5139.0 
128.046967 9194.0 
129.069 6258.0 
130.064911 10045.0 
131.072662 20746.0 
131.085175 25879.0 
132.080811 43150.0 
137.05928 7037.0 
139.075195 50314.0 
141.017487 10847.0 
142.064453 9675.0 
143.049271 6115.0 
143.071793 40627.0 
144.080505 47341.0 
145.065186 4788.0 
146.059387 5418.0 
147.067261 6474.0 
147.07988 34899.0 
148.075226 93887.0 
149.059006 20011.0 
150.091003 9280.0 
152.046524 56136.0 
156.041702 40062.0 
158.059357 10314.0 
159.067688 108077.0 
159.081192 7170.0 
160.075333 132748.0 
161.060059 8357.0 
161.082581 34283.0 
162.090759 42659.0 
163.099655 5558.0 
164.106705 18446.0 
166.086716 7640.0 
167.070236 5917.0 
169.086166 8644.0 
172.075256 34767.0 
173.083893 17419.0 
174.091141 2879992.0 
175.075211 21891.0 
176.107117 38311.0 
178.085953 29038.0 
181.084976 10556.0 
185.081741 20606.0 
186.090729 56632.0 
187.099457 8188.0 
188.106491 115072.0 
189.102417 7801.0 
190.086151 38505.0 
192.101532 323621.0 
193.08696 8818.0 
195.064941 4136214.0 
198.091202 27058.0 
199.098969 22174.0 
200.106964 108988.0 
201.10202 21522.0 
204.101578 110401.0 
207.101715 11162.0 
210.090591 22117.0 
210.112503 6987.0 
211.098251 8718.0 
212.106613 30153.0 
214.108215 43380.0 
215.116806 69458.0 
216.101456 6281.0 
222.112396 35803.0 
224.106308 21525.0 
224.127487 140243.0 
226.122772 9712.0 
227.117035 37362.0 
228.125412 11361.0 
229.133194 6609.0 
236.127808 411715.0 
237.114777 10165.0 
238.123077 32081.0 
248.10643 20347.0 
249.115524 7058.0 
250.12085 26627.0 
251.117859 26352.0 
252.133118 9642.0 
253.132263 33398.0 
254.139099 6373.0 
262.122345 26647.0 
262.854736 4863.0 
265.133942 41740.0 
266.140106 21707.0 
267.149475 6874.0 
274.12088 10185.0 
276.137238 60963.0 
277.14386 8330.0 
288.104858 5158.0 
288.137451 41513.0 
289.111023 6086.0 
289.146332 8922.0 
290.115173 21750.0 
302.118256 6579.0 
304.133301 44142.0 
305.164093 31000.0 
308.123352 7371.0 
308.16272 15573.0 
309.135895 5309.0 
316.131348 9743.0 
322.143188 29925.0 
333.161438 39988.0 
334.142822 8090.0 
336.117859 8428.0 
336.158875 138743.0 
337.190491 19073.0 
347.173431 5672.0 
348.158142 54991.0 
350.160492 10272.0 
354.16745 6848.0 
363.166534 6834.0 
365.184814 381598.0 
368.146332 30474.0 
368.19281 39441.0 
380.183044 21482.0 
382.188965 20689.0 
395.193359 5948.0 
396.197937 6043.0 
397.211212 1502230.0 
402.156738 10262.0 
404.176331 5685.0 
413.205261 21802.0 
434.180023 32988.0 
436.195099 89170.0 
448.195435 419359.0 
577.15802 7097.0 
577.255005 110130.0 
591.270142 7477.0 
594.25415 40897.0 
605.401062 8696.0 
609.279419 12999164.0 
613.190552 10473.0 
END IONS

BEGIN IONS
NAME="2,3-dimethoxy-1-(1,2,3,4-tetrahydrobeta-carbolinyl)benzene CollisionEnergy:205060" M+H
PRECURSOR_MZ=309.16
INCHI="InChI=1S/C19H20N2O2/c1-22-16-9-5-7-14(19(16)23-2)17-18-13(10-11-20-17)12-6-3-4-8-15(12)21-18/h3-9,17,20-21H,10-11H2,1-2H3"
SMILES=COc1cccc(C2NCCc3c2[nH]c2ccccc32)c1OC
SPECTRUMID=CCMSLIB00010115681
57.31633 2902.0 
63.528488 3178.0 
66.733459 2927.0 
75.044327 15742.0 
81.454353 3240.0 
91.054222 20889.0 
92.368797 3703.0 
93.033539 5009.0 
93.070068 4009.0 
103.054283 21191.0 
106.065323 4051.0 
114.816917 3330.0 
115.054047 42463.0 
116.19976 3901.0 
117.057297 13453.0 
117.069946 62047.0 
121.064842 30989.0 
121.774521 3853.0 
122.060249 6371.0 
124.051659 5773.0 
125.059921 4215.0 
129.069626 5974.0 
130.065201 533844.0 
131.049088 5512.0 
135.043747 5739.0 
136.051941 112360.0 
137.059769 32745.0 
138.054596 3300.0 
139.074539 3482.0 
142.065231 88886.0 
143.072968 61542.0 
144.080841 5065048.0 
148.051804 21225.0 
149.059662 13663.0 
151.062927 35133.0 
151.075485 57873.0 
154.065643 15217.0 
155.059738 5005.0 
156.081131 8323.0 
157.089096 7672.0 
158.083862 23094.0 
160.05191 22389.0 
160.075348 4398.0 
163.075958 6890.0 
166.086273 164818.0 
167.073212 4683.0 
171.09201 3941.0 
175.075607 25857.0 
180.081223 6740.0 
181.087982 6096.0 
192.081268 7410.0 
193.253357 3585.0 
194.096191 6062.0 
204.080429 94856.0 
205.08847 106459.0 
206.09639 80845.0 
207.103302 6672.0 
216.081268 26563.0 
217.088425 192992.0 
218.096344 168396.0 
219.103729 12481.0 
220.075287 29772.0 
220.111832 25025.0 
222.091782 59561.0 
230.096054 6383.0 
232.075485 124562.0 
233.083542 308410.0 
234.091125 242760.0 
235.063385 5071.0 
235.098465 12312.0 
236.107025 147742.0 
237.114426 5147.0 
238.098984 5312.0 
246.091278 54872.0 
247.098846 121100.0 
248.106827 1036003.0 
249.082901 8856.0 
249.114548 419882.0 
250.08609 456930.0 
250.116653 16463.0 
251.093521 26982.0 
253.121719 18800.0 
260.105865 14306.0 
261.115234 7964.0 
262.086578 6340.0 
263.097687 23320.0 
264.101715 651819.0 
265.077118 5151.0 
265.109558 204529.0 
266.117371 221565.0 
276.101898 7272.0 
277.111145 4414.0 
278.11795 44597.0 
280.133057 3645180.0 
292.132385 99946.0 
309.159424 1233744.0 
END IONS

BEGIN IONS
NAME="N-(3-ethyl-4-oxo(3-hydroquinazolin-7-yl))(3,4,5-trimethoxyphenyl)carboxamide CollisionEnergy:102040" M+Cl
PRECURSOR_MZ=418.118
INCHI="InChI=1S/C20H21N3O5/c1-5-23-11-21-15-10-13(6-7-14(15)20(23)25)22-19(24)12-8-16(26-2)18(28-4)17(9-12)27-3/h6-11H,5H2,1-4H3,(H,22,24)"
SMILES=CCn1cnc2cc(N=C(O)c3cc(OC)c(OC)c(OC)c3)ccc2c1=O
SPECTRUMID=CCMSLIB00010103897
54.405529 2176.0 
61.79784 2482.0 
69.245483 2374.0 
78.567886 2732.0 
82.441597 2775.0 
88.426903 2252.0 
91.144234 2011.0 
91.401749 2139.0 
92.427544 2322.0 
95.767273 2557.0 
96.941833 2257.0 
138.171539 2476.0 
159.939148 2675.0 
167.74057 2396.0 
169.688828 2439.0 
183.86673 2456.0 
207.486954 2655.0 
273.163849 2704.0 
281.855103 3373.0 
352.093842 53645.0 
366.110016 11609.0 
367.11673 16228.0 
382.140961 259896.0 
END IONS

BEGIN IONS
NAME="8-[(1E)-4-(3-methoxyphenoxy)-2-azabut-1-enyl]-2-{8-[(1E)-4-(3-methoxyphenoxy)- 2-azabut-1-enyl]-1,6,7-trihydroxy-3-methyl-5-(methylethyl)(2-naphthyl)}-3-meth yl-5-(methylethyl)naphthalene-1,6,7-triol CollisionEnergy:102040" M+2H]
PRECURSOR_MZ=409.188
INCHI="InChI=1S/C48H52N2O10/c1-25(2)37-33-19-27(5)39(45(53)41(33)35(43(51)47(37)55)23-49-15-17-59-31-13-9-11-29(21-31)57-7)40-28(6)20-34-38(26(3)4)48(56)44(52)36(42(34)46(40)54)24-50-16-18-60-32-14-10-12-30(22-32)58-8/h9-14,19-26,51-56H,15-18H2,1-8H3/b49-23+,50-24+"
SMILES=COc1cccc(OCCN=Cc2c(O)c(O)c(C(C)C)c3cc(C)c(-c4c(C)cc5c(C(C)C)c(O)c(O)c(C=NCCOc6cccc(OC)c6)c5c4O)c(O)c23)c1
SPECTRUMID=CCMSLIB00010114505
66.745163 2504.0 
67.977692 3155.0 
82.397758 3568.0 
90.079193 2813.0 
90.97686 4944.0 
91.054024 4082.0 
92.377052 2784.0 
121.06366 2956.0 
123.041634 3278.0 
123.080513 12326.0 
124.051849 10499.0 
125.059608 134409.0 
147.30159 2574.0 
147.405121 2626.0 
151.075302 79273.0 
152.401276 2845.0 
158.781494 2870.0 
168.101898 77457.0 
175.927582 3138.0 
187.006592 3072.0 
214.062317 10770.0 
227.070312 4546.0 
233.086456 3632.0 
234.57962 3015.0 
240.612869 3495.0 
242.093674 54182.0 
243.099915 6264.0 
254.608627 10924.0 
256.102448 12114.0 
263.614441 60650.0 
284.128021 3724.0 
285.13446 26578.0 
285.639038 3531.0 
318.127411 2860.0 
325.640106 71329.0 
326.139587 5744.0 
347.160828 20441.0 
388.16449 5483.0 
389.101624 3136.0 
401.677338 12557.0 
408.679871 3701.0 
409.187683 1944878.0 
409.689331 344517.0 
467.146484 2870.0 
468.15329 10981.0 
473.195831 29126.0 
474.200134 6073.0 
483.17926 117178.0 
484.176483 19069.0 
526.221802 24658.0 
527.09668 2892.0 
640.289001 12321.0 
650.274292 67493.0 
651.280151 5457.0 
END IONS

BEGIN IONS
NAME=3-indol-3-yl-2-[(4-methoxyphenyl)carbonylamino]propanoic acid CollisionEnergy:205060 M+Na
PRECURSOR_MZ=361.116
INCHI="InChI=1S/C19H18N2O4/c1-25-14-8-6-12(7-9-14)18(22)21-17(19(23)24)10-13-11-20-16-5-3-2-4-15(13)16/h2-9,11,17,20H,10H2,1H3,(H,21,22)(H,23,24)"
SMILES=COc1ccc(C(=O)NC(Cc2c[nH]c3ccccc23)C(=O)O)cc1
SPECTRUMID=CCMSLIB00010119742
62.64687 2435.0 
84.364227 2613.0 
132.0811 3768.0 
135.0439 40264.0 
140.211639 2608.0 
140.858841 2650.0 
149.562866 2355.0 
156.90062 2419.0 
159.090912 9088.0 
175.036728 23402.0 
181.073212 98819.0 
182.057083 14806.0 
184.343704 2459.0 
201.794632 2967.0 
210.051758 30520.0 
263.460205 2603.0 
297.096954 8382.0 
343.103668 15652.0 
361.114899 2453740.0 
END IONS

BEGIN IONS
NAME="6,11-dioxododecanoic acid CollisionEnergy:205060" M+formate
PRECURSOR_MZ=273.134
INCHI="InChI=1S/C12H20O4/c1-10(13)6-2-3-7-11(14)8-4-5-9-12(15)16/h2-9H2,1H3,(H,15,16)"
SMILES=CC(=O)CCCCC(=O)CCCCC(=O)O
SPECTRUMID=CCMSLIB00010120020
53.29591 2330.0 
53.336262 1928.0 
57.034328 4531.0 
61.881721 2327.0 
82.405563 3528.0 
83.050133 10987.0 
92.384857 2894.0 
92.996094 2555.0 
99.081802 2782.0 
102.740807 2148.0 
104.293587 2757.0 
111.515038 2038.0 
188.733917 2086.0 
209.118759 3202.0 
209.624207 4155.0 
227.12883 36497.0 
273.132172 2426.0 
END IONS

BEGIN IONS
NAME=DEOXYCHOLIC ACID CollisionEnergy:205060 M-H
PRECURSOR_MZ=391.285
INCHI="InChI=1S/C24H40O4/c1-14(4-9-22(27)28)18-7-8-19-17-6-5-15-12-16(25)10-11-23(15,2)20(17)13-21(26)24(18,19)3/h14-21,25-26H,4-13H2,1-3H3,(H,27,28)/t14-,15-,16-,17+,18-,19+,20+,21+,23+,24-/m1/s1"
SMILES=CC(CCC(=O)O)C1CCC2C3CCC4CC(O)CCC4(C)C3CC(O)C12C
SPECTRUMID=CCMSLIB00010121700
69.034309 1241839.0 
71.049911 191186.0 
74.472153 100753.0 
92.425194 104656.0 
118.707916 105350.0 
140.849121 99988.0 
209.059662 387310.0 
220.545807 89985.0 
309.221008 368440.0 
311.23822 502531.0 
315.267426 125303.0 
317.284027 488810.0 
325.252045 535998.0 
327.269592 5742604.0 
329.246368 158283.0 
329.285828 1525458.0 
341.248901 184517.0 
343.216644 193373.0 
343.264313 7848709.0 
345.279968 13083362.0 
347.295502 2044665.0 
353.248016 180075.0 
355.265106 3296635.0 
363.292358 488194.0 
365.305664 1557119.0 
373.276398 370256.0 
389.271179 961628.0 
391.285828 88876952.0 
END IONS

BEGIN IONS
NAME="11-(2,5-dimethoxyphenyl)-3-(2-chlorophenyl)-2,3,4-trihydro-5H,10H,11H-benzo[b] benzo[2,1-f]1,4-diazepin-1-one CollisionEnergy:102040" M+Cl
PRECURSOR_MZ=495.125
INCHI="InChI=1S/C27H25ClN2O3/c1-32-17-11-12-25(33-2)19(15-17)27-26-23(29-21-9-5-6-10-22(21)30-27)13-16(14-24(26)31)18-7-3-4-8-20(18)28/h3-12,15-16,27,29-30H,13-14H2,1-2H3"
SMILES=COc1ccc(OC)c(C2Nc3ccccc3NC3=C2C(=O)CC(c2ccccc2Cl)C3)c1
SPECTRUMID=CCMSLIB00010104249
66.764389 2411.0 
67.638092 2498.0 
72.009033 2514.0 
93.560547 2341.0 
104.315681 3122.0 
131.061005 3850.0 
314.105713 9789.0 
315.112671 4518.0 
329.128601 5203.0 
412.334259 2662.0 
441.13623 11347.0 
445.327972 2903.0 
456.239868 2741.0 
459.148071 259019.0 
494.986267 6191.0 
495.125031 24964.0 
END IONS

BEGIN IONS
NAME="N-phenyl[(9,11,13-trimethyl-8,15-dioxatetracyclo[10.2.2.0<2,7>.0<9,14>]hexadec a-2(7),3,5-trien-12-yl)methoxy]carboxamide CollisionEnergy:102040" M+H-H2O
PRECURSOR_MZ=390.206
INCHI="InChI=1S/C25H29NO4/c1-16-13-24(3)21-17(2)25(16,15-29-23(27)26-18-9-5-4-6-10-18)14-28-22(21)19-11-7-8-12-20(19)30-24/h4-12,16-17,21-22H,13-15H2,1-3H3,(H,26,27)"
SMILES=CC1CC2(C)Oc3ccccc3C3OCC1(COC(O)=Nc1ccccc1)C(C)C32
SPECTRUMID=CCMSLIB00010111555
66.730568 2897.0 
67.054802 5408.0 
69.070358 4208.0 
71.049522 3944.0 
79.054413 14870.0 
81.069847 5042.0 
83.085632 6937.0 
89.554787 2847.0 
91.05442 41605.0 
92.361671 2587.0 
93.069931 15793.0 
95.085564 31014.0 
105.069794 30703.0 
107.049103 357995.0 
107.085449 128907.0 
109.101433 22459.0 
117.070007 13697.0 
119.049133 34455.0 
119.085648 54104.0 
120.044189 5794.0 
121.064751 26380.0 
121.101257 105781.0 
123.080162 5226.0 
131.049149 160173.0 
131.085266 16949.0 
133.064896 68580.0 
133.101105 111550.0 
135.116821 136767.0 
136.05423 2766.0 
138.054688 22172.0 
141.070435 6432.0 
143.08522 21909.0 
145.064774 502517.0 
145.100677 39344.0 
146.108917 6818.0 
147.080383 74932.0 
147.116867 149609.0 
155.085327 41061.0 
157.100876 4739.0 
159.080673 64998.0 
159.116684 85510.0 
165.127243 3134.0 
169.101212 92368.0 
171.08017 14622.0 
173.096115 12891.0 
179.085419 4324.0 
181.10144 3528.0 
182.072403 3332.0 
183.080185 16430.0 
183.117004 12837.0 
185.0961 12393.0 
193.101105 21983.0 
195.117218 2764.0 
196.088348 12317.0 
197.096222 78835.0 
198.104385 3551.0 
199.111191 3461.0 
207.115723 3289.0 
209.096207 20996.0 
209.132721 14242.0 
209.404053 3113.0 
210.104355 5662.0 
211.111603 195117.0 
213.127014 2947.0 
224.119415 4960.0 
225.126816 23019.0 
225.163666 72855.0 
227.14241 3112.0 
229.122269 6706.0 
235.147217 11930.0 
238.135574 4303.0 
253.158432 714682.0 
268.801697 2765.0 
271.168945 63313.0 
340.689575 3164.0 
351.818451 2962.0 
390.205933 814751.0 
400.510559 3146.0 
END IONS

BEGIN IONS
NAME="6,3'-DIMETHOXYFLAVONE CollisionEnergy:205060" M+Na
PRECURSOR_MZ=305.078
INCHI="InChI=1S/C17H14O4/c1-19-12-5-3-4-11(8-12)17-10-15(18)14-9-13(20-2)6-7-16(14)21-17/h3-10H,1-2H3"
SMILES=COc1cccc(-c2cc(=O)c3cc(OC)ccc3o2)c1
SPECTRUMID=CCMSLIB00010114999
56.96529 2482.0 
66.735474 2799.0 
84.95948 2715.0 
92.368874 3372.0 
98.288383 2422.0 
132.606262 2146.0 
140.13942 2285.0 
204.805405 2542.0 
212.198288 2373.0 
267.986633 2323.0 
305.0784 308919.0 
305.161591 19582.0 
305.208588 8416.0 
323.087708 13306.0 
END IONS

BEGIN IONS
NAME="cyclopentyl 4-(3-chloro-4-hydroxy-5-methoxyphenyl)-2-methyl-5-oxo-1,4,6,7,8-pe ntahydroquinoline-3-carboxylate CollisionEnergy:102040" M+H
PRECURSOR_MZ=432.157
INCHI="InChI=1S/C23H26ClNO5/c1-12-19(23(28)30-14-6-3-4-7-14)20(21-16(25-12)8-5-9-17(21)26)13-10-15(24)22(27)18(11-13)29-2/h10-11,14,20,25,27H,3-9H2,1-2H3"
SMILES=COc1cc(C2C(C(=O)OC3CCCC3)=C(C)NC3=C2C(=O)CCC3)cc(Cl)c1O
SPECTRUMID=CCMSLIB00010106034
69.070084 5940.0 
73.951736 3441.0 
82.397614 3388.0 
88.51516 3963.0 
96.670593 3498.0 
100.330116 3224.0 
128.643616 3430.0 
157.967346 4248.0 
160.076111 3887.0 
161.083786 4151.0 
174.594513 3273.0 
188.07048 36411.0 
188.09584 2944.0 
205.318619 4986.0 
206.080948 5624944.0 
206.847473 5970.0 
274.14328 4536406.0 
310.10672 5864.0 
331.058594 12101.0 
344.494263 3936.0 
346.083374 146894.0 
349.584015 5009.0 
364.093933 14056.0 
403.115875 3427.0 
432.156219 237205.0 
END IONS

BEGIN IONS
NAME=4-hydroxy-2-quinolone CollisionEnergy:205060 M-H
PRECURSOR_MZ=160.04
INCHI="InChI=1S/C9H7NO2/c11-8-5-9(12)10-7-4-2-1-3-6(7)8/h1-5H,(H2,10,11,12)"
SMILES=C1=CC=C2C(=C1)C(=O)C=C(N2)O
SPECTRUMID=CCMSLIB00010102161
58.793686 3649.881836 
61.987858 9356.464844 
62.794338 3625.220947 
67.418449 3928.2771 
74.003891 4199.733398 
92.050369 22922.783203 
92.089745 3888.213135 
103.989128 10273.517578 
104.356079 4936.962891 
116.050468 296945.9375 
118.029739 350024.28125 
131.984222 8717.258789 
132.045456 28123.757812 
132.981308 5263.155273 
135.122757 4261.279297 
159.512039 7888.857422 
159.894669 7481.483887 
160.040329 5382600.5 
160.571701 9441.067383 
160.841202 9949.963867 
161.04393 46430.953125 
END IONS

BEGIN IONS
NAME="N-[2-(3,4-dimethoxyphenyl)ethyl]-4-chlorobutanamide CollisionEnergy:102040" M+Na
PRECURSOR_MZ=308.102
INCHI="InChI=1S/C14H20ClNO3/c1-18-12-6-5-11(10-13(12)19-2)7-9-16-14(17)4-3-8-15/h5-6,10H,3-4,7-9H2,1-2H3,(H,16,17)"
SMILES=COc1ccc(CCN=C(O)CCCCl)cc1OC
SPECTRUMID=CCMSLIB00010114603
55.641441 2486.0 
56.283989 2128.0 
61.177181 2481.0 
66.612923 2349.0 
136.205521 2864.0 
150.066895 13723.0 
165.090881 241418.0 
210.465103 2374.0 
250.14328 458613.0 
271.395264 2236.0 
272.125183 342555.0 
308.101776 78170.0 
308.14679 2748.0 
308.154602 2128.0 
END IONS

BEGIN IONS
NAME="1-(2,4,5-trimethoxyphenyl)-1,2,3,4-tetrahydrobeta-carboline-3-carboxylic acid CollisionEnergy:102040" M+H
PRECURSOR_MZ=383.16
INCHI="InChI=1S/C21H22N2O5/c1-26-16-10-18(28-3)17(27-2)9-13(16)20-19-12(8-15(23-20)21(24)25)11-6-4-5-7-14(11)22-19/h4-7,9-10,15,20,22-23H,8H2,1-3H3,(H,24,25)"
SMILES=COc1cc(OC)c(C2NC(C(=O)O)Cc3c2[nH]c2ccccc32)cc1OC
SPECTRUMID=CCMSLIB00010107560
71.705482 3062.0 
75.04422 5410.0 
98.698334 3488.0 
104.29451 2921.0 
123.080566 3588.0 
130.06517 99699.0 
136.051987 7293.0 
136.217239 3745.0 
143.07338 23092.0 
144.080765 930629.0 
146.060501 30914.0 
154.064896 32749.0 
159.091553 16754.0 
166.062378 150020.0 
167.06987 26187.0 
169.07518 5222.0 
171.075043 7213.0 
171.091629 170687.0 
178.062561 34921.0 
178.078568 3378.0 
178.086624 4523.0 
179.069458 4157.0 
181.085861 826210.0 
188.071075 30751.0 
196.097 93714.0 
204.080948 18327.0 
210.111771 30919.0 
215.081894 44426.0 
218.09639 5965.0 
232.077087 5547.0 
234.091522 17272.0 
236.106781 16679.0 
237.340652 3334.0 
246.092056 5655.0 
247.098862 165525.0 
248.073044 4981.0 
248.106628 30279.0 
252.10144 5447.0 
254.101761 49069.0 
262.086029 55127.0 
263.093781 136346.0 
264.102448 24652.0 
266.117096 4651.0 
277.10968 51264.0 
278.117188 576686.0 
279.093262 5109.0 
279.124756 96440.0 
280.097137 49282.0 
280.129669 5214.0 
288.649475 3196.0 
294.111938 132958.0 
295.120361 53327.0 
296.127655 253987.0 
308.127563 94020.0 
309.101471 3228.0 
309.135284 232275.0 
310.143219 1733091.0 
311.137604 6662.0 
337.1539 4083.0 
339.170929 27918.0 
383.159576 2881564.0 
END IONS

BEGIN IONS
NAME=xanthurenic acid CollisionEnergy:102040 M+H
PRECURSOR_MZ=206.045
INCHI="InChI=1S/C10H7NO4/c12-7-3-1-2-5-8(13)4-6(10(14)15)11-9(5)7/h1-4,12H,(H,11,13)(H,14,15)"
SMILES=O=C(O)c1cc(O)c2cccc(O)c2n1
SPECTRUMID=CCMSLIB00010103299
53.0882 342461.0 
54.4403 376686.0 
64.295303 339961.0 
64.957001 372162.0 
66.822601 374846.0 
92.387802 529712.0 
104.292999 390790.0 
132.044998 3222680.0 
136.216995 404010.0 
147.005997 435365.0 
150.906006 360340.0 
152.951004 411872.0 
164.401001 376861.0 
178.050003 133221000.0 
206.044998 176676000.0 
END IONS

BEGIN IONS
NAME=methyl 3-indol-3-yl-2-[2-(4-methyl-2-oxochromen-7-yloxy)acetylamino]propanoate CollisionEnergy:102040 M-H
PRECURSOR_MZ=433.14
INCHI="InChI=1S/C24H22N2O6/c1-14-9-23(28)32-21-11-16(7-8-17(14)21)31-13-22(27)26-20(24(29)30-2)10-15-12-25-19-6-4-3-5-18(15)19/h3-9,11-12,20,25H,10,13H2,1-2H3,(H,26,27)"
SMILES=COC(=O)C(Cc1c[nH]c2ccccc12)N=C(O)COc1ccc2c(C)cc(=O)oc2c1
SPECTRUMID=CCMSLIB00010110327
59.998489 3940.0 
75.008537 385622.0 
82.417747 4244.0 
96.009163 9089.0 
100.013702 4535.0 
104.307793 4183.0 
116.050423 20355.0 
118.67749 3943.0 
131.051224 3904.0 
158.044785 4805.0 
159.044937 47700.0 
173.060806 62025.0 
174.056137 72259.0 
174.875504 5203.0 
175.039993 7042615.0 
184.040131 128057.0 
185.048065 541288.0 
186.056137 65371.0 
187.039688 24456.0 
189.056381 6722.0 
198.056091 248451.0 
199.039764 52001.0 
200.072052 6883.0 
201.05574 49614.0 
210.056305 31842.0 
213.04422 4455.0 
214.05098 138512.0 
216.066406 152528.0 
228.066772 96979.0 
229.049088 8536.0 
232.061295 292961.0 
242.045822 523342.0 
244.033066 8859.0 
244.061218 199629.0 
245.070541 4708.0 
246.076828 85213.0 
254.04689 5869.0 
256.060852 7283.0 
271.049438 57596.0 
272.056488 3085145.0 
274.087128 152109.0 
284.055725 6123.0 
286.038147 5805.0 
304.082489 2058888.0 
315.113586 27463.0 
316.083893 7672.0 
345.124847 6541.0 
357.123169 30638.0 
375.135925 24550.0 
401.112854 47292.0 
433.140198 3594868.0 
END IONS

BEGIN IONS
NAME="8-benzimidazol-2-ylthio-7-[(2,4-dichlorophenyl)methyl]-1,3-dimethyl-1,3,7-trih ydropurine-2,6-dione CollisionEnergy:205060" 2M-H
PRECURSOR_MZ=971.079
INCHI="InChI=1S/C21H16Cl2N6O2S/c1-27-17-16(18(30)28(2)21(27)31)29(10-11-7-8-12(22)9-13(11)23)20(26-17)32-19-24-14-5-3-4-6-15(14)25-19/h3-9H,10H2,1-2H3,(H,24,25)"
SMILES=Cn1c(=O)c2c(nc(Sc3nc4ccccc4[nH]3)n2Cc2ccc(Cl)cc2Cl)n(C)c1=O
SPECTRUMID=CCMSLIB00010118477
137.02272 24847.0 
149.017776 51571.0 
152.987091 7101.0 
153.000168 126217.0 
154.008072 28478.0 
158.033356 6519.0 
164.033691 5852.0 
179.057526 51284.0 
196.006042 185542.0 
209.999023 5139.0 
210.021637 318143.0 
211.02948 852197.0 
215.039551 7302.0 
239.69397 5170.0 
240.034714 4774.0 
268.083984 23825.0 
310.03125 5206.0 
311.034973 9562.0 
325.051147 241433.0 
326.059082 89525.0 
344.818359 4876.0 
357.064697 4577.0 
384.080353 35035.0 
414.091248 28953.0 
449.059479 112643.0 
451.050934 5897.0 
485.036041 1780316.0 
493.552673 4552.0 
527.255127 4355.0 
990.485046 5737.0 
END IONS

BEGIN IONS
NAME=N-(4-methylphenyl)-2-{2-oxo-4-[N-benzylcarbamoyl]hydroquinolyl}acetamide CollisionEnergy:205060 M+formate
PRECURSOR_MZ=470.172
INCHI="InChI=1S/C26H23N3O3/c1-18-11-13-20(14-12-18)28-24(30)17-29-23-10-6-5-9-21(23)22(15-25(29)31)26(32)27-16-19-7-3-2-4-8-19/h2-15H,16-17H2,1H3,(H,27,32)(H,28,30)"
SMILES=Cc1ccc(NC(=O)Cn2c(=O)cc(C(O)=NCc3ccccc3)c3ccccc32)cc1
SPECTRUMID=CCMSLIB00010123221
61.987999 3315.0 
66.55912 2697.0 
104.29628 2917.0 
116.050598 6038.0 
118.663918 2376.0 
128.050552 19518.0 
130.066193 19174.0 
134.450241 2404.0 
144.045334 316118.0 
156.045395 4620.0 
158.048309 11752.0 
158.061417 34826.0 
176.07251 3335.0 
202.050522 3565.0 
221.685104 2582.0 
247.124268 13354.0 
261.103424 4968.0 
268.474457 2963.0 
277.100067 4379.0 
291.113495 29069.0 
317.093323 3279.0 
323.10321 21830.0 
424.166718 248539.0 
END IONS

BEGIN IONS
NAME=3-butyl-4-hydroxy-1-benzylhydroquinolin-2-one CollisionEnergy:205060 M-H
PRECURSOR_MZ=306.15
INCHI="InChI=1S/C20H21NO2/c1-2-3-11-17-19(22)16-12-7-8-13-18(16)21(20(17)23)14-15-9-5-4-6-10-15/h4-10,12-13,22H,2-3,11,14H2,1H3"
SMILES=CCCCc1c(O)c2ccccc2n(Cc2ccccc2)c1=O
SPECTRUMID=CCMSLIB00010116378
50.136959 1977.0 
82.575287 2516.0 
83.862328 2652.0 
92.422653 2805.0 
104.336166 3347.0 
166.656128 2495.0 
172.040466 266937.0 
186.056076 592172.0 
200.071426 11165.0 
205.03801 11580.0 
214.087494 3433.0 
250.087662 2689.0 
262.087982 4228.0 
263.093811 4122.0 
266.497559 2646.0 
271.981354 2771.0 
273.66217 2348.0 
295.083252 3650.0 
306.149933 785289.0 
END IONS

BEGIN IONS
NAME=nicotinic acid CollisionEnergy:102040 M+H
PRECURSOR_MZ=124.039
INCHI="InChI=1S/C6H5NO2/c8-6(9)5-2-1-3-7-4-5/h1-4H,(H,8,9)"
SMILES=O=C(O)c1cccnc1
SPECTRUMID=CCMSLIB00010107384
61.288429 118637.0 
64.656174 117442.0 
78.034203 883888.0 
80.049873 5259882.0 
82.383034 215620.0 
83.062248 134270.0 
96.044418 2536137.0 
103.725243 126909.0 
124.039497 100187232.0 
135.942719 121996.0 
140.034195 155426.0 
END IONS

BEGIN IONS
NAME="2-(2-hydroxy-4-methoxyphenyl)-3-(4-methoxyphenyl)-1,2,3-trihydroquinazolin-4-o ne CollisionEnergy:102040" M+formate
PRECURSOR_MZ=421.141
INCHI="InChI=1S/C22H20N2O4/c1-27-15-9-7-14(8-10-15)24-21(18-12-11-16(28-2)13-20(18)25)23-19-6-4-3-5-17(19)22(24)26/h3-13,21,23,25H,1-2H3"
SMILES=COc1ccc(N2C(=O)c3ccccc3NC2c2ccc(OC)cc2O)cc1
SPECTRUMID=CCMSLIB00010109596
74.974113 2432.0 
86.975471 2486.0 
92.390953 2919.0 
93.58194 2471.0 
117.545349 2481.0 
122.206718 2382.0 
134.024734 43431.0 
148.958084 10866.0 
208.726028 5465.0 
216.944473 4684.0 
241.660248 2722.0 
284.932007 11582.0 
303.243225 2970.0 
352.857147 4631.0 
360.113434 9975.0 
375.134979 102177.0 
378.347626 3010.0 
420.985931 2940.0 
END IONS

BEGIN IONS
NAME=inosine CollisionEnergy:102040 M+H
PRECURSOR_MZ=269.088
INCHI="InChI=1S/C10H12N4O5/c15-1-4-6(16)7(17)10(19-4)14-3-13-5-8(14)11-2-12-9(5)18/h2-4,6-7,10,15-17H,1H2,(H,11,12,18)/t4-,6-,7-,10-/m1/s1"
SMILES=OCC1OC(n2cnc3c(O)ncnc32)C(O)C1O
SPECTRUMID=CCMSLIB00010114346
51.537979 2434.0 
52.80246 2057.0 
60.532681 2665.0 
61.149132 2788.0 
65.103607 2460.0 
66.735924 2573.0 
67.017059 2249.0 
67.584244 2070.0 
68.521111 2219.0 
82.391273 2605.0 
83.513481 3188.0 
92.367531 2709.0 
95.685364 2374.0 
131.801086 2452.0 
133.04953 2448.0 
137.046005 1072687.0 
152.39946 2565.0 
214.917328 3754.0 
232.929123 16418.0 
234.695877 2218.0 
250.939377 8425.0 
255.946686 3497.0 
268.978455 2800.0 
269.136566 18331.0 
269.208984 4913.0 
END IONS

BEGIN IONS
NAME=alpha-Mangostin CollisionEnergy:102040 M-H
PRECURSOR_MZ=409.166
INCHI="InChI=1S/C24H26O6/c1-12(2)6-8-14-16(25)10-19-21(22(14)27)23(28)20-15(9-7-13(3)4)24(29-5)17(26)11-18(20)30-19/h6-7,10-11,25-27H,8-9H2,1-5H3"
SMILES=COc1c(O)cc2oc3cc(O)c(CC=C(C)C)c(O)c3c(=O)c2c1CC=C(C)C
SPECTRUMID=CCMSLIB00010105486
73.967117 3208.0 
104.304367 3812.0 
118.670776 3675.0 
215.444275 2753.0 
282.018738 3538.0 
283.024841 6616.0 
295.025818 3762.0 
298.084412 4855.0 
311.092621 17968.0 
326.078552 20625.0 
333.075562 4436.0 
339.086975 361189.0 
340.095337 4146.0 
351.087219 847551.0 
353.102997 12658.0 
365.102264 25882.0 
366.107666 14528.0 
375.123016 31636.0 
377.139313 248119.0 
379.117401 29003.0 
393.13446 32410.0 
394.14209 174834.0 
409.165588 2971594.0 
426.135559 11290.0 
END IONS

BEGIN IONS
NAME="(3,4-dimethoxyphenyl)-N-[4-(4-methyl-1-oxo(2-hydrophthalazin-2-yl))phenyl]carb oxamide CollisionEnergy:102040" M-H
PRECURSOR_MZ=414.146
INCHI="InChI=1S/C24H21N3O4/c1-15-19-6-4-5-7-20(19)24(29)27(26-15)18-11-9-17(10-12-18)25-23(28)16-8-13-21(30-2)22(14-16)31-3/h4-14H,1-3H3,(H,25,28)"
SMILES=COc1ccc(C(=O)Nc2ccc(-n3nc(C)c4ccccc4c3=O)cc2)cc1OC
SPECTRUMID=CCMSLIB00010108966
59.293499 2272.0 
64.015167 2549.0 
66.90406 2451.0 
73.953323 2541.0 
78.663963 2583.0 
82.401558 2578.0 
104.038094 43408.0 
105.022141 11261.0 
107.013817 5586.0 
123.008957 11377.0 
144.045273 40865.0 
209.760239 4520.0 
209.92688 5937.0 
239.047592 3096.0 
253.062485 13695.0 
254.070129 14150.0 
262.062561 14742.0 
269.093323 25454.0 
281.733887 2890.0 
297.089294 10906.0 
327.266937 2638.0 
368.102997 3010.0 
370.120544 4986.0 
383.090729 14627.0 
384.099518 97104.0 
398.115753 49659.0 
399.122711 40857.0 
414.146301 803300.0 
END IONS

BEGIN IONS
NAME="4,6-dimethyl-8-(morpholin-4-ylsulfonyl)hydroquinolin-2-one CollisionEnergy:205060" M+Na
PRECURSOR_MZ=345.088
INCHI="InChI=1S/C15H18N2O4S/c1-10-7-12-11(2)9-14(18)16-15(12)13(8-10)22(19,20)17-3-5-21-6-4-17/h7-9H,3-6H2,1-2H3,(H,16,18)"
SMILES=Cc1cc(S(=O)(=O)N2CCOCC2)c2nc(O)cc(C)c2c1
SPECTRUMID=CCMSLIB00010118218
54.658138 2914.0 
73.939697 2650.0 
81.033508 15190.0 
82.036903 4154.0 
103.842117 2300.0 
104.266083 2622.0 
116.869057 2567.0 
153.876694 2616.0 
217.657547 2768.0 
253.556641 2578.0 
287.708893 2861.0 
345.087372 1484679.0 
363.097931 79769.0 
367.443237 2650.0 
END IONS

BEGIN IONS
NAME="2-(1,3-Dioxo-1H-benzo[de]isoquinolin-2(3H)-yl)-4-methylpentanoic acid CollisionEnergy:205060" M+H
PRECURSOR_MZ=312.123
INCHI="InChI=1S/C18H17NO4/c1-10(2)9-14(18(22)23)19-16(20)12-7-3-5-11-6-4-8-13(15(11)12)17(19)21/h3-8,10,14H,9H2,1-2H3,(H,22,23)"
SMILES=CC(C)CC(C(=O)O)N1C(=O)c2cccc3cccc(c23)C1=O
SPECTRUMID=CCMSLIB00010121114
53.002739 5157.0 
64.735283 2336.0 
69.07029 248059.0 
82.393204 3526.0 
84.960152 3717.0 
146.467316 2805.0 
155.049149 93510.0 
170.060532 27901.0 
180.044296 836057.0 
198.054901 1635206.0 
210.05481 413809.0 
224.072403 3204.0 
228.065308 348640.0 
239.083054 3734.0 
241.454575 3326.0 
266.11731 1030270.0 
294.112061 209265.0 
END IONS

BEGIN IONS
NAME="5-{[(2-methyl-3-nitrophenyl)amino]azamethylene}-1,3-dihydropyrimidine-2,4,6-tr ione CollisionEnergy:205060" M-H
PRECURSOR_MZ=290.053
INCHI="InChI=1S/C11H9N5O5/c1-5-6(3-2-4-7(5)16(20)21)14-15-8-9(17)12-11(19)13-10(8)18/h2-4,14H,1H3,(H2,12,13,17,18,19)"
SMILES=Cc1c(NN=C2C(O)=NC(=O)N=C2O)cccc1[N+](=O)[O-]
SPECTRUMID=CCMSLIB00010119859
65.014221 6360.0 
65.998131 112151.0 
81.009079 5493.0 
84.008713 23754.0 
90.034973 17648.0 
91.03022 6186.0 
92.01474 4307.0 
92.38652 3313.0 
97.004417 26998.0 
98.012016 22882.0 
104.038063 26619.0 
112.998833 19667.0 
117.046211 4881.0 
118.030067 3417.0 
118.054008 11255.0 
119.037811 4581.0 
121.029747 16754.0 
121.040077 5815.0 
121.053596 6323.0 
127.015091 22514.0 
129.034027 3338.0 
129.045822 2850.0 
131.037888 14329.0 
131.049118 10372.0 
132.032028 3620.0 
133.041321 5667.0 
136.220612 3081.0 
136.348648 3050.0 
137.994995 4516.0 
140.010849 5676.0 
141.018768 2827.0 
142.00177 3034.0 
144.045547 23176.0 
145.02951 20988.0 
145.041061 32210.0 
145.053528 24686.0 
146.037109 34433.0 
146.04895 120725.0 
151.051331 600699.0 
152.010681 3019.0 
152.035217 15797.0 
158.035995 71045.0 
158.048264 4078.0 
159.032333 9083.0 
159.044128 114108.0 
159.058044 5261.0 
161.035919 48583.0 
175.051453 126848.0 
176.047501 576107.0 
185.047592 2421.0 
201.04158 12777.0 
203.057953 52295.0 
204.041519 19453.0 
215.03244 3491.0 
231.040283 6251.0 
232.049103 6350.0 
243.881699 2517.0 
244.036926 3861.0 
245.044434 4413.0 
247.047333 107102.0 
262.046844 36753.0 
290.053406 1553985.0 
311.789368 2898.0 
END IONS

BEGIN IONS
NAME=uridine CollisionEnergy:102040 M+acetate
PRECURSOR_MZ=303.083
INCHI="InChI=1S/C9H12N2O6/c12-3-4-6(14)7(15)8(17-4)11-2-1-5(13)10-9(11)16/h1-2,4,6-8,12,14-15H,3H2,(H,10,13,16)/t4-,6-,7-,8-/m1/s1"
SMILES=O=c1nc(O)ccn1[C@@H]1O[C@H](CO)[C@@H](O)[C@H]1O
SPECTRUMID=CCMSLIB00010102820
57.5229 5273.509766 
59.338299 6156.509766 
72.861702 6380.810059 
104.296997 7526.169922 
118.668999 6710.879883 
169.106995 5929.47998 
181.225006 7009.959961 
210.244995 6124.859863 
240.632996 5774.77002 
END IONS

BEGIN IONS
NAME=7-Hydroxy-5-methylflavone CollisionEnergy:102040 M+Na
PRECURSOR_MZ=275.068
INCHI="InChI=1S/C16H12O3/c1-10-7-12(17)8-15-16(10)13(18)9-14(19-15)11-5-3-2-4-6-11/h2-9,17H,1H3"
SMILES=Cc1cc(O)cc2oc(-c3ccccc3)cc(=O)c12
SPECTRUMID=CCMSLIB00010103557
57.08725 2694.0 
61.221939 2227.0 
79.549202 2366.0 
84.960182 3268.0 
121.460876 2060.0 
157.956711 2559.0 
197.117096 2357.0 
210.951965 2594.0 
211.811783 2715.0 
264.146423 2093.0 
269.907806 3883.0 
275.067841 577641.0 
275.158783 15687.0 
275.278076 2538.0 
293.078491 22526.0 
END IONS

BEGIN IONS
NAME=L-Dihydroorotic acid CollisionEnergy:102040 M-H
PRECURSOR_MZ=157.025
INCHI="InChI=1S/C5H6N2O4/c8-3-1-2(4(9)10)6-5(11)7-3/h2H,1H2,(H,9,10)(H2,6,7,8,11)/t2-/m0/s1"
SMILES=O=C(O)[C@@H]1CC(O)=NC(O)=N1
SPECTRUMID=CCMSLIB00010102569
50.949799 67141.203125 
70.029503 4326720.0 
71.013496 115009.0 
71.024803 711730.0 
73.991096 64902.199219 
74.664597 72324.898438 
82.407997 104695.0 
85.291801 69536.203125 
86.024696 124324.0 
96.009102 178147.0 
111.472 75270.203125 
113.036003 14577400.0 
114.019997 2717460.0 
114.028 142304.0 
120.856003 78817.898438 
132.335999 71625.296875 
140.488998 80383.601562 
157.026001 1321420.0 
END IONS

BEGIN IONS
NAME="3-(3-ethoxy-2-hydroxyphenyl)-5-(2-methoxyphenyl)-1-methyl-4,6-dioxo-1,2,3,5,3a ,6a-hexahydro-2,5-diazapentalenecarboxylic acid CollisionEnergy:102040" M+H
PRECURSOR_MZ=441.166
INCHI="InChI=1S/C23H24N2O7/c1-4-32-15-11-7-8-12(19(15)26)18-16-17(23(2,24-18)22(29)30)21(28)25(20(16)27)13-9-5-6-10-14(13)31-3/h5-11,16-18,24,26H,4H2,1-3H3,(H,29,30)"
SMILES=CCOc1cccc(C2NC(C)(C(=O)O)C3C(=O)N(c4ccccc4OC)C(=O)C23)c1O
SPECTRUMID=CCMSLIB00010106938
50.49036 3945.0 
53.03915 7138.0 
55.05481 38095.0 
66.771156 4794.0 
69.865677 3865.0 
70.065552 574510.0 
79.14389 4035.0 
80.049767 89385.0 
81.033913 53809.0 
82.0653 72954.0 
88.03933 5955.0 
90.160667 4658.0 
92.418793 4401.0 
94.065163 8399.0 
96.044724 10359.0 
98.060158 1085151.0 
99.044296 8928.0 
103.054291 105422.0 
108.036186 7498.0 
108.044403 191728.0 
109.028816 6860.0 
109.052521 10376.0 
110.060089 21557.0 
111.043808 10056.0 
114.054527 32523.0 
117.27359 4549.0 
118.06543 6865.0 
118.705307 4800.0 
119.049606 5403.0 
122.059891 37066.0 
123.0439 57776.0 
123.068024 19235.0 
123.080139 5962.0 
124.039627 41994.0 
124.075737 476753.0 
125.023163 4731.0 
129.070419 4622.0 
131.049194 531212.0 
135.031357 4658.0 
136.075699 6827.0 
137.047394 55507.0 
137.059692 16723.0 
138.054947 111390.0 
138.066086 5218.0 
139.039368 25322.0 
144.081329 4777.0 
146.059555 48197.0 
147.043976 64217.0 
148.076202 5884.0 
149.046295 7801.0 
149.059784 161725.0 
150.055023 158916.0 
151.075424 191144.0 
153.01828 29792.0 
157.065002 19855.0 
158.040268 4187.0 
159.044037 247062.0 
160.075806 24395.0 
162.054993 105622.0 
163.038132 5446.0 
163.062592 23730.0 
163.576477 4433.0 
164.070816 87218.0 
165.054688 7778.0 
165.078583 17643.0 
165.092148 14747.0 
166.086258 734128.0 
167.070114 55481.0 
172.075317 38222.0 
173.058975 6566.0 
175.039139 101020.0 
175.075699 117758.0 
176.07077 19972.0 
177.091034 953641.0 
178.086365 23234.0 
186.053513 4557.0 
187.039688 6435.0 
187.0755 6147.0 
188.070999 51254.0 
188.088257 4286.0 
188.091522 4492.0 
188.106827 45106.0 
189.077011 45525.0 
190.086243 867564.0 
191.094025 116659.0 
192.067841 45495.0 
192.101746 378816.0 
192.121979 6898.0 
194.117477 28108.0 
196.958664 4239.0 
200.070755 18412.0 
201.090927 228134.0 
202.085815 8000.0 
203.0345 37070.0 
203.070236 443790.0 
203.118362 84813.0 
204.065506 99355.0 
204.099747 34383.0 
205.08606 153211.0 
205.106598 6258.0 
206.080536 42238.0 
206.11644 47688.0 
215.070526 74306.0 
216.06575 34305.0 
217.072906 36438.0 
218.083908 40790.0 
218.117523 1168657.0 
219.066116 17744.0 
220.097031 17051.0 
220.132996 41953.0 
228.102646 10579.0 
229.085693 18938.0 
230.079941 33197.0 
231.065079 190295.0 
232.096802 156217.0 
232.120789 6682.0 
236.091461 129322.0 
237.099945 4968.0 
238.107056 90020.0 
244.068207 7321.0 
244.096252 187397.0 
246.09024 4986.0 
246.112427 410987.0 
247.107544 1045895.0 
254.117645 5549.0 
257.091522 141549.0 
258.076111 84594.0 
259.106964 17901.0 
262.107086 23552.0 
264.124542 5568.0 
272.095917 11760.0 
272.127625 88751.0 
274.10788 24488.0 
275.105469 6844.0 
276.086884 69382.0 
285.087708 6452.0 
290.102325 68446.0 
308.093384 8008.0 
318.096527 54158.0 
326.10141 7930.0 
336.123901 24047.0 
352.155548 32865.0 
354.133179 458163.0 
355.16507 25410.0 
366.118256 7900.0 
367.168182 51394.0 
369.180603 986879.0 
372.143707 34025.0 
378.135376 31135.0 
379.165863 5830.0 
395.15976 2088864.0 
396.906647 5404.0 
397.175537 431418.0 
412.129883 4494.0 
413.169067 21303.0 
423.154541 7566.0 
429.989929 4662.0 
441.165222 13531578.0 
END IONS

BEGIN IONS
NAME="N-(4-sulfamoylphenyl)-2-(2-1,2,3,4-tetrahydroisoquinolyl)acetamide CollisionEnergy:102040" M-H
PRECURSOR_MZ=344.107
INCHI="InChI=1S/C17H19N3O3S/c18-24(22,23)16-7-5-15(6-8-16)19-17(21)12-20-10-9-13-3-1-2-4-14(13)11-20/h1-8H,9-12H2,(H,19,21)(H2,18,22,23)"
SMILES=NS(=O)(=O)c1ccc(NC(=O)CN2CCc3ccccc3C2)cc1
SPECTRUMID=CCMSLIB00010107118
51.884289 2455.0 
55.287338 2409.0 
66.75457 2736.0 
73.151962 2241.0 
77.965378 11982.0 
89.457474 2161.0 
92.394447 2756.0 
93.407318 2306.0 
136.233444 2290.0 
142.307663 2143.0 
157.996674 2731.0 
171.023193 142214.0 
197.002304 34150.0 
201.480927 2199.0 
211.018677 2902.0 
344.10733 660546.0 
END IONS

BEGIN IONS
NAME=NSC700145 CollisionEnergy:205060 M-H
PRECURSOR_MZ=447.093
INCHI="InChI=1S/C21H20O11/c22-7-16-18(27)19(28)20(29)21(32-16)30-9-4-12(25)17-13(26)6-14(31-15(17)5-9)8-1-2-10(23)11(24)3-8/h1-6,16,18-25,27-29H,7H2"
SMILES=O=c1cc(-c2ccc(O)c(O)c2)oc2cc(OC3OC(CO)C(O)C(O)C3O)cc(O)c12
SPECTRUMID=CCMSLIB00010121589
62.724758 2638.0 
63.111061 2424.0 
69.545517 2360.0 
70.84539 2710.0 
104.298943 3668.0 
107.013947 4092.0 
133.029785 6394.0 
135.102982 2497.0 
139.024994 3028.0 
146.948792 4937.0 
146.961258 83910.0 
151.003891 16331.0 
174.956055 117275.0 
175.039749 5240.0 
199.040588 4494.0 
217.051773 4744.0 
227.03479 2754.0 
242.943878 51758.0 
256.039215 18079.0 
284.032776 348114.0 
285.040497 393572.0 
306.949097 2744.0 
310.92984 5160.0 
327.051697 2785.0 
447.093445 365607.0 
END IONS

BEGIN IONS
NAME="N-(2H-benzo[3,4-d]1,3-dioxolen-5-ylmethyl)-3-(7-methoxy-4-methyl-2-oxochromen- 3-yl)propanamide CollisionEnergy:102040" M+H
PRECURSOR_MZ=396.144
INCHI="InChI=1S/C22H21NO6/c1-13-16-5-4-15(26-2)10-19(16)29-22(25)17(13)6-8-21(24)23-11-14-3-7-18-20(9-14)28-12-27-18/h3-5,7,9-10H,6,8,11-12H2,1-2H3,(H,23,24)"
SMILES=COc1ccc2c(C)c(CCC(O)=NCc3ccc4c(c3)OCO4)c(=O)oc2c1
SPECTRUMID=CCMSLIB00010108322
51.023781 14621.0 
71.400681 3387.0 
75.849113 3910.0 
77.039223 17421.0 
79.054626 37963.0 
95.049362 7180.0 
105.033401 15675.0 
107.049553 3710.0 
118.988297 3710.0 
125.260178 3948.0 
132.840591 3908.0 
135.044067 10747045.0 
136.203598 4210.0 
203.070236 1539835.0 
217.064087 3701.0 
217.085861 171136.0 
245.080627 2860166.0 
332.043427 8810.0 
396.143799 1541545.0 
END IONS

BEGIN IONS
NAME=[2-(5-methoxyindol-3-yl)ethyl](phenylsulfonyl)amine CollisionEnergy:205060 M-H
PRECURSOR_MZ=329.097
INCHI="InChI=1S/C17H18N2O3S/c1-22-14-7-8-17-16(11-14)13(12-18-17)9-10-19-23(20,21)15-5-3-2-4-6-15/h2-8,11-12,18-19H,9-10H2,1H3"
SMILES=COc1ccc2[nH]cc(CCNS(=O)(=O)c3ccccc3)c2c1
SPECTRUMID=CCMSLIB00010120649
61.97023 17149.0 
63.961971 39217.0 
68.995323 3983.0 
77.965179 7488.0 
78.972687 42427.0 
79.980942 112072.0 
82.42746 3228.0 
84.27121 2512.0 
87.554764 2713.0 
90.241386 2828.0 
90.933456 18448.0 
92.050491 1593047.0 
93.034332 25375.0 
93.960403 44610.0 
98.02597 3104.0 
118.336449 2721.0 
118.698227 3999.0 
132.045151 22792.0 
136.040741 4447.0 
141.00148 196138.0 
144.045334 39189.0 
145.053131 37056.0 
156.012421 4717843.0 
159.032135 15991.0 
160.040237 191647.0 
169.625992 3398.0 
173.302261 2945.0 
192.928177 4903.0 
198.419632 2949.0 
209.461334 11809.0 
242.985504 3993.0 
254.114471 3807.0 
274.37735 3497.0 
328.986633 24795.0 
329.060242 31531.0 
329.096527 425886.0 
END IONS

BEGIN IONS
NAME="1-(2H-benzo[3,4-d]1,3-dioxolan-5-yl)-3-[(4-chlorophenyl)amino]-3-(4-ethylpheny l)propan-1-one CollisionEnergy:205060" M+formate
PRECURSOR_MZ=452.127
INCHI="InChI=1S/C24H22ClNO3/c1-2-16-3-5-17(6-4-16)21(26-20-10-8-19(25)9-11-20)14-22(27)18-7-12-23-24(13-18)29-15-28-23/h3-13,21,26H,2,14-15H2,1H3"
SMILES=CCc1ccc(C(CC(=O)c2ccc3c(c2)OCO3)Nc2ccc(Cl)cc2)cc1
SPECTRUMID=CCMSLIB00010115618
66.763496 3081.0 
92.404587 3069.0 
112.985733 9568.0 
126.011398 10746.0 
185.656509 2614.0 
316.882812 2714.0 
375.702545 2345.0 
422.748291 2491.0 
451.983429 3640.0 
454.263184 3004.0 
513.069397 2603.0 
516.768677 2508.0 
695.208984 3331.0 
END IONS

BEGIN IONS
NAME=fMet CollisionEnergy:102040 2M-H
PRECURSOR_MZ=353.085
INCHI="InChI=1S/C6H11NO3S/c1-11-3-2-5(6(9)10)7-4-8/h4-5H,2-3H2,1H3,(H,7,8)(H,9,10)/t5-/m1/s1"
SMILES=CSCCC(N=CO)C(=O)O
SPECTRUMID=CCMSLIB00010111974
51.2551 1980.0 
54.196869 2483.0 
59.954521 2135.0 
65.982147 2222.0 
77.98909 2105.0 
78.456322 2219.0 
78.769798 2228.0 
82.397659 2482.0 
84.175888 2666.0 
92.378433 2625.0 
98.024727 5477.0 
101.232773 2287.0 
128.035675 21613.0 
160.554138 2280.0 
176.039062 165911.0 
236.503647 2342.0 
247.060806 2446.0 
335.416016 2562.0 
336.258911 2500.0 
378.475494 2330.0 
END IONS

BEGIN IONS
NAME=dl-O-Phosphoserine CollisionEnergy:102040 M+H
PRECURSOR_MZ=186.016
INCHI="InChI=1S/C3H8NO6P/c4-2(3(5)6)1-10-11(7,8)9/h2H,1,4H2,(H,5,6)(H2,7,8,9)"
SMILES=NC(COP(=O)(O)O)C(=O)O
SPECTRUMID=CCMSLIB00010103340
57.853401 3194.830078 
70.029404 60960.398438 
79.8498 3345.449951 
88.039803 1800840.0 
92.394096 3156.060059 
136.233994 3204.659912 
162.845993 3012.699951 
186.016006 32813.199219 
186.184998 3665.02002 
END IONS

BEGIN IONS
NAME="methyl 2-amino-4-(2,3-dichlorophenyl)-6-(hydroxymethyl)-8-oxo-4H-pyrano[3,2-b] pyran-3-carboxylate CollisionEnergy:205060" M+Na
PRECURSOR_MZ=420.001
INCHI="InChI=1S/C17H13Cl2NO6/c1-24-17(23)12-11(8-3-2-4-9(18)13(8)19)15-14(26-16(12)20)10(22)5-7(6-21)25-15/h2-5,11,21H,6,20H2,1H3"
SMILES=COC(=O)C1=C(N)Oc2c(oc(CO)cc2=O)C1c1cccc(Cl)c1Cl
SPECTRUMID=CCMSLIB00010123178
82.382111 3622.0 
118.631104 3125.0 
123.418953 2331.0 
183.973602 2609.0 
252.164658 2333.0 
263.008942 3312.0 
320.970856 4197.0 
387.974365 195184.0 
420.000519 151940.0 
420.064789 4400.0 
438.010559 4344.0 
END IONS

BEGIN IONS
NAME=ethyl 2-(2-methylpropanoylamino)benzoate CollisionEnergy:205060 M+Na
PRECURSOR_MZ=258.11
INCHI="InChI=1S/C13H17NO3/c1-4-17-13(16)10-7-5-6-8-11(10)14-12(15)9(2)3/h5-9H,4H2,1-3H3,(H,14,15)"
SMILES=CCOC(=O)c1ccccc1N=C(O)C(C)C
SPECTRUMID=CCMSLIB00010120158
51.041809 2158.0 
53.774899 2013.0 
54.581871 2270.0 
56.96524 159012.0 
66.759109 2288.0 
73.972656 2551.0 
80.947929 2571.0 
104.675034 2315.0 
119.965881 2034.0 
130.272858 2357.0 
194.013306 2871.0 
212.022797 55044.0 
230.032837 30677.0 
235.03894 28019.0 
249.018814 2931.0 
253.04953 10983.0 
258.05719 6195.0 
258.109589 142499.0 
324.616821 2420.0 
END IONS

BEGIN IONS
NAME=pergolide CollisionEnergy:102040 M+H
PRECURSOR_MZ=315.189
INCHI="InChI=1S/C19H26N2S/c1-3-7-21-11-13(12-22-2)8-16-15-5-4-6-17-19(15)14(10-20-17)9-18(16)21/h4-6,10,13,16,18,20H,3,7-9,11-12H2,1-2H3/t13-,16-,18-/m1/s1"
SMILES=CCCN1CC(CSC)CC2c3cccc4[nH]cc(c34)CC21
SPECTRUMID=CCMSLIB00010103657
56.049999 5065.0 
58.06575 20844.0 
60.081188 96228.0 
61.011101 203715.0 
61.01442 10813.0 
63.342251 7824.0 
68.226013 4789.0 
70.065491 46244.0 
72.081131 904370.0 
75.026703 34165.0 
82.377937 4827.0 
87.026604 11173.0 
89.041939 8798.0 
98.096329 128738.0 
98.10302 7752.0 
100.112244 60811.0 
103.057747 6721.0 
104.257973 6623.0 
112.111938 199142.0 
124.112221 11472.0 
129.069519 6792.0 
130.065048 249820.0 
143.085892 9049.0 
144.081039 40608.0 
154.064972 720210.0 
155.072678 114113.0 
156.080368 85561.0 
158.09964 57246.0 
165.069962 49367.0 
166.077866 6894.0 
167.072784 619926.0 
168.080597 246939.0 
169.076111 34485.0 
169.088577 21589.0 
170.080124 10384.0 
170.096237 320500.0 
170.11235 11558.0 
172.115021 140118.0 
179.085709 213319.0 
180.080582 567840.0 
181.08786 49744.0 
181.103134 137186.0 
182.096313 239141.0 
183.088928 8707.0 
183.105881 20142.0 
184.112427 45619.0 
186.129837 37644.0 
191.086456 62167.0 
192.079697 44483.0 
193.088562 516347.0 
194.096344 207767.0 
195.103989 84043.0 
196.111923 809251.0 
198.127792 275135.0 
206.095291 66761.0 
207.103104 53444.0 
208.112 6467885.0 
209.120407 27007.0 
210.127548 761095.0 
212.131073 95157.0 
213.139694 12188.0 
223.121353 11119.0 
224.130585 30159.0 
225.138351 108036.0 
226.145615 27533.0 
239.153763 48823.0 
244.114655 127059.0 
246.131485 101992.0 
256.115723 151931.0 
257.108948 9005.0 
258.130768 175122.0 
265.170288 28324.0 
267.185303 723005.0 
271.122559 16637.0 
272.134125 111037.0 
273.141937 62341.0 
273.923187 19078.0 
286.159302 10242.0 
296.954376 8158.0 
300.165558 75329.0 
313.17453 110584.0 
313.732697 36245.0 
314.179962 31388.0 
315.188538 42239132.0 
316.655426 40071.0 
END IONS

BEGIN IONS
NAME=4-hydroxy-6-methyl-3-nitrochromen-2-one CollisionEnergy:102040 M+Na
PRECURSOR_MZ=244.022
INCHI="InChI=1S/C10H7NO5/c1-5-2-3-7-6(4-5)9(12)8(11(14)15)10(13)16-7/h2-4,12H,1H3"
SMILES=Cc1ccc2oc(=O)c([N+](=O)[O-])c(O)c2c1
SPECTRUMID=CCMSLIB00010105213
63.612228 2109.0 
66.850349 2364.0 
86.144379 2198.0 
87.85218 2146.0 
92.381729 2095.0 
104.288429 2568.0 
131.10405 2081.0 
221.013596 2351.0 
244.021515 144059.0 
END IONS

BEGIN IONS
NAME=5-Hydroxybenzo[a]phenazine CollisionEnergy:205060 M-H
PRECURSOR_MZ=245.072
INCHI="InChI=1S/C16H10N2O/c19-15-9-14-16(11-6-2-1-5-10(11)15)18-13-8-4-3-7-12(13)17-14/h1-9,19H"
SMILES=C1=CC=C2C(=C1)C(=CC3=NC4=CC=CC=C4N=C23)O
SPECTRUMID=CCMSLIB00010102380
53.78207 15762.251953 
55.948948 15357.606445 
62.420414 16000.706055 
65.782974 16684.496094 
73.997452 12959.397461 
77.502655 15444.220703 
92.434258 17441.390625 
119.490036 16638.388672 
217.077042 230074.4375 
245.072113 7286039.0 
246.074921 34944.292969 
END IONS

BEGIN IONS
NAME="N-(2H-benzo[3,4-d]1,3-dioxolen-5-yl)-2-[2-oxo-4-(piperidylcarbonyl)hydroquinol yl]acetamide CollisionEnergy:205060" M-H
PRECURSOR_MZ=432.156
INCHI="InChI=1S/C24H23N3O5/c28-22(25-16-8-9-20-21(12-16)32-15-31-20)14-27-19-7-3-2-6-17(19)18(13-23(27)29)24(30)26-10-4-1-5-11-26/h2-3,6-9,12-13H,1,4-5,10-11,14-15H2,(H,25,28)"
SMILES=O=C(c1cc(=O)n(CC(O)=Nc2ccc3c(c2)OCO3)c2ccccc12)N1CCCCC1
SPECTRUMID=CCMSLIB00010125409
63.300659 3427.0 
66.034851 3584.0 
66.748894 3884.0 
68.050194 3929.0 
70.02951 7030.0 
78.013367 3141.0 
86.024612 6368.0 
86.061081 326699.0 
91.39772 3598.0 
92.384872 4948.0 
95.013924 6454.0 
100.521072 3121.0 
102.035004 4180.0 
104.291237 3074.0 
107.03772 3862.0 
115.055382 6303.0 
116.050873 35260.0 
118.663597 3879.0 
128.050797 1143062.0 
130.0513 6327.0 
130.054428 7367.0 
130.066376 215446.0 
131.037796 7365.0 
132.045319 7479.0 
134.024582 16099.0 
134.097351 21801.0 
136.040527 20345.0 
142.066116 44071.0 
144.045624 216055.0 
146.061386 121251.0 
150.146469 3112.0 
156.045761 315859.0 
156.082092 37950.0 
157.053482 561615.0 
158.025101 93638.0 
158.06131 403915.0 
167.061951 14644.0 
169.077469 4717.0 
172.040649 414632.0 
174.056274 217379.0 
176.035599 92755.0 
179.061127 3759.0 
181.077042 4531.0 
183.033096 17441.0 
183.092667 21332.0 
184.040588 2074476.0 
185.048477 124249.0 
188.036041 6907.0 
197.071686 4695.0 
197.108063 4504.0 
199.088013 6443.0 
200.035797 17451.0 
202.0513 173225.0 
212.035202 4152.0 
213.103912 6064.0 
225.139877 14290.0 
226.124435 7382.0 
227.119675 44464.0 
228.103195 16035.0 
229.098373 276098.0 
237.103104 26486.0 
239.120712 4742.0 
241.103455 6727.0 
241.134933 73325.0 
243.114273 92800.0 
245.093399 58974.0 
255.083237 7184.0 
255.114182 355982.0 
257.093445 543206.0 
269.129547 89008.0 
271.109131 874405.0 
273.088348 361278.0 
295.108978 138188.0 
297.088348 74558.0 
313.120911 4317.0 
315.100067 6381.0 
404.197479 5573.0 
432.201416 1620853.0 
END IONS

BEGIN IONS
NAME="(2E)-N-{[(4-methoxyphenyl)amino]thioxomethyl}-3-(3,4,5-trimethoxyphenyl)prop-2 -enamide CollisionEnergy:205060" M+H
PRECURSOR_MZ=403.132
INCHI="InChI=1S/C20H22N2O5S/c1-24-15-8-6-14(7-9-15)21-20(28)22-18(23)10-5-13-11-16(25-2)19(27-4)17(12-13)26-3/h5-12H,1-4H3,(H2,21,22,23,28)/b10-5+"
SMILES=COc1ccc(NC(=S)N=C(O)C=Cc2cc(OC)c(OC)c(OC)c2)cc1
SPECTRUMID=CCMSLIB00010121750
67.712013 3688.0 
78.690887 3489.0 
79.05439 4713.0 
82.399368 3707.0 
91.053886 14562.0 
92.374542 3791.0 
94.645073 3559.0 
102.045891 14402.0 
103.05378 6106.0 
104.061996 6555.0 
104.283989 3887.0 
105.069618 14752.0 
107.048691 14059.0 
108.056793 5737.0 
109.052109 3995.0 
118.040817 14031.0 
118.654327 4606.0 
119.049248 36442.0 
121.064873 4614.0 
124.075577 58643.0 
130.04126 40740.0 
131.048553 15974.0 
132.057083 13399.0 
133.064758 27991.0 
134.072617 3467.0 
135.044022 48019.0 
143.051132 3184.0 
146.036057 7080.0 
147.031174 5725.0 
147.043961 148032.0 
148.051575 20059.0 
149.059601 29279.0 
150.067368 20651.0 
150.843857 3600.0 
157.72052 3891.0 
158.035889 3891.0 
159.04364 5142.0 
160.051514 28096.0 
161.023285 4808.0 
161.059189 50702.0 
162.067383 284633.0 
163.038849 184559.0 
163.075073 60155.0 
165.090744 5276.0 
166.03241 45266.0 
174.031052 24326.0 
175.038742 130147.0 
176.030975 5846.0 
176.046722 84825.0 
177.054535 52904.0 
178.062332 323838.0 
183.039978 7795.0 
183.058517 181515.0 
185.397064 3298.0 
188.046829 19209.0 
189.054733 82039.0 
190.062286 1023842.0 
191.033798 280377.0 
191.069077 76103.0 
192.041229 19015.0 
193.085815 700545.0 
196.097702 4016.0 
205.049347 7324.0 
206.057343 381319.0 
221.080704 3034637.0 
238.106903 16247.0 
303.210236 4193.0 
402.150513 3823.0 
403.152679 5197047.0 
421.161743 4788.0 
444.179382 62175.0 
814.357849 4346.0 
END IONS

BEGIN IONS
NAME="(3,5-dimethoxyphenyl)-N-{3-[(4-chlorophenyl)sulfonyl]-5-methoxyphenyl}carboxam ide CollisionEnergy:205060" M-H
PRECURSOR_MZ=460.063
INCHI="InChI=1S/C22H20ClNO6S/c1-28-17-8-14(9-18(12-17)29-2)22(25)24-16-10-19(30-3)13-21(11-16)31(26,27)20-6-4-15(23)5-7-20/h4-13H,1-3H3,(H,24,25)"
SMILES=COc1cc(OC)cc(C(O)=Nc2cc(OC)cc(S(=O)(=O)c3ccc(Cl)cc3)c2)c1
SPECTRUMID=CCMSLIB00010121619
56.72773 2659.0 
61.018581 2770.0 
63.02356 5461.0 
63.962009 11601.0 
65.003021 3139.0 
67.0186 33693.0 
68.997726 6220.0 
95.013863 441524.0 
96.993172 48344.0 
98.581039 2719.0 
100.173569 2877.0 
106.281097 3111.0 
107.013763 5531.0 
108.02182 3700.0 
110.001152 25554.0 
111.000702 42026.0 
111.009003 12247.0 
120.045609 3379.0 
123.008926 56140.0 
125.024513 4487.0 
126.995407 12144.0 
138.032257 98034.0 
139.003311 6978.0 
149.011963 28821.0 
154.990997 6038.0 
164.035675 4556.0 
174.962646 230063.0 
185.417908 3041.0 
191.207428 3045.0 
199.076675 4855.0 
208.611313 14638.0 
212.002182 3605.0 
244.017548 21109.0 
258.076508 5091.0 
270.076019 4168.0 
272.001556 12690.0 
279.984467 27700.0 
284.095093 2967.0 
286.072205 13979.0 
303.253021 3139.0 
305.962982 5738.0 
307.979004 306067.0 
315.68399 2968.0 
358.393677 3074.0 
387.000427 11949.0 
414.009064 2910.0 
429.007782 12138.0 
444.032532 16722.0 
445.039703 25816.0 
460.062927 1754977.0 
END IONS

BEGIN IONS
NAME=naringenin CollisionEnergy:102040 M-H
PRECURSOR_MZ=271.061
INCHI="InChI=1S/C15H12O5/c16-9-3-1-8(2-4-9)13-7-12(19)15-11(18)5-10(17)6-14(15)20-13/h1-6,13,16-18H,7H2/t13-/m0/s1"
SMILES=O=C1CC(c2ccc(O)cc2)Oc2cc(O)cc(O)c21
SPECTRUMID=CCMSLIB00010108148
68.108757 2385.0 
73.970833 2456.0 
82.42041 2935.0 
91.018791 55005.0 
92.398827 2570.0 
109.029251 4274.0 
132.109024 3246.0 
135.008774 532349.0 
135.04512 1054513.0 
136.241608 3368.0 
141.091843 5043.0 
146.000534 2967.0 
151.003693 5146.0 
153.019287 483248.0 
161.024612 16228.0 
177.020416 2743.0 
213.01561 2832.0 
218.323898 2642.0 
241.327133 2769.0 
252.939941 2798.0 
253.050629 43415.0 
271.061279 1177826.0 
END IONS

BEGIN IONS
NAME="2,9-dimethyl-8-{[5-methyl-2-(2-methylphenyl)(1,3-oxazol-4-yl)]methylthio}hydro purin-6-one CollisionEnergy:205060" M-H
PRECURSOR_MZ=380.119
INCHI="InChI=1S/C19H19N5O2S/c1-10-7-5-6-8-13(10)18-22-14(11(2)26-18)9-27-19-23-15-16(24(19)4)20-12(3)21-17(15)25/h5-8H,9H2,1-4H3,(H,20,21,25)"
SMILES=Cc1nc(O)c2nc(SCc3nc(-c4ccccc4C)oc3C)n(C)c2n1
SPECTRUMID=CCMSLIB00010116831
51.29776 2469.0 
57.975189 19552.0 
71.645859 2289.0 
86.809341 2357.0 
104.288696 2727.0 
118.449203 2299.0 
136.21254 3494.0 
152.028839 26748.0 
161.046463 16683.0 
193.018921 109907.0 
194.026764 521026.0 
195.017792 2710.0 
195.034454 160890.0 
380.118469 183803.0 
398.862122 2856.0 
END IONS

BEGIN IONS
NAME=N-(3-chloro-4-methylphenyl){4-[(4-hydroxy-6-propylpyrimidin-2-ylthio)methyl]ph enyl}carboxamide CollisionEnergy:102040 M+Na
PRECURSOR_MZ=450.101
INCHI="InChI=1S/C22H22ClN3O2S/c1-3-4-17-12-20(27)26-22(25-17)29-13-15-6-8-16(9-7-15)21(28)24-18-10-5-14(2)19(23)11-18/h5-12H,3-4,13H2,1-2H3,(H,24,28)(H,25,26,27)"
SMILES=CCCc1cc(O)nc(SCc2ccc(C(=O)Nc3ccc(C)c(Cl)c3)cc2)n1
SPECTRUMID=CCMSLIB00010105902
53.77681 3257.0 
54.28511 3330.0 
72.480392 3213.0 
73.938499 3203.0 
99.432358 2915.0 
104.263237 4126.0 
106.626808 3149.0 
118.633423 3787.0 
119.048782 5236.0 
119.848213 3346.0 
131.594986 3037.0 
150.488113 3463.0 
159.053101 12598.0 
161.068634 43325.0 
164.001129 16328.0 
192.032639 14050.0 
208.375824 3199.0 
208.608765 10762.0 
208.629684 3789.0 
312.020782 18098.0 
314.037079 18986.0 
447.621338 6125.0 
449.591431 31237.0 
450.100677 6475407.0 
452.601288 4094.0 
END IONS

BEGIN IONS
NAME=Cyclopiazonic acid///alpha-cyclopiazonic acid CollisionEnergy:102040 M+Na
PRECURSOR_MZ=359.137
INCHI="InChI=1S/C20H20N2O3/c1-9(23)14-18(24)17-16-11-8-21-13-6-4-5-10(15(11)13)7-12(16)20(2,3)22(17)19(14)25/h4-6,8,12,16-17,21,23H,7H2,1-3H3/b14-9-/t12-,16+,17+/m1/s1"
SMILES=CC(O)=C1C(=O)C2C3c4c[nH]c5cccc(c45)CC3C(C)(C)N2C1=O
SPECTRUMID=CCMSLIB00010112481
54.55101 2188.0 
58.51099 2174.0 
60.46236 2291.0 
61.337669 2194.0 
69.509689 2366.0 
76.830933 2415.0 
85.028687 12918.0 
92.369507 2973.0 
154.969116 2559.0 
205.184113 2334.0 
239.070084 11283.0 
257.080719 38063.0 
271.097534 3264.0 
281.08139 3012.0 
299.093262 3082.0 
309.076355 8948.0 
313.107178 2700.0 
341.100739 4344.0 
359.136749 338526.0 
END IONS

BEGIN IONS
NAME=3-Nitrocinnamic acid CollisionEnergy:102040 2M-H
PRECURSOR_MZ=385.068
INCHI="InChI=1S/C9H7NO4/c11-9(12)5-4-7-2-1-3-8(6-7)10(13)14/h1-6H,(H,11,12)/b5-4+"
SMILES=O=C(O)C=Cc1cccc([N+](=O)[O-])c1
SPECTRUMID=CCMSLIB00010107197
56.742859 2378.0 
73.954727 2687.0 
90.03466 4632.0 
93.03392 2932.0 
103.920273 2613.0 
104.286034 3350.0 
105.021828 17295.0 
112.985687 26164.0 
118.029823 3364.0 
121.029457 19770.0 
134.037094 5191.0 
148.040375 75522.0 
154.973572 4173.0 
164.159729 2532.0 
166.051682 19377.0 
180.973434 2809.0 
192.030533 1361471.0 
208.715683 4826.0 
208.736801 7495.0 
248.961258 15279.0 
262.775238 2748.0 
385.18512 3473.0 
END IONS

BEGIN IONS
NAME=10-Deacetylbaccatin III (ex taxus baccata) CollisionEnergy:205060 M+formate
PRECURSOR_MZ=589.229
INCHI="InChI=1S/C29H36O10/c1-14-17(31)12-29(36)24(38-25(35)16-9-7-6-8-10-16)22-27(5,23(34)21(33)20(14)26(29,3)4)18(32)11-19-28(22,13-37-19)39-15(2)30/h6-10,17-19,21-22,24,31-33,36H,11-13H2,1-5H3"
SMILES=CC(=O)OC12COC1CC(O)C1(C)C(=O)C(O)C3=C(C)C(O)CC(O)(C(OC(=O)c4ccccc4)C21)C3(C)C
SPECTRUMID=CCMSLIB00010120997
59.013359 13063.0 
62.021759 2853.0 
63.07333 3019.0 
82.391113 2922.0 
85.029266 4252.0 
93.034439 16108.0 
97.029533 3786.0 
98.477654 3046.0 
108.021637 5839.0 
111.045212 3557.0 
112.451309 3018.0 
112.985542 26972.0 
121.029503 1119346.0 
137.061081 3802.0 
163.076248 2776.0 
166.445343 2900.0 
187.832321 2749.0 
211.01474 6315.0 
248.960373 18579.0 
281.138855 3173.0 
313.143829 3433.0 
316.946869 3708.0 
349.165588 3152.0 
361.167297 4120.0 
391.176453 169192.0 
421.187439 4365.0 
543.222412 20128.0 
END IONS

BEGIN IONS
NAME=DEOXYCHOLIC ACID CollisionEnergy:102040 M-H
PRECURSOR_MZ=391.285
INCHI="InChI=1S/C24H40O4/c1-14(4-9-22(27)28)18-7-8-19-17-6-5-15-12-16(25)10-11-23(15,2)20(17)13-21(26)24(18,19)3/h14-21,25-26H,4-13H2,1-3H3,(H,27,28)/t14-,15-,16-,17+,18-,19+,20+,21+,23+,24-/m1/s1"
SMILES=CC(CCC(=O)O)C1CCC2C3CCC4CC(O)CCC4(C)C3CC(O)C12C
SPECTRUMID=CCMSLIB00010110360
51.808929 141233.0 
52.977261 104205.0 
66.737846 117933.0 
68.306213 115279.0 
69.034187 226541.0 
82.391373 187667.0 
92.36499 112797.0 
92.371269 127090.0 
93.444572 106524.0 
95.249748 113914.0 
104.203979 119783.0 
118.642281 138233.0 
262.375488 151913.0 
326.411102 146335.0 
327.270111 1985966.0 
329.286255 908172.0 
343.265808 888109.0 
345.279694 6539310.0 
347.29538 2112436.0 
355.264618 1741500.0 
365.306732 2817713.0 
373.275909 763702.0 
389.2659 447903.0 
391.285858 237762448.0 
393.330383 137096.0 
409.300385 199951.0 
END IONS

BEGIN IONS
NAME=N-Acetyl-L-glutamic acid CollisionEnergy:205060 M-H
PRECURSOR_MZ=188.056
INCHI="InChI=1S/C7H11NO5/c1-4(9)8-5(7(12)13)2-3-6(10)11/h5H,2-3H2,1H3,(H,8,9)(H,10,11)(H,12,13)/t5-/m0/s1"
SMILES=CC(O)=NC(CCC(=O)O)C(=O)O
SPECTRUMID=CCMSLIB00010125370
58.029461 322444.0 
59.013531 1046432.0 
74.024521 34077.0 
82.03006 17790.0 
84.045387 70279.0 
84.735977 15288.0 
87.183853 16471.0 
92.370163 17546.0 
93.425056 16702.0 
98.024712 21283.0 
98.061211 65316.0 
100.040421 75549.0 
100.076859 631618.0 
102.056213 2844565.0 
102.126022 16872.0 
104.278572 24484.0 
111.984863 15919.0 
118.086884 15144.0 
118.647232 19484.0 
126.056267 194018.0 
128.035446 2415501.0 
129.279388 17421.0 
130.122543 14327.0 
144.06665 658240.0 
146.045914 230218.0 
149.091263 15841.0 
170.046112 570120.0 
188.056564 785797.0 
END IONS

BEGIN IONS
NAME=3-benzothiazol-2-yl-6-chlorochromen-2-one CollisionEnergy:205060 M+H
PRECURSOR_MZ=314.004
INCHI=InChI=1S/C16H8ClNO2S/c17-10-5-6-13-9(7-10)8-11(16(19)20-13)15-18-12-3-1-2-4-14(12)21-15/h1-8H
SMILES=O=c1oc2ccc(Cl)cc2cc1-c1nc2ccccc2s1
SPECTRUMID=CCMSLIB00010116999
56.96521 3217.0 
65.039017 18599.0 
65.674393 3073.0 
73.943932 3332.0 
84.959763 17336.0 
90.584572 3050.0 
109.010727 249039.0 
123.000252 3207.0 
182.966522 19597.0 
220.808456 3169.0 
222.037521 30408.0 
223.044998 1814606.0 
223.354843 4054.0 
226.03215 11874.0 
234.038315 7134.0 
235.044418 43149.0 
250.032074 72783.0 
251.03981 595024.0 
253.029114 6448.0 
257.005859 130276.0 
258.013245 75785.0 
270.013489 133676.0 
279.035156 12893.0 
281.023376 81481.0 
282.031586 13451.0 
284.998505 3831.0 
286.008606 1176310.0 
312.563171 4809.0 
314.003448 4743027.0 
314.237671 31074.0 
END IONS

BEGIN IONS
NAME="(3,4-dimethoxyphenyl)-N-[4-({4-[(3,4-dimethoxyphenyl)carbonylamino]cyclohexyl} methyl)cyclohexyl]carboxamide CollisionEnergy:102040" M+formate
PRECURSOR_MZ=583.302
INCHI="InChI=1S/C31H42N2O6/c1-36-26-15-9-22(18-28(26)38-3)30(34)32-24-11-5-20(6-12-24)17-21-7-13-25(14-8-21)33-31(35)23-10-16-27(37-2)29(19-23)39-4/h9-10,15-16,18-21,24-25H,5-8,11-14,17H2,1-4H3,(H,32,34)(H,33,35)"
SMILES=COc1ccc(C(O)=NC2CCC(CC3CCC(N=C(O)c4ccc(OC)c(OC)c4)CC3)CC2)cc1OC
SPECTRUMID=CCMSLIB00010108906
65.630333 2826.0 
73.954277 2846.0 
86.640091 2946.0 
92.382523 3064.0 
104.292038 3143.0 
107.501137 2335.0 
120.562698 2811.0 
128.146469 2622.0 
157.812637 2545.0 
173.268127 2991.0 
174.956375 49146.0 
208.61322 11089.0 
242.943176 25576.0 
303.262756 3504.0 
310.931427 18815.0 
378.920349 11979.0 
446.905304 12921.0 
537.298767 10976.0 
583.302979 176171.0 
END IONS

BEGIN IONS
NAME=Vanillylacetone CollisionEnergy:102040 M+H-H2O
PRECURSOR_MZ=177.091
INCHI="InChI=1S/C11H14O3/c1-8(12)3-4-9-5-6-10(13)11(7-9)14-2/h5-7,13H,3-4H2,1-2H3"
SMILES=COc1cc(CCC(C)=O)ccc1O
SPECTRUMID=CCMSLIB00010114574
55.934921 4461.0 
56.96526 15240.0 
57.600128 2206.0 
79.021469 52375.0 
84.959953 5151.0 
88.952072 3091.0 
88.968933 2995.0 
94.254509 2284.0 
98.97522 5786.0 
104.259872 2728.0 
107.049591 4109.0 
111.548477 2651.0 
115.006653 2888.0 
116.986122 2686.0 
117.069778 113095.0 
122.120323 2523.0 
125.960251 2512.0 
128.950729 28763.0 
134.978638 9517.0 
134.996414 2698.0 
135.945374 11939.0 
136.184433 2346.0 
137.059799 59449.0 
138.062958 5705.0 
145.064743 669425.0 
146.961441 14460.0 
148.955841 2727.0 
149.01149 2842.0 
149.024246 2667.0 
149.059662 10509.0 
152.98912 8713.0 
153.955643 9108.0 
153.98027 3419.0 
164.307739 2671.0 
165.039658 3801.0 
177.090912 1386966.0 
193.020752 19086.0 
211.029129 2531.0 
251.059128 22546.0 
252.062897 2825.0 
END IONS

BEGIN IONS
NAME=Esculetin CollisionEnergy:205060 M+H
PRECURSOR_MZ=179.034
INCHI="InChI=1S/C9H6O4/c10-6-3-5-1-2-9(12)13-8(5)4-7(6)11/h1-4,10-11H"
SMILES=O=c1ccc2cc(O)c(O)cc2o1
SPECTRUMID=CCMSLIB00010119857
51.023529 5638.0 
51.283161 2581.0 
53.03894 6284.0 
55.934799 36088.0 
56.942619 44158.0 
56.965389 5216.0 
61.01099 101173.0 
62.018742 6921.0 
63.99799 5292.0 
67.054588 16071.0 
67.934738 2587.0 
68.99749 2805.0 
70.958168 30555.0 
71.929611 57306.0 
72.93737 109874.0 
77.005783 4482.0 
77.038872 28108.0 
79.021423 218214.0 
79.054367 17291.0 
81.033791 5473.0 
84.959846 14403.0 
86.003777 16452.0 
87.001541 4820.0 
87.328293 2643.0 
87.906647 4996.0 
88.914223 4131.0 
88.968422 16433.0 
89.038612 72066.0 
89.939987 58532.0 
90.947739 97661.0 
92.35405 2842.0 
95.049149 35151.0 
96.937607 2803.0 
99.487823 3089.0 
100.486214 12362.0 
105.025963 5684.0 
105.033401 110534.0 
105.916847 4524.0 
106.924583 3297.0 
106.99984 6698.0 
107.048866 12065.0 
107.950363 53532.0 
107.997787 5332.0 
108.493294 21562.0 
108.957947 22387.0 
108.994904 3208.0 
109.028023 22973.0 
109.491447 21066.0 
113.963463 5156.0 
116.005333 21009.0 
116.141533 2763.0 
116.506027 4267.0 
117.003021 37215.0 
117.033287 50971.0 
118.001083 4722.0 
118.495842 4860.0 
118.924713 12154.0 
118.942612 36655.0 
120.940613 17409.0 
123.043877 1640856.0 
125.960983 53661.0 
128.950058 2766.0 
133.028244 1136894.0 
134.955719 52972.0 
135.043823 151953.0 
136.935318 5396.0 
136.952896 31314.0 
138.950638 6840.0 
145.015091 5021.0 
150.031281 11711.0 
150.939911 2662.0 
150.950882 127559.0 
151.038803 348884.0 
151.92305 3857.0 
152.930832 3201.0 
152.966568 39170.0 
155.503235 11615.0 
155.97464 12076.0 
161.022858 3951.0 
166.945343 3929.0 
167.010162 3384.0 
167.954468 3272.0 
168.961365 38024.0 
169.93309 13276.0 
171.001923 3061.0 
178.026382 6425.0 
179.033661 3326466.0 
184.955399 4367.0 
185.964203 6106.0 
187.944107 11662.0 
191.975281 3544.0 
196.956177 12488.0 
END IONS

BEGIN IONS
NAME=N-(6-ethyl-2-methylphenyl)-2-[9-(4-methylphenyl)-6-oxohydropurin-8-ylthio]acet amide CollisionEnergy:205060 M+H
PRECURSOR_MZ=434.165
INCHI="InChI=1S/C23H23N5O2S/c1-4-16-7-5-6-15(3)19(16)26-18(29)12-31-23-27-20-21(24-13-25-22(20)30)28(23)17-10-8-14(2)9-11-17/h5-11,13H,4,12H2,1-3H3,(H,26,29)(H,24,25,30)"
SMILES=CCc1cccc(C)c1N=C(O)CSc1nc2c(O)ncnc2n1-c1ccc(C)cc1
SPECTRUMID=CCMSLIB00010124150
50.289631 2671.0 
66.449318 2474.0 
92.363373 3444.0 
97.32132 2760.0 
127.737068 3054.0 
130.065109 16923.0 
143.072556 15116.0 
144.080582 33075.0 
148.07486 4631.0 
150.03656 4805.0 
157.075592 5898.0 
157.088745 4625.0 
157.77449 3335.0 
158.060211 6920.0 
158.08374 3912.0 
158.096405 33103.0 
159.067215 3897.0 
162.021713 3555.0 
162.036697 81500.0 
164.052444 5945.0 
169.075333 3761.0 
172.085709 26119.0 
174.036896 3470.0 
175.032272 6332.0 
184.086411 4626.0 
185.09494 4362.0 
189.047623 81138.0 
190.03157 100407.0 
193.042633 41055.0 
195.074463 3458.0 
198.065338 10659.0 
202.042694 17997.0 
211.074997 4395.0 
212.081436 342280.0 
213.089966 36567.0 
216.058609 58311.0 
217.04187 6680.0 
217.618179 3520.0 
230.037781 174795.0 
237.077164 16553.0 
238.084366 40899.0 
239.091965 3479.0 
244.053314 1058019.0 
253.05423 4744.0 
256.040588 4105.0 
257.048553 100962.0 
262.06134 23681.0 
271.038208 10245.0 
271.064026 633290.0 
299.058899 1426677.0 
416.153992 13692.0 
434.163208 61085.0 
END IONS

BEGIN IONS
NAME=N-(4-ethoxyphenyl)-2-[9-(4-methylphenyl)-6-oxohydropurin-8-ylthio]acetamide CollisionEnergy:205060 M-H
PRECURSOR_MZ=434.129
INCHI="InChI=1S/C22H21N5O3S/c1-3-30-17-10-6-15(7-11-17)25-18(28)12-31-22-26-19-20(23-13-24-21(19)29)27(22)16-8-4-14(2)5-9-16/h4-11,13H,3,12H2,1-2H3,(H,25,28)(H,23,24,29)"
SMILES=CCOc1ccc(NC(=O)CSc2nc3c(O)ncnc3n2-c2ccc(C)cc2)cc1
SPECTRUMID=CCMSLIB00010123730
57.975239 117327.0 
65.014153 167448.0 
65.998177 97083.0 
68.013779 11460.0 
69.009041 3104.0 
92.025269 88692.0 
92.374817 3081.0 
93.009377 5879.0 
95.978577 3507.0 
96.986473 4215.0 
102.845192 3036.0 
104.281349 3660.0 
105.459084 2852.0 
107.011879 3412.0 
126.261307 2847.0 
131.061295 4507.0 
135.031464 5509.0 
146.024399 47674.0 
151.011871 2993.0 
155.06134 987642.0 
156.056427 17364.0 
164.961594 3010.0 
179.004501 32493.0 
182.072128 53115.0 
187.033432 39374.0 
197.059143 68596.0 
198.067078 26843.0 
208.043579 95362.0 
211.975876 3305.0 
214.043625 5534.0 
223.062347 5048.0 
225.077972 920333.0 
228.022659 30052.0 
236.070129 14193.0 
237.078476 6198.0 
241.072586 15575.0 
255.034439 293690.0 
256.042267 379146.0 
257.050049 201358.0 
269.050507 32028.0 
271.06601 56440.0 
297.044769 56239.0 
301.062469 3395.0 
331.108002 35456.0 
352.79306 3240.0 
360.146057 35550.0 
376.119629 3290.0 
434.128876 397026.0 
END IONS

BEGIN IONS
NAME=Hypocrellin B CollisionEnergy:205060 M+Na
PRECURSOR_MZ=551.131
INCHI="InChI=1S/C30H24O9/c1-10-7-13-20-19-12(26(33)28(35)29(13)38-5)8-15(36-3)22-16(37-4)9-14(32)21(24(19)22)25-23(20)17(10)18(11(2)31)30(39-6)27(25)34/h8-9,32H,7H2,1-6H3,(H,33,35)"
SMILES=COC1=C(C(C)=O)C2=C(C)Cc3c(OC)c(=O)c(O)c4cc(OC)c5c(OC)cc(O)c6c(c2c3c4c56)C1=O
SPECTRUMID=CCMSLIB00010125666
50.126339 2560.0 
66.764198 2670.0 
84.009293 2524.0 
109.614708 2659.0 
118.691093 3142.0 
136.253799 2819.0 
489.688141 2739.0 
536.101379 9798.0 
551.130554 608571.0 
END IONS

BEGIN IONS
NAME=D-ornithine CollisionEnergy:102040 M+H
PRECURSOR_MZ=133.097
INCHI="InChI=1S/C5H12N2O2/c6-3-1-2-4(7)5(8)9/h4H,1-3,6-7H2,(H,8,9)/t4-/m1/s1"
SMILES=NCCC[C@@H](N)C(=O)O
SPECTRUMID=CCMSLIB00010103376
59.0882 6776.330078 
59.725498 6356.77002 
63.178101 6321.859863 
70.065804 1111980.0 
71.412697 8077.660156 
78.061302 6491.279785 
82.261803 6643.160156 
115.086998 35328.699219 
116.070999 338416.0 
133.097 8931.820312 
END IONS

BEGIN IONS
NAME="(2E,4E)-5-(3,4-dimethoxyphenyl)penta-2,4-dienoic acid CollisionEnergy:102040" 2M-H
PRECURSOR_MZ=467.171
INCHI="InChI=1S/C13H14O4/c1-16-11-8-7-10(9-12(11)17-2)5-3-4-6-13(14)15/h3-9H,1-2H3,(H,14,15)/b5-3+,6-4+"
SMILES=COc1ccc(C=CC=CC(=O)O)cc1OC
SPECTRUMID=CCMSLIB00010113822
56.2201 2408.0 
82.404388 2514.0 
104.293327 3113.0 
142.844788 2345.0 
144.464539 2431.0 
157.980423 2748.0 
159.88913 2426.0 
171.047485 2750.0 
187.512894 2373.0 
235.437805 2652.0 
306.433533 2764.0 
349.145721 11771.0 
364.167725 16828.0 
368.230499 2436.0 
379.190613 11164.0 
423.178619 8818.0 
467.173676 3306.0 
END IONS

BEGIN IONS
NAME="2-[4-(N,N-dimethylcarbamoyl)-2-oxohydroquinolyl]-N-(3-chloro-2-methylphenyl)ac etamide CollisionEnergy:102040" M+H
PRECURSOR_MZ=398.127
INCHI="InChI=1S/C21H20ClN3O3/c1-13-16(22)8-6-9-17(13)23-19(26)12-25-18-10-5-4-7-14(18)15(11-20(25)27)21(28)24(2)3/h4-11H,12H2,1-3H3,(H,23,26)"
SMILES=Cc1c(Cl)cccc1N=C(O)Cn1c(=O)cc(C(=O)N(C)C)c2ccccc21
SPECTRUMID=CCMSLIB00010114055
58.06567 35510.0 
69.169571 2452.0 
71.624184 3629.0 
71.816467 2838.0 
72.044746 41276.0 
73.943802 3040.0 
87.394402 3020.0 
92.367653 3491.0 
101.949722 4267.0 
133.052368 3695.0 
158.060104 3275.0 
170.084137 5324.0 
173.107208 5344.0 
181.085846 50020.0 
185.106796 5678.0 
186.054871 15040.0 
191.070526 35270.0 
201.102188 14140.0 
208.566208 11939.0 
217.097198 119232.0 
223.096497 10927.0 
229.097168 635835.0 
257.09201 1809091.0 
270.12381 17086.0 
310.023865 4413.0 
319.447144 2822.0 
328.033356 10883.0 
354.072937 17302.0 
377.592529 3585.0 
398.075317 406844.0 
416.086487 33984.0 
END IONS

BEGIN IONS
NAME=kenpaullone CollisionEnergy:102040 M+H
PRECURSOR_MZ=327.013
INCHI="InChI=1S/C16H11BrN2O/c17-9-5-6-14-11(7-9)12-8-15(20)18-13-4-2-1-3-10(13)16(12)19-14/h1-7,19H,8H2,(H,18,20)"
SMILES=OC1=Nc2ccccc2-c2[nH]c3ccc(Br)cc3c2C1
SPECTRUMID=CCMSLIB00010110923
51.660549 3303.0 
69.919899 3213.0 
92.372093 3341.0 
98.984047 44974.0 
137.465988 3377.0 
174.992218 21370.0 
204.081238 23838.0 
207.863068 3218.0 
218.085648 5575.0 
219.091537 1096161.0 
220.099396 529797.0 
220.124252 7810.0 
229.078857 5586.0 
230.083633 101160.0 
231.06749 5553.0 
247.086426 1339681.0 
248.094208 5696431.0 
251.001465 4523.0 
281.990631 38529.0 
283.994476 7602.0 
297.003204 32196.0 
298.00705 6500.0 
299.017578 788894.0 
309.001709 220604.0 
326.001373 14598.0 
327.012421 5268260.0 
END IONS

BEGIN IONS
NAME="N-benzothiazol-2-yl-2-(1,3-dimethyl-2,6-dioxo(1,3,7-trihydropurin-7-yl))acetam ide CollisionEnergy:205060" 2M-H
PRECURSOR_MZ=739.162
INCHI="InChI=1S/C16H14N6O3S/c1-20-13-12(14(24)21(2)16(20)25)22(8-17-13)7-11(23)19-15-18-9-5-3-4-6-10(9)26-15/h3-6,8H,7H2,1-2H3,(H,18,19,23)"
SMILES=Cn1c(=O)c2c(ncn2CC(O)=Nc2nc3ccccc3s2)n(C)c1=O
SPECTRUMID=CCMSLIB00010118071
66.752953 3847.0 
71.045486 3435.0 
72.694527 2839.0 
82.41111 4270.0 
96.186279 3452.0 
122.035744 4136.0 
136.051224 3600.0 
149.017822 383111.0 
164.033829 25902.0 
164.047043 3168.0 
179.057541 154697.0 
219.052429 7473.0 
246.655609 3422.0 
330.352539 3219.0 
369.077789 400800.0 
422.4133 3211.0 
602.668579 3156.0 
677.03302 4320.0 
END IONS

BEGIN IONS
NAME="3,5-dimethoxyphenyl 4-benzylpiperazinyl ketone CollisionEnergy:102040" M+H
PRECURSOR_MZ=341.186
INCHI="InChI=1S/C20H24N2O3/c1-24-18-12-17(13-19(14-18)25-2)20(23)22-10-8-21(9-11-22)15-16-6-4-3-5-7-16/h3-7,12-14H,8-11,15H2,1-2H3"
SMILES=COc1cc(OC)cc(C(=O)N2CCN(Cc3ccccc3)CC2)c1
SPECTRUMID=CCMSLIB00010104134
57.412029 4162.0 
65.038933 15245.0 
68.026077 3665.0 
77.457352 3810.0 
79.018173 5882.0 
79.054688 6688.0 
79.648201 3661.0 
81.034126 4826.0 
82.40345 4451.0 
83.144249 3812.0 
87.092079 6642.0 
91.054451 1256510.0 
94.041107 4184.0 
104.29438 4054.0 
109.064774 20724.0 
120.081039 3933.0 
122.036148 112826.0 
125.059563 32296.0 
134.096741 15810.0 
135.055069 5548.0 
137.05957 42748.0 
155.070267 967591.0 
160.716812 4448.0 
161.624176 3609.0 
164.505325 4645.0 
165.054672 7370267.0 
175.122894 169172.0 
178.086578 5490.0 
178.99791 3983.0 
195.080643 8295.0 
205.51445 3389.0 
208.096893 208016.0 
220.09697 25262.0 
223.075211 286164.0 
224.083069 166057.0 
232.096786 25827.0 
234.111969 69625.0 
235.026154 4551.0 
240.077911 82135.0 
249.123077 30427.0 
255.101364 1576812.0 
298.143555 254631.0 
326.162109 21598.0 
339.170807 4594.0 
341.185699 10876599.0 
END IONS

BEGIN IONS
NAME=dinoprost CollisionEnergy:205060 M-H
PRECURSOR_MZ=353.233
INCHI="InChI=1S/C20H34O5/c1-2-3-6-9-15(21)12-13-17-16(18(22)14-19(17)23)10-7-4-5-8-11-20(24)25/h4,7,12-13,15-19,21-23H,2-3,5-6,8-11,14H2,1H3,(H,24,25)/b7-4-,13-12+/t15-,16+,17+,18-,19+/m0/s1"
SMILES=CCCCCC(O)C=CC1C(O)CC(O)C1CC=CCCCC(=O)O
SPECTRUMID=CCMSLIB00010121860
59.013309 3442.0 
70.192253 1958.0 
83.04995 4001.0 
92.403847 3853.0 
136.251495 2951.0 
158.917221 2034.0 
165.128952 4087.0 
193.122345 3422.0 
193.159744 2793.0 
216.922791 4613.0 
249.156845 2169.0 
309.206604 11104.0 
335.225128 3203.0 
349.216827 2466.0 
353.233246 100472.0 
372.899506 2379.0 
END IONS

BEGIN IONS
NAME="6,8-dichloro-2-phenylchromen-4-one CollisionEnergy:102040" M+H
PRECURSOR_MZ=290.997
INCHI=InChI=1S/C15H8Cl2O2/c16-10-6-11-13(18)8-14(9-4-2-1-3-5-9)19-15(11)12(17)7-10/h1-8H
SMILES=O=c1cc(-c2ccccc2)oc2c(Cl)cc(Cl)cc12
SPECTRUMID=CCMSLIB00010109147
62.910339 2957.0 
64.1912 3085.0 
64.952873 2692.0 
73.96698 3178.0 
84.983917 6540.0 
85.101379 3353.0 
89.059753 18603.0 
97.732803 2850.0 
103.05407 16156.0 
104.30378 3842.0 
105.03344 3793.0 
118.257446 3086.0 
129.033234 12707.0 
133.085968 4202.0 
136.22879 2816.0 
150.707581 3256.0 
151.095932 16145.0 
157.997833 3369.0 
160.955338 3845.0 
165.069839 5994.0 
172.967102 5728.0 
188.950745 29376.0 
199.031433 15776.0 
200.038803 12849.0 
206.961411 6161.0 
212.038345 16055.0 
227.025803 3946.0 
228.033539 79088.0 
228.471054 2873.0 
235.007385 13438.0 
255.019775 12282.0 
256.028687 37986.0 
289.990967 3675.0 
290.997101 6948979.0 
END IONS

BEGIN IONS
NAME=7-Allyloxycoumarin CollisionEnergy:102040 M-H
PRECURSOR_MZ=201.056
INCHI="InChI=1S/C12H10O3/c1-2-7-14-10-5-3-9-4-6-12(13)15-11(9)8-10/h2-6,8H,1,7H2"
SMILES=C=CCOc1ccc2ccc(=O)oc2c1
SPECTRUMID=CCMSLIB00010108999
51.300529 1934.0 
57.74617 1994.0 
59.013401 43360.0 
62.663132 2009.0 
74.626083 2144.0 
91.561089 2004.0 
92.382156 2394.0 
120.065788 2017.0 
154.539139 2145.0 
172.886093 17232.0 
173.92894 2167.0 
182.955475 2486.0 
200.88063 5030.0 
201.055984 370040.0 
201.149612 16013.0 
208.347229 2580.0 
208.36821 8783.0 
212.406586 2300.0 
END IONS

BEGIN IONS
NAME=6-(Methylthio)purine CollisionEnergy:205060 M-H
PRECURSOR_MZ=165.024
INCHI="InChI=1S/C6H6N4S/c1-11-6-4-5(8-2-7-4)9-3-10-6/h2-3H,1H3,(H,7,8,9,10)"
SMILES=CSc1ncnc2[nH]cnc12
SPECTRUMID=CCMSLIB00010115338
78.958511 3023.0 
85.526871 2739.0 
96.960091 21325.0 
96.969559 11461.0 
108.937279 19412.0 
117.020721 17944.0 
119.036171 101129.0 
121.029953 22803.0 
122.989929 4438.0 
132.044235 11589.0 
136.202408 2431.0 
136.932312 111890.0 
137.024353 20182.0 
150.000534 1651085.0 
151.210938 2374.0 
155.171494 2794.0 
157.957245 2533.0 
164.0336 3709.0 
164.89595 9659.0 
165.024033 1743206.0 
168.674332 2236.0 
207.821167 6103.0 
207.843811 4614.0 
225.055817 2816.0 
236.2845 2744.0 
249.082535 2320.0 
END IONS

BEGIN IONS
NAME=4-oxo-2-phenylchromen-6-yl thiophene-2-carboxylate CollisionEnergy:205060 M+H
PRECURSOR_MZ=349.053
INCHI=InChI=1S/C20H12O4S/c21-16-12-18(13-5-2-1-3-6-13)24-17-9-8-14(11-15(16)17)23-20(22)19-7-4-10-25-19/h1-12H
SMILES=O=C(Oc1ccc2oc(-c3ccccc3)cc(=O)c2c1)c1cccs1
SPECTRUMID=CCMSLIB00010117574
51.729229 3367.0 
57.987659 18674.0 
58.99567 4478.0 
59.41637 3128.0 
77.61618 3816.0 
82.995064 34024.0 
90.285263 2958.0 
95.012917 180207.0 
98.989922 82148.0 
100.451462 3507.0 
103.054161 8319.0 
107.012283 3732.0 
110.98996 10008168.0 
129.034058 6637.0 
137.023392 28189.0 
153.018509 14351.0 
153.070175 4769.0 
155.084869 6328.0 
165.069626 22788.0 
181.065796 4937.0 
183.080582 7874.0 
208.096649 14318.0 
210.067657 45296.0 
211.076477 3585.0 
221.059647 17381.0 
237.052795 4764.0 
238.062714 16752.0 
239.070084 1972395.0 
265.049774 61817.0 
299.936523 3707.0 
349.052521 5394151.0 
END IONS

BEGIN IONS
NAME=Carbobenzoxy-L-asparagine CollisionEnergy:205060 M-H
PRECURSOR_MZ=265.083
INCHI="InChI=1S/C12H14N2O5/c13-10(15)6-9(11(16)17)14-12(18)19-7-8-4-2-1-3-5-8/h1-5,9H,6-7H2,(H2,13,15)(H,14,18)(H,16,17)/t9-/m1/s1"
SMILES=N=C(O)CC(N=C(O)OCc1ccccc1)C(=O)O
SPECTRUMID=CCMSLIB00010124196
58.029411 2449.0 
60.008499 5123.0 
69.300117 2710.0 
70.029457 229541.0 
71.013451 25230.0 
71.02475 56726.0 
72.008789 5611.0 
73.937553 2651.0 
75.130783 2463.0 
79.437103 2228.0 
86.024559 10475.0 
96.009064 35715.0 
96.891876 2444.0 
108.880402 2857.0 
113.035721 2094017.0 
113.350288 2696.0 
114.019653 150288.0 
139.015396 3985.0 
157.025558 483317.0 
206.095505 2695.0 
232.082458 2514.0 
END IONS

BEGIN IONS
NAME=phenylmethyl 1-(2-ethylthioethyl)-5-hydroxy-2-methylbenzo[g]indole-3-carboxyla te CollisionEnergy:102040 M-H
PRECURSOR_MZ=418.148
INCHI="InChI=1S/C25H25NO3S/c1-3-30-14-13-26-17(2)23(25(28)29-16-18-9-5-4-6-10-18)21-15-22(27)19-11-7-8-12-20(19)24(21)26/h4-12,15,27H,3,13-14,16H2,1-2H3"
SMILES=CCSCCn1c(C)c(C(=O)OCc2ccccc2)c2cc(O)c3ccccc3c21
SPECTRUMID=CCMSLIB00010111454
50.315529 2054.0 
51.371342 2202.0 
92.36927 2709.0 
146.96138 3865.0 
157.959824 2288.0 
160.097794 2278.0 
194.06131 88101.0 
208.076904 28659.0 
210.057205 2583.0 
212.071457 3549.0 
214.94841 4482.0 
223.064087 4191.0 
229.497696 2758.0 
238.051102 140409.0 
262.991089 2745.0 
283.10495 17141.0 
284.105988 2980.0 
285.115936 143813.0 
299.297455 2571.0 
327.093658 14609.0 
329.105865 371930.0 
374.1586 27020.0 
418.148621 431672.0 
418.765808 2922.0 
END IONS

BEGIN IONS
NAME="(3,4-dimethoxyphenyl)-N-(3,5-dimethylphenyl)carboxamide CollisionEnergy:205060" M+Na
PRECURSOR_MZ=308.126
INCHI="InChI=1S/C17H19NO3/c1-11-7-12(2)9-14(8-11)18-17(19)13-5-6-15(20-3)16(10-13)21-4/h5-10H,1-4H3,(H,18,19)"
SMILES=COc1ccc(C(O)=Nc2cc(C)cc(C)c2)cc1OC
SPECTRUMID=CCMSLIB00010116631
54.45628 1925.0 
57.424519 2233.0 
82.259682 2251.0 
82.39669 2319.0 
89.762306 2166.0 
90.078194 2080.0 
92.374786 2903.0 
103.682907 2152.0 
121.85704 2112.0 
211.625168 2800.0 
237.831146 2298.0 
308.125214 603180.0 
311.948883 2296.0 
326.133179 2811.0 
END IONS

BEGIN IONS
NAME=520-36-5 CollisionEnergy:102040 M-H
PRECURSOR_MZ=269.046
INCHI="InChI=1S/C15H10O5/c16-9-3-1-8(2-4-9)13-7-12(19)15-11(18)5-10(17)6-14(15)20-13/h1-7,16-18H"
SMILES=O=c1cc(-c2ccc(O)cc2)oc2cc(O)cc(O)c12
SPECTRUMID=CCMSLIB00010106135
50.480148 3846.0 
64.983398 2773.0 
65.002853 6602.0 
73.970398 3112.0 
82.419693 3653.0 
83.013443 7068.0 
85.204948 2507.0 
88.613029 3189.0 
96.077026 3508.0 
102.641777 2629.0 
104.31118 2836.0 
104.918556 2812.0 
105.03434 2801.0 
105.256203 2967.0 
107.013763 50485.0 
117.025124 6526.0 
117.034401 173036.0 
118.684853 3522.0 
121.029282 5524.0 
136.238586 3854.0 
149.024277 223427.0 
151.003601 228903.0 
159.045135 33351.0 
181.066177 42146.0 
183.044754 29941.0 
185.024582 10771.0 
197.060944 16091.0 
200.881149 14775.0 
201.05603 64426.0 
201.076767 4222.0 
210.14624 8063.0 
219.579483 3304.0 
224.047607 12211.0 
225.055725 166925.0 
225.507324 3398.0 
227.03476 46349.0 
241.050812 11783.0 
269.045502 7830233.0 
END IONS

BEGIN IONS
NAME="N-(2H,3H-benzo[3,4-e]1,4-dioxin-6-yl)-2-{2-oxo-4-[N-benzylcarbamoyl]hydroquino lyl}acetamide CollisionEnergy:205060" M+Na
PRECURSOR_MZ=492.153
INCHI="InChI=1S/C27H23N3O5/c31-25(29-19-10-11-23-24(14-19)35-13-12-34-23)17-30-22-9-5-4-8-20(22)21(15-26(30)32)27(33)28-16-18-6-2-1-3-7-18/h1-11,14-15H,12-13,16-17H2,(H,28,33)(H,29,31)"
SMILES=O=c1cc(C(O)=NCc2ccccc2)c2ccccc2n1CC(O)=Nc1ccc2c(c1)OCCO2
SPECTRUMID=CCMSLIB00010123813
69.35762 2416.0 
91.054413 45883.0 
319.108002 3458.0 
341.086853 3806.0 
474.141693 20598.0 
492.152161 2231352.0 
END IONS

BEGIN IONS
NAME="8-{[2-(4-ethoxyphenyl)-5-methyl(1,3-oxazol-4-yl)]methylthio}-9-methylhydropuri n-6-one CollisionEnergy:205060" M+H
PRECURSOR_MZ=398.128
INCHI="InChI=1S/C19H19N5O3S/c1-4-26-13-7-5-12(6-8-13)18-22-14(11(2)27-18)9-28-19-23-15-16(24(19)3)20-10-21-17(15)25/h5-8,10H,4,9H2,1-3H3,(H,20,21,25)"
SMILES=CCOc1ccc(-c2nc(CSc3nc4c(O)ncnc4n3C)c(C)o2)cc1
SPECTRUMID=CCMSLIB00010119632
56.965248 3805.0 
65.038963 16247.0 
69.033813 85383.0 
92.049583 17465.0 
92.372162 4274.0 
104.278938 5030.0 
119.036346 6158.0 
119.049171 59819.0 
120.044273 3657306.0 
121.028313 20551.0 
139.712463 4900.0 
147.080353 45322.0 
147.610016 4945.0 
148.075455 4586970.0 
149.060089 14669.0 
157.957077 4486.0 
161.071198 5798.0 
166.08606 5989.0 
173.084381 5736.0 
183.033096 26334.0 
187.062866 7736.0 
188.070282 1706195.0 
189.101791 7449.0 
215.281052 7159.0 
216.101578 10546188.0 
216.925873 8218.0 
257.127747 31863.0 
276.157562 7335.0 
281.896179 4476.0 
339.059937 7194.0 
375.080231 6173.0 
398.127441 362524.0 
END IONS

BEGIN IONS
NAME="2-phenylethyl 4-(3-ethoxy-4-hydroxyphenyl)-7-(4-methoxyphenyl)-2-methyl-5-oxo- 1,4,6,7,8-pentahydroquinoline-3-carboxylate CollisionEnergy:205060" M-H
PRECURSOR_MZ=552.239
INCHI="InChI=1S/C34H35NO6/c1-4-40-30-20-24(12-15-28(30)36)32-31(34(38)41-17-16-22-8-6-5-7-9-22)21(2)35-27-18-25(19-29(37)33(27)32)23-10-13-26(39-3)14-11-23/h5-15,20,25,32,35-36H,4,16-19H2,1-3H3"
SMILES=CCOc1cc(C2C(C(=O)OCCc3ccccc3)=C(C)NC3=C2C(=O)CC(c2ccc(OC)cc2)C3)ccc1O
SPECTRUMID=CCMSLIB00010120438
64.953781 3098.0 
65.002907 31990.0 
67.018669 13515.0 
69.831902 2888.0 
73.914574 3361.0 
83.013748 14875.0 
91.018944 62887.0 
95.013779 33895.0 
98.796631 3465.0 
106.066277 24804.0 
108.021843 148952.0 
109.029587 384098.0 
111.008957 63518.0 
119.050377 18094.0 
123.008904 36260.0 
124.016747 95985.0 
137.060944 125267.0 
139.004227 21675.0 
144.04628 3530.0 
158.061401 36356.0 
160.040375 12437.0 
176.955841 3454.0 
182.833252 3041.0 
211.064041 6109.0 
212.071869 3457.0 
221.649094 3069.0 
222.09259 13888.0 
236.072144 31294.0 
236.107498 6659.0 
239.058228 25511.0 
240.067871 11876.0 
242.119751 2998.0 
248.07225 3114.0 
248.107574 3350.0 
250.087921 71077.0 
251.095871 107291.0 
252.102646 13581.0 
256.0625 11636.0 
264.103394 24374.0 
266.119049 293140.0 
276.065338 3307.0 
280.061737 5833.0 
280.098694 4081.0 
283.085205 28593.0 
310.109711 20761.0 
340.096832 7546.0 
341.10498 6789.0 
342.112061 5129.0 
356.12912 15117.0 
357.101837 14728.0 
358.10907 40038.0 
359.116516 63858.0 
360.125092 59218.0 
371.082306 5501.0 
372.124084 47195.0 
374.089844 5773.0 
374.140686 124878.0 
384.127075 25058.0 
385.094971 23671.0 
386.101624 22112.0 
398.140198 5584.0 
400.119659 62173.0 
404.187378 3751.0 
414.171417 15193.0 
448.177246 14996.0 
508.172485 5128.0 
523.199768 13170.0 
552.240295 1339343.0 
576.253967 4031.0 
END IONS

BEGIN IONS
NAME="4-[(3,4-dimethoxyphenyl)carbonyl]-5-(3-ethoxy-4-hydroxyphenyl)-3-hydroxy-1-met hyl-3-pyrrolin-2-one CollisionEnergy:205060" M-H
PRECURSOR_MZ=412.14
INCHI="InChI=1S/C22H23NO7/c1-5-30-16-10-12(6-8-14(16)24)19-18(21(26)22(27)23(19)2)20(25)13-7-9-15(28-3)17(11-13)29-4/h6-11,19,24,26H,5H2,1-4H3"
SMILES=CCOc1cc(C2C(C(=O)c3ccc(OC)c(OC)c3)=C(O)C(=O)N2C)ccc1O
SPECTRUMID=CCMSLIB00010123805
51.82222 2830.0 
64.389961 2832.0 
73.969711 3159.0 
75.295143 2745.0 
82.41777 4813.0 
104.307007 3408.0 
108.014038 4109.0 
108.02169 73787.0 
109.029518 38669.0 
118.679878 3204.0 
121.029068 3701.0 
123.04525 30946.0 
133.029465 17618.0 
144.045639 3459.0 
161.024506 37044.0 
162.055939 16230.0 
172.040329 10853.0 
174.031494 2991.0 
175.040558 2902.0 
176.010941 5614.0 
178.053146 3570.0 
185.434799 2488.0 
187.003693 13804.0 
188.035477 14545.0 
190.050919 39937.0 
191.03511 14453.0 
202.015747 2754.0 
205.050308 5923.0 
207.065567 4208.0 
212.047256 3375.0 
216.03006 68458.0 
217.037689 4211.0 
218.04541 37222.0 
224.048203 9934.0 
232.060883 3089.0 
239.037064 3056.0 
240.042877 29015.0 
244.025665 15938.0 
245.032745 5295.0 
246.041473 19064.0 
251.03511 4768.0 
252.04364 5158.0 
253.051224 3357.0 
255.065842 12125.0 
265.05011 3569.0 
268.006561 5526.0 
268.03775 103407.0 
269.081635 12315.0 
281.07254 4675.0 
282.053192 3967.0 
283.061218 63087.0 
295.025574 6414.0 
296.032074 12402.0 
296.092285 9590.0 
297.076843 65005.0 
299.090149 2839.0 
309.073395 3135.0 
310.048584 4032.0 
311.054993 10458.0 
324.061615 14764.0 
325.07193 9256.0 
353.055664 3091.0 
354.09845 3710.0 
368.075684 19026.0 
382.092468 10695.0 
383.10199 17593.0 
397.114471 4424.0 
412.140045 512595.0 
422.51532 2796.0 
END IONS

BEGIN IONS
NAME="methylpropyl 7-(4-chlorophenyl)-2-methyl-5-oxo-4-(3,4,5-trimethoxyphenyl)-1,4, 6,7,8-pentahydroquinoline-3-carboxylate CollisionEnergy:102040" M-H
PRECURSOR_MZ=538.2
INCHI="InChI=1S/C30H34ClNO6/c1-7-16(2)38-30(34)26-17(3)32-22-12-19(18-8-10-21(31)11-9-18)13-23(33)28(22)27(26)20-14-24(35-4)29(37-6)25(15-20)36-5/h8-11,14-16,19,27,32H,7,12-13H2,1-6H3"
SMILES=CCC(C)OC(=O)C1=C(C)NC2=C(C(=O)CC(c3ccc(Cl)cc3)C2)C1c1cc(OC)c(OC)c(OC)c1
SPECTRUMID=CCMSLIB00010111571
61.98798 4190.0 
65.003159 3402.0 
81.034363 6614.0 
89.626503 3203.0 
93.034409 5000.0 
95.014076 5411.0 
97.029373 17462.0 
98.000603 4863.0 
104.293488 3739.0 
109.029297 16667.0 
110.001038 24441.0 
112.987358 7200.0 
118.664482 4112.0 
120.99337 3651.0 
123.008812 7758.0 
124.987663 3474.0 
125.024094 19076.0 
125.995911 40371.0 
129.975601 18187.0 
136.224701 3701.0 
137.024277 100448.0 
137.995743 33279.0 
138.032639 4072.0 
138.786911 3062.0 
139.003708 6975.0 
141.019241 18405.0 
149.048386 25322.0 
153.019272 71532.0 
153.055603 57821.0 
153.990494 21671.0 
155.03511 22690.0 
158.061005 17392.0 
167.071915 4361.0 
168.043091 26604.0 
169.01384 7226.0 
181.037354 6522.0 
197.964157 5318.0 
206.118301 93085.0 
213.583984 4407.0 
252.059433 27514.0 
254.038483 17969.0 
258.034027 4657.0 
258.113831 91549.0 
259.039459 5139.0 
268.054474 21395.0 
269.063721 4141.0 
270.069183 347559.0 
272.048798 17446.0 
284.049011 6092.0 
298.028229 15366.0 
298.108337 15174.0 
300.115723 5706.0 
310.108459 5530.0 
314.058319 47009.0 
324.042053 3675.0 
326.131714 7436.0 
333.9375 5149.0 
341.126556 4173.0 
342.129181 4275.0 
355.0979 42849.0 
356.151031 53392.0 
357.158691 15727.0 
358.718903 4079.0 
368.102203 4189.0 
370.121613 294210.0 
375.067657 7877.0 
376.076904 7849.0 
390.090912 22619.0 
391.062653 32160.0 
392.067902 55021.0 
402.057129 15334.0 
404.069092 5589.0 
406.085175 154112.0 
407.09314 134625.0 
419.054871 17951.0 
420.099335 18902.0 
422.050476 5729.0 
422.116821 164264.0 
434.080139 76534.0 
438.14682 6058.0 
448.099762 4561.0 
449.107025 4169.0 
464.123871 32427.0 
465.135651 4272.0 
476.129578 14014.0 
477.134918 15631.0 
479.148224 4578.0 
482.129181 5237.0 
492.15979 39834.0 
493.132568 32175.0 
493.199921 4435.0 
508.152893 98810.0 
523.179382 51217.0 
534.935242 4561.0 
538.200989 6541763.0 
END IONS

BEGIN IONS
NAME="(3,5-dimethoxyphenyl)-N-[5-(2,2-dimethylpropyl)(1,3,4-thiadiazol-2-yl)]carboxa mide CollisionEnergy:102040" M+H
PRECURSOR_MZ=336.138
INCHI="InChI=1S/C16H21N3O3S/c1-16(2,3)9-13-18-19-15(23-13)17-14(20)10-6-11(21-4)8-12(7-10)22-5/h6-8H,9H2,1-5H3,(H,17,19,20)"
SMILES=COc1cc(OC)cc(C(O)=Nc2nnc(CC(C)(C)C)s2)c1
SPECTRUMID=CCMSLIB00010104048
57.07029 18262.0 
92.391327 5241.0 
96.559753 3109.0 
98.096367 41072.0 
109.064636 6107.0 
117.011902 3432.0 
118.667587 3340.0 
122.035767 45447.0 
125.059937 11585.0 
134.810196 3304.0 
137.059082 23092.0 
142.006546 7380.0 
155.069992 368914.0 
165.054352 3697736.0 
173.074066 14668.0 
178.085724 6648.0 
180.065033 40317.0 
198.069595 28206.0 
212.257675 4601.0 
222.021347 16783.0 
277.154236 31181.0 
280.074249 119379.0 
294.20755 3264.0 
295.132385 3593.0 
321.114929 3368.0 
332.185211 3896.0 
336.13678 6762112.0 
337.751648 4889.0 
END IONS

BEGIN IONS
NAME=Bio2_000264 CollisionEnergy:102040 M+H
PRECURSOR_MZ=349.118
INCHI="InChI=1S/C20H16N2O4/c1-2-20(25)14-8-12-9-16-17(7-11-5-3-4-6-15(11)21-16)22(12)18(23)13(14)10-26-19(20)24/h3-8,25H,2,9-10H2,1H3/t20-/m0/s1"
SMILES=CCC1(O)C(=O)OCc2c1cc1n(c2=O)-c2cc3ccccc3nc2C1
SPECTRUMID=CCMSLIB00010107591
57.03392 91106.0 
66.450211 4807.0 
81.505318 4422.0 
110.106339 3586.0 
135.24823 4687.0 
168.068008 136027.0 
169.075821 59923.0 
181.075943 88939.0 
182.083511 16504.0 
185.392914 4293.0 
187.649872 4845.0 
194.096848 6733.0 
195.089905 4058.0 
204.081192 9438.0 
206.096054 28551.0 
208.062683 48320.0 
219.090332 44037.0 
220.099091 300626.0 
221.107071 152807.0 
222.077805 22530.0 
232.113815 8705.0 
234.129349 7168.0 
235.087021 37272.0 
236.093903 19038.0 
246.078949 40336.0 
246.1147 6033.0 
247.085083 63728.0 
248.093857 637705.0 
249.10173 809790.0 
249.133972 37686.0 
250.073212 112213.0 
259.121429 80265.0 
260.10614 19558.0 
261.137329 45141.0 
262.108826 18420.0 
263.081512 98749.0 
263.112091 9828.0 
264.088531 18862.0 
272.092926 21697.0 
274.072845 144157.0 
275.080963 57748.0 
275.11731 75697.0 
276.055511 6353.0 
276.088806 40644.0 
276.123077 7736.0 
277.097687 25520.0 
277.132812 412808.0 
280.083496 113867.0 
287.116577 96466.0 
289.096405 18118.0 
290.103577 27612.0 
291.075745 41045.0 
291.112793 16723.0 
292.083435 129408.0 
292.119904 43847.0 
293.0914 24040.0 
293.125641 16160.0 
303.112091 248309.0 
304.11969 5892.0 
305.127747 6085447.0 
306.058868 5574.0 
319.072266 22584.0 
320.078186 717255.0 
321.084473 27079.0 
321.123871 36692.0 
331.105652 45609.0 
333.097778 32609.0 
334.100647 17998.0 
337.653107 17782.0 
347.443939 13555.0 
348.111481 10139.0 
349.117554 24404368.0 
350.804108 11774.0 
350.851746 8501.0 
END IONS

BEGIN IONS
NAME="3',7-Dimethoxy-3-hydroxyflavone CollisionEnergy:102040" M+H
PRECURSOR_MZ=299.091
INCHI="InChI=1S/C17H14O5/c1-20-11-5-3-4-10(8-11)17-16(19)15(18)13-7-6-12(21-2)9-14(13)22-17/h3-9,19H,1-2H3"
SMILES=COc1cccc(-c2oc3cc(OC)ccc3c(=O)c2O)c1
SPECTRUMID=CCMSLIB00010113786
57.034458 10021.0 
57.565041 2383.0 
85.028717 51160.0 
85.033974 3570.0 
92.371323 3453.0 
101.003731 18592.0 
101.950577 2745.0 
102.610031 2445.0 
104.278717 2933.0 
109.02845 4672.0 
111.007011 2422.0 
125.023849 9927.0 
127.357513 3007.0 
131.049576 12975.0 
136.199738 2527.0 
149.023117 4234.0 
153.018417 11464.0 
171.028366 25702.0 
177.018356 17262.0 
195.028946 957890.0 
197.974442 18933.0 
213.03981 2530.0 
215.984222 2542.0 
216.490585 2499.0 
236.983749 4027.0 
238.980682 11975.0 
257.080261 13639.0 
257.97818 6147.0 
267.294586 2607.0 
299.090515 1562507.0 
END IONS

BEGIN IONS
NAME=OXFENICINE CollisionEnergy:102040 M-H+2Na
PRECURSOR_MZ=212.029
INCHI="InChI=1S/C8H9NO3/c9-7(8(11)12)5-1-3-6(10)4-2-5/h1-4,7,10H,9H2,(H,11,12)/t7-/m0/s1"
SMILES=N[C@H](C(=O)O)c1ccc(O)cc1
SPECTRUMID=CCMSLIB00010103190
62.982399 5116.279785 
68.188301 1797.27002 
82.399101 2279.810059 
89.209801 1946.030029 
93.849998 2177.889893 
114.026001 2070.709961 
188.979996 2343.800049 
206.988998 4083.25 
212.029999 501940.0 
212.212997 4291.319824 
END IONS

BEGIN IONS
NAME=Udp-glucuronic acid CollisionEnergy:102040 M-H
PRECURSOR_MZ=579.027
INCHI="InChI=1S/C15H22N2O18P2/c18-5-1-2-17(15(26)16-5)12-9(22)6(19)4(32-12)3-31-36(27,28)35-37(29,30)34-14-10(23)7(20)8(21)11(33-14)13(24)25/h1-2,4,6-12,14,19-23H,3H2,(H,24,25)(H,27,28)(H,29,30)(H,16,18,26)/t4-,6-,7+,8+,9-,10-,11+,12-,14-/m1/s1"
SMILES=O=C(O)[C@H]1O[C@H](OP(=O)(O)OP(=O)(O)OC[C@H]2O[C@@H](n3ccc(O)nc3=O)[C@H](O)[C@@H]2O)[C@H](O)[C@@H](O)[C@@H]1O
SPECTRUMID=CCMSLIB00010126385
53.861401 4735.569824 
58.100899 4055.77002 
63.461601 4698.75 
64.102402 4723.700195 
78.958801 450158.0 
82.425003 5487.569824 
83.556602 4945.830078 
96.969597 122215.0 
104.310997 4549.419922 
111.019997 215201.0 
118.693001 6131.279785 
138.981003 6866.819824 
158.925003 416958.0 
174.979996 17551.300781 
176.936005 9844.530273 
192.990997 29034.400391 
211.003006 20443.900391 
211.320999 6097.629883 
228.537994 4892.779785 
236.979996 4569.310059 
248.641998 4372.470215 
254.990997 233512.0 
272.957001 106464.0 
280.02301 7786.040039 
290.968994 9286.900391 
305.016998 62961.300781 
323.028015 376911.0 
384.984009 82778.703125 
402.994995 662077.0 
579.026978 1267100.0 
END IONS

BEGIN IONS
NAME=ethyl 6-bromo-1-cyclohexyl-5-hydroxy-2-methylindole-3-carboxylate CollisionEnergy:102040 M+H
PRECURSOR_MZ=380.086
INCHI="InChI=1S/C18H22BrNO3/c1-3-23-18(22)17-11(2)20(12-7-5-4-6-8-12)15-10-14(19)16(21)9-13(15)17/h9-10,12,21H,3-8H2,1-2H3"
SMILES=CCOC(=O)c1c(C)n(C2CCCCC2)c2cc(Br)c(O)cc12
SPECTRUMID=CCMSLIB00010109299
51.466019 2949.0 
55.054722 84635.0 
83.085762 173543.0 
90.97673 5861.0 
107.966621 6093.0 
133.051788 13579.0 
134.63414 3072.0 
146.060303 4404.0 
147.067688 256216.0 
153.384201 3453.0 
157.954544 3269.0 
160.075607 86509.0 
173.046753 40901.0 
174.054932 3467.0 
175.099014 266774.0 
185.372635 3038.0 
190.050003 7641.0 
191.05751 267836.0 
204.065048 12187.0 
219.088791 203054.0 
223.970413 68441.0 
224.977997 119980.0 
225.985886 121652.0 
226.953262 4535.0 
228.136581 5289.0 
229.145584 31482.0 
242.673111 3194.0 
243.942429 3877.0 
251.965057 734308.0 
254.016754 5210.0 
257.176727 20609.0 
268.966797 11788.0 
269.97583 107807.0 
272.127228 3476.0 
273.135345 106055.0 
286.144257 6485.0 
298.006866 291368.0 
301.166626 418805.0 
307.055573 66657.0 
308.063507 15029.0 
334.043091 995478.0 
351.045685 7821.0 
352.053497 130818.0 
380.0849 3848814.0 
382.015869 3999.0 
END IONS

BEGIN IONS
NAME=4-(3-carbazol-9-yl-2-hydroxypropyl)piperazinyl phenyl ketone CollisionEnergy:102040 M+formate
PRECURSOR_MZ=458.209
INCHI="InChI=1S/C26H27N3O2/c30-21(18-27-14-16-28(17-15-27)26(31)20-8-2-1-3-9-20)19-29-24-12-6-4-10-22(24)23-11-5-7-13-25(23)29/h1-13,21,30H,14-19H2"
SMILES=O=C(c1ccccc1)N1CCN(CC(O)Cn2c3ccccc3c3ccccc32)CC1
SPECTRUMID=CCMSLIB00010106670
50.380951 2227.0 
53.048 2198.0 
53.793411 2200.0 
72.273064 2093.0 
73.957047 2278.0 
76.60968 2131.0 
82.403343 3156.0 
92.384277 2171.0 
110.459557 2699.0 
136.211411 2321.0 
210.013474 9760.0 
266.981201 2910.0 
278.729218 2620.0 
324.044373 2563.0 
436.964111 2891.0 
END IONS

BEGIN IONS
NAME=N-[2-(2-methylindol-3-yl)ethyl](6-oxo(3-hydropyridyl))carboxamide CollisionEnergy:102040 M+H
PRECURSOR_MZ=296.139
INCHI="InChI=1S/C17H17N3O2/c1-11-13(14-4-2-3-5-15(14)20-11)8-9-18-17(22)12-6-7-16(21)19-10-12/h2-7,10,20H,8-9H2,1H3,(H,18,22)(H,19,21)"
SMILES=Cc1[nH]c2ccccc2c1CCN=C(O)c1ccc(O)nc1
SPECTRUMID=CCMSLIB00010107966
51.512989 3084.0 
96.044327 6297.0 
101.282677 3840.0 
104.297241 3959.0 
117.069946 4878.0 
122.023697 514184.0 
130.065216 6027.0 
131.086334 4057.0 
132.080139 5608.0 
139.050674 32367.0 
143.072983 72527.0 
146.09642 7212.0 
151.049713 4769.0 
156.080444 4550.0 
157.088699 25498.0 
157.58049 3877.0 
158.096512 7466978.0 
158.615601 4062.0 
161.059464 3931.0 
165.065887 147211.0 
175.123062 333362.0 
201.101288 4027.0 
261.101105 3522.0 
279.112213 56165.0 
296.139221 1117601.0 
END IONS

BEGIN IONS
NAME=(2S)-2-[(tert-butoxy)carbonylamino]-3-[benzyloxycarbonyl]propanoic acid CollisionEnergy:205060 M-H+2Na
PRECURSOR_MZ=368.108
INCHI="InChI=1S/C16H21NO6/c1-16(2,3)23-15(21)17-12(14(19)20)9-13(18)22-10-11-7-5-4-6-8-11/h4-8,12H,9-10H2,1-3H3,(H,17,21)(H,19,20)/t12-/m0/s1"
SMILES=CC(C)(C)OC(O)=NC(CC(=O)OCc1ccccc1)C(=O)O
SPECTRUMID=CCMSLIB00010122008
62.98214 45055.0 
73.943619 3279.0 
87.976891 3700.0 
90.977623 2405.0 
91.054283 58057.0 
92.057289 15570.0 
92.366653 2831.0 
117.987457 44709.0 
118.643204 2325.0 
143.028793 2652.0 
153.028564 230380.0 
159.998199 3167.0 
165.054184 4913.0 
166.057449 4434.0 
190.447296 2605.0 
251.028961 43526.0 
268.055145 579937.0 
294.033661 33377.0 
368.107635 174818.0 
381.0672 2496.0 
END IONS

BEGIN IONS
NAME="1,2,6,6,10,17,20-heptamethyl-12-oxo-17-(N-phenylcarbamoyl)pentacyclo[12.8.0.0< 2,11>.0<5,10>.0<15,20>]docos-13-en-7-yl acetate CollisionEnergy:205060" 2M+H
PRECURSOR_MZ=1175.8
INCHI="InChI=1S/C38H53NO4/c1-24(40)43-30-15-16-36(6)29(33(30,2)3)14-17-38(8)31(36)28(41)22-26-27-23-35(5,32(42)39-25-12-10-9-11-13-25)19-18-34(27,4)20-21-37(26,38)7/h9-13,22,27,29-31H,14-21,23H2,1-8H3,(H,39,42)"
SMILES=CC(=O)OC1CCC2(C)C(CCC3(C)C2C(=O)C=C2C4CC(C)(C(O)=Nc5ccccc5)CCC4(C)CCC23C)C1(C)C
SPECTRUMID=CCMSLIB00010120727
81.033524 18711.0 
81.07016 3801627.0 
82.389236 11345.0 
83.049423 1035026.0 
83.085777 681753.0 
85.06498 63194.0 
91.054367 1387789.0 
92.049606 153443.0 
93.070023 2502052.0 
94.065247 343845.0 
95.049332 413126.0 
95.08564 5572763.0 
97.06485 386065.0 
97.094177 16694.0 
97.101189 447373.0 
99.080566 27200.0 
103.053917 120159.0 
104.061783 18590.0 
104.275757 14420.0 
105.069908 3329358.0 
106.041588 21533.0 
106.065376 56887.0 
107.049149 141285.0 
107.085518 4363742.0 
109.06485 398399.0 
109.101173 2638037.0 
111.08036 251291.0 
111.08815 17873.0 
111.11628 89317.0 
115.053757 94753.0 
116.061867 13099.0 
117.069794 268663.0 
118.065063 69896.0 
119.049019 65871.0 
119.08551 6678386.0 
120.044312 427830.0 
120.081017 13060.0 
120.093437 25541.0 
121.064842 368543.0 
121.101143 4116580.0 
122.059998 25506.0 
123.08046 440031.0 
123.116737 1634141.0 
125.096191 129078.0 
127.111961 18172.0 
128.062225 80656.0 
129.069946 140680.0 
130.077744 60004.0 
131.085495 922542.0 
133.064804 129732.0 
133.101135 4935843.0 
135.080383 948723.0 
135.11673 3091058.0 
136.075714 22617.0 
137.096054 264615.0 
137.132401 653728.0 
139.075897 13033.0 
139.111725 262473.0 
141.070007 59665.0 
142.077667 113246.0 
143.085358 512812.0 
144.093323 69830.0 
145.065308 46245.0 
145.101151 1461160.0 
146.073166 18499.0 
146.09668 36304.0 
146.109024 125263.0 
147.080917 412768.0 
147.093323 452517.0 
147.116837 3264020.0 
148.0755 13014.0 
149.096024 2065011.0 
149.132355 719153.0 
151.111801 128241.0 
151.148514 14849.0 
153.127625 61511.0 
155.085709 132224.0 
156.093384 126517.0 
157.10112 1008710.0 
158.109085 107499.0 
159.08107 163550.0 
159.11673 1415799.0 
160.088364 16946.0 
160.124588 127647.0 
161.096115 1078777.0 
161.132324 1466790.0 
162.091476 127549.0 
162.104797 25137.0 
163.111542 422421.0 
163.147827 274925.0 
165.127487 69014.0 
165.163391 16210.0 
169.100967 273891.0 
170.109161 70427.0 
171.081207 21458.0 
171.116669 827133.0 
172.124878 50082.0 
173.096817 269867.0 
173.13237 2191101.0 
174.104187 21560.0 
174.140259 74999.0 
175.112 756810.0 
175.14801 3921413.0 
177.127182 197545.0 
177.163559 657047.0 
181.101517 27821.0 
182.108887 64555.0 
183.116562 311677.0 
184.125229 127402.0 
185.096603 23721.0 
185.13237 373619.0 
186.140244 49605.0 
187.112183 160228.0 
187.14801 776412.0 
189.127502 485381.0 
189.163605 8063891.0 
191.144592 143349.0 
191.179184 762086.0 
193.158371 15706.0 
195.116745 100860.0 
196.124985 28923.0 
197.13237 531982.0 
198.141754 26848.0 
199.11261 68689.0 
199.147919 1369442.0 
200.104019 13739.0 
200.155838 21412.0 
201.12793 245610.0 
201.163483 531609.0 
202.121353 29929.0 
203.14328 205538.0 
203.178314 135286.0 
205.158234 16258.0 
207.174301 72632.0 
209.131332 131744.0 
210.14003 19625.0 
211.147797 374581.0 
212.155579 16253.0 
213.126831 60624.0 
213.163483 465374.0 
214.120911 18571.0 
214.171768 12201.0 
215.142975 663823.0 
215.178741 200473.0 
216.137451 238271.0 
217.158615 1992532.0 
217.196472 63395.0 
219.172165 88277.0 
221.13208 15009.0 
223.148544 135850.0 
224.156204 46788.0 
225.1633 185819.0 
227.142822 29226.0 
227.178802 288675.0 
228.138397 53780.0 
228.188416 17236.0 
229.158798 243405.0 
229.195297 139379.0 
230.154312 25567.0 
231.174438 186854.0 
233.190231 20861.0 
235.146378 21425.0 
235.169067 125360.0 
237.164398 93921.0 
238.171204 51944.0 
239.178635 182251.0 
240.135971 15367.0 
241.158173 62764.0 
241.194046 155494.0 
242.154556 56775.0 
243.174423 72934.0 
243.210617 217830.0 
244.167908 107423.0 
245.189331 173771.0 
251.178665 86142.0 
252.187225 14690.0 
253.194794 559528.0 
253.224564 26043.0 
255.174438 66291.0 
255.210632 119242.0 
256.168243 23183.0 
257.190125 238286.0 
257.221771 21212.0 
259.20517 65055.0 
263.176361 11747.0 
265.195038 91268.0 
267.210785 228659.0 
268.170807 19860.0 
269.189972 66576.0 
269.225189 46878.0 
271.205109 775044.0 
277.178741 318831.0 
279.210022 58177.0 
281.226044 55502.0 
282.185333 51989.0 
283.208405 97170.0 
284.201141 16193.0 
285.221863 97820.0 
291.213043 42625.0 
293.225708 49173.0 
295.240417 17175.0 
296.200867 51778.0 
297.221191 48321.0 
305.225128 57976.0 
307.242615 53709.0 
310.215485 493247.0 
311.2388 20582.0 
312.232452 61473.0 
319.241302 25157.0 
323.234772 16878.0 
328.22702 52951.0 
331.240723 15684.0 
333.257202 44967.0 
337.251221 16611.0 
338.212311 15130.0 
345.240601 17014.0 
347.271362 12209.0 
352.225342 13857.0 
389.320038 235277.0 
392.257782 71930.0 
404.257202 16851.0 
407.330475 363686.0 
449.339203 53199.0 
467.351562 793331.0 
510.370148 44375.0 
528.382629 1111241.0 
584.711487 22462.0 
588.404358 47226056.0 
589.402649 124710.0 
592.124756 23239.0 
605.003174 14429.0 
610.390259 13997.0 
629.431641 102727.0 
633.457214 22734.0 
661.465698 15302.0 
END IONS

BEGIN IONS
NAME="(3,5-dimethoxyphenyl)-N-(3-chlorophenyl)carboxamide CollisionEnergy:205060" M+Na
PRECURSOR_MZ=314.055
INCHI="InChI=1S/C15H14ClNO3/c1-19-13-6-10(7-14(9-13)20-2)15(18)17-12-5-3-4-11(16)8-12/h3-9H,1-2H3,(H,17,18)"
SMILES=COc1cc(OC)cc(C(O)=Nc2cccc(Cl)c2)c1
SPECTRUMID=CCMSLIB00010119071
84.959831 3407.0 
92.397919 2224.0 
97.278229 2032.0 
120.316513 2126.0 
149.02327 14541.0 
154.061661 2570.0 
207.840149 15254.0 
303.181885 2729.0 
314.054871 9655.0 
314.121521 4116.0 
321.72757 2332.0 
END IONS

BEGIN IONS
NAME="1-(3,4-dimethoxyphenyl)-3-{[4-(4-methyl(1,2,4-triazol-3-yl))phenyl]amino}propa n-1-one CollisionEnergy:102040" M+H
PRECURSOR_MZ=367.176
INCHI="InChI=1S/C20H22N4O3/c1-24-13-22-23-20(24)14-4-7-16(8-5-14)21-11-10-17(25)15-6-9-18(26-2)19(12-15)27-3/h4-9,12-13,21H,10-11H2,1-3H3"
SMILES=COc1ccc(C(=O)CCNc2ccc(-c3nncn3C)cc2)cc1OC
SPECTRUMID=CCMSLIB00010106002
54.791611 3230.0 
71.553093 3899.0 
73.948174 3679.0 
79.503723 3014.0 
79.589798 3163.0 
79.939392 3350.0 
92.371239 3256.0 
108.323593 4010.0 
124.052338 5481.0 
132.080368 23072.0 
139.075073 62437.0 
146.071243 8258.0 
173.082031 13581.0 
174.089905 5734.0 
181.085709 101382.0 
187.097702 6542538.0 
188.105225 39338.0 
191.068649 5884.0 
201.113327 23157.0 
220.095795 48777.0 
269.647247 3807.0 
271.423035 3791.0 
319.664032 4097.0 
323.1492 32578.0 
351.14444 147821.0 
352.151367 19777.0 
367.175903 8198211.0 
END IONS

BEGIN IONS
NAME=Etoposide; VP-16-213 CollisionEnergy:102040 M+H
PRECURSOR_MZ=589.192
INCHI="InChI=1S/C29H32O13/c1-11-36-9-20-27(40-11)24(31)25(32)29(41-20)42-26-14-7-17-16(38-10-39-17)6-13(14)21(22-15(26)8-37-28(22)33)12-4-18(34-2)23(30)19(5-12)35-3/h4-7,11,15,20-22,24-27,29-32H,8-10H2,1-3H3/t11?,15?,20?,21-,22+,24?,25?,26?,27?,29?/m1/s1"
SMILES=COc1cc(C2c3cc4c(cc3C(OC3OC5COC(C)OC5C(O)C3O)C3COC(=O)C23)OCO4)cc(OC)c1O
SPECTRUMID=CCMSLIB00010110964
56.11483 3668.0 
61.028881 4720.0 
69.033958 53605.0 
73.028526 4893.0 
81.033836 20713.0 
82.375664 4841.0 
83.0494 5812.0 
85.028717 86097.0 
87.044418 6655.0 
97.028519 21185.0 
99.044113 18025.0 
109.028481 16840.0 
111.04393 8697.0 
115.053848 29438.0 
126.047707 4674.0 
127.039001 88630.0 
129.05455 16652.0 
134.286026 4123.0 
135.873978 3709.0 
143.049332 49184.0 
145.049271 37555.0 
153.054413 4288.0 
154.062408 17618.0 
154.279556 3829.0 
155.069656 23705.0 
165.553482 3939.0 
167.070435 8976.0 
171.06543 42577.0 
173.059723 236411.0 
180.736908 4832.0 
181.05011 6117.0 
185.059753 3142995.0 
186.065323 3757.0 
189.075546 37814.0 
199.039108 124997.0 
201.054535 26412.0 
217.049255 86236.0 
227.033661 4926.0 
229.0495 6955116.0 
229.947205 4772.0 
230.053574 6105.0 
231.060883 5790.0 
239.070343 22547.0 
245.045227 15074.0 
246.049973 5451.0 
247.059814 522328.0 
267.064209 16277.0 
276.074799 5123.0 
277.084564 4841.0 
298.083313 8702.0 
299.092285 41171.0 
300.096771 4699.0 
305.079926 6653.0 
307.094391 5205.0 
324.098846 6500.0 
337.107574 6447.0 
338.110413 6358.0 
360.907349 4607.0 
365.100189 6567.0 
383.112 447547.0 
384.118011 6436.0 
435.127991 274407.0 
445.717041 3974.0 
539.569519 3990.0 
589.187866 378110.0 
END IONS

BEGIN IONS
NAME=methyl 2-[2-(6-oxo-9-phenylhydropurin-8-ylthio)acetylamino]benzoate CollisionEnergy:205060 M+Na
PRECURSOR_MZ=458.089
INCHI="InChI=1S/C21H17N5O4S/c1-30-20(29)14-9-5-6-10-15(14)24-16(27)11-31-21-25-17-18(22-12-23-19(17)28)26(21)13-7-3-2-4-8-13/h2-10,12H,11H2,1H3,(H,24,27)(H,22,23,28)"
SMILES=COC(=O)c1ccccc1N=C(O)CSc1nc2c(O)ncnc2n1-c1ccccc1
SPECTRUMID=CCMSLIB00010121992
58.960991 3443.0 
104.262527 2723.0 
104.27092 3099.0 
119.634804 2683.0 
140.939545 2921.0 
156.041626 2695.0 
165.100311 2805.0 
169.940247 3375.0 
173.998032 2719.0 
210.799469 5040.0 
211.538071 2775.0 
235.057877 3564.0 
265.014893 159297.0 
266.022369 72853.0 
266.247223 2973.0 
279.029053 3626.0 
307.025482 11465.0 
376.687958 3330.0 
426.062958 42435.0 
458.088715 3180020.0 
END IONS

BEGIN IONS
NAME=FLAVANONE CollisionEnergy:102040 M+H
PRECURSOR_MZ=225.091
INCHI="InChI=1S/C15H12O2/c16-13-10-15(11-6-2-1-3-7-11)17-14-9-5-4-8-12(13)14/h1-9,15H,10H2"
SMILES=O=C1CC(c2ccccc2)Oc2ccccc21
SPECTRUMID=CCMSLIB00010106690
51.45763 3707.0 
55.175282 3114.0 
65.038918 31053.0 
66.73587 3472.0 
73.948189 3772.0 
77.039017 6890.0 
79.006882 3601.0 
79.021584 4477.0 
79.054619 25497.0 
91.054428 54829.0 
93.033577 30504.0 
95.049232 180120.0 
103.054153 264111.0 
104.27755 3976.0 
105.033463 208843.0 
105.041557 6806.0 
105.069763 59525.0 
107.049179 84880.0 
111.043922 15579.0 
119.049171 101260.0 
121.028412 5348087.0 
131.049164 1645043.0 
139.039047 60705.0 
140.38858 3999.0 
147.044022 1173916.0 
154.077377 4818.0 
155.086273 6637.0 
156.976059 6625.0 
160.988083 5588.0 
165.006073 12995.0 
165.069077 25875.0 
169.101135 23523.0 
178.077698 62521.0 
178.957291 4836.0 
178.977829 6484.0 
179.085449 1265920.0 
182.071808 14665.0 
183.07988 108167.0 
197.095993 170337.0 
201.972153 24739.0 
201.993744 16208.0 
207.080322 1073126.0 
210.067413 2051806.0 
224.082733 4168.0 
225.09082 10353390.0 
227.040543 5294.0 
END IONS

BEGIN IONS
NAME=Dipterocarpol CollisionEnergy:102040 M+H-H2O
PRECURSOR_MZ=425.378
INCHI="InChI=1S/C30H50O2/c1-20(2)10-9-16-30(8,32)22-13-18-28(6)21(22)11-12-24-27(5)17-15-25(31)26(3,4)23(27)14-19-29(24,28)7/h10,21-24,32H,9,11-19H2,1-8H3/t21-,22+,23+,24-,27+,28-,29-,30+/m1/s1"
SMILES=CC(C)=CCCC(C)(O)C1CCC2(C)C1CCC1C3(C)CCC(=O)C(C)(C)C3CCC12C
SPECTRUMID=CCMSLIB00010113037
55.054611 22710.0 
57.070271 41618.0 
67.054527 70200.0 
69.070213 145922.0 
71.049431 6786.0 
71.085747 34200.0 
74.679047 3128.0 
79.054298 28897.0 
81.070053 223724.0 
83.049133 6320.0 
83.085693 110818.0 
85.064911 3220.0 
85.101143 22741.0 
91.054237 20260.0 
93.069893 131634.0 
95.085518 450560.0 
97.065178 5698.0 
97.101044 71524.0 
99.080231 26403.0 
104.285812 5312.0 
105.069748 52631.0 
107.085381 273717.0 
109.065277 4058.0 
109.101051 493830.0 
111.080162 22512.0 
111.116676 66189.0 
113.095863 13859.0 
118.653862 4344.0 
119.085297 123129.0 
119.094818 4294.0 
121.101013 259014.0 
123.080406 15356.0 
123.116623 226589.0 
123.123947 3194.0 
125.095757 26194.0 
125.132156 14293.0 
127.111427 34426.0 
131.08548 22603.0 
133.101044 148606.0 
134.108826 4152.0 
135.080276 49324.0 
135.116547 214781.0 
137.095795 17856.0 
137.132294 92407.0 
139.111755 16686.0 
143.085373 16524.0 
145.101166 62145.0 
147.116562 131919.0 
149.096008 22534.0 
149.132248 225917.0 
151.111435 24255.0 
151.147919 30240.0 
153.12709 7420.0 
154.330872 3680.0 
157.100845 19503.0 
159.116653 84842.0 
161.095703 8545.0 
161.132187 123982.0 
163.111649 63781.0 
163.147827 197095.0 
165.126846 25659.0 
165.162827 18433.0 
169.100433 5715.0 
171.11673 27505.0 
173.131927 63560.0 
175.005692 7616.0 
175.111526 22647.0 
175.147827 93837.0 
176.984375 5200.0 
177.127213 60109.0 
177.163528 98845.0 
179.142426 17664.0 
179.179642 24196.0 
183.116364 3734.0 
185.131454 29175.0 
187.111221 6209.0 
187.147781 75786.0 
189.127533 18849.0 
189.163391 108278.0 
191.000671 6976.0 
191.142471 16328.0 
191.160141 7081.0 
191.179077 186287.0 
193.15889 7322.0 
193.194839 76423.0 
197.132812 6523.0 
199.147964 16083.0 
201.128113 5589.0 
201.163437 64945.0 
203.144928 42342.0 
203.179153 160154.0 
205.136246 6248.0 
205.158813 187326.0 
205.194199 187319.0 
207.174225 73878.0 
207.208313 24857.0 
211.147461 7404.0 
213.163254 71796.0 
215.143265 4699.0 
215.179413 55716.0 
217.1595 25678.0 
217.194595 113804.0 
219.174515 56893.0 
219.210159 265317.0 
221.189285 25553.0 
225.163376 5182.0 
227.179352 22929.0 
229.194427 34827.0 
231.173813 389320.0 
231.21048 19433.0 
233.189484 42424.0 
233.225861 21863.0 
239.17836 8024.0 
241.194214 14980.0 
243.174225 17941.0 
243.209854 15235.0 
245.189758 63196.0 
245.223099 40723.0 
247.20549 13986.0 
247.242188 24853.0 
253.194931 16699.0 
255.20993 7930.0 
257.189514 87861.0 
257.224884 21070.0 
259.205872 12865.0 
259.238251 6127.0 
261.224152 4360.0 
261.257324 25917.0 
267.21109 6252.0 
269.225281 22401.0 
271.205353 153709.0 
271.240448 21281.0 
273.223022 10743.0 
273.256622 25846.0 
275.237885 6041.0 
281.22522 7290.0 
283.240967 5145.0 
285.220917 15173.0 
287.239807 8079.0 
287.272797 37518.0 
289.252991 4539.0 
295.240112 15423.0 
297.256653 34230.0 
299.236053 61994.0 
299.27243 26369.0 
301.252777 4184.0 
301.290283 6899.0 
311.271698 15227.0 
313.25119 35543.0 
313.2883 19909.0 
315.266693 51448.0 
323.274719 5539.0 
325.288147 23014.0 
327.266754 4608.0 
329.282928 17351.0 
337.288361 13839.0 
339.303864 22420.0 
341.28183 8430.0 
341.799683 3612.0 
343.19339 18937.0 
343.297791 7415.0 
351.30426 5692.0 
355.295532 11641.0 
357.221466 4398.0 
361.204193 56385.0 
367.333557 13136.0 
369.315033 24160.0 
379.214264 25456.0 
383.328979 8066.0 
384.219391 29276.0 
397.222076 5420.0 
397.382019 4254.0 
402.231873 15892.0 
407.303986 6752.0 
407.366089 285544.0 
425.207642 376192.0 
425.376709 3258813.0 
END IONS

BEGIN IONS
NAME=1-(3-chlorophenyl)-2-[(methylethyl)amino]ethan-1-ol CollisionEnergy:205060 M+H-H2O
PRECURSOR_MZ=196.089
INCHI="InChI=1S/C11H16ClNO/c1-8(2)13-7-11(14)9-4-3-5-10(12)6-9/h3-6,8,11,13-14H,7H2,1-2H3"
SMILES=CC(C)NCC(O)c1cccc(Cl)c1
SPECTRUMID=CCMSLIB00010115303
51.940479 13439.0 
53.00264 5749.0 
63.304562 3120.0 
67.93499 7243.0 
68.758781 3003.0 
72.937286 6455.0 
83.930183 7188.0 
85.945282 4287.0 
90.947662 3441.0 
91.054298 371508.0 
92.061882 3932.0 
102.046257 17464.0 
102.23941 3146.0 
102.947884 4270.0 
103.142372 3354.0 
104.049477 3762.0 
106.041023 3337.0 
113.963997 14933.0 
117.057137 56658.0 
117.934441 3629.0 
118.065002 1971370.0 
118.656693 3626.0 
118.942993 7756.0 
119.072838 3294345.0 
119.950882 4189.0 
125.01519 4554.0 
125.964256 4442.0 
127.030724 49056.0 
131.9505 3874.0 
131.974609 5272.0 
134.107513 3214.0 
136.075714 41869.0 
137.015213 48120.0 
139.030685 16343.0 
140.950943 14437.0 
149.961334 21133.0 
154.04158 6458812.0 
157.974609 3729.0 
172.977509 18104.0 
178.122192 29582.0 
179.061401 3837.0 
185.219894 3251.0 
185.41037 3181.0 
196.088501 3628901.0 
END IONS

BEGIN IONS
NAME="methyl (2E)-3-(3,5-dimethoxyphenyl)-2-cyanoprop-2-enoate CollisionEnergy:205060" M-e
PRECURSOR_MZ=247.084
INCHI="InChI=1S/C13H13NO4/c1-16-11-5-9(6-12(7-11)17-2)4-10(8-14)13(15)18-3/h4-7H,1-3H3/b10-4+"
SMILES=COC(=O)C(C#N)=Cc1cc(OC)cc(OC)c1
SPECTRUMID=CCMSLIB00010125875
73.685989 2356.0 
73.956711 2613.0 
82.401573 2212.0 
92.380432 3044.0 
102.045776 4067.0 
103.053871 9952.0 
104.288628 2466.0 
110.508636 2496.0 
111.055168 12090.0 
116.049431 4497.0 
117.033371 3295.0 
117.057518 2926.0 
119.048424 2262.0 
127.041748 5054.0 
128.049805 4112.0 
129.057175 5103.0 
130.065033 19206.0 
131.048737 10727.0 
132.056793 9988.0 
137.059509 15864.0 
143.036316 4712.0 
144.044434 4675.0 
145.05191 15118.0 
146.059387 8555.0 
148.05188 2884.0 
151.075531 4130.0 
156.044006 4915.0 
157.051437 20374.0 
158.059753 71714.0 
159.043442 4007.0 
159.067581 12032.0 
160.075485 28706.0 
161.046051 3676.0 
161.05954 37144.0 
172.038925 17140.0 
173.047028 16974.0 
174.055115 5265.0 
176.070511 5614.0 
181.085709 2600.0 
185.414032 2618.0 
186.054733 133389.0 
187.062439 9798.0 
188.046555 9862.0 
188.070282 67344.0 
189.054398 26988.0 
189.078018 52595.0 
200.031586 2970.0 
201.041855 9885.0 
202.050217 4828.0 
204.065216 9232.0 
212.652054 2749.0 
214.048996 3967.0 
216.06517 45375.0 
217.07254 4996.0 
219.065308 26345.0 
220.657394 2301.0 
231.052734 4078.0 
232.06012 10788.0 
246.075226 12687.0 
247.083191 291680.0 
247.107681 23595.0 
313.303375 2223.0 
391.899353 2442.0 
424.899597 2716.0 
END IONS

BEGIN IONS
NAME="N-(2H-benzo[3,4-d]1,3-dioxolen-5-ylmethyl)-2-[2-oxo-4-(2-1,2,3,4-tetrahydroiso quinolylcarbonyl)hydroquinolyl]acetamide CollisionEnergy:102040" M+Cl
PRECURSOR_MZ=530.149
INCHI="InChI=1S/C29H25N3O5/c33-27(30-15-19-9-10-25-26(13-19)37-18-36-25)17-32-24-8-4-3-7-22(24)23(14-28(32)34)29(35)31-12-11-20-5-1-2-6-21(20)16-31/h1-10,13-14H,11-12,15-18H2,(H,30,33)"
SMILES=O=C(c1cc(=O)n(CC(O)=NCc2ccc3c(c2)OCO3)c2ccccc12)N1CCc2ccccc2C1
SPECTRUMID=CCMSLIB00010114176
60.011681 2794.0 
73.592392 2460.0 
77.012428 2517.0 
82.372208 3091.0 
82.393158 3355.0 
94.43924 2628.0 
97.904533 2481.0 
104.274231 3492.0 
208.975739 5722.0 
241.110489 2874.0 
530.152283 17662.0 
END IONS

BEGIN IONS
NAME=CHEMBL1512936 CollisionEnergy:102040 M+H
PRECURSOR_MZ=428.316
INCHI="InChI=1S/C27H41NO3/c1-15-4-5-24-16(2)18-7-9-27(31)20(19(18)14-28(24)13-15)11-21-22(27)12-25(30)23-10-17(29)6-8-26(21,23)3/h15-16,18-24,31H,4-14H2,1-3H3/t15-,16-,18-,19-,20+,21+,22-,23-,24+,26-,27+/m1/s1"
SMILES=CC1CCC2C(C)C3CCC4(O)C(CC5C4CC(=O)C4CC(=O)CCC45C)C3CN2C1
SPECTRUMID=CCMSLIB00010103959
66.344368 4588.0 
71.68235 4292.0 
82.389374 5394.0 
92.369827 4940.0 
112.111923 22134.0 
131.301712 4958.0 
410.306366 63402.0 
426.023651 26747.0 
428.315155 37823360.0 
430.622925 25624.0 
END IONS

BEGIN IONS
NAME="6,7-dihydroxyflavone CollisionEnergy:102040" M-H
PRECURSOR_MZ=253.051
INCHI="InChI=1S/C15H10O4/c16-11-7-14(9-4-2-1-3-5-9)19-15-8-13(18)12(17)6-10(11)15/h1-8,17-18H"
SMILES=O=c1cc(-c2ccccc2)oc2cc(O)c(O)cc12
SPECTRUMID=CCMSLIB00010106614
52.536011 2634.0 
55.456181 2605.0 
62.309929 2453.0 
67.154167 2560.0 
74.36026 2639.0 
90.524696 2472.0 
104.308258 4328.0 
107.013817 4208.0 
116.928268 4251.0 
136.239655 3014.0 
141.070404 3880.0 
151.003586 38921.0 
157.066147 22458.0 
165.07074 23157.0 
169.065887 16378.0 
171.081818 23238.0 
181.065887 53403.0 
183.045074 13952.0 
197.061111 18587.0 
201.055389 5379.0 
209.060989 46468.0 
224.047546 3514.0 
225.055878 66731.0 
232.984512 11955.0 
251.999008 3637.0 
252.042679 6229.0 
253.05072 6266887.0 
END IONS

BEGIN IONS
NAME=bufalin CollisionEnergy:205060 M+formate
PRECURSOR_MZ=431.244
INCHI="InChI=1S/C24H34O4/c1-22-10-7-17(25)13-16(22)4-5-20-19(22)8-11-23(2)18(9-12-24(20,23)27)15-3-6-21(26)28-14-15/h3,6,14,16-20,25,27H,4-5,7-13H2,1-2H3/t16-,17+,18+,19+,20-,22+,23-,24-/m1/s1"
SMILES=CC12CCC(O)CC1CCC1C2CCC2(C)C(c3ccc(=O)oc3)CCC12O
SPECTRUMID=CCMSLIB00010120272
51.7146 2256.0 
52.464111 2654.0 
57.186069 2162.0 
65.886841 2001.0 
104.314484 3496.0 
208.743195 12765.0 
316.545654 2442.0 
337.325073 2337.0 
386.201996 2631.0 
END IONS

BEGIN IONS
NAME="methylpropyl 4-(3-bromo-5-ethoxy-4-hydroxyphenyl)-7-(4-methoxyphenyl)-2-methyl -5-oxo-1,4,6,7,8-pentahydroquinoline-3-carboxylate CollisionEnergy:102040" M+Na
PRECURSOR_MZ=606.146
INCHI="InChI=1S/C30H34BrNO6/c1-6-16(3)38-30(35)26-17(4)32-23-13-19(18-8-10-21(36-5)11-9-18)14-24(33)28(23)27(26)20-12-22(31)29(34)25(15-20)37-7-2/h8-12,15-16,19,27,32,34H,6-7,13-14H2,1-5H3"
SMILES=CCOc1cc(C2C(C(=O)OC(C)CC)=C(C)NC3=C2C(=O)CC(c2ccc(OC)cc2)C3)cc(Br)c1O
SPECTRUMID=CCMSLIB00010113064
290.114838 75405.0 
308.124908 21950.0 
334.104797 87146.0 
374.201385 4242.0 
550.083801 186096.0 
591.115173 8037.0 
606.145752 5548904.0 
624.159424 5063.0 
647.172668 82762.0 
END IONS

BEGIN IONS
NAME=Glycyrrhetinic acid CollisionEnergy:205060 2M+H
PRECURSOR_MZ=941.687
INCHI="InChI=1S/C30H46O4/c1-25(2)21-8-11-30(7)23(28(21,5)10-9-22(25)32)20(31)16-18-19-17-27(4,24(33)34)13-12-26(19,3)14-15-29(18,30)6/h16,19,21-23,32H,8-15,17H2,1-7H3,(H,33,34)/t19-,21-,22-,23+,26+,27-,28-,29+,30+/m0/s1"
SMILES=C[C@]12CC[C@](C[C@H]1C3=CC(=O)[C@@H]4[C@]5(CC[C@@H](C([C@@H]5CC[C@]4([C@@]3(CC2)C)C)(C)C)O)C)(C)C(=O)O
SPECTRUMID=CCMSLIB00010102405
67.054482 79821.03125 
67.693779 9719.272461 
69.033554 26200.273438 
69.069901 75586.867188 
69.12278 10390.773438 
73.990341 10281.772461 
74.574623 10871.207031 
79.054436 75628.921875 
81.064934 15293.942383 
81.069992 254015.546875 
83.049271 117311.726562 
83.085686 56612.796875 
85.064964 12795.635742 
85.356964 12213.321289 
91.054253 77116.796875 
93.070061 238625.71875 
95.049004 32886.851562 
95.08564 462148.6875 
97.064735 38026.664062 
97.101212 25976.841797 
105.069962 154566.5625 
107.085663 419385.71875 
109.064835 40218.625 
109.10128 241173.34375 
111.080406 42133.476562 
119.07634 17566.765625 
119.085716 334721.6875 
121.06469 54904.609375 
121.101326 395223.8125 
123.080757 53948.375 
123.116997 142792.9375 
131.085464 65939.539062 
133.090744 18613.986328 
133.101318 242462.46875 
135.080566 114743.507812 
135.116974 354053.53125 
137.096176 29838.335938 
137.132462 31772.892578 
139.111633 57991.726562 
143.084885 27020.224609 
144.093918 9789.086914 
145.101379 105737.171875 
147.080215 15499.395508 
147.116852 142732.671875 
149.096344 473330.09375 
149.132889 67620.382812 
151.11203 22411.029297 
157.10112 59215.957031 
159.117157 113502.140625 
161.096024 44097.09375 
161.132629 151323.484375 
163.111542 41673.496094 
163.148056 41925.234375 
165.127151 12910.089844 
167.106445 11161.650391 
169.101303 18828.457031 
171.116608 70211.429688 
173.096237 16365.476562 
173.132721 189776.234375 
175.111923 35470.480469 
175.148224 210460.296875 
177.12796 21893.384766 
177.163986 59944.152344 
179.106598 15260.259766 
183.116547 14284.595703 
185.13269 43887.203125 
187.148651 66578.445312 
189.127762 28909.150391 
189.164032 326862.375 
191.142532 12615.853516 
191.179169 19003.287109 
197.132553 40074.953125 
199.148788 71877.367188 
201.163116 33926.035156 
207.173798 17385.289062 
211.148254 35340.25 
213.163483 71972.007812 
215.143433 85373.960938 
215.178818 22077.169922 
217.158203 101784.585938 
219.137756 17746.839844 
225.164124 24450.603516 
227.17865 36985.167969 
229.159149 23865.691406 
229.194992 16855.117188 
231.174026 18277.589844 
235.168991 92846.179688 
241.193832 19959.140625 
243.208908 33097.160156 
245.153687 17933.261719 
245.189453 21684.421875 
253.194565 59079.527344 
255.209549 13476.033203 
257.188354 24759.3125 
261.147308 44560.648438 
263.162903 18941.835938 
265.194122 11213.600586 
267.209473 29740.210938 
271.204193 88167.007812 
275.163483 10796.677734 
285.221771 20206.130859 
299.198669 29974.310547 
313.211273 13183.240234 
317.208313 122697.53125 
331.223022 12356.879883 
358.88205 10668.388672 
389.31073 13040.698242 
407.327545 32760.851562 
425.337128 14933.521484 
431.280029 11857.229492 
451.108276 12055.232422 
453.331238 17863.275391 
471.339691 4601694.5 
472.342499 200124.375 
574.206604 11027.014648 
755.810181 11473.382812 
END IONS

BEGIN IONS
NAME=4033-40-3 CollisionEnergy:102040 M+H
PRECURSOR_MZ=175.071
INCHI="InChI=1S/C6H10N2O4/c1-3(9)8-4(6(11)12)2-5(7)10/h4H,2H2,1H3,(H2,7,10)(H,8,9)(H,11,12)/t4-/m0/s1"
SMILES=CC(O)=N[C@@H](CC(=N)O)C(=O)O
SPECTRUMID=CCMSLIB00010126869
51.0271 3436.73999 
58.436901 2790.51001 
60.044899 22636.199219 
67.612099 2763.300049 
70.029404 76843.203125 
70.233902 2739.959961 
74.024399 18507.400391 
87.055801 101082.0 
88.022102 16103.299805 
88.039803 272756.0 
98.0243 5491.330078 
98.984596 11395.599609 
99.008301 12396.0 
115.050003 5248.97998 
116.033997 31734.199219 
129.888 2858.679932 
130.031998 12579.400391 
130.050003 110590.0 
133.048996 4764.02002 
133.061005 131904.0 
157.992996 4242.120117 
158.044998 175369.0 
END IONS

BEGIN IONS
NAME=cerulenin CollisionEnergy:102040 M+Na
PRECURSOR_MZ=246.11
INCHI="InChI=1S/C12H17NO3/c1-2-3-4-5-6-7-8-9(14)10-11(16-10)12(13)15/h2-3,5-6,10-11H,4,7-8H2,1H3,(H2,13,15)/b3-2+,6-5+/t10-,11-/m1/s1"
SMILES=CC=CCC=CCCC(=O)C1OC1C(=N)O
SPECTRUMID=CCMSLIB00010110078
50.86536 2563.0 
66.739052 2908.0 
67.182571 2699.0 
82.393188 2564.0 
84.960098 4194.0 
86.054764 2550.0 
92.370941 4482.0 
92.786057 2750.0 
96.005592 10443.0 
107.08252 2701.0 
132.08876 3404.0 
173.093292 4904.0 
186.136719 4239.0 
186.829636 3385.0 
200.150345 19342.0 
228.148544 4620.0 
240.909775 5118.0 
246.109802 6091317.0 
END IONS

BEGIN IONS
NAME=Melatonin CollisionEnergy:102040 M+Na
PRECURSOR_MZ=255.11
INCHI="InChI=1S/C13H16N2O2/c1-9(16)14-6-5-10-8-15-13-4-3-11(17-2)7-12(10)13/h3-4,7-8,15H,5-6H2,1-2H3,(H,14,16)"
SMILES=COc1ccc2[nH]cc(CCN=C(C)O)c2c1
SPECTRUMID=CCMSLIB00010105589
68.105019 2587.0 
71.393028 2926.0 
74.86718 2681.0 
87.359833 3030.0 
92.37001 2743.0 
151.663986 3133.0 
157.953308 3307.0 
168.318863 3050.0 
206.712341 2773.0 
213.921448 5778.0 
231.940155 2844.0 
240.087784 14629.0 
254.059845 11588.0 
255.110031 7433650.0 
256.169922 5558.0 
END IONS

BEGIN IONS
NAME=119-47-1 CollisionEnergy:102040 M-H
PRECURSOR_MZ=339.233
INCHI="InChI=1S/C23H32O2/c1-14-9-16(20(24)18(11-14)22(3,4)5)13-17-10-15(2)12-19(21(17)25)23(6,7)8/h9-12,24-25H,13H2,1-8H3"
SMILES=Cc1cc(Cc2cc(C)cc(C(C)(C)C)c2O)c(O)c(C(C)(C)C)c1
SPECTRUMID=CCMSLIB00010105960
63.304031 2104.0 
66.511307 2495.0 
66.759903 2365.0 
74.701538 2060.0 
74.815483 2076.0 
77.889877 2304.0 
82.42025 3065.0 
90.268417 2120.0 
92.395622 2134.0 
92.402489 2528.0 
133.942368 2696.0 
135.162491 2686.0 
139.758514 2366.0 
163.112595 66269.0 
299.177063 2214.0 
339.232758 154553.0 
END IONS

BEGIN IONS
NAME="2-((12bR,6bR)(12b,6b-dihydro-10H-chromano[3,4-d]1,3-dioxolano[4',5'-5,4]benzo[ b]furan-4-yloxy))-6-(hydroxymethyl)-2H-3,4,5,6-tetrahydropyran-3,4,5-triol CollisionEnergy:102040" M-H
PRECURSOR_MZ=445.114
INCHI="InChI=1S/C22H22O10/c23-6-17-18(24)19(25)20(26)22(32-17)30-9-1-2-10-13(3-9)27-7-12-11-4-15-16(29-8-28-15)5-14(11)31-21(10)12/h1-5,12,17-26H,6-8H2/t12-,17?,18?,19?,20?,21-,22?/m0/s1"
SMILES=OCC1OC(Oc2ccc3c(c2)OCC2c4cc5c(cc4OC32)OCO5)C(O)C(O)C1O
SPECTRUMID=CCMSLIB00010111853
55.47739 2903.0 
59.0131 4656.0 
73.947372 3657.0 
96.527557 3003.0 
101.02388 7181.0 
104.273933 3299.0 
104.281471 3388.0 
119.034439 5639.0 
132.020966 3906.0 
136.197723 4717.0 
224.049683 3358.0 
239.031876 5068.0 
252.043121 21183.0 
265.496704 3398.0 
267.02951 21711.0 
267.066223 26595.0 
268.037659 1138222.0 
282.055359 12996.0 
283.061218 6324126.0 
284.064972 4320.0 
285.077026 5637.0 
295.066345 3798.0 
297.07666 17371.0 
305.07962 24679.0 
311.057739 4365.0 
325.071716 110149.0 
349.070435 13665.0 
355.079193 4018.0 
445.114594 18985.0 
END IONS

BEGIN IONS
NAME=(2-methylbenzoxazol-7-yl)-N-{2-[2-methyl-5-(trifluoromethoxy)indol-3-yl]ethyl} carboxamide CollisionEnergy:102040 M-H
PRECURSOR_MZ=416.123
INCHI="InChI=1S/C21H18F3N3O3/c1-11-14(16-10-13(30-21(22,23)24)6-7-17(16)26-11)8-9-25-20(28)15-4-3-5-18-19(15)29-12(2)27-18/h3-7,10,26H,8-9H2,1-2H3,(H,25,28)"
SMILES=Cc1nc2cccc(C(O)=NCCc3c(C)[nH]c4ccc(OC(F)(F)F)cc34)c2o1
SPECTRUMID=CCMSLIB00010107062
56.841671 2694.0 
73.729492 3739.0 
73.974091 2783.0 
76.257477 2285.0 
84.990463 38796.0 
108.88868 2977.0 
113.366249 2532.0 
132.045593 38122.0 
175.051331 85090.0 
194.333618 2958.0 
214.048477 5862.0 
240.063889 4311.0 
247.106659 9698.0 
254.696289 2782.0 
416.123108 2171881.0 
END IONS

BEGIN IONS
NAME="N-(2,5-dimethylphenyl)-2-(9-methyl-6-oxohydropurin-8-ylthio)acetamide CollisionEnergy:205060" M-H
PRECURSOR_MZ=342.103
INCHI="InChI=1S/C16H17N5O2S/c1-9-4-5-10(2)11(6-9)19-12(22)7-24-16-20-13-14(21(16)3)17-8-18-15(13)23/h4-6,8H,7H2,1-3H3,(H,19,22)(H,17,18,23)"
SMILES=Cc1ccc(C)c(N=C(O)CSc2nc3c(O)ncnc3n2C)c1
SPECTRUMID=CCMSLIB00010120295
57.97184 28766.0 
57.975101 754252.0 
64.006073 77130.0 
65.014 170352.0 
65.998032 235195.0 
66.009117 79228.0 
73.976013 10780.0 
79.029846 1622898.0 
92.025299 151266.0 
92.4049 14757.0 
93.009064 12483.0 
95.024963 16033.0 
106.040962 753840.0 
107.025146 27004.0 
111.002136 15567.0 
118.041344 47330.0 
120.020523 22745.0 
122.035919 198337.0 
122.989853 56381.0 
123.997421 26498.0 
124.051361 66056.0 
124.981773 13791.0 
125.01767 63984.0 
126.449142 11439.0 
126.997482 21238.0 
134.023392 1091160.0 
135.031113 75088.0 
136.252457 13352.0 
137.004852 103635.0 
138.013153 932381.0 
145.077057 130772.0 
147.031235 522835.0 
149.046875 12909278.0 
150.01387 50596.0 
150.984528 17087.0 
151.992294 64934.0 
152.02887 375802.0 
153.000366 15279.0 
158.061066 1701798.0 
159.069122 53769.0 
160.038528 78317.0 
161.032562 11929.0 
161.047363 41727.0 
162.054642 105446.0 
164.057495 13921.0 
164.987823 22040.0 
165.041718 589856.0 
165.995834 58304.0 
167.003372 48435.0 
170.642166 11124.0 
177.995682 21285.0 
179.003357 3701160.0 
180.011139 18829602.0 
181.018906 8807163.0 
192.031723 17198.0 
192.048767 990926.0 
193.018875 630008.0 
195.0345 1927402.0 
210.090454 56326.0 
221.013748 1869647.0 
225.114395 70206.0 
253.097305 73684.0 
268.12027 1825672.0 
284.099304 11345.0 
299.096741 189144.0 
303.254913 13595.0 
342.102753 7889213.0 
END IONS

BEGIN IONS
NAME=3-methyl-5-(phenylmethoxy)indol-2-yl piperidyl ketone CollisionEnergy:205060 2M+H
PRECURSOR_MZ=697.375
INCHI="InChI=1S/C22H24N2O2/c1-16-19-14-18(26-15-17-8-4-2-5-9-17)10-11-20(19)23-21(16)22(25)24-12-6-3-7-13-24/h2,4-5,8-11,14,23H,3,6-7,12-13,15H2,1H3"
SMILES=Cc1c(C(=O)N2CCCCC2)[nH]c2ccc(OCc3ccccc3)cc12
SPECTRUMID=CCMSLIB00010116386
53.002869 18301.0 
66.752228 4566.0 
67.054604 29406.0 
67.440063 4264.0 
69.034027 5126.0 
69.070267 1404380.0 
70.028923 6057.0 
70.0653 33256.0 
84.081017 116392.0 
86.096626 538961.0 
89.038872 5061.0 
90.046501 5904.0 
91.054314 262742.0 
92.390297 5181.0 
93.05722 5207.0 
101.657921 4281.0 
104.049423 34573.0 
106.221367 4844.0 
107.036079 4513.0 
112.075653 1611102.0 
117.057137 30103.0 
132.044144 50816.0 
136.228928 6280.0 
144.044769 15481.0 
145.051987 128366.0 
160.039215 1070156.0 
161.046844 20827.0 
166.077408 5185.0 
167.085495 5592.0 
173.047012 3169063.0 
181.100815 5457.0 
190.049393 5818.0 
191.086182 7199.0 
193.088638 18032.0 
194.095993 6312.0 
207.103561 6858.0 
208.112106 58575.0 
218.095474 24195.0 
218.332535 4901.0 
221.083893 10213.0 
235.098892 27755.0 
236.106674 82934.0 
246.091309 9574.0 
249.077911 8735.0 
264.101562 5575041.0 
339.310699 4553.0 
349.19046 4687374.0 
350.93454 5324.0 
END IONS

BEGIN IONS
NAME=guanosine CollisionEnergy:102040 M+Na
PRECURSOR_MZ=306.081
INCHI="InChI=1S/C10H13N5O5/c11-10-13-7-4(8(19)14-10)12-2-15(7)9-6(18)5(17)3(1-16)20-9/h2-3,5-6,9,16-18H,1H2,(H3,11,13,14,19)/t3-,5-,6-,9-/m1/s1"
SMILES=N=c1nc(O)c2ncn([C@@H]3O[C@H](CO)[C@@H](O)[C@H]3O)c2[nH]1
SPECTRUMID=CCMSLIB00010126760
50.735298 3045.600098 
51.480999 3286.98999 
82.407402 2910.409912 
95.729897 3126.100098 
140.654999 3403.439941 
174.039001 1577370.0 
185.401993 3801.77002 
210.957001 5395.72998 
306.079987 1048640.0 
END IONS

BEGIN IONS
NAME=benzoic acid CollisionEnergy:102040 M-H
PRECURSOR_MZ=121.029
INCHI="InChI=1S/C7H6O2/c8-7(9)6-4-2-1-3-5-6/h1-5H,(H,8,9)"
SMILES=O=C(O)c1ccccc1
SPECTRUMID=CCMSLIB00010114673
56.817871 1707.0 
64.654327 2171.0 
66.749336 2380.0 
73.961479 2263.0 
79.289589 1782.0 
82.408379 2364.0 
91.15107 1910.0 
93.034714 12363.0 
95.111076 1942.0 
95.809937 1843.0 
104.300797 2052.0 
120.197304 1959.0 
121.029709 87110.0 
121.039146 3837.0 
END IONS

BEGIN IONS
NAME=N-ethyl-2-(4-hydroxyquinazolin-2-ylthio)-N-[4-(methylethyl)phenyl]acetamide CollisionEnergy:205060 M+Na
PRECURSOR_MZ=404.14
INCHI="InChI=1S/C21H23N3O2S/c1-4-24(16-11-9-15(10-12-16)14(2)3)19(25)13-27-21-22-18-8-6-5-7-17(18)20(26)23-21/h5-12,14H,4,13H2,1-3H3,(H,22,23,26)"
SMILES=CCN(C(=O)CSc1nc(O)c2ccccc2n1)c1ccc(C(C)C)cc1
SPECTRUMID=CCMSLIB00010116627
53.065399 2455.0 
65.617737 2374.0 
66.560509 2441.0 
71.733711 2498.0 
96.79702 2394.0 
97.746338 2832.0 
104.274017 2789.0 
133.971024 2581.0 
196.699142 2531.0 
203.247406 3345.0 
213.009018 6068.0 
241.00383 131942.0 
323.63974 2754.0 
368.283081 2540.0 
370.518005 2481.0 
404.139679 1466978.0 
END IONS

BEGIN IONS
NAME=(2S)-2-amino-4-(N-naphthylcarbamoyl)butanoic acid CollisionEnergy:205060 2M-H
PRECURSOR_MZ=543.225
INCHI="InChI=1S/C15H16N2O3/c16-12(15(19)20)8-9-14(18)17-13-7-3-5-10-4-1-2-6-11(10)13/h1-7,12H,8-9,16H2,(H,17,18)(H,19,20)/t12-/m0/s1"
SMILES=NC(CCC(O)=Nc1cccc2ccccc12)C(=O)O
SPECTRUMID=CCMSLIB00010120237
51.910881 2549.0 
54.34787 2716.0 
59.42939 2625.0 
60.279739 2588.0 
92.392883 2914.0 
126.14518 2512.0 
128.035492 19157.0 
136.23233 3361.0 
142.066177 32835.0 
201.775513 3272.0 
202.476166 2679.0 
231.734863 2845.0 
271.108551 51644.0 
293.092926 4347.0 
319.260925 2964.0 
370.694305 3022.0 
END IONS

BEGIN IONS
NAME=4'-Hydroxyflavone CollisionEnergy:205060 M-H
PRECURSOR_MZ=237.056
INCHI="InChI=1S/C15H10O3/c16-11-7-5-10(6-8-11)15-9-13(17)12-3-1-2-4-14(12)18-15/h1-9,16H"
SMILES=O=c1cc(-c2ccc(O)cc2)oc2ccccc12
SPECTRUMID=CCMSLIB00010118393
57.20113 2702.0 
64.648087 2624.0 
66.737373 4063.0 
92.367012 3046.0 
92.373573 3259.0 
93.034111 3809.0 
94.028419 3056.0 
99.161507 2955.0 
100.945961 2717.0 
104.280052 3145.0 
116.026939 3284.0 
117.034576 4074371.0 
117.367058 4868.0 
138.114807 2722.0 
145.737549 3011.0 
161.024597 2776.0 
165.070404 3436.0 
169.123688 6541.0 
172.025467 2739.0 
180.058075 2905.0 
193.06546 25596.0 
195.045654 3111.0 
196.205627 2868.0 
205.731491 2440.0 
208.051544 3484.0 
208.324921 14433.0 
209.060242 51381.0 
218.917923 5977.0 
219.045624 10386.0 
225.024933 2680.0 
236.103088 3609.0 
237.055664 2773166.0 
END IONS

BEGIN IONS
NAME="2-(1,3-dimethyl-2,6-dioxo(1,3,7-trihydropurin-7-yl))-N-methylacetamide CollisionEnergy:102040" M+Na
PRECURSOR_MZ=274.091
INCHI="InChI=1S/C10H13N5O3/c1-11-6(16)4-15-5-12-8-7(15)9(17)14(3)10(18)13(8)2/h5H,4H2,1-3H3,(H,11,16)"
SMILES=CN=C(O)Cn1cnc2c1c(=O)n(C)c(=O)n2C
SPECTRUMID=CCMSLIB00010112121
62.94545 1998.0 
64.329819 2056.0 
66.757889 3188.0 
71.79039 2425.0 
83.484177 2291.0 
196.111328 10585.0 
206.886902 3932.0 
224.897751 2611.0 
232.925446 8108.0 
250.877121 13507.0 
274.09024 713592.0 
END IONS

BEGIN IONS
NAME="(3,5-dimethoxyphenyl)-N-{3-[(4-chlorophenyl)sulfonyl]-5-methoxyphenyl}carboxam ide CollisionEnergy:205060" M+Na
PRECURSOR_MZ=484.059
INCHI="InChI=1S/C22H20ClNO6S/c1-28-17-8-14(9-18(12-17)29-2)22(25)24-16-10-19(30-3)13-21(11-16)31(26,27)20-6-4-15(23)5-7-20/h4-13H,1-3H3,(H,24,25)"
SMILES=COc1cc(OC)cc(C(O)=Nc2cc(OC)cc(S(=O)(=O)c3ccc(Cl)cc3)c2)c1
SPECTRUMID=CCMSLIB00010121621
73.947937 2901.0 
79.841751 2774.0 
87.759232 2711.0 
88.997261 2713.0 
147.199081 2892.0 
205.296753 2709.0 
208.289322 12193.0 
246.416458 3155.0 
303.198944 4740.0 
362.099304 32193.0 
469.040253 3250.0 
484.057739 2195120.0 
484.1716 801573.0 
525.087219 6100.0 
768.643066 3340.0 
END IONS

BEGIN IONS
NAME=COUMESTROL CollisionEnergy:205060 M+H
PRECURSOR_MZ=269.044
INCHI="InChI=1S/C15H8O5/c16-7-1-3-9-11(5-7)19-14-10-4-2-8(17)6-12(10)20-15(18)13(9)14/h1-6,16-17H"
SMILES=O=c1oc2cc(O)ccc2c2oc3cc(O)ccc3c12
SPECTRUMID=CCMSLIB00010119030
68.997368 27538.0 
103.054237 3553.0 
115.054001 87537.0 
121.028313 21464.0 
127.053413 4786.0 
128.061737 18061.0 
129.069626 14597.0 
131.048126 3125.0 
139.053436 3668.0 
141.069656 316311.0 
143.048691 5854.0 
145.065277 4786.0 
152.061661 4457.0 
157.064529 528731.0 
164.564148 3936.0 
168.056656 50020.0 
169.064468 277666.0 
171.043228 50294.0 
184.051727 5301.0 
185.059601 35060.0 
186.664261 3925.0 
197.059341 2233546.0 
201.054733 5390.0 
213.054169 2346979.0 
224.046112 12415.0 
225.054062 332736.0 
240.039978 6864.0 
241.048874 1528665.0 
242.972626 3376.0 
251.031372 3451.0 
252.040237 3450.0 
268.036255 5719.0 
269.043732 4139477.0 
END IONS

BEGIN IONS
NAME=2'-Hydroxy-4'-Methoxychalcone CollisionEnergy:205060 M+H
PRECURSOR_MZ=255.102
INCHI="InChI=1S/C16H14O3/c1-19-13-8-9-14(16(18)11-13)15(17)10-7-12-5-3-2-4-6-12/h2-11,18H,1H3/b10-7+"
SMILES=COc1ccc(C(=O)C=Cc2ccccc2)c(O)c1
SPECTRUMID=CCMSLIB00010119867
53.03907 16139.0 
53.187248 2603.0 
64.75766 2676.0 
65.03894 18241.0 
67.054703 11630.0 
73.943558 2895.0 
75.711212 2540.0 
79.054573 68657.0 
81.0336 3407.0 
82.388771 3798.0 
83.049538 3696.0 
91.054359 43342.0 
95.04921 193121.0 
95.748947 2641.0 
102.046944 3175.0 
103.054207 819747.0 
105.033287 5655.0 
107.048981 44403.0 
108.02037 20164.0 
110.036346 4081.0 
121.064713 47455.0 
123.044037 43618.0 
125.05986 5862.0 
131.049133 967678.0 
141.055283 4347.0 
142.328323 2720.0 
144.018372 3097.0 
144.08078 7070.0 
149.059814 32248.0 
151.03891 1924989.0 
152.061478 4088.0 
153.069519 10555.0 
157.957306 2798.0 
159.044144 5033.0 
165.069153 28695.0 
166.077728 53280.0 
167.085388 13406.0 
169.049393 62414.0 
169.06456 4523.0 
177.054718 70062.0 
177.069977 11627.0 
178.077194 42630.0 
179.085602 13605.0 
181.065094 4457.0 
194.072433 119429.0 
195.080307 19227.0 
197.059631 25402.0 
205.063965 21206.0 
209.095932 300169.0 
212.082458 6414.0 
213.090332 5028.0 
222.067184 15921.0 
225.054565 5975.0 
227.105988 14683.0 
237.090439 68604.0 
240.077728 102982.0 
255.101227 1958121.0 
END IONS

BEGIN IONS
NAME=rotenone CollisionEnergy:205060 M+H
PRECURSOR_MZ=395.149
INCHI="InChI=1S/C23H22O6/c1-11(2)16-8-14-15(28-16)6-5-12-22(24)21-13-7-18(25-3)19(26-4)9-17(13)27-10-20(21)29-23(12)14/h5-7,9,16,20-21H,1,8,10H2,2-4H3/t16-,20-,21+/m1/s1"
SMILES=C=C(C)C1Cc2c(ccc3c2OC2COc4cc(OC)c(OC)cc4C2C3=O)O1
SPECTRUMID=CCMSLIB00010120041
65.269981 2802.0 
66.729012 3674.0 
68.293922 2739.0 
79.054588 22074.0 
81.069702 5786.0 
91.054024 21895.0 
92.356743 2700.0 
93.069801 4170.0 
94.707977 2650.0 
95.012512 4068.0 
97.536232 2623.0 
103.053589 3458.0 
105.033409 5179.0 
105.06929 16443.0 
107.048607 14244.0 
108.05674 21549.0 
109.028084 6343.0 
109.064339 26164.0 
115.054092 3534.0 
117.069557 3504.0 
118.627853 3175.0 
119.048683 5772.0 
119.085083 5445.0 
121.064377 19410.0 
122.035744 4756.0 
123.044022 4259.0 
124.051781 53933.0 
124.851852 2983.0 
125.059464 5875.0 
126.031158 5162.0 
128.062347 4922.0 
129.069672 11377.0 
131.049133 2905.0 
133.028641 3552.0 
133.064743 39767.0 
135.043564 37489.0 
135.079895 6243.0 
136.051559 19852.0 
139.075165 168798.0 
141.069748 4011.0 
142.077377 6878.0 
143.08522 5218.0 
145.064407 4595.0 
147.043457 42971.0 
147.079987 63841.0 
148.051544 17950.0 
149.023026 6823.0 
149.059769 4370.0 
150.067429 6217.0 
151.037994 5761.0 
151.061523 5312.0 
151.075195 131698.0 
152.061584 5442.0 
153.053513 5907.0 
155.069702 16379.0 
157.063965 5874.0 
159.04425 33023.0 
161.023361 43697.0 
161.059479 55562.0 
161.095917 4783.0 
162.067154 53047.0 
163.03862 14231.0 
163.074783 5624.0 
165.053391 5658.0 
165.06723 4037.0 
165.090775 38495.0 
167.034088 5817.0 
167.070175 81692.0 
167.084686 9250.0 
169.063751 4699.0 
170.072372 17947.0 
171.07991 29305.0 
173.059418 11437.0 
174.066437 3620.0 
175.038712 16411.0 
175.074631 14312.0 
176.046356 16282.0 
177.054428 117199.0 
178.061661 17950.0 
179.069885 126272.0 
181.048706 5870.0 
185.059509 32032.0 
185.095566 13811.0 
187.038956 5111.0 
189.054031 4055.0 
189.090622 65954.0 
191.050125 6741.0 
191.070007 247359.0 
192.077698 354976.0 
193.085495 41520.0 
195.0802 190520.0 
195.095413 3194.0 
197.059158 4007.0 
198.067276 120770.0 
199.074036 5361.0 
203.069992 214077.0 
205.049225 4345.0 
211.074371 3533.0 
213.090591 436271.0 
219.064621 7107.0 
220.072235 14330.0 
223.074677 10897.0 
226.060883 3147.0 
229.085083 6733.0 
235.256378 2992.0 
241.085434 52513.0 
309.076843 3752.0 
321.112274 13575.0 
349.103729 4821.0 
367.153564 49354.0 
377.134888 4232.0 
395.148071 1254190.0 
395.255463 214823.0 
549.035889 2876.0 
734.113647 3497.0 
END IONS

BEGIN IONS
NAME=dl-Octopamine CollisionEnergy:102040 M-H
PRECURSOR_MZ=152.072
INCHI="InChI=1S/C8H11NO2/c9-5-8(11)6-1-3-7(10)4-2-6/h1-4,8,10-11H,5,9H2/t8-/m0/s1"
SMILES=NC[C@H](O)c1ccc(O)cc1
SPECTRUMID=CCMSLIB00010126231
79.9571 128488.0 
80.123398 2550.26001 
80.964996 16974.599609 
83.251999 3242.01001 
85.136803 2373.360107 
91.055603 2491.459961 
93.034897 10003.0 
104.323997 3425.209961 
106.029999 9646.230469 
106.042 16311.200195 
107.050003 53738.898438 
108.022003 20785.199219 
108.044998 3731.830078 
116.806999 2270.219971 
118.702003 2526.879883 
122.349998 2219.060059 
123.044998 4151.419922 
124.016998 5202.600098 
130.475998 2138.939941 
132.046005 4343.120117 
133.052994 14214.400391 
134.061005 1395740.0 
138.031998 5560.569824 
151.873993 66938.898438 
152.039001 374723.0 
152.070999 27887.900391 
END IONS

BEGIN IONS
NAME=ethyl 6-bromo-5-methoxy-2-methyl-1-phenylindole-3-carboxylate CollisionEnergy:102040 M+H
PRECURSOR_MZ=388.054
INCHI="InChI=1S/C19H18BrNO3/c1-4-24-19(22)18-12(2)21(13-8-6-5-7-9-13)16-11-15(20)17(23-3)10-14(16)18/h5-11H,4H2,1-3H3"
SMILES=CCOC(=O)c1c(C)n(-c2ccccc2)c2cc(Br)c(OC)cc12
SPECTRUMID=CCMSLIB00010110234
55.756241 2442.0 
67.364014 2713.0 
72.332817 2460.0 
82.392387 3365.0 
92.369698 3883.0 
98.053352 2866.0 
104.275124 3969.0 
109.273003 2625.0 
135.906982 2443.0 
145.769104 3011.0 
188.373596 2609.0 
222.090866 25065.0 
234.090759 4950.0 
235.09906 4827.0 
236.106781 42821.0 
237.11441 142160.0 
238.086319 2909.0 
250.122284 56113.0 
252.101471 6093.0 
262.084808 20441.0 
263.094025 53549.0 
264.101135 44254.0 
265.145477 41194.0 
266.080505 38298.0 
280.095886 47327.0 
281.103943 198561.0 
294.111176 53051.0 
300.001312 46147.0 
301.010101 26868.0 
309.135254 918329.0 
315.024628 98562.0 
326.987335 19712.0 
342.01181 396189.0 
343.992249 4904.0 
359.014465 5641.0 
360.022308 23717.0 
388.053497 1017124.0 
END IONS

BEGIN IONS
NAME="(3,5-dimethoxyphenyl)-N-(3-chlorophenyl)carboxamide CollisionEnergy:102040" M+Na
PRECURSOR_MZ=314.055
INCHI="InChI=1S/C15H14ClNO3/c1-19-13-6-10(7-14(9-13)20-2)15(18)17-12-5-3-4-11(16)8-12/h3-9H,1-2H3,(H,17,18)"
SMILES=COc1cc(OC)cc(C(O)=Nc2cccc(Cl)c2)c1
SPECTRUMID=CCMSLIB00010107736
59.434521 2052.0 
60.786499 2027.0 
73.957527 2426.0 
82.39122 1940.0 
84.596268 1891.0 
86.965683 2139.0 
104.290649 2661.0 
154.060837 2521.0 
170.089081 4596.0 
291.11499 2837.0 
314.055389 48177.0 
314.119812 16231.0 
314.286255 2466.0 
END IONS

BEGIN IONS
NAME=CINNAMIC ACID CollisionEnergy:205060 M+H-H2O
PRECURSOR_MZ=131.049
INCHI="InChI=1S/C9H8O2/c10-9(11)7-6-8-4-2-1-3-5-8/h1-7H,(H,10,11)/b7-6+"
SMILES=O=C(O)C=Cc1ccccc1
SPECTRUMID=CCMSLIB00010125399
51.023682 14180.0 
53.03928 194652.0 
58.576012 15721.0 
63.431999 13954.0 
71.929962 79981.0 
76.854988 15512.0 
77.039261 13186.0 
89.940231 84701.0 
92.375473 16354.0 
95.049553 65012.0 
102.046928 64384.0 
103.054672 6611821.0 
104.280937 14439.0 
107.950607 75379.0 
125.96106 30228.0 
130.966415 27945.0 
131.049255 1535668.0 
148.976974 67973.0 
174.235291 16600.0 
193.676193 14261.0 
END IONS

BEGIN IONS
NAME="6,11-dioxododecanoic acid CollisionEnergy:102040" M-H
PRECURSOR_MZ=227.129
INCHI="InChI=1S/C12H20O4/c1-10(13)6-2-3-7-11(14)8-4-5-9-12(15)16/h2-9H2,1H3,(H,15,16)"
SMILES=CC(=O)CCCCC(=O)CCCCC(=O)O
SPECTRUMID=CCMSLIB00010108680
57.034039 36693.0 
63.179852 2246.0 
69.034348 4543.0 
71.050003 3519.0 
81.034218 3514.0 
83.050049 166139.0 
97.065941 33604.0 
99.08152 37902.0 
99.524353 2292.0 
104.291191 2245.0 
111.081573 2859.0 
113.097153 4624.0 
125.060799 110014.0 
125.09697 3284.0 
130.984589 2903.0 
134.513779 2202.0 
136.21489 2920.0 
139.11264 28124.0 
142.992661 4770.0 
143.071457 56798.0 
149.097458 8688.0 
155.108109 2320.0 
158.978516 10861.0 
162.998947 3273.0 
165.128433 24042.0 
183.103455 2963.0 
183.138931 15702.0 
191.10762 10401.0 
209.11853 422349.0 
227.129181 1172664.0 
272.249084 2538.0 
END IONS

BEGIN IONS
NAME="methyl 16-[(4-ethoxyphenyl)methylene]-1,2,14,18,18-pentamethyl-8-(1-methylviny l)-17-oxopentacyclo[11.8.0.0<2,10>.0<5,9>.0<14,19>]henicosane-5-carboxylate CollisionEnergy:205060" M+Na
PRECURSOR_MZ=623.407
INCHI="InChI=1S/C40H56O4/c1-10-44-28-13-11-26(12-14-28)23-27-24-37(6)31(36(4,5)34(27)41)18-19-39(8)32(37)16-15-30-33-29(25(2)3)17-20-40(33,35(42)43-9)22-21-38(30,39)7/h11-14,23,29-33H,2,10,15-22,24H2,1,3-9H3/b27-23+"
SMILES=C=C(C)C1CCC2(C(=O)OC)CCC3(C)C(CCC4C5(C)CC(=Cc6ccc(OCC)cc6)C(=O)C(C)(C)C5CCC43C)C12
SPECTRUMID=CCMSLIB00010124038
57.260021 3243.0 
62.98241 3305.0 
70.679863 2516.0 
80.411522 3123.0 
135.736542 2954.0 
140.304169 2875.0 
436.781769 3213.0 
444.44577 3380.0 
461.913239 3748.0 
463.951721 3009.0 
623.407043 912343.0 
END IONS

BEGIN IONS
NAME=digoxin CollisionEnergy:102040 M+Cl
PRECURSOR_MZ=815.399
INCHI="InChI=1S/C41H64O14/c1-19-36(47)28(42)15-34(50-19)54-38-21(3)52-35(17-30(38)44)55-37-20(2)51-33(16-29(37)43)53-24-8-10-39(4)23(13-24)6-7-26-27(39)14-31(45)40(5)25(9-11-41(26,40)48)22-12-32(46)49-18-22/h12,19-21,23-31,33-38,42-45,47-48H,6-11,13-18H2,1-5H3/t19-,20-,21-,23-,24+,25-,26-,27+,28+,29+,30+,31-,33+,34+,35+,36-,37-,38-,39+,40+,41+/m1/s1"
SMILES=CC1OC(OC2C(O)CC(OC3C(O)CC(OC4CCC5(C)C(CCC6C5CC(O)C5(C)C(C7=CC(=O)OC7)CCC65O)C4)OC3C)OC2C)CC(O)C1O
SPECTRUMID=CCMSLIB00010110293
73.954979 3342.0 
92.37809 4431.0 
132.774353 3586.0 
133.445648 3348.0 
220.625244 3430.0 
751.840637 3336.0 
772.628784 4312.0 
784.972412 4236.0 
815.400635 1075734.0 
END IONS

BEGIN IONS
NAME=N-(3-chloro-4-fluorophenyl)-2-{2-oxo-4-[N-benzylcarbamoyl]hydroquinolyl}acetam ide CollisionEnergy:102040 M+H
PRECURSOR_MZ=464.117
INCHI="InChI=1S/C25H19ClFN3O3/c26-20-12-17(10-11-21(20)27)29-23(31)15-30-22-9-5-4-8-18(22)19(13-24(30)32)25(33)28-14-16-6-2-1-3-7-16/h1-13H,14-15H2,(H,28,33)(H,29,31)"
SMILES=O=c1cc(C(O)=NCc2ccccc2)c2ccccc2n1CC(O)=Nc1ccc(F)c(Cl)c1
SPECTRUMID=CCMSLIB00010111569
60.728001 2640.0 
68.289963 2767.0 
82.028748 3616.0 
82.389259 3722.0 
91.054314 539018.0 
101.322304 2659.0 
122.437134 2666.0 
136.192474 3032.0 
136.462784 2460.0 
152.33963 3071.0 
178.874023 2828.0 
180.080307 25135.0 
185.380081 3036.0 
194.731903 2525.0 
206.059586 3811.0 
217.088318 4468.0 
218.096069 85333.0 
232.075058 4268.0 
233.106934 16405.0 
261.100983 15957.0 
279.112152 22895.0 
288.344452 3215.0 
291.112122 335047.0 
319.107025 1840320.0 
332.139221 15907.0 
464.120728 3859.0 
466.518066 2738.0 
END IONS

BEGIN IONS
NAME=2-[(2-methyl-5-phenyl(3-furyl))carbonylamino]-4-methylthiobutanoic acid CollisionEnergy:102040 M+H
PRECURSOR_MZ=334.111
INCHI="InChI=1S/C17H19NO4S/c1-11-13(10-15(22-11)12-6-4-3-5-7-12)16(19)18-14(17(20)21)8-9-23-2/h3-7,10,14H,8-9H2,1-2H3,(H,18,19)(H,20,21)"
SMILES=CSCCC(N=C(O)c1cc(-c2ccccc2)oc1C)C(=O)O
SPECTRUMID=CCMSLIB00010108763
54.709671 2900.0 
56.04689 4847.0 
56.04987 87493.0 
61.01099 29123.0 
82.415947 2785.0 
100.597321 3118.0 
104.052689 523124.0 
115.054001 37730.0 
128.062073 11825.0 
129.06958 52058.0 
157.064499 381291.0 
159.080063 6925.0 
185.059357 5154116.0 
201.921555 3203.0 
240.101089 45392.0 
286.10675 92758.0 
288.104309 56981.0 
316.099182 46447.0 
334.110046 236365.0 
END IONS

BEGIN IONS
NAME=N-(3-chloro-4-fluorophenyl)-2-[2-oxo-4-(piperidylcarbonyl)hydroquinolyl]acetam ide CollisionEnergy:102040 M-H
PRECURSOR_MZ=440.118
INCHI="InChI=1S/C23H21ClFN3O3/c24-18-12-15(8-9-19(18)25)26-21(29)14-28-20-7-3-2-6-16(20)17(13-22(28)30)23(31)27-10-4-1-5-11-27/h2-3,6-9,12-13H,1,4-5,10-11,14H2,(H,26,29)"
SMILES=O=C(c1cc(=O)n(CC(O)=Nc2ccc(F)c(Cl)c2)c2ccccc12)N1CCCCC1
SPECTRUMID=CCMSLIB00010112951
66.754372 2778.0 
82.412292 2795.0 
93.317642 3082.0 
118.06636 2780.0 
128.050568 327835.0 
142.06636 6375.0 
144.002075 176086.0 
144.045395 16628.0 
146.061218 7194.0 
153.592682 2878.0 
156.045639 24213.0 
157.053284 168989.0 
158.02507 16988.0 
169.981247 4866.0 
172.040436 39304.0 
174.055893 16483.0 
176.034653 5766.0 
184.040237 329242.0 
185.047806 35018.0 
202.050858 5681.0 
225.139801 39854.0 
226.123459 13121.0 
227.119064 36715.0 
235.926453 20224.0 
237.103729 15147.0 
239.119446 4115.0 
241.134674 193422.0 
243.113266 11355.0 
255.113968 315225.0 
269.129517 231322.0 
271.109222 56826.0 
295.108795 232926.0 
303.914001 3025.0 
382.113983 3714.0 
440.118896 3153557.0 
END IONS

BEGIN IONS
NAME=cholic acid CollisionEnergy:102040 M-H
PRECURSOR_MZ=407.28
INCHI="InChI=1S/C24H40O5/c1-13(4-7-21(28)29)16-5-6-17-22-18(12-20(27)24(16,17)3)23(2)9-8-15(25)10-14(23)11-19(22)26/h13-20,22,25-27H,4-12H2,1-3H3,(H,28,29)/t13-,14+,15-,16-,17+,18+,19-,20+,22+,23+,24-/m1/s1"
SMILES=CC(CCC(=O)O)C1CCC2C3C(O)CC4CC(O)CCC4(C)C3CC(O)C12C
SPECTRUMID=CCMSLIB00010108864
66.040489 92309.0 
69.033928 184972.0 
82.415459 96985.0 
84.502312 104346.0 
95.050003 209889.0 
98.339012 90419.0 
107.089233 95967.0 
117.483681 112543.0 
157.998917 131892.0 
173.567734 93136.0 
208.465607 493202.0 
236.905914 103641.0 
251.201569 510907.0 
263.694244 90067.0 
289.216797 826946.0 
323.235748 163057.0 
325.254211 611790.0 
327.269836 557020.0 
341.247559 203762.0 
343.264893 3367459.0 
345.279236 1265899.0 
353.248444 516932.0 
361.273895 129590.0 
363.290436 3029449.0 
371.259216 491368.0 
389.268494 822790.0 
405.264984 159617.0 
407.280823 184583344.0 
END IONS

BEGIN IONS
NAME="17-{[2-(diethylamino)ethyl]oxycarbonyl}-1,2,6,6,10,17,20-heptamethyl-12-oxopen tacyclo[12.8.0.0<2,11>.0<5,10>.0<15,20>]docos-13-en-7-yl acetate CollisionEnergy:205060" M-e
PRECURSOR_MZ=611.454
INCHI="InChI=1S/C38H61NO5/c1-11-39(12-2)21-22-43-32(42)35(7)18-17-34(6)19-20-37(9)26(27(34)24-35)23-28(41)31-36(8)15-14-30(44-25(3)40)33(4,5)29(36)13-16-38(31,37)10/h23,27,29-31H,11-22,24H2,1-10H3"
SMILES=CCN(CC)CCOC(=O)C1(C)CCC2(C)CCC3(C)C(=CC(=O)C4C5(C)CCC(OC(C)=O)C(C)(C)C5CCC43C)C2C1
SPECTRUMID=CCMSLIB00010116793
93.070053 3849.0 
95.049217 3452.0 
95.085762 28206.0 
96.662354 3271.0 
100.112167 150492.0 
101.115623 25736.0 
105.069656 13485.0 
105.989258 3663.0 
107.048866 3750.0 
107.085388 16275.0 
109.101143 13212.0 
119.085953 29961.0 
119.094498 4348.0 
121.101257 13951.0 
123.080368 3741.0 
131.085815 12112.0 
133.101364 17503.0 
135.116959 15423.0 
141.654221 2931.0 
145.101257 13610.0 
146.104599 4253.0 
147.080597 4594.0 
147.116913 6866.0 
157.101013 5802.0 
159.116913 147351.0 
159.131729 5147.0 
160.12027 60533.0 
161.097336 3214.0 
161.132446 6452.0 
171.116364 6750.0 
172.120834 3795.0 
173.132217 22212.0 
174.134995 12175.0 
175.148331 36373.0 
176.151688 12814.0 
187.147934 30742.0 
188.151642 16211.0 
189.127914 3839.0 
189.164108 16045.0 
190.167419 5870.0 
191.179947 3392.0 
197.132339 3750.0 
198.136871 3795.0 
199.148239 19153.0 
200.152008 4403.0 
211.147705 3653.0 
214.895462 3266.0 
215.144211 13135.0 
217.158722 13332.0 
218.162735 6643.0 
235.169662 5163.0 
265.934875 2879.0 
466.333588 3461.0 
468.318237 3323.0 
566.278137 3742.0 
611.449829 778188.0 
612.461731 36855.0 
END IONS

BEGIN IONS
NAME="(3,4-dimethoxyphenyl)-N-methylcarboxamide CollisionEnergy:102040" M+H
PRECURSOR_MZ=196.097
INCHI="InChI=1S/C10H13NO3/c1-11-10(12)7-4-5-8(13-2)9(6-7)14-3/h4-6H,1-3H3,(H,11,12)"
SMILES=CN=C(O)c1ccc(OC)c(OC)c1
SPECTRUMID=CCMSLIB00010105435
56.480709 3614.0 
56.484241 3683.0 
58.029228 1509966.0 
66.742821 4165.0 
72.937447 4933.0 
79.054428 36864.0 
81.033829 4676.0 
83.929901 27015.0 
84.937973 5714.0 
92.025864 4576.0 
95.049156 7708.0 
102.948303 7327.0 
107.049103 415818.0 
108.056679 20130.0 
109.028351 29289.0 
109.06469 13065.0 
113.963463 69356.0 
118.943459 26327.0 
119.950844 20445.0 
122.036011 6087.0 
123.04361 24312.0 
124.051857 4613457.0 
124.410004 3946.0 
125.059959 25667.0 
125.963783 47410.0 
131.95076 22420.0 
131.974701 28767.0 
138.651779 4712.0 
139.075256 7544850.0 
139.50145 5071.0 
140.95105 17993.0 
142.967499 4843.0 
143.974808 13674.0 
149.961868 26606.0 
154.966537 15504.0 
155.069672 5040.0 
155.975082 4841.0 
157.086365 8210.0 
165.054535 1711822.0 
167.971497 4916.0 
172.976883 60884.0 
190.988098 7083.0 
195.387711 4314.0 
196.096695 4504409.0 
END IONS

BEGIN IONS
NAME=N-(2-methylphenyl)-2-[9-(4-methylphenyl)-6-oxohydropurin-8-ylthio]acetamide CollisionEnergy:205060 M-H
PRECURSOR_MZ=404.119
INCHI="InChI=1S/C21H19N5O2S/c1-13-7-9-15(10-8-13)26-19-18(20(28)23-12-22-19)25-21(26)29-11-17(27)24-16-6-4-3-5-14(16)2/h3-10,12H,11H2,1-2H3,(H,24,27)(H,22,23,28)"
SMILES=Cc1ccc(-n2c(SCC(O)=Nc3ccccc3C)nc3c(O)ncnc32)cc1
SPECTRUMID=CCMSLIB00010122563
51.494511 2602.0 
57.97525 118039.0 
65.01416 182084.0 
65.998207 96492.0 
66.982933 3332.0 
68.013802 14880.0 
73.946991 2832.0 
75.243782 2660.0 
92.02533 107315.0 
92.031487 5238.0 
92.376251 2804.0 
93.009377 12525.0 
95.979134 3367.0 
96.986488 5325.0 
99.986412 3124.0 
104.280342 4376.0 
124.175484 2977.0 
131.061325 13141.0 
135.031067 6383.0 
145.053406 11968.0 
150.038162 5101.0 
155.061508 1083856.0 
156.056641 19065.0 
178.033157 129032.0 
182.072266 59683.0 
187.033188 49247.0 
197.059433 68276.0 
198.067566 29167.0 
212.069672 3320.0 
214.044388 11802.0 
223.061966 4533.0 
225.078201 889187.0 
228.023117 25332.0 
230.038376 5722.0 
236.070038 19744.0 
237.078918 3622.0 
241.073608 33122.0 
255.034637 261275.0 
256.04245 367310.0 
257.050171 271082.0 
269.049957 28838.0 
271.065186 58839.0 
280.49527 2906.0 
297.045044 60968.0 
330.13559 53415.0 
361.113861 3233.0 
404.1185 429804.0 
END IONS

BEGIN IONS
NAME="2-[2-oxo-4-(piperidylcarbonyl)hydroquinolyl]-N-(2,4,6-trimethylphenyl)acetamid e CollisionEnergy:102040" M+H
PRECURSOR_MZ=432.228
INCHI="InChI=1S/C26H29N3O3/c1-17-13-18(2)25(19(3)14-17)27-23(30)16-29-22-10-6-5-9-20(22)21(15-24(29)31)26(32)28-11-7-4-8-12-28/h5-6,9-10,13-15H,4,7-8,11-12,16H2,1-3H3,(H,27,30)"
SMILES=Cc1cc(C)c(N=C(O)Cn2c(=O)cc(C(=O)N3CCCCC3)c3ccccc32)c(C)c1
SPECTRUMID=CCMSLIB00010113172
69.070282 4350.0 
82.065353 5888.0 
84.081032 19696.0 
98.096458 61586.0 
104.283493 3029.0 
110.059669 4057.0 
112.075653 38962.0 
158.060333 17471.0 
160.241287 2993.0 
186.055084 65350.0 
213.066284 6299.0 
225.139313 32070.0 
241.133133 41971.0 
257.128143 152339.0 
269.128174 1435858.0 
297.123047 4556604.0 
310.152985 46543.0 
432.230377 24615.0 
END IONS

BEGIN IONS
NAME=1946-82-3 CollisionEnergy:102040 M-H
PRECURSOR_MZ=187.109
INCHI="InChI=1S/C8H16N2O3/c1-6(11)10-7(8(12)13)4-2-3-5-9/h7H,2-5,9H2,1H3,(H,10,11)(H,12,13)/t7-/m0/s1"
SMILES=CC(O)=N[C@@H](CCCCN)C(=O)O
SPECTRUMID=CCMSLIB00010102548
58.029301 2096720.0 
60.099701 190172.0 
66.777702 175488.0 
79.084198 164250.0 
92.407402 170327.0 
97.077103 328819.0 
126.092003 744231.0 
143.119003 7656740.0 
145.098007 66564600.0 
187.108994 15789900.0 
END IONS

BEGIN IONS
NAME=2-{2-[4-(tert-butyl)phenyl]-4-oxochromen-3-yloxy}ethanenitrile CollisionEnergy:205060 M+H
PRECURSOR_MZ=334.144
INCHI="InChI=1S/C21H19NO3/c1-21(2,3)15-10-8-14(9-11-15)19-20(24-13-12-22)18(23)16-6-4-5-7-17(16)25-19/h4-11H,13H2,1-3H3"
SMILES=CC(C)(C)c1ccc(-c2oc3ccccc3c(=O)c2OCC#N)cc1
SPECTRUMID=CCMSLIB00010119066
56.778648 2748.0 
57.070229 27281.0 
66.436539 2865.0 
73.947762 3348.0 
84.95974 3397.0 
91.054283 20943.0 
92.370682 4839.0 
104.281967 3368.0 
105.033524 6836.0 
107.048653 12483.0 
114.755074 3014.0 
121.028313 134643.0 
129.069977 37172.0 
130.965149 3114.0 
131.048523 3358.0 
131.085678 6074.0 
133.028427 20676.0 
137.785065 2765.0 
145.064728 16025.0 
157.065063 13660.0 
158.071884 4390.0 
161.094482 10385.0 
167.085297 15367.0 
181.065262 5723.0 
185.06012 3164.0 
191.37442 3141.0 
194.072342 4939.0 
195.080154 16981.0 
205.101166 19650.0 
208.088165 3482.0 
209.060242 5568.0 
215.08493 3328.0 
218.072632 20874.0 
223.074829 52033.0 
223.111191 10983.0 
233.095367 16548.0 
235.073257 3141.0 
237.054092 70938.0 
238.061935 13680.0 
239.069305 19634.0 
246.067322 3688.0 
251.069901 533018.0 
251.104614 56418.0 
252.077225 23470.0 
261.091187 24855.0 
263.071777 4228.0 
264.07666 13103.0 
266.128906 4336.0 
278.082977 5653.0 
279.100952 3811428.0 
293.115448 29965.0 
294.124298 1299401.0 
307.132172 13746.0 
312.755493 3075.0 
334.142944 1158816.0 
END IONS

BEGIN IONS
NAME=Hippuric acid CollisionEnergy:102040 2M-H
PRECURSOR_MZ=357.109
INCHI="InChI=1S/C9H9NO3/c11-8(12)6-10-9(13)7-4-2-1-3-5-7/h1-5H,6H2,(H,10,13)(H,11,12)"
SMILES=O=C(O)CN=C(O)c1ccccc1
SPECTRUMID=CCMSLIB00010126230
52.870701 4951.600098 
54.177502 5411.160156 
61.0093 4863.060059 
73.9907 5314.620117 
78.0401 4940.279785 
82.581802 5642.379883 
150.143997 5687.589844 
155.802994 5382.22998 
178.050995 24537.5 
223.979004 21934.599609 
END IONS

BEGIN IONS
NAME="8-{[5-methyl-2-(2-methylphenyl)(1,3-oxazol-4-yl)]methylthio}-9-(4-methylphenyl )hydropurin-6-one CollisionEnergy:205060" M-H
PRECURSOR_MZ=442.134
INCHI="InChI=1S/C24H21N5O2S/c1-14-8-10-17(11-9-14)29-21-20(22(30)26-13-25-21)28-24(29)32-12-19-16(3)31-23(27-19)18-7-5-4-6-15(18)2/h4-11,13H,12H2,1-3H3,(H,25,26,30)"
SMILES=Cc1ccc(-n2c(SCc3nc(-c4ccccc4C)oc3C)nc3c(O)ncnc32)cc1
SPECTRUMID=CCMSLIB00010116245
57.975281 156288.0 
60.542751 2746.0 
65.014099 15315.0 
65.998123 3409.0 
68.739052 2609.0 
71.4851 2564.0 
77.702667 2527.0 
92.025543 3567.0 
92.385239 2665.0 
109.647141 2750.0 
111.746933 2616.0 
155.061554 138584.0 
156.056747 49633.0 
187.033463 16680.0 
196.051422 4627.0 
197.039093 5682.0 
197.059525 135417.0 
198.06662 23559.0 
200.404465 3298.0 
223.063141 5684.0 
225.078064 108439.0 
228.023651 58947.0 
230.037155 3292.0 
255.034698 461313.0 
256.042572 1145906.0 
257.050262 135922.0 
257.081512 3026.0 
272.052032 3395.0 
277.349792 3138.0 
354.22467 3096.0 
399.129242 3406.0 
442.134338 151940.0 
END IONS

BEGIN IONS
NAME="N-(2-{1-[(3,4,5-trimethoxyphenyl)carbonyl]-8-1,2,3,4-tetrahydroquinolyloxy}eth yl)acetamide CollisionEnergy:205060" M+H
PRECURSOR_MZ=429.202
INCHI="InChI=1S/C23H28N2O6/c1-15(26)24-10-12-31-18-9-5-7-16-8-6-11-25(21(16)18)23(27)17-13-19(28-2)22(30-4)20(14-17)29-3/h5,7,9,13-14H,6,8,10-12H2,1-4H3,(H,24,26)"
SMILES=COc1cc(C(=O)N2CCCc3cccc(OCCN=C(C)O)c32)cc(OC)c1OC
SPECTRUMID=CCMSLIB00010116545
51.02351 4617.0 
53.03907 54087.0 
55.018219 3950.0 
62.608372 3295.0 
65.038971 28355.0 
66.046761 12448.0 
67.054527 17219.0 
67.322548 2811.0 
68.025833 5745.0 
68.997177 4750.0 
69.033943 12442.0 
71.049423 5119.0 
75.04425 13903.0 
77.039253 5051.0 
77.997101 3404.0 
79.054527 182784.0 
81.033768 114720.0 
81.070137 97017.0 
83.049232 6939.0 
85.028717 5066.0 
85.595718 3521.0 
86.060303 437601.0 
91.054291 12800.0 
92.026154 2879.0 
92.379929 3516.0 
93.0336 16778.0 
94.041122 23718.0 
94.064056 3129.0 
95.049278 32679.0 
96.050529 4757.0 
96.057068 97208.0 
97.065048 3539.0 
104.287247 3277.0 
106.041832 3170.0 
107.012756 4739.0 
107.049103 15002.0 
108.056862 30293.0 
109.028343 24537.0 
109.064819 142303.0 
109.989326 3332.0 
111.043221 4714.0 
111.080673 39352.0 
113.023277 28380.0 
113.059769 28599.0 
118.655502 4266.0 
121.028282 18817.0 
122.036163 120709.0 
123.044128 7218.0 
124.051888 195480.0 
125.059273 6658.0 
127.038834 5994.0 
128.047028 44785.0 
133.438416 3061.0 
135.044159 3429.0 
137.022995 44448.0 
139.075348 337797.0 
141.01825 49335.0 
143.070221 13847.0 
148.075394 45992.0 
151.039078 45335.0 
152.046783 476588.0 
156.041534 87829.0 
167.070374 5202.0 
176.07077 19822.0 
176.106995 121513.0 
176.123047 6080.0 
180.041718 5022.0 
184.036591 35098.0 
185.080917 32215.0 
185.399918 4042.0 
195.065186 3254663.0 
217.133728 6845.0 
229.195557 2939.0 
344.148865 111930.0 
429.200531 31392.0 
END IONS

BEGIN IONS
NAME="2-(6,7-dimethoxy-4-methyl-2-oxochromen-3-yl)-N-[(4-chlorophenyl)methyl]acetami de CollisionEnergy:205060" M+H
PRECURSOR_MZ=402.11
INCHI="InChI=1S/C21H20ClNO5/c1-12-15-8-18(26-2)19(27-3)10-17(15)28-21(25)16(12)9-20(24)23-11-13-4-6-14(22)7-5-13/h4-8,10H,9,11H2,1-3H3,(H,23,24)"
SMILES=COc1cc2oc(=O)c(CC(O)=NCc3ccc(Cl)cc3)c(C)c2cc1OC
SPECTRUMID=CCMSLIB00010121898
52.905701 2784.0 
87.694588 4324.0 
89.038963 14430.0 
90.752502 3363.0 
91.054558 5150.0 
92.383781 3815.0 
98.99984 4319.0 
115.054352 3934.0 
116.061798 3735.0 
117.069908 4433.0 
118.662163 4804.0 
121.064941 6224.0 
125.015327 515352.0 
128.06189 3866.0 
131.049866 6914.0 
134.072601 7337.0 
145.064819 39655.0 
146.072006 28945.0 
147.044144 98965.0 
158.072723 30721.0 
159.044266 4125.0 
161.059769 767281.0 
162.067657 65530.0 
172.876541 3286.0 
173.05957 6341.0 
174.067719 72467.0 
175.039062 44866.0 
176.047256 14346.0 
177.090942 35590.0 
185.407425 3562.0 
189.054474 86983.0 
189.090561 7841.0 
190.044266 4282.0 
190.062317 111923.0 
202.060425 4117.0 
205.086044 1874762.0 
210.761383 5872.0 
218.05722 13315.0 
233.080826 6479675.0 
261.075714 1996575.0 
273.812347 3496.0 
295.955597 3411.0 
326.489899 3452.0 
356.166473 3561.0 
402.109894 20861.0 
END IONS

BEGIN IONS
NAME="2-[(2,3-dichlorophenyl)azamethylene]-5-[(7-methoxy(2H-benzo[d]1,3-dioxolen-5-y l))methylene]-1,3-thiazolidin-4-one CollisionEnergy:205060" M+H
PRECURSOR_MZ=422.997
INCHI="InChI=1S/C18H12Cl2N2O4S/c1-24-12-5-9(6-13-16(12)26-8-25-13)7-14-17(23)22-18(27-14)21-11-4-2-3-10(19)15(11)20/h2-7H,8H2,1H3,(H,21,22,23)/b14-7+"
SMILES=COc1cc(C=C2SC(=Nc3cccc(Cl)c3Cl)N=C2O)cc2c1OCO2
SPECTRUMID=CCMSLIB00010122616
53.03904 3808.0 
65.038887 19681.0 
66.739037 3283.0 
78.738312 3260.0 
79.054337 55498.0 
82.064323 2802.0 
82.395538 4091.0 
89.003662 2891.0 
89.038582 19708.0 
91.0541 21794.0 
92.371727 3892.0 
97.010269 5037.0 
106.06411 3075.0 
107.048866 227028.0 
108.00238 18006.0 
109.01049 62646.0 
109.064453 4460.0 
110.017754 4498.0 
117.033157 3746.0 
118.040802 21848.0 
119.048233 5725.0 
121.010361 48352.0 
123.026108 169093.0 
123.994438 13136.0 
132.96048 18419.0 
133.010361 18253.0 
133.027725 31202.0 
134.059509 4221.0 
135.043732 73868.0 
135.997482 117892.0 
137.005295 18520.0 
138.013016 15164.0 
138.994415 33588.0 
145.02803 3392.0 
146.035614 13918.0 
147.044083 5486.0 
147.723633 3246.0 
148.050888 6481.0 
149.00528 60716.0 
150.012802 6818.0 
151.020859 1099766.0 
152.013214 178620.0 
153.036194 12695.0 
159.970978 122791.0 
161.017319 24681.0 
162.031036 11823.0 
162.05481 12260.0 
163.038742 11261.0 
163.992142 29225.0 
165.000946 10272.0 
165.05426 492688.0 
166.00798 67878.0 
166.03154 6149.0 
167.015854 5826.0 
175.038223 31245.0 
175.812241 3605.0 
176.017624 11841.0 
176.046448 375079.0 
176.999832 45349.0 
178.008087 23351.0 
179.015717 959229.0 
181.030487 12518.0 
184.965714 7656.0 
186.981934 386292.0 
187.966858 4592.0 
188.999435 6760.0 
189.017487 91829.0 
190.049301 18922.0 
192.995178 5789.0 
194.002792 419062.0 
194.023148 16010.0 
195.01062 6801.0 
203.033722 39653.0 
203.943008 5277.0 
204.011292 16274.0 
204.994568 16893.0 
205.037018 5328.0 
206.00267 33299.0 
206.023209 5112.0 
207.010468 157535.0 
208.01857 15696.0 
209.026062 375978.0 
209.998581 4427.0 
212.960846 45253.0 
218.995697 4747.0 
219.981598 7720.0 
221.012863 5698.0 
221.997543 54017.0 
232.004547 6654.0 
234.021881 4134.0 
235.005844 61281.0 
237.020615 30299.0 
246.991135 4045.0 
314.998505 4802.0 
331.00351 5968.0 
349.967468 23673.0 
364.986877 4660.0 
373.003052 12413.0 
407.97522 5354.0 
422.995392 2834098.0 
431.703674 3312.0 
END IONS

BEGIN IONS
NAME=2-(3-cyanoindolyl)-N-(2-indol-3-ylethyl)acetamide CollisionEnergy:102040 M+H
PRECURSOR_MZ=343.155
INCHI="InChI=1S/C21H18N4O/c22-11-16-13-25(20-8-4-2-6-18(16)20)14-21(26)23-10-9-15-12-24-19-7-3-1-5-17(15)19/h1-8,12-13,24H,9-10,14H2,(H,23,26)"
SMILES=N#Cc1cn(CC(O)=NCCc2c[nH]c3ccccc23)c2ccccc12
SPECTRUMID=CCMSLIB00010109562
62.378361 2913.0 
67.141708 3096.0 
82.410072 4360.0 
103.053886 6069.0 
115.054413 6697.0 
117.060242 6192.0 
117.069832 64501.0 
118.064873 17063.0 
130.065491 5635.0 
143.072845 54142.0 
143.633087 4608.0 
144.080719 10836021.0 
144.531952 4792.0 
155.060043 124321.0 
156.081726 7190.0 
183.174545 4946.0 
185.085022 4808.0 
226.09726 35600.0 
240.231812 270440.0 
298.133881 21003.0 
314.127319 49347.0 
325.142029 4032.0 
326.127319 117392.0 
343.154755 2090397.0 
END IONS

BEGIN IONS
NAME=7-Hydroxyflavanone CollisionEnergy:205060 2M-H
PRECURSOR_MZ=479.15
INCHI="InChI=1S/C15H12O3/c16-11-6-7-12-13(17)9-14(18-15(12)8-11)10-4-2-1-3-5-10/h1-8,14,16H,9H2"
SMILES=O=C1CC(c2ccccc2)Oc2cc(O)ccc21
SPECTRUMID=CCMSLIB00010118825
54.443081 2604.0 
54.748909 2015.0 
58.82531 2134.0 
66.742523 2809.0 
82.398613 2854.0 
89.529449 2605.0 
91.018806 11342.0 
92.377541 2710.0 
118.655373 2576.0 
126.4851 2367.0 
135.008896 5365.0 
138.928284 3533.0 
153.018753 3570.0 
157.974472 2615.0 
197.061203 21023.0 
228.020401 2929.0 
239.071243 80842.0 
382.115387 2415.0 
418.653351 2844.0 
470.951843 2811.0 
498.724304 2926.0 
END IONS

BEGIN IONS
NAME=Naringenin CollisionEnergy:205060 M+Na
PRECURSOR_MZ=295.058
INCHI="InChI=1S/C15H12O5/c16-9-3-1-8(2-4-9)13-7-12(19)15-11(18)5-10(17)6-14(15)20-13/h1-6,13,16-18H,7H2"
SMILES=C1C(OC2=CC(=CC(=C2C1=O)O)O)C3=CC=C(C=C3)O
SPECTRUMID=CCMSLIB00010102311
50.336655 2953.601318 
53.216682 2974.580566 
55.18317 3224.527344 
56.715 3145.523438 
59.677956 3378.426025 
64.278992 3301.224121 
79.395752 2968.0979 
82.436272 3014.208252 
85.799561 3101.918701 
175.000198 45548.035156 
179.137436 3539.733887 
193.01062 33994.054688 
239.036682 3050.112549 
292.512177 3232.812744 
295.055634 185370.375 
295.183899 4183.605469 
295.886658 3177.122314 
END IONS

BEGIN IONS
NAME="3',4'-Dihydroxy-.beta.-naphthoflavone CollisionEnergy:102040" 2M-H
PRECURSOR_MZ=607.14
INCHI="InChI=1S/C19H12O4/c20-14-7-5-12(9-15(14)21)18-10-16(22)19-13-4-2-1-3-11(13)6-8-17(19)23-18/h1-10,20-21H"
SMILES=O=c1cc(-c2ccc(O)c(O)c2)oc2ccc3ccccc3c12
SPECTRUMID=CCMSLIB00010105563
69.031433 3299.0 
73.96048 4355.0 
77.145409 3319.0 
92.386467 4352.0 
104.295387 3803.0 
120.940079 3226.0 
133.029617 189251.0 
160.017166 6092.0 
167.050323 64109.0 
185.414291 3888.0 
259.07663 83495.0 
275.07074 29623.0 
285.056488 39340.0 
303.06665 4357478.0 
304.069672 4153.0 
418.567352 3542.0 
533.595581 3705.0 
END IONS

BEGIN IONS
NAME=ethyl 2-({N-[2-(ethoxycarbonyl)phenyl]carbamoyl}carbonylamino)benzoate CollisionEnergy:205060 M+Na
PRECURSOR_MZ=407.121
INCHI="InChI=1S/C20H20N2O6/c1-3-27-19(25)13-9-5-7-11-15(13)21-17(23)18(24)22-16-12-8-6-10-14(16)20(26)28-4-2/h5-12H,3-4H2,1-2H3,(H,21,23)(H,22,24)"
SMILES=CCOC(=O)c1ccccc1NC(=O)C(=O)Nc1ccccc1C(=O)OCC
SPECTRUMID=CCMSLIB00010124798
57.51376 3187.0 
82.395012 4158.0 
124.301682 2743.0 
160.11322 2973.0 
188.067856 32541.0 
214.04747 52757.0 
217.993317 2692.0 
361.078949 43546.0 
379.089386 13581.0 
379.212067 12500.0 
385.434082 2752.0 
407.120544 2363005.0 
END IONS

BEGIN IONS
NAME="(2E)-3-(2H-benzo[3,4-d]1,3-dioxolan-5-yl)-1-{2-[4-(diethylamino)phenyl]-6-hydr oxy-3-azabicyclo[4.4.0]dec-3-yl}prop-2-en-1-one CollisionEnergy:205060" M+H
PRECURSOR_MZ=477.275
INCHI="InChI=1S/C29H36N2O4/c1-3-30(4-2)23-12-10-22(11-13-23)28-24-7-5-6-16-29(24,33)17-18-31(28)27(32)15-9-21-8-14-25-26(19-21)35-20-34-25/h8-15,19,24,28,33H,3-7,16-18,20H2,1-2H3/b15-9+"
SMILES=CCN(CC)c1ccc(C2C3CCCCC3(O)CCN2C(=O)C=Cc2ccc3c(c2)OCO3)cc1
SPECTRUMID=CCMSLIB00010118855
55.05447 32120.0 
61.17337 24130.0 
65.039017 25193.0 
67.054573 833216.0 
75.424026 22035.0 
77.858101 23757.0 
79.054413 125233.0 
81.070053 219933.0 
89.038582 919274.0 
90.046402 24991.0 
91.054024 186197.0 
93.069817 50918.0 
94.064423 26163.0 
95.085533 32843.0 
96.080238 36799.0 
97.100922 104279.0 
97.509903 27300.0 
104.295464 23191.0 
106.064796 259485.0 
107.0849 119515.0 
107.73024 22057.0 
109.101097 751595.0 
117.033318 1584766.0 
117.06955 55920.0 
117.526817 26227.0 
118.041107 1377411.0 
118.064934 59216.0 
119.048927 36432.0 
119.073029 31511.0 
119.085281 37363.0 
120.057137 30156.0 
120.080811 28301.0 
121.088097 146124.0 
122.05928 49155.0 
122.096474 253183.0 
125.096046 234833.0 
125.748352 22608.0 
130.064774 56339.0 
131.060394 49639.0 
131.073257 24337.0 
132.067825 294434.0 
132.08046 207917.0 
133.075455 97641.0 
134.096222 1936090.0 
135.043854 939191.0 
136.100845 46317.0 
136.111908 896455.0 
139.754654 24341.0 
144.080734 32053.0 
145.028244 6442247.0 
146.03598 3033195.0 
146.083115 127367.0 
146.096237 149627.0 
147.043762 1291654.0 
147.078812 50346.0 
147.091263 881966.0 
147.103973 241001.0 
148.051697 2982847.0 
148.074814 1266021.0 
148.098557 118071.0 
148.111694 489081.0 
149.022873 99504.0 
149.071289 33134.0 
149.107452 188993.0 
150.090698 202200.0 
152.106323 37702.0 
154.122299 1382957.0 
158.09613 157113.0 
159.043533 25788.0 
159.091537 135915.0 
159.10437 28514.0 
160.098663 124339.0 
160.111938 634608.0 
161.084381 184570.0 
161.106995 1398777.0 
161.12207 57297.0 
162.029282 31343.0 
162.1147 236321.0 
162.127914 291129.0 
163.038651 3273907.0 
164.093994 38545.0 
172.111557 103216.0 
173.07045 106327.0 
173.106812 748997.0 
173.122467 41010.0 
174.054321 27788.0 
174.090164 37422.0 
174.114624 405836.0 
174.128967 25813.0 
175.038696 17591724.0 
175.122696 1602008.0 
176.046509 2139984.0 
183.102371 26757.0 
184.111572 36264.0 
186.054321 215315.0 
186.127136 143184.0 
187.122086 276728.0 
188.093369 46234.0 
188.112381 24391.0 
188.130035 152360.0 
189.101517 59080.0 
189.138062 55057.0 
196.110626 83598.0 
197.119827 28789.0 
198.127274 130922.0 
199.122452 311825.0 
200.129105 49097.0 
201.101929 128326.0 
201.137573 436153.0 
202.048645 37028.0 
202.158966 34476.0 
203.117615 199856.0 
204.125656 52032.0 
210.126923 125176.0 
211.135178 154016.0 
212.142715 137408.0 
213.136719 175734.0 
214.143738 182229.0 
215.117828 272822.0 
215.153946 160691.0 
217.132843 867622.0 
222.127167 91137.0 
224.106186 143597.0 
224.141907 55529.0 
225.101364 99017.0 
225.137604 132273.0 
226.157761 160763.0 
227.116074 54129.0 
227.152466 725913.0 
228.137253 158316.0 
228.175385 209937.0 
229.132568 445839.0 
230.153656 53092.0 
231.147919 117942.0 
237.114853 26291.0 
238.122284 233258.0 
238.158112 219579.0 
239.154648 415526.0 
240.12442 149487.0 
240.173218 146127.0 
241.16922 44290.0 
243.147339 247934.0 
244.169983 35896.0 
245.163742 43617.0 
247.751068 26867.0 
250.121033 59151.0 
252.101288 2317722.0 
253.133026 472991.0 
253.168884 538226.0 
254.177002 567662.0 
255.184982 8164326.0 
256.131927 226298.0 
256.191711 245459.0 
257.170227 76214.0 
257.200134 428953.0 
264.101837 41680.0 
266.116913 142147.0 
267.124664 5575449.0 
268.131683 43948.0 
268.203735 32130.0 
271.17984 5762351.0 
272.187927 491971.0 
273.195465 14674559.0 
278.116241 212710.0 
279.125153 48248.0 
280.095673 125937.0 
280.132538 372826.0 
281.132019 81672.0 
281.164276 723242.0 
282.172363 129540.0 
285.160339 33237.0 
285.231964 30447.0 
293.126862 93502.0 
295.115234 29330.0 
295.180145 155820.0 
296.163452 147265.0 
298.142181 295835.0 
299.174133 378261.0 
300.182434 53245.0 
301.22937 29373.0 
305.127502 164219.0 
306.107056 198527.0 
307.143555 170595.0 
308.127502 53411.0 
309.134125 130008.0 
310.144287 98283.0 
311.210236 34010.0 
313.190765 359631.0 
321.120819 44795.0 
321.158752 38739.0 
322.128479 47709.0 
323.138123 2422333.0 
328.154053 109843.0 
333.121155 175356.0 
334.128754 117495.0 
335.138214 1789951.0 
349.153656 2494389.0 
405.184601 40080.0 
429.216766 373493.0 
430.225067 45891.0 
431.23114 1077765.0 
447.229218 40892.0 
448.234161 104641.0 
459.257629 83473.0 
477.273834 51963008.0 
END IONS

BEGIN IONS
NAME=2-{1-[(4-chlorophenyl)carbonyl]-5-methoxy-2-methylindol-3-yl}-N-[(4-methoxyphe nyl)methyl]acetamide CollisionEnergy:102040 M+Na
PRECURSOR_MZ=499.139
INCHI="InChI=1S/C27H25ClN2O4/c1-17-23(15-26(31)29-16-18-4-10-21(33-2)11-5-18)24-14-22(34-3)12-13-25(24)30(17)27(32)19-6-8-20(28)9-7-19/h4-14H,15-16H2,1-3H3,(H,29,31)"
SMILES=COc1ccc(CN=C(O)Cc2c(C)n(C(=O)c3ccc(Cl)cc3)c3ccc(OC)cc23)cc1
SPECTRUMID=CCMSLIB00010109978
53.016201 2987.0 
60.30611 2838.0 
68.431557 3509.0 
90.976768 35293.0 
92.367073 3878.0 
104.274719 3372.0 
131.304184 2943.0 
157.945496 3243.0 
158.964096 19022.0 
220.611313 3387.0 
226.950851 60267.0 
294.939209 6894.0 
362.925171 6975.0 
402.187592 3538.0 
430.91452 4677.0 
484.116089 8015.0 
496.250122 5097.0 
499.138733 6770589.0 
502.052917 5124.0 
END IONS

BEGIN IONS
NAME="[4-(phenylcarbonyl)phenyl]-N-[(3,4,5-trimethoxyphenyl)methyl]carboxamide CollisionEnergy:205060" M+formate
PRECURSOR_MZ=450.156
INCHI="InChI=1S/C24H23NO5/c1-28-20-13-16(14-21(29-2)23(20)30-3)15-25-24(27)19-11-9-18(10-12-19)22(26)17-7-5-4-6-8-17/h4-14H,15H2,1-3H3,(H,25,27)"
SMILES=COc1cc(CNC(=O)c2ccc(C(=O)c3ccccc3)cc2)cc(OC)c1OC
SPECTRUMID=CCMSLIB00010119726
51.037289 2247.0 
52.14069 2539.0 
66.466553 2353.0 
72.173439 2646.0 
73.966522 2801.0 
81.742889 2411.0 
92.391068 2718.0 
122.650322 2223.0 
143.337509 2515.0 
150.020035 5180.0 
165.043304 21020.0 
169.294769 2679.0 
180.050552 2631.0 
180.066025 18626.0 
181.066681 2985.0 
359.078461 3075.0 
404.149872 89803.0 
END IONS

BEGIN IONS
NAME="N-(2,4-dimethoxyphenyl)-2-(2-methoxyphenyl)acetamide CollisionEnergy:102040" M+H
PRECURSOR_MZ=302.139
INCHI="InChI=1S/C17H19NO4/c1-20-13-8-9-14(16(11-13)22-3)18-17(19)10-12-6-4-5-7-15(12)21-2/h4-9,11H,10H2,1-3H3,(H,18,19)"
SMILES=COc1ccc(N=C(O)Cc2ccccc2OC)c(OC)c1
SPECTRUMID=CCMSLIB00010104015
53.54911 3250.0 
65.038918 20212.0 
66.089478 3408.0 
67.054588 7234.0 
78.046227 3791.0 
80.968628 3276.0 
91.054298 190399.0 
91.949783 3731.0 
93.069939 174181.0 
97.831581 3965.0 
106.041206 58287.0 
107.049858 4594.0 
109.064713 34438.0 
119.060211 25388.0 
121.064713 4573222.0 
122.059761 73065.0 
122.715942 4207.0 
123.067574 23156.0 
124.039543 15086.0 
124.051933 23062.0 
139.062607 282634.0 
149.060272 4064.0 
153.078598 6246.0 
153.592865 6265.0 
154.08609 10616648.0 
154.582062 9951.0 
223.94313 43049.0 
258.760651 4327.0 
281.578033 5271.0 
284.128021 13422.0 
284.80368 4466.0 
301.127899 5563.0 
302.138031 1915939.0 
END IONS

BEGIN IONS
NAME="(3,4-dichlorophenyl)-N-[2-(2-methylindol-3-yl)ethyl]carboxamide CollisionEnergy:102040" M+Na
PRECURSOR_MZ=369.053
INCHI="InChI=1S/C18H16Cl2N2O/c1-11-13(14-4-2-3-5-17(14)22-11)8-9-21-18(23)12-6-7-15(19)16(20)10-12/h2-7,10,22H,8-9H2,1H3,(H,21,23)"
SMILES=Cc1[nH]c2ccccc2c1CCN=C(O)c1ccc(Cl)c(Cl)c1
SPECTRUMID=CCMSLIB00010109496
62.06057 4872.0 
66.201668 2649.0 
66.745087 3408.0 
73.954811 2857.0 
76.075943 13283.0 
81.07 14081.0 
84.081017 6767.0 
89.552147 2705.0 
92.38192 4063.0 
101.43206 2963.0 
102.091148 13773.0 
116.10701 71368.0 
123.116837 38471.0 
143.072922 7139.0 
144.077332 3627.0 
158.096405 104531.0 
159.099609 29605.0 
178.050949 2973.0 
283.263245 42731.0 
316.211365 34364.0 
340.320648 44114.0 
368.543732 160677.0 
369.052307 3737550.0 
369.305115 510067.0 
369.540863 58273.0 
369.806854 5788.0 
390.778046 3591.0 
405.026642 23014.0 
406.028625 11718.0 
407.025177 21887.0 
408.022339 4332.0 
410.080841 17384.0 
423.034332 13669.0 
425.026855 4430.0 
438.321503 3870.0 
455.3479 4640.0 
540.425293 4744.0 
639.780945 3046.0 
END IONS

BEGIN IONS
NAME=Sodium taurodeoxycholate CollisionEnergy:205060 M-H
PRECURSOR_MZ=498.289
INCHI="InChI=1S/C26H45NO6S/c1-16(4-9-24(30)27-12-13-34(31,32)33)20-7-8-21-19-6-5-17-14-18(28)10-11-25(17,2)22(19)15-23(29)26(20,21)3/h16-23,28-29H,4-15H2,1-3H3,(H,27,30)(H,31,32,33)"
SMILES=CC(CCC(O)=NCCS(=O)(=O)O)C1CCC2C3CCC4CC(O)CCC4(C)C3CC(O)C12C
SPECTRUMID=CCMSLIB00010119005
55.01902 3290.0 
55.747429 3074.0 
70.209686 3271.0 
79.957253 501568.0 
80.965103 177076.0 
80.969933 3599.0 
82.388657 3662.0 
94.980782 8092.0 
100.172157 3103.0 
101.183182 3681.0 
101.385513 2992.0 
104.276939 2953.0 
106.981018 311663.0 
115.293221 3889.0 
124.007507 406028.0 
134.332077 3376.0 
135.757538 3443.0 
173.458771 3381.0 
237.821945 3595.0 
300.327423 3224.0 
355.263916 30216.0 
358.632538 3589.0 
371.258759 3529.0 
414.300842 12179.0 
416.321167 3949.0 
498.29007 5084871.0 
END IONS

BEGIN IONS
NAME=caffeine CollisionEnergy:102040 M+H
PRECURSOR_MZ=195.088
INCHI="InChI=1S/C8H10N4O2/c1-10-4-9-6-5(10)7(13)12(3)8(14)11(6)2/h4H,1-3H3"
SMILES=Cn1c(=O)c2c(ncn2C)n(C)c1=O
SPECTRUMID=CCMSLIB00010104279
54.499489 570904.0 
56.20409 623574.0 
59.64463 570860.0 
68.880234 571167.0 
69.045631 665518.0 
81.790993 613750.0 
83.060722 956778.0 
92.355476 799395.0 
94.995293 675190.0 
110.071953 7347040.0 
138.066284 129470128.0 
157.359604 639188.0 
157.92775 706054.0 
195.087799 720874496.0 
END IONS

BEGIN IONS
NAME=Sodium taurodeoxycholate CollisionEnergy:205060 M+H
PRECURSOR_MZ=500.304
INCHI="InChI=1S/C26H45NO6S/c1-16(4-9-24(30)27-12-13-34(31,32)33)20-7-8-21-19-6-5-17-14-18(28)10-11-25(17,2)22(19)15-23(29)26(20,21)3/h16-23,28-29H,4-15H2,1-3H3,(H,27,30)(H,31,32,33)"
SMILES=CC(CCC(O)=NCCS(=O)(=O)O)C1CCC2C3CCC4CC(O)CCC4(C)C3CC(O)C12C
SPECTRUMID=CCMSLIB00010119006
53.03915 4959.0 
55.018379 2917.0 
55.05476 30027.0 
57.07048 3404.0 
67.054642 58546.0 
69.070419 21093.0 
70.404404 2838.0 
71.588127 2605.0 
73.359619 2853.0 
79.054573 55386.0 
81.070168 112597.0 
82.37896 3485.0 
83.04924 4505.0 
83.085953 29133.0 
83.926231 3091.0 
85.064987 4915.0 
91.054359 37374.0 
93.069992 94026.0 
95.08564 98098.0 
97.101257 5299.0 
105.069901 77176.0 
107.085564 104334.0 
108.011452 30446.0 
109.064919 3837.0 
109.101227 69850.0 
117.069557 5690.0 
118.624001 2882.0 
119.08564 76618.0 
121.101181 70921.0 
123.080627 4156.0 
123.116837 5957.0 
126.021988 318778.0 
129.06987 4274.0 
131.085419 32423.0 
133.101257 75663.0 
135.116913 68508.0 
137.095795 3923.0 
143.085556 18485.0 
145.101059 59700.0 
147.116714 68117.0 
149.096146 16621.0 
149.132843 34646.0 
151.111603 3260.0 
155.084824 11505.0 
157.101135 30801.0 
159.116989 61783.0 
161.094849 3941.0 
161.132507 53263.0 
163.110962 6680.0 
163.147476 14144.0 
169.10144 21864.0 
171.116455 22774.0 
173.095596 5489.0 
173.132324 34897.0 
175.111847 5877.0 
175.148849 20716.0 
177.126862 17939.0 
181.748322 3190.0 
183.116577 23457.0 
185.132233 19224.0 
185.70462 3261.0 
187.148026 31551.0 
189.126907 5156.0 
189.163284 15124.0 
191.142853 4196.0 
196.124222 5512.0 
197.132416 14232.0 
199.147781 13491.0 
201.163223 32899.0 
203.142838 11528.0 
203.179337 6127.0 
208.064713 32386.0 
211.147812 27080.0 
213.163361 17746.0 
215.179474 45986.0 
220.167801 3166.0 
225.163467 14391.0 
227.178635 11605.0 
229.15799 19344.0 
229.194824 12819.0 
231.173416 3265.0 
234.079346 3188.0 
239.178955 12894.0 
239.677826 3466.0 
241.193542 3309.0 
243.174286 6486.0 
297.221008 5756.0 
297.257355 5204.0 
302.142212 4778.0 
316.158691 3899.0 
321.257172 34429.0 
328.15744 5431.0 
339.267944 91713.0 
342.171906 6815.0 
354.172058 16204.0 
356.186279 4611.0 
366.309052 3341.0 
367.19812 3520.0 
382.203369 10989.0 
464.282745 852529.0 
482.296051 20353.0 
END IONS

BEGIN IONS
NAME="methyl 2-(2-amino-3-cyano-5,16-dioxospiro[4H-pyrano[3,2-c]chromene-4,3'-indoli ne]-15-yl)acetate CollisionEnergy:102040" M+Cl
PRECURSOR_MZ=464.065
INCHI="InChI=1S/C23H15N3O6/c1-30-17(27)11-26-15-8-4-3-7-13(15)23(22(26)29)14(10-24)20(25)32-19-12-6-2-5-9-16(12)31-21(28)18(19)23/h2-9H,11,25H2,1H3"
SMILES=COC(=O)CN1C(=O)C2(C(C#N)=C(N)Oc3c2c(=O)oc2ccccc32)c2ccccc21
SPECTRUMID=CCMSLIB00010109680
58.705521 2308.0 
65.014107 99984.0 
75.324173 2562.0 
92.396492 2427.0 
118.675034 2734.0 
191.946548 3999.0 
208.598251 12974.0 
383.346527 2646.0 
428.088684 87442.0 
END IONS

BEGIN IONS
NAME=1-methoxy-4-{[2-(4-methoxyphenyl)benzimidazolyl]methyl}benzene CollisionEnergy:205060 M+H
PRECURSOR_MZ=345.16
INCHI="InChI=1S/C22H20N2O2/c1-25-18-11-7-16(8-12-18)15-24-21-6-4-3-5-20(21)23-22(24)17-9-13-19(26-2)14-10-17/h3-14H,15H2,1-2H3"
SMILES=COc1ccc(Cn2c(-c3ccc(OC)cc3)nc3ccccc32)cc1
SPECTRUMID=CCMSLIB00010115877
50.01564 6186.0 
51.023369 5953.0 
51.030972 3815.0 
52.03133 5512.0 
55.018269 4357.0 
56.890301 3364.0 
63.023232 4724.0 
65.038834 32722.0 
66.744781 3938.0 
77.03894 20365.0 
78.046509 166397.0 
78.05162 7884.0 
79.017303 3981.0 
79.055092 3845.0 
81.033562 19499.0 
90.046417 6426.0 
91.054237 411831.0 
92.381607 4051.0 
93.070107 39451.0 
95.049271 59663.0 
103.054153 7545.0 
104.08416 3634.0 
105.044296 21137.0 
106.040993 61786.0 
107.048576 7010.0 
121.064636 17410346.0 
123.045609 4417.0 
166.123169 5874.0 
345.158783 901687.0 
END IONS

BEGIN IONS
NAME=2-amino-8-morpholin-4-ylhydropurin-6-one CollisionEnergy:205060 M+Na
PRECURSOR_MZ=259.091
INCHI="InChI=1S/C9H12N6O2/c10-8-12-6-5(7(16)14-8)11-9(13-6)15-1-3-17-4-2-15/h1-4H2,(H4,10,11,12,13,14,16)"
SMILES=N=c1nc(O)c2nc(N3CCOCC3)[nH]c2[nH]1
SPECTRUMID=CCMSLIB00010121448
66.73999 2117.0 
84.959419 2935.0 
90.631233 2171.0 
92.368462 3368.0 
104.273087 2382.0 
118.645767 2684.0 
128.861115 2571.0 
142.861786 2182.0 
160.945068 2176.0 
177.759369 2297.0 
206.382263 2154.0 
259.091217 877744.0 
272.268127 2147.0 
END IONS

BEGIN IONS
NAME="N-(4-(2H,3H-benzo[e]1,4-dioxin-6-yl)(1,3-thiazol-2-yl))(3,4,5-trimethoxyphenyl )carboxamide CollisionEnergy:205060" 2M-H
PRECURSOR_MZ=855.201
INCHI="InChI=1S/C21H20N2O6S/c1-25-17-9-13(10-18(26-2)19(17)27-3)20(24)23-21-22-14(11-30-21)12-4-5-15-16(8-12)29-7-6-28-15/h4-5,8-11H,6-7H2,1-3H3,(H,22,23,24)"
SMILES=COc1cc(C(O)=Nc2nc(-c3ccc4c(c3)OCCO4)cs2)cc(OC)c1OC
SPECTRUMID=CCMSLIB00010118752
60.571609 3320.0 
62.142368 3160.0 
66.747078 4440.0 
73.957733 3128.0 
85.740677 3994.0 
92.382889 4690.0 
97.625549 3397.0 
104.291969 3687.0 
118.402191 3628.0 
131.560165 3569.0 
146.961838 4215.0 
158.774475 3369.0 
174.956589 19163.0 
177.317612 3135.0 
204.0 5254.0 
232.032074 31663.0 
254.888031 3640.0 
331.278351 3355.0 
427.096863 59523.0 
459.920929 4150.0 
706.832703 4252.0 
END IONS

BEGIN IONS
NAME=3-indol-3-yl-N-(4-methylphenyl)-2-[(2-methylpropoxy)carbonylamino]propanamide CollisionEnergy:102040 M+formate
PRECURSOR_MZ=438.203
INCHI="InChI=1S/C23H27N3O3/c1-15(2)14-29-23(28)26-21(22(27)25-18-10-8-16(3)9-11-18)12-17-13-24-20-7-5-4-6-19(17)20/h4-11,13,15,21,24H,12,14H2,1-3H3,(H,25,27)(H,26,28)"
SMILES=Cc1ccc(NC(=O)C(Cc2c[nH]c3ccccc23)N=C(O)OCC(C)C)cc1
SPECTRUMID=CCMSLIB00010107998
66.482712 2939.0 
66.758774 3103.0 
72.008636 17075.0 
73.970497 2620.0 
75.504433 2931.0 
83.70887 2475.0 
104.31131 3093.0 
106.066223 4438.0 
118.680557 2722.0 
128.997055 2765.0 
142.065323 20088.0 
152.825195 2659.0 
157.995392 2194.0 
161.072235 37189.0 
168.045532 3987.0 
188.05925 135845.0 
189.067078 235529.0 
202.073608 2749.0 
211.051147 3653.0 
211.462799 3407.0 
275.119415 67512.0 
318.124878 997729.0 
392.198212 330996.0 
437.982361 5187.0 
445.321381 2767.0 
END IONS

BEGIN IONS
NAME="3-hydroxy-3-(trifluoromethyl)(2H-3,4,5,6,7,3a-hexahydroindazol-2-yl) 3,4,5-tri methoxyphenyl ketone CollisionEnergy:205060" M+H-H2O
PRECURSOR_MZ=385.137
INCHI="InChI=1S/C18H21F3N2O5/c1-26-13-8-10(9-14(27-2)15(13)28-3)16(24)23-17(25,18(19,20)21)11-6-4-5-7-12(11)22-23/h8-9,11,25H,4-7H2,1-3H3"
SMILES=COc1cc(C(=O)N2N=C3CCCCC3C2(O)C(F)(F)F)cc(OC)c1OC
SPECTRUMID=CCMSLIB00010119587
50.015659 3008.0 
51.02338 2881.0 
53.03907 68177.0 
55.018211 3039.0 
57.390202 2894.0 
65.038948 19977.0 
66.04673 11975.0 
67.054466 10009.0 
69.033897 3172.0 
78.046722 10131.0 
79.054489 85586.0 
81.033737 103425.0 
81.070099 41533.0 
82.847397 2634.0 
83.049202 3278.0 
92.025711 5029.0 
93.03334 4421.0 
94.041183 16469.0 
95.049248 27128.0 
96.056976 51082.0 
99.044243 4266.0 
105.044632 3319.0 
107.012489 4031.0 
107.79261 2828.0 
108.057083 18276.0 
109.028137 20084.0 
109.064697 59440.0 
111.080353 13624.0 
113.023422 3459.0 
113.05957 11681.0 
121.028481 22329.0 
122.036179 66411.0 
124.051811 95413.0 
128.046646 14386.0 
137.023163 45763.0 
139.065781 2283.0 
139.07518 112406.0 
141.018127 13578.0 
151.039108 27669.0 
152.0466 194394.0 
156.041885 24336.0 
184.036392 12013.0 
185.080872 4192.0 
195.065048 1268379.0 
211.885391 2439.0 
329.957916 2710.0 
360.371216 3293.0 
END IONS

BEGIN IONS
NAME=myricetin CollisionEnergy:205060 M-H
PRECURSOR_MZ=317.03
INCHI="InChI=1S/C15H10O8/c16-6-3-7(17)11-10(4-6)23-15(14(22)13(11)21)5-1-8(18)12(20)9(19)2-5/h1-4,16-20,22H"
SMILES=O=c1c(O)c(-c2cc(O)c(O)c(O)c2)oc2cc(O)cc(O)c12
SPECTRUMID=CCMSLIB00010119551
63.023602 53937.0 
63.562561 2952.0 
65.002853 108885.0 
71.484261 2366.0 
73.953728 3229.0 
81.034309 10617.0 
83.013573 73396.0 
83.018517 2951.0 
84.757561 2529.0 
92.381699 3205.0 
95.013763 3258.0 
104.286179 3311.0 
107.013748 262839.0 
109.029388 196500.0 
112.985519 459593.0 
119.014076 2943.0 
124.01622 4565.0 
125.024323 28017.0 
137.024185 619663.0 
151.003418 813087.0 
152.011658 5473.0 
155.034729 13979.0 
157.969482 3790.0 
163.003128 19814.0 
163.70192 2716.0 
164.011383 11520.0 
165.018982 48545.0 
169.01384 55996.0 
178.998215 278740.0 
179.034729 5552.0 
180.912338 3350.0 
180.972931 46556.0 
182.633652 3093.0 
191.034195 3381.0 
192.006897 26446.0 
193.01355 20828.0 
207.160507 2937.0 
207.910324 17849.0 
220.649734 2783.0 
227.034805 15638.0 
229.687256 2603.0 
243.030777 3422.0 
245.046066 6302.0 
248.960266 16516.0 
261.039764 5130.0 
271.024628 52802.0 
278.278259 2682.0 
288.88208 14020.0 
289.036316 9094.0 
299.019775 6469.0 
317.029846 1281898.0 
375.199646 2847.0 
503.832092 2868.0 
574.317871 3010.0 
END IONS

BEGIN IONS
NAME=Isorhamnetin CollisionEnergy:102040 M+H
PRECURSOR_MZ=317.066
INCHI="InChI=1S/C16H12O7/c1-22-11-4-7(2-3-9(11)18)16-15(21)14(20)13-10(19)5-8(17)6-12(13)23-16/h2-6,17-19,21H,1H3"
SMILES=COc1cc(-c2oc3cc(O)cc(O)c3c(=O)c2O)ccc1O
SPECTRUMID=CCMSLIB00010110002
55.15189 3145.0 
63.86821 2741.0 
66.747459 4309.0 
68.38398 3261.0 
71.209061 2701.0 
73.684418 2711.0 
73.957542 2851.0 
93.0336 3979.0 
100.66465 3498.0 
104.294548 3291.0 
111.007812 5146.0 
121.028229 4458.0 
133.33223 2976.0 
136.216782 3639.0 
139.039078 42614.0 
151.03894 24119.0 
153.018158 89199.0 
153.031311 6037.0 
165.018082 28204.0 
177.054169 5208.0 
183.028992 5452.0 
201.054504 3923.0 
228.040543 4721.0 
229.049332 39991.0 
246.05191 23984.0 
257.044464 84220.0 
260.031372 4584.0 
261.075287 15695.0 
271.058533 6115.0 
273.038879 27081.0 
273.973145 3415.0 
274.046967 130839.0 
284.030731 4739.0 
285.038971 208416.0 
286.04599 4353.0 
288.061249 6766.0 
302.041534 677158.0 
315.611633 5584.0 
317.065063 6488164.0 
318.53067 5282.0 
END IONS

BEGIN IONS
NAME=2-methoxyethyl 5-hydroxy-2-methyl-1-[2-(4-methylphenoxy)ethyl]benzo[g]indole-3 -carboxylate CollisionEnergy:102040 M+H
PRECURSOR_MZ=434.196
INCHI="InChI=1S/C26H27NO5/c1-17-8-10-19(11-9-17)31-13-12-27-18(2)24(26(29)32-15-14-30-3)22-16-23(28)20-6-4-5-7-21(20)25(22)27/h4-11,16,28H,12-15H2,1-3H3"
SMILES=COCCOC(=O)c1c(C)n(CCOc2ccc(C)cc2)c2c1cc(O)c1ccccc12
SPECTRUMID=CCMSLIB00010111391
55.154541 2552.0 
65.443527 2625.0 
68.588547 3220.0 
82.396843 3140.0 
83.524384 2861.0 
91.054527 4128.0 
95.813347 2831.0 
105.069359 3331.0 
107.085243 34902.0 
109.961647 3155.0 
128.63118 2492.0 
135.080185 81893.0 
157.971954 3982.0 
208.075409 3670.0 
222.055405 4470.0 
222.090866 15282.0 
223.062241 96655.0 
223.098602 23420.0 
224.070084 65974.0 
236.069977 35447.0 
250.085785 312067.0 
251.092606 31200.0 
330.147064 4486.0 
356.394531 4268.0 
358.143066 3178053.0 
359.903778 3825.0 
402.17334 10970.0 
434.193481 113228.0 
459.629333 3043.0 
END IONS

BEGIN IONS
NAME="N'-[(1E)-2-(3,4,5-trimethoxyphenyl)-1-azavinyl]-N-(3,4-dimethylphenyl)butane-1 ,4-diamide CollisionEnergy:205060" M-H
PRECURSOR_MZ=412.188
INCHI="InChI=1S/C22H27N3O5/c1-14-6-7-17(10-15(14)2)24-20(26)8-9-21(27)25-23-13-16-11-18(28-3)22(30-5)19(12-16)29-4/h6-7,10-13H,8-9H2,1-5H3,(H,24,26)(H,25,27)/b23-13+"
SMILES=COc1cc(C=NN=C(O)CCC(=O)Nc2ccc(C)c(C)c2)cc(OC)c1OC
SPECTRUMID=CCMSLIB00010121635
60.875549 2538.0 
75.447304 2521.0 
78.986267 2960.0 
92.014267 2684.0 
98.024887 14950.0 
119.02475 29217.0 
120.009232 2744.0 
120.081688 52700.0 
121.029587 3758.0 
129.392746 2728.0 
136.016479 70149.0 
136.027969 3194.0 
139.040237 2937.0 
146.061035 4353.0 
147.020035 142126.0 
147.032867 5429.0 
148.004791 3134.0 
148.027679 42131.0 
149.035583 67419.0 
151.004257 4538.0 
151.040024 9775.0 
163.014786 5796.0 
164.022858 127337.0 
172.077087 3209.0 
174.07518 3369.0 
174.079605 2904.0 
174.092575 157708.0 
178.038498 85904.0 
179.046356 315150.0 
193.061996 98697.0 
193.080582 4856.0 
194.069824 378661.0 
202.087555 306209.0 
209.093369 299008.0 
215.419022 3374.0 
253.083237 3673.0 
291.098938 25567.0 
415.404053 3014.0 
END IONS

BEGIN IONS
NAME="1,2,3-trimethoxy-5-(5-{[2-(4-methylphenyl)(1,3-thiazol-4-yl)]methylthio}(1,3,4 -oxadiazol-2-yl))benzene CollisionEnergy:102040" M+Na
PRECURSOR_MZ=478.087
INCHI="InChI=1S/C22H21N3O4S2/c1-13-5-7-14(8-6-13)21-23-16(11-30-21)12-31-22-25-24-20(29-22)15-9-17(26-2)19(28-4)18(10-15)27-3/h5-11H,12H2,1-4H3"
SMILES=COc1cc(-c2nnc(SCc3csc(-c4ccc(C)cc4)n3)o2)cc(OC)c1OC
SPECTRUMID=CCMSLIB00010105453
65.786102 3034.0 
79.416321 2794.0 
109.705948 2836.0 
118.645233 3179.0 
136.198151 3427.0 
212.972092 3955.0 
216.063034 38504.0 
220.02536 2933.0 
285.012024 96734.0 
289.514923 2943.0 
414.634705 3412.0 
422.081451 4862.0 
478.085968 2742633.0 
496.098877 5186.0 
END IONS

BEGIN IONS
NAME="N-((1E)-2-(4-pyridyl)-1-azavinyl)-2-[(3,5-dioxo(2H,4H-1,2,4-triazin-6-yl))amin o]propanamide CollisionEnergy:205060" M-H
PRECURSOR_MZ=302.101
INCHI="InChI=1S/C12H13N7O3/c1-7(15-9-11(21)16-12(22)19-17-9)10(20)18-14-6-8-2-4-13-5-3-8/h2-7H,1H3,(H,15,17)(H,18,20)(H2,16,19,21,22)/b14-6+"
SMILES=CC(Nc1nnc(O)nc1O)C(O)=NN=Cc1ccncc1
SPECTRUMID=CCMSLIB00010121686
50.905621 3170.0 
65.039391 3667.0 
66.009308 3686.0 
66.034492 6428.0 
67.029747 171752.0 
68.024971 10936.0 
69.009178 19180.0 
70.029114 2677.0 
82.410973 2782.0 
84.020103 123972.0 
85.083817 2672.0 
90.034828 11621.0 
92.050392 163541.0 
92.393433 3121.0 
94.041199 3183.0 
95.024971 36320.0 
97.004204 6537.0 
97.040558 4689.0 
104.299751 2898.0 
108.549957 2423.0 
109.01532 3510.0 
109.999359 5266.0 
110.035973 52562.0 
111.019913 87971.0 
112.051613 526508.0 
118.041092 38436.0 
120.056641 266275.0 
125.035698 19483.0 
126.018311 26495.0 
127.026047 44019.0 
130.060913 2464.0 
136.227097 2684.0 
138.030807 114451.0 
139.025803 21591.0 
153.041748 187793.0 
154.049393 4852.0 
155.057785 20679.0 
168.041809 10648.0 
174.330887 2729.0 
181.036865 1139469.0 
196.048294 4400.0 
198.063614 47507.0 
259.094879 120055.0 
259.125763 4303.0 
260.933594 2903.0 
302.100647 655278.0 
END IONS

BEGIN IONS
NAME=(2E)-2-benzoxazol-2-yl-1-(4-ethoxyphenyl)-3-(4-methoxyphenyl)prop-2-en-1-one CollisionEnergy:102040 M+H
PRECURSOR_MZ=400.154
INCHI="InChI=1S/C25H21NO4/c1-3-29-20-14-10-18(11-15-20)24(27)21(16-17-8-12-19(28-2)13-9-17)25-26-22-6-4-5-7-23(22)30-25/h4-16H,3H2,1-2H3/b21-16-"
SMILES=CCOc1ccc(C(=O)C(=Cc2ccc(OC)cc2)c2nc3ccccc3o2)cc1
SPECTRUMID=CCMSLIB00010114624
58.07346 2551.0 
66.731659 2119.0 
92.36377 3474.0 
104.265709 3246.0 
171.55423 2569.0 
199.073898 3210.0 
213.090622 3569.0 
215.197159 3099.0 
235.062439 2752.0 
241.121994 65356.0 
250.086014 282897.0 
268.095886 12332.0 
278.08078 197632.0 
292.096802 3814.0 
296.09137 137540.0 
300.165985 3686.0 
354.922577 2499.0 
400.153778 458867.0 
400.251556 11147.0 
END IONS

BEGIN IONS
NAME="(3,5-dimethoxyphenyl)-N-(2-methyl-3-oxo(2H,4H-benzo[3,4-e]1,4-oxazin-6-yl))car boxamide CollisionEnergy:205060" M+H
PRECURSOR_MZ=343.129
INCHI="InChI=1S/C18H18N2O5/c1-10-17(21)20-15-8-12(4-5-16(15)25-10)19-18(22)11-6-13(23-2)9-14(7-11)24-3/h4-10H,1-3H3,(H,19,22)(H,20,21)"
SMILES=COc1cc(OC)cc(C(O)=Nc2ccc3c(c2)N=C(O)C(C)O3)c1
SPECTRUMID=CCMSLIB00010122687
50.01548 3792.0 
51.02346 15110.0 
53.03904 64304.0 
55.01836 35359.0 
55.05484 8157.0 
61.730339 3462.0 
62.952049 3171.0 
65.039009 20555.0 
66.046722 22668.0 
66.73555 3938.0 
68.026077 51063.0 
68.99752 5368.0 
69.033928 13988.0 
73.9431 3779.0 
77.039062 25957.0 
78.046753 4051.0 
79.018181 61204.0 
79.054527 169788.0 
81.033699 22051.0 
81.070251 42301.0 
83.049362 8080.0 
92.025787 72772.0 
92.366173 3645.0 
93.033562 14739.0 
94.041451 105800.0 
95.042847 5881.0 
95.049232 97593.0 
96.020638 6182.0 
96.056992 7613.0 
97.052063 15212.0 
98.036369 4676.0 
104.006279 3404.0 
104.270477 4120.0 
105.033546 28550.0 
105.044518 20545.0 
106.028793 4410.0 
106.064751 6610.0 
107.012627 53340.0 
107.049004 46269.0 
108.045013 4675.0 
108.057182 29006.0 
109.027924 13392.0 
109.064812 227986.0 
111.043678 17365.0 
121.075562 17706.0 
122.036217 1350730.0 
122.057808 47230.0 
123.044907 6546.0 
123.055237 55147.0 
124.051903 630424.0 
125.059723 325019.0 
131.060104 3154.0 
132.04483 5336.0 
134.023758 29020.0 
134.059616 37664.0 
135.0448 6140.0 
135.055191 90353.0 
136.192673 3928.0 
137.059692 77158.0 
139.075363 562041.0 
140.045853 3544.0 
149.034653 4397.0 
149.070557 58625.0 
151.039612 5945.0 
155.070221 3019733.0 
156.074158 4402.0 
162.054581 16321.0 
163.050186 6062.0 
164.07045 14524.0 
165.054626 3695890.0 
166.05719 5366.0 
177.065735 337526.0 
178.086258 40024.0 
180.064362 14596.0 
187.049667 22444.0 
205.060959 82732.0 
297.122162 13386.0 
298.10498 15211.0 
311.102448 4861.0 
315.133331 268514.0 
325.116791 40508.0 
326.099518 4045.0 
328.104584 3874.0 
343.12851 4330383.0 
END IONS

BEGIN IONS
NAME=Homocysteine thiolactone CollisionEnergy:102040 M+H-H2O
PRECURSOR_MZ=100.022
INCHI="InChI=1S/C4H7NOS/c5-3-1-2-7-4(3)6/h3H,1-2,5H2/t3-/m0/s1"
SMILES=N[C@H]1CCSC1=O
SPECTRUMID=CCMSLIB00010103205
52.393799 12633.099609 
54.031601 24441.300781 
54.0345 473150.0 
55.055 70951.703125 
56.050201 89135.703125 
57.7812 12914.599609 
59.967201 85944.5 
67.042297 93999.5 
71.990799 2203100.0 
72.044998 17402.800781 
73.011299 108840.0 
79.378799 11242.799805 
82.417 15197.299805 
83.085899 74235.796875 
92.396301 14702.5 
100.022003 4316230.0 
100.075996 150343.0 
100.112 172770.0 
END IONS

BEGIN IONS
NAME="(3S,8S,6R,7R)-8-hydroxy-2,2,6,8-tetramethyl-7-[(2-oxochromen-7-yloxy)methyl]bi cyclo[4.4.0]dec-3-yl acetate CollisionEnergy:102040" M+formate
PRECURSOR_MZ=487.234
INCHI="InChI=1S/C26H34O6/c1-16(27)31-22-11-12-25(4)20(24(22,2)3)10-13-26(5,29)21(25)15-30-18-8-6-17-7-9-23(28)32-19(17)14-18/h6-9,14,20-22,29H,10-13,15H2,1-5H3/t20?,21-,22-,25+,26-/m0/s1"
SMILES=CC(=O)OC1CCC2(C)C(COc3ccc4ccc(=O)oc4c3)C(C)(O)CCC2C1(C)C
SPECTRUMID=CCMSLIB00010107796
84.698212 2448.0 
118.646767 2513.0 
130.008484 2642.0 
139.516312 2924.0 
168.048294 2341.0 
183.343643 2677.0 
289.437866 2931.0 
487.234863 12693.0 
494.848114 2633.0 
765.723389 3063.0 
769.063965 2639.0 
END IONS

BEGIN IONS
NAME=N-(4-bromophenyl)-2-[2-oxo-4-(piperidylcarbonyl)hydroquinolyl]acetamide CollisionEnergy:205060 M+formate
PRECURSOR_MZ=512.083
INCHI="InChI=1S/C23H22BrN3O3/c24-16-8-10-17(11-9-16)25-21(28)15-27-20-7-3-2-6-18(20)19(14-22(27)29)23(30)26-12-4-1-5-13-26/h2-3,6-11,14H,1,4-5,12-13,15H2,(H,25,28)"
SMILES=O=C(Cn1c(=O)cc(C(=O)N2CCCCC2)c2ccccc21)Nc1ccc(Br)cc1
SPECTRUMID=CCMSLIB00010125788
51.50922 2357.0 
53.50375 2598.0 
78.91893 3114.0 
118.67527 3874.0 
128.050659 9861.0 
132.889755 2412.0 
157.998108 3052.0 
184.040848 4988.0 
194.303223 2747.0 
255.113983 5160.0 
448.037659 2700.0 
466.076874 31015.0 
517.287537 2429.0 
END IONS

BEGIN IONS
NAME="2,2',4'-Trihydroxychalcone CollisionEnergy:205060" M-H
PRECURSOR_MZ=255.066
INCHI="InChI=1S/C15H12O4/c16-11-6-7-12(15(19)9-11)14(18)8-5-10-3-1-2-4-13(10)17/h1-9,16-17,19H/b8-5+"
SMILES=O=C(C=Cc1ccccc1O)c1ccc(O)cc1O
SPECTRUMID=CCMSLIB00010117442
57.032688 2488.0 
65.039352 91887.0 
67.018639 43095.0 
68.995529 2599.0 
82.42363 2370.0 
91.01886 155538.0 
92.995506 24713.0 
93.034752 10209.0 
97.412453 2250.0 
104.316704 3588.0 
109.029518 1416079.0 
117.034592 72090.0 
119.050232 708757.0 
135.008789 95138.0 
135.020325 3901.0 
136.248337 2795.0 
145.02919 13875.0 
149.024261 5085.0 
153.019257 57600.0 
185.061386 2766.0 
213.05481 5745.0 
238.911087 3002.0 
244.335632 2526.0 
254.986374 73196.0 
255.066025 256994.0 
259.906982 2721.0 
END IONS

BEGIN IONS
NAME=(2-chloro-5-nitrophenyl)-N-[2-(5-methoxy-2-methylindol-3-yl)ethyl]carboxamide CollisionEnergy:102040 M+formate
PRECURSOR_MZ=432.097
INCHI="InChI=1S/C19H18ClN3O4/c1-11-14(15-10-13(27-2)4-6-18(15)22-11)7-8-21-19(24)16-9-12(23(25)26)3-5-17(16)20/h3-6,9-10,22H,7-8H2,1-2H3,(H,21,24)"
SMILES=COc1ccc2[nH]c(C)c(CCN=C(O)c3cc([N+](=O)[O-])ccc3Cl)c2c1
SPECTRUMID=CCMSLIB00010110486
63.64019 2408.0 
66.586327 2464.0 
73.958702 2342.0 
92.385277 2396.0 
109.338348 2859.0 
115.302383 2545.0 
118.656158 2561.0 
136.213242 2984.0 
155.98616 16794.0 
229.098724 27640.0 
237.889038 2724.0 
386.091919 137439.0 
END IONS

BEGIN IONS
NAME=4-hydroxy-6-methoxy-3-benzylhydroquinolin-2-one CollisionEnergy:205060 2M-H
PRECURSOR_MZ=561.203
INCHI="InChI=1S/C17H15NO3/c1-21-12-7-8-15-13(10-12)16(19)14(17(20)18-15)9-11-5-3-2-4-6-11/h2-8,10H,9H2,1H3,(H2,18,19,20)"
SMILES=COc1ccc2nc(O)c(Cc3ccccc3)c(O)c2c1
SPECTRUMID=CCMSLIB00010116520
63.806641 2346.0 
80.947006 2423.0 
125.083931 2728.0 
136.204575 2873.0 
157.965561 3062.0 
167.791809 2494.0 
178.725815 2756.0 
265.07428 122878.0 
280.097473 99598.0 
539.326416 2950.0 
END IONS

BEGIN IONS
NAME=cycloheximide CollisionEnergy:205060 M-H
PRECURSOR_MZ=280.155
INCHI="InChI=1S/C15H23NO4/c1-8-3-9(2)15(20)11(4-8)12(17)5-10-6-13(18)16-14(19)7-10/h8-12,17H,3-7H2,1-2H3,(H,16,18,19)/t8-,9-,11-,12+/m0/s1"
SMILES=CC1CC(C)C(=O)C(C(O)CC2CC(=O)N=C(O)C2)C1
SPECTRUMID=CCMSLIB00010122532
50.479481 2031.0 
67.498741 2358.0 
69.034142 27751.0 
95.013496 2981.0 
110.024727 49809.0 
125.097298 9505.0 
132.75499 2267.0 
154.051025 42820.0 
169.123566 29502.0 
177.005508 2276.0 
279.856232 9590.0 
280.155182 9730.0 
END IONS

BEGIN IONS
NAME=2-(2-methoxyphenyl)-4-oxochromen-3-yl thiophene-2-carboxylate CollisionEnergy:205060 M+H
PRECURSOR_MZ=379.064
INCHI="InChI=1S/C21H14O5S/c1-24-15-9-4-3-8-14(15)19-20(26-21(23)17-11-6-12-27-17)18(22)13-7-2-5-10-16(13)25-19/h2-12H,1H3"
SMILES=COc1ccccc1-c1oc2ccccc2c(=O)c1OC(=O)c1cccs1
SPECTRUMID=CCMSLIB00010114963
53.455929 2699.0 
57.987549 4756.0 
61.273121 3546.0 
68.979599 3441.0 
82.572227 3127.0 
82.995117 14411.0 
86.247681 3126.0 
98.989799 53299.0 
110.989807 6164427.0 
129.000519 12409.0 
152.792923 3187.0 
158.058334 3257.0 
186.053802 3311.0 
223.12709 3000.0 
379.062408 235468.0 
END IONS

BEGIN IONS
NAME="1-(2,4,5-trimethoxyphenyl)-1,2,3,4-tetrahydrobeta-carboline-3-carboxylic acid CollisionEnergy:102040" M+Na
PRECURSOR_MZ=405.142
INCHI="InChI=1S/C21H22N2O5/c1-26-16-10-18(28-3)17(27-2)9-13(16)20-19-12(8-15(23-20)21(24)25)11-6-4-5-7-14(11)22-19/h4-7,9-10,15,20,22-23H,8H2,1-3H3,(H,24,25)"
SMILES=COc1cc(OC)c(C2NC(C(=O)O)Cc3c2[nH]c2ccccc32)cc1OC
SPECTRUMID=CCMSLIB00010107562
50.96069 2441.0 
53.10331 2283.0 
55.04113 2329.0 
62.266399 2323.0 
67.539284 2666.0 
73.573463 2673.0 
82.396507 2598.0 
85.785896 2350.0 
96.005859 27919.0 
104.28273 3765.0 
110.042442 2465.0 
128.046066 2494.0 
136.205902 3632.0 
211.507629 3018.0 
310.145081 10212.0 
332.125214 576016.0 
350.136017 15647.0 
373.152222 12340.0 
405.141418 131776.0 
END IONS

BEGIN IONS
NAME="3-(2-hydroxy-3-methoxyphenyl)-1,5-dimethyl-4,6-dioxo-1,2,3,5,3a,6a-hexahydro-2 ,5-diazapentalenecarboxylic acid CollisionEnergy:205060" M+H
PRECURSOR_MZ=335.124
INCHI="InChI=1S/C16H18N2O6/c1-16(15(22)23)10-9(13(20)18(2)14(10)21)11(17-16)7-5-4-6-8(24-3)12(7)19/h4-6,9-11,17,19H,1-3H3,(H,22,23)"
SMILES=COc1cccc(C2NC(C)(C(=O)O)C3C(=O)N(C)C(=O)C23)c1O
SPECTRUMID=CCMSLIB00010124218
53.03912 14690.0 
55.054779 62876.0 
56.049709 4784.0 
57.90646 3363.0 
58.02914 57981.0 
65.039124 29826.0 
68.04969 6988.0 
70.065468 763180.0 
70.26123 4292.0 
71.049561 14957.0 
73.956177 4112.0 
79.054466 16904.0 
80.049721 670535.0 
81.033707 84555.0 
81.070259 5952.0 
82.065422 47065.0 
82.400017 3858.0 
84.04438 4037.0 
88.039528 29750.0 
91.054283 48382.0 
93.033531 57630.0 
94.0411 5543.0 
95.049141 23357.0 
96.044327 22368.0 
97.064812 6201.0 
98.060043 544279.0 
99.044121 76790.0 
103.054123 341091.0 
105.069923 4735.0 
107.049156 23978.0 
108.044273 1073332.0 
109.028236 4245.0 
109.05201 20297.0 
109.064453 17271.0 
110.03614 110434.0 
110.06031 5036.0 
111.043983 71673.0 
111.091629 70628.0 
112.038727 7300.0 
112.075401 15706.0 
114.055 57569.0 
115.054207 6878.0 
118.065086 28305.0 
119.048927 48859.0 
121.132431 3733.0 
122.035721 7995.0 
122.059837 8421.0 
123.044189 27829.0 
124.039047 24674.0 
124.051224 13614.0 
124.075378 6852.0 
125.059547 199688.0 
126.054626 6222.0 
127.038803 7977.0 
127.086578 40329.0 
129.069702 21486.0 
131.049011 693134.0 
133.052277 4806.0 
133.064682 7835.0 
134.059479 5317.0 
135.043396 14363.0 
135.080002 23590.0 
136.040436 3457.0 
136.051331 27951.0 
137.046875 353100.0 
137.059479 187568.0 
137.071304 7976.0 
138.055145 37563.0 
139.049957 9375.0 
140.070587 5642.0 
143.04866 5012.0 
144.044312 14825.0 
144.057068 18503.0 
144.080475 91402.0 
145.064499 16806.0 
146.036545 7307.0 
146.060104 67037.0 
147.043747 14466.0 
147.067154 3753.0 
148.051605 34828.0 
148.075623 4608.0 
148.546799 3712.0 
149.059509 52037.0 
150.054672 51128.0 
150.090683 6605.0 
151.039551 6294.0 
151.062805 5690.0 
151.074951 45336.0 
152.070374 634351.0 
153.018173 6086.0 
153.054443 89252.0 
155.05101 47683.0 
155.081268 1236112.0 
157.064636 25849.0 
159.043854 156752.0 
159.06665 8714.0 
159.079971 21978.0 
160.075699 6646.0 
161.046356 54791.0 
161.059479 160242.0 
161.082382 6853.0 
162.054672 338361.0 
163.07518 478725.0 
164.07016 8572.0 
165.065674 635987.0 
166.049728 51713.0 
166.085632 33361.0 
167.081482 28146.0 
171.067291 3952.0 
172.051666 29080.0 
172.075378 248151.0 
173.059738 15154.0 
173.083191 22609.0 
174.091064 16876.0 
175.038452 21776.0 
175.074966 21625.0 
176.070358 1094149.0 
176.10672 23435.0 
177.078186 298019.0 
178.085999 119811.0 
179.093735 6959.0 
180.101562 5534.0 
184.060257 9479.0 
186.029465 4299.0 
186.091415 6005.0 
187.075119 1110482.0 
188.070175 32744.0 
189.054306 157147.0 
189.077927 227328.0 
189.095825 7748.0 
190.085815 7878.0 
191.070816 28064.0 
192.101227 16607.0 
199.062622 8454.0 
200.048996 6540.0 
200.069794 50345.0 
201.054245 78894.0 
202.026291 5005.0 
202.086365 35414.0 
204.101608 1024135.0 
205.048508 18149.0 
206.080856 5289.0 
206.117126 8086.0 
207.064987 4336.0 
209.286209 4910.0 
209.306854 7933.0 
211.070938 499861.0 
214.085312 4534.0 
215.053574 16575.0 
215.069946 40465.0 
216.065704 5900.0 
217.049103 25525.0 
217.073029 45326.0 
218.08107 30452.0 
220.0961 7026.0 
222.075989 31219.0 
224.091446 16133.0 
230.081436 50975.0 
231.065216 4208.0 
232.07016 5289.0 
232.09642 146173.0 
243.052353 8840.0 
244.094589 6688.0 
245.129807 5776.0 
248.091309 379588.0 
257.0672 16643.0 
257.093292 6263.0 
258.075012 22110.0 
263.138763 103179.0 
266.102478 5627.0 
272.091064 209499.0 
273.08606 5283.0 
274.094269 36774.0 
289.117706 2188606.0 
291.132965 150154.0 
335.123047 5339929.0 
336.713837 5229.0 
END IONS

BEGIN IONS
NAME=Hippuric acid CollisionEnergy:102040 M+H
PRECURSOR_MZ=180.066
INCHI="InChI=1S/C9H9NO3/c11-8(12)6-10-9(13)7-4-2-1-3-5-7/h1-5H,6H2,(H,10,13)(H,11,12)"
SMILES=O=C(O)CN=C(O)c1ccccc1
SPECTRUMID=CCMSLIB00010108564
50.015678 5774.0 
51.023651 13507.0 
52.291512 2894.0 
53.039162 15642.0 
61.01112 136743.0 
77.038551 30630.0 
81.033836 16137.0 
95.0494 44982.0 
97.007446 4613.0 
100.024452 4385.0 
101.949783 4347.0 
104.024857 2847.0 
104.755783 3645.0 
105.033562 11282042.0 
105.313187 3887.0 
118.500687 3323.0 
121.188164 2758.0 
134.059937 34881.0 
135.954498 3511.0 
139.000458 38140.0 
151.950562 3654.0 
156.973694 13681.0 
157.011078 642068.0 
162.054977 23366.0 
174.98494 159667.0 
175.055878 3720.0 
180.027527 16274.0 
180.065384 88404.0 
198.00148 12678.0 
END IONS

BEGIN IONS
NAME="N-[4-(trifluoromethyl)phenyl](3,4,5-trimethoxyphenyl)carboxamide CollisionEnergy:205060" M-e
PRECURSOR_MZ=355.103
INCHI="InChI=1S/C17H16F3NO4/c1-23-13-8-10(9-14(24-2)15(13)25-3)16(22)21-12-6-4-11(5-7-12)17(18,19)20/h4-9H,1-3H3,(H,21,22)"
SMILES=COc1cc(C(=O)Nc2ccc(C(F)(F)F)cc2)cc(OC)c1OC
SPECTRUMID=CCMSLIB00010117635
53.039181 4357.0 
63.025318 2244.0 
67.054863 3131.0 
72.080849 3311.0 
74.308434 2416.0 
74.891197 2329.0 
79.054337 14585.0 
81.033768 4837.0 
81.070221 3759.0 
92.366364 3386.0 
95.049049 2460.0 
104.267189 2391.0 
104.274307 2398.0 
105.013443 2365.0 
109.064613 14999.0 
113.023651 2556.0 
113.059334 2514.0 
122.036034 3465.0 
124.052094 23004.0 
128.046661 5550.0 
129.586731 2424.0 
136.189285 2746.0 
137.023865 3649.0 
138.112762 2171.0 
139.039001 2474.0 
139.075516 36033.0 
141.018112 9726.0 
152.046616 47021.0 
154.06221 14916.0 
155.066116 4440.0 
156.04155 11895.0 
157.951126 2642.0 
164.317276 2918.0 
185.081314 3536.0 
193.859482 2201.0 
195.065048 521176.0 
196.068787 2828.0 
205.730347 2426.0 
218.868515 12794.0 
219.203781 2468.0 
220.620316 2828.0 
224.200882 2401.0 
247.191681 2664.0 
247.237762 2375.0 
308.899994 10014.0 
331.915802 4485.0 
355.112183 14281.0 
392.020813 3097.0 
504.633453 2598.0 
515.539062 2370.0 
END IONS

BEGIN IONS
NAME="methyl 8,9-dimethoxy-2,4-dimethyl-5-oxo-6-hydropyridino[3,4-c]quinolinecarboxy late CollisionEnergy:205060" M+H
PRECURSOR_MZ=343.129
INCHI="InChI=1S/C18H18N2O5/c1-8-14-16(15(9(2)19-8)18(22)25-5)10-6-12(23-3)13(24-4)7-11(10)20-17(14)21/h6-7H,1-5H3,(H,20,21)"
SMILES=COC(=O)c1c(C)nc(C)c2c(O)nc3cc(OC)c(OC)cc3c12
SPECTRUMID=CCMSLIB00010116529
54.28994 3025.0 
60.699581 3350.0 
69.07254 3120.0 
74.278137 3042.0 
94.478943 3500.0 
111.252243 3782.0 
129.303909 3690.0 
157.984985 3137.0 
169.300613 3303.0 
184.097946 4445.0 
201.065186 28400.0 
202.073257 24041.0 
209.070465 4137.0 
211.085983 26937.0 
212.093994 241509.0 
213.102798 8399.0 
215.080704 13517.0 
216.087982 8753.0 
221.071121 14700.0 
222.079422 4955.0 
223.086075 82758.0 
224.093674 21962.0 
225.065186 6181.0 
225.101303 28490.0 
226.072937 4628.0 
226.110138 49698.0 
227.081131 105798.0 
231.075928 5344.0 
232.085281 4639.0 
234.156403 3564.0 
237.065735 22415.0 
237.103149 4226.0 
239.080978 187472.0 
239.111053 7722.0 
240.088654 41432.0 
241.096115 51239.0 
243.075836 30038.0 
244.08313 6890.0 
249.064789 29223.0 
250.048218 14290.0 
250.073898 14202.0 
251.081116 59526.0 
252.062759 4707.0 
252.088013 31856.0 
253.060196 7930.0 
253.097107 7026.0 
254.074615 5110.0 
254.105072 19575.0 
255.075989 119575.0 
256.083618 24179.0 
256.1185 4133.0 
257.092194 32473.0 
265.060883 22046.0 
266.068604 6674.0 
267.075867 710739.0 
268.083344 26729.0 
269.091431 669310.0 
270.073639 12187.0 
270.101227 63338.0 
271.106567 18677.0 
272.077881 22496.0 
279.075073 33280.0 
280.083435 209830.0 
281.053955 16134.0 
281.091675 13889.0 
282.063873 8423.0 
282.099762 21534.0 
283.070648 33902.0 
283.106873 114527.0 
284.081635 5672.0 
285.085968 170962.0 
293.054871 6999.0 
295.07074 175663.0 
296.077667 17726.0 
297.086487 22868.0 
298.093933 7371.0 
299.101868 2940754.0 
300.109589 20199.0 
311.101654 558825.0 
313.080994 1293830.0 
314.088684 356605.0 
325.08194 31672.0 
327.09668 3585072.0 
328.10437 440877.0 
329.080719 3828.0 
343.128021 6707797.0 
344.781036 4409.0 
END IONS

BEGIN IONS
NAME=3-hydroxy-5-(4-hydroxy-3-methoxyphenyl)-4-[(4-methoxyphenyl)carbonyl]-3-pyrrol in-2-one CollisionEnergy:205060 M-H
PRECURSOR_MZ=354.098
INCHI="InChI=1S/C19H17NO6/c1-25-12-6-3-10(4-7-12)17(22)15-16(20-19(24)18(15)23)11-5-8-13(21)14(9-11)26-2/h3-9,16,21,23H,1-2H3,(H,20,24)"
SMILES=COc1ccc(C(=O)C2=C(O)C(O)=NC2c2ccc(O)c(OC)c2)cc1
SPECTRUMID=CCMSLIB00010123970
58.97192 2705.0 
64.399117 2665.0 
69.935204 2349.0 
73.971039 2834.0 
93.034073 4272.0 
94.42971 3191.0 
109.029427 3513.0 
117.034431 4826.0 
133.02916 13013.0 
134.025604 4434.0 
134.037094 45581.0 
146.03714 3765.0 
149.060745 18048.0 
160.016312 13079.0 
161.0242 11997.0 
175.025681 3003.0 
175.040604 9285.0 
176.035187 23731.0 
180.057785 2508.0 
187.005112 2684.0 
202.015076 19673.0 
204.029739 15993.0 
208.054138 3958.0 
209.061661 3456.0 
210.031052 2981.0 
224.048645 3015.0 
225.055847 48359.0 
235.039383 2498.0 
236.047455 14514.0 
240.078766 5613.0 
252.04187 9963.0 
253.050446 163984.0 
267.066162 16524.0 
268.073914 74712.0 
280.039856 3192.0 
281.044678 3723.0 
283.096863 20260.0 
295.059448 2751.0 
338.065216 4147.0 
339.073517 4690.0 
354.0979 348218.0 
END IONS

BEGIN IONS
NAME=2-{4-[(6-ethoxy-2-oxochromen-4-yl)methyl]piperazinyl}-N-(4-fluorophenyl)acetam ide CollisionEnergy:205060 M-H
PRECURSOR_MZ=438.183
INCHI="InChI=1S/C24H26FN3O4/c1-2-31-20-7-8-22-21(14-20)17(13-24(30)32-22)15-27-9-11-28(12-10-27)16-23(29)26-19-5-3-18(25)4-6-19/h3-8,13-14H,2,9-12,15-16H2,1H3,(H,26,29)"
SMILES=CCOc1ccc2oc(=O)cc(CN3CCN(CC(=O)Nc4ccc(F)cc4)CC3)c2c1
SPECTRUMID=CCMSLIB00010117790
82.029709 71733.0 
90.034973 14999.0 
94.029907 3431.0 
95.013634 5225.0 
96.045517 13779.0 
108.021851 7315.0 
110.041321 1285885.0 
120.026253 3528.0 
121.029968 4988.0 
122.03714 4091.0 
125.072563 3889.0 
131.050735 5224.0 
132.021912 86345.0 
133.029739 14399.0 
134.037918 3919.0 
134.837265 3444.0 
135.045807 5847.0 
136.020874 18319.0 
136.057144 14824.0 
138.073029 4632.0 
144.046005 14487.0 
145.030045 6378.0 
146.037399 62489.0 
147.045502 16840.0 
149.025238 3780.0 
149.073166 4433.0 
150.035965 60160.0 
154.031204 5539.0 
157.05307 4213.0 
158.038467 3052.0 
158.062332 3605.0 
159.033081 3630.0 
159.046066 5014.0 
160.040466 3677.0 
161.024658 35356.0 
161.048843 23784.0 
161.061172 31904.0 
162.03302 25125.0 
163.040665 7058.0 
165.048813 3588.0 
167.06282 266745.0 
170.062012 4009.0 
172.015976 4719.0 
172.040939 5640.0 
173.023819 6117.0 
173.048294 205660.0 
174.032578 135581.0 
174.05545 24965.0 
175.040176 51059.0 
179.063416 20474.0 
182.061813 3410.0 
183.069107 4405.0 
185.047394 3544.0 
186.019821 26060.0 
186.05658 4484.0 
187.040436 19455.0 
187.063675 12244.0 
188.03537 214150.0 
188.072464 6278.0 
189.042725 89167.0 
191.063431 3674.0 
193.0784 60928.0 
195.094101 236159.0 
196.041748 6121.0 
197.048737 48440.0 
197.667587 3471.0 
198.056168 5543.0 
200.035278 39148.0 
201.043243 85359.0 
201.080078 11869.0 
202.051544 61771.0 
202.087219 43903.0 
203.071716 49251.0 
207.094666 12970.0 
213.04538 7916.0 
214.051361 47236.0 
214.088364 5629.0 
215.05957 53841.0 
215.081573 5101.0 
216.066772 72228.0 
217.075531 17252.0 
218.082153 5254.0 
220.08963 20112.0 
226.051987 3630.0 
226.075378 3890.0 
228.067596 18455.0 
230.082901 12390.0 
234.106049 13483.0 
234.78685 3798.0 
236.120667 85647.0 
239.084747 5455.0 
241.060669 4148.0 
242.070648 6569.0 
243.077133 63019.0 
244.085983 5127.0 
253.099777 5249.0 
254.107239 13786.0 
255.077744 4983.0 
256.086487 20204.0 
257.093597 120789.0 
258.102356 5791.0 
270.101471 20153.0 
271.108368 37647.0 
272.117065 284473.0 
298.097931 12895.0 
299.141449 5088.0 
327.136719 17451.0 
409.144928 94680.0 
409.202362 5348.0 
410.151215 53203.0 
410.201599 3817.0 
438.18399 2869271.0 
448.57016 3697.0 
END IONS

BEGIN IONS
NAME="N-[2-(2,5-dimethylindol-3-yl)ethyl](4-methylphenyl)carboxamide CollisionEnergy:205060" M-H
PRECURSOR_MZ=305.166
INCHI="InChI=1S/C20H22N2O/c1-13-4-7-16(8-5-13)20(23)21-11-10-17-15(3)22-19-9-6-14(2)12-18(17)19/h4-9,12,22H,10-11H2,1-3H3,(H,21,23)"
SMILES=Cc1ccc(C(=O)NCCc2c(C)[nH]c3ccc(C)cc23)cc1
SPECTRUMID=CCMSLIB00010116347
55.418221 2150.0 
68.995323 13214.0 
73.966171 2495.0 
74.327293 2785.0 
92.995613 13914.0 
96.699806 2284.0 
97.92131 2224.0 
106.430717 2318.0 
118.966049 48187.0 
134.061096 131662.0 
142.993561 2917.0 
146.961197 147654.0 
154.992752 3042.0 
174.956131 162484.0 
212.716904 2415.0 
216.989792 3671.0 
220.673935 2549.0 
232.106812 3012.0 
254.987106 5618.0 
270.635376 2419.0 
304.918365 4622.0 
304.982635 145289.0 
305.165894 251540.0 
END IONS

BEGIN IONS
NAME="N-(2,4-dichlorophenyl)-2-[2-(3-ethoxy-4-hydroxyphenyl)-6-hydroxy-3-azabicyclo[ 4.4.0]dec-3-yl]acetamide CollisionEnergy:205060" M+Cl
PRECURSOR_MZ=527.128
INCHI="InChI=1S/C25H30Cl2N2O4/c1-2-33-22-13-16(6-9-21(22)30)24-18-5-3-4-10-25(18,32)11-12-29(24)15-23(31)28-20-8-7-17(26)14-19(20)27/h6-9,13-14,18,24,30,32H,2-5,10-12,15H2,1H3,(H,28,31)"
SMILES=CCOc1cc(C2C3CCCCC3(O)CCN2CC(O)=Nc2ccc(Cl)cc2Cl)ccc1O
SPECTRUMID=CCMSLIB00010121031
57.745331 2682.0 
63.25069 2664.0 
63.425091 2313.0 
78.543983 2416.0 
82.412354 3589.0 
102.359253 2527.0 
104.304543 2965.0 
105.539291 2474.0 
125.533783 2428.0 
136.236725 2423.0 
209.526291 2893.0 
216.9944 5807.0 
440.109833 3029.0 
491.150482 12402.0 
END IONS

BEGIN IONS
NAME="N-{[3,4-dihydroxy-5-(hydroxymethyl)oxolan-2-yl]amino}(3-methoxyphenyl)carboxam ide CollisionEnergy:205060" M+Na
PRECURSOR_MZ=321.106
INCHI="InChI=1S/C13H18N2O6/c1-20-8-4-2-3-7(5-8)12(19)14-15-13-11(18)10(17)9(6-16)21-13/h2-5,9-11,13,15-18H,6H2,1H3,(H,14,19)"
SMILES=COc1cccc(C(O)=NNC2OC(CO)C(O)C2O)c1
SPECTRUMID=CCMSLIB00010125496
53.29908 2356.0 
54.970612 2284.0 
56.513962 2621.0 
79.021446 3103.0 
79.251534 2584.0 
80.010803 4089.0 
80.03315 2307.0 
84.960083 3502.0 
103.795067 2595.0 
113.02092 18401.0 
121.120781 2502.0 
166.705658 2567.0 
170.042694 3032.0 
174.052597 56293.0 
189.063751 2369.0 
198.130295 2478.0 
231.073898 56973.0 
254.936691 2742.0 
260.933563 10273.0 
310.914459 3015.0 
321.10556 1905760.0 
338.911041 10699.0 
END IONS

BEGIN IONS
NAME="1-(2H,3H-benzo[3,4-e]1,4-dioxin-6-yl)-2-(2-5,6,7,8-tetrahydronaphthyloxy)ethan -1-one CollisionEnergy:205060" M+H
PRECURSOR_MZ=325.143
INCHI="InChI=1S/C20H20O4/c21-18(16-6-8-19-20(12-16)23-10-9-22-19)13-24-17-7-5-14-3-1-2-4-15(14)11-17/h5-8,11-12H,1-4,9-10,13H2"
SMILES=O=C(COc1ccc2c(c1)CCCC2)c1ccc2c(c1)OCCO2
SPECTRUMID=CCMSLIB00010120091
50.015739 4159.0 
51.023579 6536.0 
51.53289 3253.0 
53.03907 13946.0 
55.01825 4194.0 
65.03891 12633.0 
66.046806 51476.0 
67.054626 29270.0 
69.033836 6820.0 
77.038727 31218.0 
79.054497 37063.0 
80.025993 33936.0 
81.033699 7172.0 
91.054359 436412.0 
92.374237 4781.0 
93.069923 160321.0 
94.041344 54595.0 
95.049332 24181.0 
98.036102 8226.0 
103.054077 64743.0 
105.033501 73837.0 
105.045227 3663.0 
105.069748 92373.0 
107.012619 7388.0 
107.049103 244041.0 
108.020554 21304.0 
115.054031 8417.0 
116.061974 21666.0 
117.069603 14087.0 
119.049187 7844.0 
119.085373 33715.0 
120.056953 57454.0 
121.028313 16338.0 
121.064713 352445.0 
122.036011 86164.0 
123.043869 230498.0 
128.062149 53385.0 
129.069519 52424.0 
131.049088 79618.0 
131.08551 49685.0 
133.064743 21424.0 
133.101227 111417.0 
134.036194 5119.0 
135.081421 4222.0 
136.051865 914884.0 
137.059662 46557.0 
143.085419 111051.0 
145.064484 4616.0 
146.072403 25723.0 
147.044174 20569.0 
147.080185 122925.0 
148.087997 52998.0 
149.059662 4910104.0 
149.095688 211548.0 
150.067474 58558.0 
153.055267 5515.0 
153.070282 15230.0 
154.026688 7068.0 
159.091858 105198.0 
161.095963 994366.0 
163.038651 521896.0 
165.06929 7456.0 
171.080246 139108.0 
175.075394 36337.0 
177.05452 2404967.0 
178.062302 1681221.0 
179.068024 4480.0 
179.085754 4508.0 
181.063858 5490.0 
189.090805 191444.0 
189.110123 6545.0 
195.116165 6048.0 
207.116089 7091.0 
208.087982 4953.0 
208.228607 14929.0 
209.058472 5236.0 
223.075638 5219.0 
223.112823 7158.0 
235.112534 6034.0 
236.083572 5599.0 
237.090164 69000.0 
238.099136 13828.0 
250.098862 4158.0 
251.105667 15418.0 
264.113739 15401.0 
265.084839 4930.0 
279.137329 202392.0 
303.187592 4648.0 
303.220337 5554.0 
307.132538 126653.0 
325.142792 1086619.0 
END IONS

BEGIN IONS
NAME="(2E)-3-(4,7-dimethoxy(2H-benzo[d]1,3-dioxolen-5-yl))-1-(2-fluorophenyl)prop-2- en-1-one CollisionEnergy:205060" M+Na
PRECURSOR_MZ=353.08
INCHI="InChI=1S/C18H15FO5/c1-21-15-9-11(16(22-2)18-17(15)23-10-24-18)7-8-14(20)12-5-3-4-6-13(12)19/h3-9H,10H2,1-2H3/b8-7+"
SMILES=COc1cc(C=CC(=O)c2ccccc2F)c(OC)c2c1OCO2
SPECTRUMID=CCMSLIB00010115490
50.50708 2291.0 
56.965199 3477.0 
84.960373 4432.0 
92.372421 2316.0 
113.205009 2737.0 
155.023849 2502.0 
199.903488 2577.0 
203.958374 2332.0 
208.584305 5655.0 
299.071259 46528.0 
308.045502 13701.0 
321.055328 17331.0 
323.069183 41629.0 
339.063416 15367.0 
353.079193 596918.0 
371.08905 4092.0 
END IONS

BEGIN IONS
NAME=8-{2-[4-(tert-butyl)phenoxy]ethylthio}purine-6-ylamine CollisionEnergy:102040 M+H
PRECURSOR_MZ=344.154
INCHI="InChI=1S/C17H21N5OS/c1-17(2,3)11-4-6-12(7-5-11)23-8-9-24-16-21-13-14(18)19-10-20-15(13)22-16/h4-7,10H,8-9H2,1-3H3,(H3,18,19,20,21,22)"
SMILES=CC(C)(C)c1ccc(OCCSc2nc3c(N)ncnc3[nH]2)cc1
SPECTRUMID=CCMSLIB00010104208
54.144329 2816.0 
57.070301 51040.0 
65.102417 3094.0 
70.47818 3084.0 
82.211693 3545.0 
91.053627 4782.0 
93.069443 4919.0 
103.278526 3084.0 
107.085693 4338.0 
121.06472 21295.0 
135.080399 13614.0 
136.06134 13509.0 
136.197388 3500.0 
139.006653 7670.0 
150.077011 6880.0 
152.027405 12664.0 
155.046143 3243.0 
159.06572 4437.0 
165.216263 3179.0 
166.017975 646934.0 
167.02562 373073.0 
168.01741 6854.0 
168.033524 214004.0 
177.022675 47804.0 
177.126511 11397.0 
194.04921 2092561.0 
195.032623 13342.0 
207.044632 19747.0 
260.058746 36450.0 
288.090637 244332.0 
316.12207 43692.0 
342.509705 4920.0 
344.153229 7001013.0 
345.806793 4685.0 
END IONS

BEGIN IONS
NAME=N-(4-fluorophenyl)-2-[2-oxo-4-(pyrrolidinylcarbonyl)hydroquinolyl]acetamide CollisionEnergy:102040 M-H
PRECURSOR_MZ=392.142
INCHI="InChI=1S/C22H20FN3O3/c23-15-7-9-16(10-8-15)24-20(27)14-26-19-6-2-1-5-17(19)18(13-21(26)28)22(29)25-11-3-4-12-25/h1-2,5-10,13H,3-4,11-12,14H2,(H,24,27)"
SMILES=O=C(Cn1c(=O)cc(C(=O)N2CCCC2)c2ccccc21)Nc1ccc(F)cc1
SPECTRUMID=CCMSLIB00010114211
58.43578 3170.0 
73.959442 2626.0 
104.293907 2885.0 
110.041153 96533.0 
111.045357 2677.0 
128.050659 305018.0 
131.037872 13555.0 
142.066269 22748.0 
144.045197 5428.0 
146.061249 4909.0 
156.0457 31472.0 
157.038651 6508.0 
157.053406 171566.0 
158.025024 45669.0 
169.077103 3811.0 
172.040375 40723.0 
174.056396 18209.0 
176.0354 15790.0 
183.093338 25040.0 
184.040558 295986.0 
185.048965 20840.0 
197.108292 4303.0 
202.049789 4790.0 
208.322708 4050.0 
208.342789 6459.0 
211.124084 48600.0 
212.108459 13189.0 
213.103714 84248.0 
223.087326 19695.0 
225.104156 22224.0 
227.119522 141440.0 
229.097473 23028.0 
241.098572 296602.0 
255.114319 298752.0 
257.093567 175912.0 
273.125488 14500.0 
281.093506 244149.0 
370.710968 2837.0 
392.142303 1823850.0 
398.290649 2848.0 
END IONS

BEGIN IONS
NAME=N-(2-fluorophenyl)-2-(9-methyl-6-oxohydropurin-8-ylthio)acetamide CollisionEnergy:205060 2M-H
PRECURSOR_MZ=665.132
INCHI="InChI=1S/C14H12FN5O2S/c1-20-12-11(13(22)17-7-16-12)19-14(20)23-6-10(21)18-9-5-3-2-4-8(9)15/h2-5,7H,6H2,1H3,(H,18,21)(H,16,17,22)"
SMILES=Cn1c(SCC(O)=Nc2ccccc2F)nc2c(O)ncnc21
SPECTRUMID=CCMSLIB00010121465
63.52948 2750.0 
73.972733 3773.0 
92.399986 3316.0 
93.652603 2953.0 
104.31382 2715.0 
128.801102 2863.0 
141.191818 3108.0 
149.04715 11152.0 
179.002899 3860.0 
180.01123 30448.0 
181.019455 13295.0 
208.800156 12383.0 
233.481079 3569.0 
312.056824 6075.0 
332.063232 26772.0 
END IONS

BEGIN IONS
NAME=8-[(4-fluorophenyl)methylthio]-9-(4-methylphenyl)hydropurin-6-one CollisionEnergy:205060 M-H
PRECURSOR_MZ=365.088
INCHI="InChI=1S/C19H15FN4OS/c1-12-2-8-15(9-3-12)24-17-16(18(25)22-11-21-17)23-19(24)26-10-13-4-6-14(20)7-5-13/h2-9,11H,10H2,1H3,(H,21,22,25)"
SMILES=Cc1ccc(-n2c(SCc3ccc(F)cc3)nc3c(O)ncnc32)cc1
SPECTRUMID=CCMSLIB00010121124
57.975189 133443.0 
65.013901 17805.0 
65.998207 2993.0 
70.000504 2263.0 
92.025047 10891.0 
92.382851 4244.0 
144.806183 2719.0 
155.061508 151318.0 
156.056702 25955.0 
182.946686 2453.0 
197.059357 98177.0 
198.066467 22145.0 
209.620132 4394.0 
223.062576 4809.0 
225.078217 109851.0 
228.023605 42570.0 
255.034698 372362.0 
256.042542 716858.0 
278.986481 4294.0 
322.080658 4623.0 
344.977692 3957.0 
365.087372 216302.0 
END IONS

BEGIN IONS
NAME="[3-(4-chloro-6,7-dimethoxy-2H-benzo[3,4-d]1,3-dioxolen-5-yl)isoxazol-5-yl]meth an-1-ol CollisionEnergy:205060" M+Na
PRECURSOR_MZ=336.025
INCHI="InChI=1S/C13H12ClNO6/c1-17-10-8(7-3-6(4-16)21-15-7)9(14)11-13(12(10)18-2)20-5-19-11/h3,16H,4-5H2,1-2H3"
SMILES=COc1c2c(c(Cl)c(-c3cc(CO)on3)c1OC)OCO2
SPECTRUMID=CCMSLIB00010118367
73.498802 2066.0 
84.884262 2451.0 
85.069092 2231.0 
87.261093 2260.0 
140.21814 2319.0 
154.741333 2261.0 
185.268829 2174.0 
303.981476 2368.0 
321.001129 4284.0 
336.023682 166759.0 
END IONS

BEGIN IONS
NAME=N-indole-3-yl-acetyl-alanine CollisionEnergy:102040 M+Na
PRECURSOR_MZ=269.09
INCHI="InChI=1S/C13H14N2O3/c1-8(13(17)18)15-12(16)6-9-7-14-11-5-3-2-4-10(9)11/h2-5,7-8,14H,6H2,1H3,(H,15,16)(H,17,18)/t8-/m0/s1"
SMILES=C[C@@H](C(=O)O)NC(=O)CC1=CNC2=CC=CC=C21
SPECTRUMID=CCMSLIB00010102209
60.210457 20671.908203 
80.907791 22698.755859 
82.439178 33680.5 
85.783821 22843.957031 
112.036636 91922.757812 
113.416359 21233.162109 
131.418365 24250.998047 
185.480286 26637.535156 
198.052277 774330.5625 
211.317551 21565.322266 
269.087982 8721154.0 
END IONS

BEGIN IONS
NAME=dADP CollisionEnergy:102040 M-H
PRECURSOR_MZ=410.027
INCHI="InChI=1S/C10H15N5O9P2/c11-9-8-10(13-3-12-9)15(4-14-8)7-1-5(16)6(23-7)2-22-26(20,21)24-25(17,18)19/h3-7,16H,1-2H2,(H,20,21)(H2,11,12,13)(H2,17,18,19)/t5-,6+,7+/m0/s1"
SMILES=Nc1ncnc2c1ncn2[C@H]1C[C@H](O)[C@@H](COP(=O)(O)OP(=O)(O)O)O1
SPECTRUMID=CCMSLIB00010102829
78.958801 217898.0 
82.424202 2821.909912 
83.969299 2498.47998 
92.403 2779.090088 
96.969597 16440.699219 
134.046997 5867.589844 
136.246994 3691.350098 
150.654999 2537.300049 
158.910004 4846.5 
158.925003 145056.0 
176.936005 9231.280273 
176.996002 5991.370117 
195.738007 2696.719971 
209.604996 7302.22998 
214.014999 3700.590088 
256.962006 18100.400391 
274.972992 38056.601562 
275.003998 3831.23999 
328.834991 2566.27002 
392.016998 33926.0 
398.65799 2441.929932 
410.028015 336371.0 
END IONS

BEGIN IONS
NAME="7,2'-DIHYDROXYFLAVONE CollisionEnergy:205060" M+H
PRECURSOR_MZ=255.065
INCHI="InChI=1S/C15H10O4/c16-9-5-6-11-13(18)8-15(19-14(11)7-9)10-3-1-2-4-12(10)17/h1-8,16-17H"
SMILES=O=c1cc(-c2ccccc2O)oc2cc(O)ccc12
SPECTRUMID=CCMSLIB00010125722
51.43066 2358.0 
55.018429 5730.0 
55.934799 4378.0 
65.039108 4464.0 
68.997711 4009.0 
73.945618 2430.0 
81.033577 2981.0 
82.389763 2503.0 
84.960609 2687.0 
91.054489 52470.0 
105.033363 5357.0 
118.572647 2322.0 
119.049316 23081.0 
121.027901 10138.0 
128.06218 15740.0 
129.069778 22696.0 
131.048935 4821.0 
131.085098 4048.0 
133.028229 11921.0 
134.03595 3074.0 
137.023422 165318.0 
143.085251 13802.0 
145.028549 32680.0 
149.023132 11220.0 
152.06163 9826.0 
153.070007 54681.0 
157.064972 33991.0 
165.069153 2902.0 
169.064697 5503.0 
171.080429 31779.0 
181.064804 81404.0 
182.073395 2617.0 
184.0513 9657.0 
185.060059 5584.0 
197.059525 4012.0 
198.06691 4060.0 
199.075439 285015.0 
209.058929 11381.0 
211.074677 4763.0 
213.921753 4115.0 
226.062836 3650.0 
227.070236 103893.0 
231.931107 2828.0 
237.054321 46953.0 
255.065033 1185923.0 
END IONS

BEGIN IONS
NAME="methyl 15-acetyl-5,15-diazahexacyclo[14.2.2.1<1,5>.0<8,16>.0<8,21>.0<9,14>]hen icosa-9,11,13-triene-17-carboxylate CollisionEnergy:102040" M-e
PRECURSOR_MZ=380.21
INCHI="InChI=1S/C23H28N2O3/c1-15(26)25-18-7-4-3-6-16(18)22-11-13-24-12-5-8-21(20(22)24)9-10-23(22,25)17(14-21)19(27)28-2/h3-4,6-7,17,20H,5,8-14H2,1-2H3"
SMILES=COC(=O)C1CC23CCCN4CCC5(c6ccccc6N(C(C)=O)C15CC2)C43
SPECTRUMID=CCMSLIB00010104685
65.087334 2957.0 
66.740196 3243.0 
72.532791 2727.0 
74.7146 2564.0 
252.157578 3617.0 
262.867004 3480.0 
277.170044 3773.0 
278.172272 14171.0 
289.140167 3280.0 
294.16806 11853.0 
305.163544 18158.0 
306.16745 139178.0 
320.183136 16198.0 
338.196777 19647.0 
347.174988 39445.0 
348.17807 1002243.0 
380.204254 3399322.0 
381.216217 58948.0 
505.295532 3471.0 
END IONS

BEGIN IONS
NAME="2-amino-3-[4-(3,5-diiodo-4-methoxyphenoxy)-3,5-diiodophenyl]propanoic acid CollisionEnergy:102040" M+H
PRECURSOR_MZ=791.71
INCHI="InChI=1S/C16H13I4NO4/c1-24-14-11(19)5-8(6-12(14)20)25-15-9(17)2-7(3-10(15)18)4-13(21)16(22)23/h2-3,5-6,13H,4,21H2,1H3,(H,22,23)"
SMILES=COc1c(I)cc(Oc2c(I)cc(CC(N)C(=O)O)cc2I)cc1I
SPECTRUMID=CCMSLIB00010114711
58.23333 3293.0 
61.609489 2885.0 
66.750549 4461.0 
73.96386 3543.0 
75.500076 3287.0 
76.812592 3320.0 
88.039413 26538.0 
104.30191 4872.0 
149.758148 4047.0 
158.001907 3008.0 
159.772095 3296.0 
197.060074 3721.0 
220.674454 3334.0 
250.332565 4336.0 
266.996368 4131.0 
273.972351 13014.0 
309.949646 4682.0 
322.954926 3524.0 
323.964264 26978.0 
330.272644 3141.0 
337.944611 5033.0 
363.983307 4771.0 
364.991974 6870.0 
379.951385 4725.0 
617.79071 3549.0 
633.765503 12920.0 
745.550232 4815.0 
745.70343 131890.0 
791.709595 313403.0 
END IONS

BEGIN IONS
NAME=L-Carnosine CollisionEnergy:102040 2M-H
PRECURSOR_MZ=451.206
INCHI="InChI=1S/C9H14N4O3/c10-2-1-8(14)13-7(9(15)16)3-6-4-11-5-12-6/h4-5,7H,1-3,10H2,(H,11,12)(H,13,14)(H,15,16)/t7-/m0/s1"
SMILES=NCCC(O)=N[C@@H](Cc1cnc[nH]1)C(=O)O
SPECTRUMID=CCMSLIB00010102834
50.115501 2254.939941 
60.000999 2205.360107 
65.759903 2351.800049 
66.745201 3778.090088 
118.661003 3197.399902 
122.305 2404.379883 
136.606003 2501.560059 
154.061996 2978.629883 
185.403 2894.48999 
225.100006 15360.200195 
282.178009 2669.050049 
END IONS

BEGIN IONS
NAME=2-oxo-2-(4-phenylcarbonyloxyphenyl)ethyl 2-(phenylcarbonylamino)acetate CollisionEnergy:102040 M+H
PRECURSOR_MZ=418.129
INCHI="InChI=1S/C24H19NO6/c26-21(16-30-22(27)15-25-23(28)18-7-3-1-4-8-18)17-11-13-20(14-12-17)31-24(29)19-9-5-2-6-10-19/h1-14H,15-16H2,(H,25,28)"
SMILES=O=C(CN=C(O)c1ccccc1)OCC(=O)c1ccc(OC(=O)c2ccccc2)cc1
SPECTRUMID=CCMSLIB00010110887
51.02356 9360.0 
53.039131 15916.0 
58.73748 3351.0 
73.966667 4734.0 
77.039352 30128.0 
85.463989 3365.0 
94.290283 3899.0 
95.049171 17424.0 
105.033607 5710581.0 
107.04998 3652.0 
124.048218 3468.0 
134.060089 1758208.0 
135.044983 4136.0 
136.235947 5110.0 
152.070389 47061.0 
162.055008 6704060.0 
187.292252 3612.0 
208.758255 13845.0 
222.91539 3247.0 
224.406342 3649.0 
257.080841 69826.0 
296.091217 58956.0 
390.585327 3702.0 
400.118134 19023.0 
418.128082 694589.0 
END IONS

BEGIN IONS
NAME="2-amino-4-(3-chlorophenyl)-6-(hydroxymethyl)-8-oxo-4H-pyrano[3,2-b]pyran-3-car bonitrile CollisionEnergy:102040" M-H
PRECURSOR_MZ=329.033
INCHI="InChI=1S/C16H11ClN2O4/c17-9-3-1-2-8(4-9)13-11(6-18)16(19)23-14-12(21)5-10(7-20)22-15(13)14/h1-5,13,20H,7,19H2"
SMILES=N#CC1=C(N)Oc2c(oc(CO)cc2=O)C1c1cccc(Cl)c1
SPECTRUMID=CCMSLIB00010109876
59.5214 2638.0 
65.014099 2629957.0 
68.013687 3683.0 
68.699661 2804.0 
73.965103 3245.0 
80.213348 2407.0 
85.983643 2578.0 
90.933418 4895.0 
95.013702 11257.0 
99.253937 2576.0 
108.009117 12059.0 
122.024719 12136.0 
131.472687 2763.0 
192.929108 9370.0 
201.022614 37779.0 
206.001892 10344.0 
217.01622 3537.0 
220.017258 4348.0 
221.001633 23790.0 
229.017792 4137.0 
231.031586 4294.0 
248.011765 10881.0 
260.012482 3979.0 
271.731659 3180.0 
302.022705 130101.0 
311.023773 5916.0 
328.980743 2662.0 
329.036133 58522.0 
END IONS

BEGIN IONS
NAME=N-(5-chloro(2-pyridyl))-2-{1-[(4-chlorophenyl)carbonyl]-5-methoxy-2-methylindo l-3-yl}acetamide CollisionEnergy:205060 M+Na
PRECURSOR_MZ=490.07
INCHI="InChI=1S/C24H19Cl2N3O3/c1-14-19(12-23(30)28-22-10-7-17(26)13-27-22)20-11-18(32-2)8-9-21(20)29(14)24(31)15-3-5-16(25)6-4-15/h3-11,13H,12H2,1-2H3,(H,27,28,30)"
SMILES=COc1ccc2c(c1)c(CC(O)=Nc1ccc(Cl)cn1)c(C)n2C(=O)c1ccc(Cl)cc1
SPECTRUMID=CCMSLIB00010120024
64.353691 2644.0 
66.746147 3161.0 
79.37056 2195.0 
88.479538 2503.0 
104.29464 2634.0 
119.849747 2502.0 
136.213699 2710.0 
157.978088 2758.0 
226.331085 2865.0 
257.906738 2743.0 
417.214844 2985.0 
478.36615 2832.0 
490.068268 388324.0 
490.341339 9100.0 
END IONS

BEGIN IONS
NAME="(2E)-1-[1-(4-methoxyphenyl)(1,2,3,4-tetrahydrobeta-carbolin-2-yl)]-3-(3,4,5-tr imethoxyphenyl)prop-2-en-1-one CollisionEnergy:102040" M-H
PRECURSOR_MZ=497.208
INCHI="InChI=1S/C30H30N2O5/c1-34-21-12-10-20(11-13-21)29-28-23(22-7-5-6-8-24(22)31-28)15-16-32(29)27(33)14-9-19-17-25(35-2)30(37-4)26(18-19)36-3/h5-14,17-18,29,31H,15-16H2,1-4H3/b14-9+"
SMILES=COc1ccc(C2c3[nH]c4ccccc4c3CCN2C(=O)C=Cc2cc(OC)c(OC)c(OC)c2)cc1
SPECTRUMID=CCMSLIB00010112008
69.07859 3518.0 
101.415428 3162.0 
106.774887 3623.0 
112.985992 14639.0 
140.347244 3591.0 
160.823853 4011.0 
167.061371 3209.0 
204.819809 3310.0 
205.051163 25414.0 
208.106934 7986.0 
232.076874 286280.0 
233.084854 1868844.0 
236.093353 7921.0 
248.108353 1166634.0 
261.103668 34868.0 
275.119354 37405.0 
275.53833 3511.0 
276.127045 54079.0 
283.443909 3552.0 
329.1297 16637.0 
330.11615 3413.0 
342.516449 3187.0 
360.111115 6564.0 
363.142456 4119.0 
375.136078 18475.0 
376.145569 24414.0 
390.982788 4534.0 
391.399017 3653.0 
424.151459 4001.0 
452.138245 6193.0 
456.974762 5390.0 
467.161438 19404.0 
476.978577 4013.0 
482.108673 4755.0 
482.185425 16130.0 
497.208923 4287433.0 
1020.748901 4196.0 
END IONS

BEGIN IONS
NAME=NSC700145 CollisionEnergy:102040 M+Na
PRECURSOR_MZ=471.09
INCHI="InChI=1S/C21H20O11/c22-7-16-18(27)19(28)20(29)21(32-16)30-9-4-12(25)17-13(26)6-14(31-15(17)5-9)8-1-2-10(23)11(24)3-8/h1-6,16,18-25,27-29H,7H2"
SMILES=O=c1cc(-c2ccc(O)c(O)c2)oc2cc(OC3OC(CO)C(O)C(O)C3O)cc(O)c12
SPECTRUMID=CCMSLIB00010110255
50.6623 2323.0 
92.37056 3189.0 
144.815018 2500.0 
309.035828 27897.0 
471.089355 794344.0 
489.098694 4636.0 
END IONS

BEGIN IONS
NAME="(3,5-dimethoxyphenyl)-N-(3-carbazol-9-ylpropyl)carboxamide CollisionEnergy:102040" M+H
PRECURSOR_MZ=389.186
INCHI="InChI=1S/C24H24N2O3/c1-28-18-14-17(15-19(16-18)29-2)24(27)25-12-7-13-26-22-10-5-3-8-20(22)21-9-4-6-11-23(21)26/h3-6,8-11,14-16H,7,12-13H2,1-2H3,(H,25,27)"
SMILES=COc1cc(OC)cc(C(O)=NCCCn2c3ccccc3c3ccccc32)c1
SPECTRUMID=CCMSLIB00010107048
51.74131 3172.0 
53.038731 3622.0 
60.43803 3316.0 
73.967117 3283.0 
79.054642 5171.0 
82.415993 3417.0 
84.263969 2706.0 
92.026199 2861.0 
104.307533 4608.0 
109.064903 6955.0 
122.036346 45746.0 
125.059753 12075.0 
136.23848 4101.0 
137.059799 13209.0 
147.390305 3686.0 
151.075531 20080.0 
155.070251 342345.0 
158.010117 3884.0 
165.054703 3029432.0 
178.087662 3881.0 
180.081543 14220.0 
194.080368 3595.0 
207.088547 3990.0 
222.112427 3878845.0 
250.632401 3762.0 
353.456207 3467.0 
389.185577 1690200.0 
END IONS

BEGIN IONS
NAME="{4-[(3,5-dimethoxyphenyl)carbonyl]phenyl}-N-[5-(4-fluorophenoxy)-3-nitrophenyl ]carboxamide CollisionEnergy:205060" M-H
PRECURSOR_MZ=515.126
INCHI="InChI=1S/C28H21FN2O7/c1-36-24-11-19(12-25(16-24)37-2)27(32)17-3-5-18(6-4-17)28(33)30-21-13-22(31(34)35)15-26(14-21)38-23-9-7-20(29)8-10-23/h3-16H,1-2H3,(H,30,33)"
SMILES=COc1cc(OC)cc(C(=O)c2ccc(C(=O)Nc3cc(Oc4ccc(F)cc4)cc([N+](=O)[O-])c3)cc2)c1
SPECTRUMID=CCMSLIB00010122099
50.03788 2843.0 
53.364929 2739.0 
65.425873 2515.0 
69.034157 3353.0 
88.019333 22106.0 
89.998383 25340.0 
92.995522 3392.0 
95.013321 3525.0 
104.318077 3626.0 
107.013847 11227.0 
108.021767 13527.0 
111.025047 18085.0 
118.96608 3773.0 
123.008751 4855.0 
125.02459 20529.0 
129.268616 2828.0 
135.008896 47223.0 
143.050293 14444.0 
145.029922 11990.0 
145.065155 4434.0 
146.961334 79981.0 
148.003082 3771.0 
155.05043 17138.0 
158.03685 4201.0 
167.050323 37174.0 
169.029587 3640.0 
170.037842 3472.0 
171.045319 29967.0 
173.025009 4774.0 
174.882614 3265.0 
174.956238 71240.0 
179.010284 33835.0 
182.037704 57852.0 
183.04538 100828.0 
185.024734 4948.0 
186.032028 15070.0 
187.040268 32517.0 
197.026199 20504.0 
198.03421 17724.0 
199.041595 6114.0 
210.03241 27346.0 
211.040298 163627.0 
213.019684 17566.0 
214.028091 29085.0 
215.038574 32594.0 
226.028809 5671.0 
242.02623 29393.0 
242.943832 52954.0 
244.041809 52928.0 
245.037155 51468.0 
247.05188 4818.0 
248.035049 4820.0 
273.029633 7247.0 
310.93158 13344.0 
320.072876 14010.0 
321.067749 20571.0 
340.983032 3187.0 
353.828125 3395.0 
360.051453 3002.0 
426.07666 6223.0 
428.975952 4700.0 
438.076447 6341.0 
454.069031 4351.0 
455.072113 6123.0 
456.075928 33062.0 
457.085571 14155.0 
468.080933 4381.0 
471.103119 23616.0 
484.07074 22996.0 
485.079498 404402.0 
494.972137 4276.0 
499.092529 28319.0 
500.099731 4049.0 
515.126587 1423790.0 
END IONS

BEGIN IONS
NAME=H-PHE-BETANA CollisionEnergy:205060 M+Na
PRECURSOR_MZ=313.131
INCHI="InChI=1S/C19H18N2O/c20-18(12-14-6-2-1-3-7-14)19(22)21-17-11-10-15-8-4-5-9-16(15)13-17/h1-11,13,18H,12,20H2,(H,21,22)/t18-/m0/s1"
SMILES=NC(Cc1ccccc1)C(O)=Nc1ccc2ccccc2c1
SPECTRUMID=CCMSLIB00010116869
58.698181 2781.0 
63.808369 2842.0 
67.220833 2279.0 
75.742363 2449.0 
83.612549 2443.0 
84.959846 10962.0 
91.054283 46065.0 
118.638367 2870.0 
118.647522 2535.0 
122.036293 3611.0 
122.201508 2627.0 
124.109306 2655.0 
133.479584 2809.0 
141.054474 12640.0 
146.071136 3963.0 
147.077728 12990.0 
148.082153 5896.0 
149.022964 10755.0 
149.070969 18530.0 
150.073975 11934.0 
151.038788 129809.0 
152.042175 108724.0 
155.07019 20045.0 
156.073441 18134.0 
165.05455 23238.0 
166.057877 26505.0 
174.066208 6444.0 
175.069244 12531.0 
181.841614 3224.0 
192.910751 3652.0 
207.50325 15294.0 
254.091904 31434.0 
255.09491 156583.0 
269.114166 3944.0 
270.118744 5555.0 
291.348389 2894.0 
297.106445 12571.0 
298.113556 23818.0 
303.209686 6101.0 
313.13089 2955427.0 
END IONS

BEGIN IONS
NAME=N-(3-chloro-4-methoxyphenyl)-2-(9-methyl-6-oxohydropurin-8-ylthio)butanamide CollisionEnergy:102040 M-H
PRECURSOR_MZ=406.075
INCHI="InChI=1S/C17H18ClN5O3S/c1-4-12(15(24)21-9-5-6-11(26-3)10(18)7-9)27-17-22-13-14(23(17)2)19-8-20-16(13)25/h5-8,12H,4H2,1-3H3,(H,21,24)(H,19,20,25)"
SMILES=CCC(Sc1nc2c(O)ncnc2n1C)C(O)=Nc1ccc(OC)c(Cl)c1
SPECTRUMID=CCMSLIB00010111896
63.710789 2448.0 
73.956947 2921.0 
91.829079 2230.0 
104.95755 2245.0 
106.586731 2412.0 
140.998276 10034.0 
149.046997 206191.0 
179.003403 5512.0 
180.011261 496309.0 
180.060547 11412.0 
181.019073 319848.0 
223.065811 86615.0 
229.745483 2752.0 
240.996582 25004.0 
249.044403 18476.0 
256.02063 145522.0 
263.408386 2821.0 
282.4133 2777.0 
289.037262 32224.0 
304.060852 67050.0 
320.037384 5943.0 
406.074677 565021.0 
END IONS

BEGIN IONS
NAME=MEGLUTOL CollisionEnergy:205060 M+Na
PRECURSOR_MZ=185.042
INCHI="InChI=1S/C6H10O5/c1-6(11,2-4(7)8)3-5(9)10/h11H,2-3H2,1H3,(H,7,8)(H,9,10)"
SMILES=CC(O)(CC(=O)O)CC(=O)O
SPECTRUMID=CCMSLIB00010124819
57.550159 13615.0 
92.998123 12245.0 
114.956459 65314.0 
115.964523 29563.0 
116.972366 94075.0 
118.632263 14311.0 
132.966461 22085.0 
156.974838 14385.0 
157.944046 14061.0 
160.417465 12715.0 
174.984268 108572.0 
184.968918 117201.0 
185.042145 629926.0 
202.518936 14349.0 
END IONS

BEGIN IONS
NAME=Pterin CollisionEnergy:102040 M+H
PRECURSOR_MZ=164.057
INCHI="InChI=1S/C6H5N5O/c7-6-10-4-3(5(12)11-6)8-1-2-9-4/h1-2H,(H3,7,9,10,11,12)"
SMILES=N=c1nc(O)c2nccnc2[nH]1
SPECTRUMID=CCMSLIB00010126882
60.5588 411754.0 
64.968803 401373.0 
68.834198 437979.0 
92.024696 586514.0 
96.055702 3480110.0 
98.190399 520166.0 
104.321999 482701.0 
110.035004 842807.0 
118.697998 475854.0 
119.035004 6198280.0 
121.051003 15679800.0 
136.061996 800424.0 
137.044998 12258400.0 
147.029999 3779910.0 
164.056 395295008.0 
165.039993 58174600.0 
END IONS

BEGIN IONS
NAME=3-({2-[2-methyl-5-(phenylmethoxy)indol-3-yl]ethyl}amino)-5-phenyl-2-propanoylc yclohex-2-en-1-one CollisionEnergy:102040 M-H
PRECURSOR_MZ=505.25
INCHI="InChI=1S/C33H34N2O3/c1-3-31(36)33-30(18-25(19-32(33)37)24-12-8-5-9-13-24)34-17-16-27-22(2)35-29-15-14-26(20-28(27)29)38-21-23-10-6-4-7-11-23/h4-15,20,25,34-35H,3,16-19,21H2,1-2H3"
SMILES=CCC(=O)C1=C(NCCc2c(C)[nH]c3ccc(OCc4ccccc4)cc23)CC(c2ccccc2)CC1=O
SPECTRUMID=CCMSLIB00010104764
73.972198 3776.0 
75.064613 2670.0 
103.604347 3050.0 
104.311043 3256.0 
120.711082 2596.0 
125.179352 2610.0 
158.061279 25958.0 
164.927536 5429.0 
171.069107 29174.0 
174.955338 3124.0 
186.093826 4194.0 
222.506012 2822.0 
226.087067 51418.0 
232.913757 5101.0 
240.103394 19944.0 
242.118561 470718.0 
242.942749 3276.0 
242.986343 3958.0 
254.119553 18781.0 
256.134216 5504.0 
300.903839 4927.0 
304.985901 4514.0 
354.979462 5820.0 
358.16864 5062.0 
368.888794 4561.0 
374.988525 3493.0 
378.978027 10881.0 
413.18689 3438.0 
414.194672 801282.0 
420.969208 3417.0 
444.973511 16684.0 
449.224121 6409.0 
464.976471 19010.0 
484.980469 19005.0 
504.977356 81271.0 
505.249725 703719.0 
847.42627 2937.0 
END IONS

BEGIN IONS
NAME=6-chloro-4-hydroxychromen-2-one CollisionEnergy:205060 M+H
PRECURSOR_MZ=197.0
INCHI="InChI=1S/C9H5ClO3/c10-5-1-2-8-6(3-5)7(11)4-9(12)13-8/h1-4,11H"
SMILES=O=c1cc(O)c2cc(Cl)ccc2o1
SPECTRUMID=CCMSLIB00010118747
51.023491 3679.0 
53.039089 4863.0 
58.960979 26763.0 
65.039169 3972.0 
68.997581 517298.0 
73.949654 3117.0 
75.02301 3060.0 
82.101883 2693.0 
86.999687 11685.0 
89.038803 31239.0 
90.046272 3273.0 
93.033737 16031.0 
94.041718 23696.0 
95.049294 5270.0 
97.216904 3307.0 
98.999512 40951.0 
104.284393 3047.0 
111.044006 20602.0 
112.43428 2767.0 
113.015297 43906.0 
113.986191 3558.0 
117.034416 3236.0 
118.041283 17951.0 
118.651077 4590.0 
125.015327 439083.0 
126.994873 36512.0 
129.010223 436187.0 
132.958649 4710.0 
134.036026 4061.0 
138.067352 14020.0 
139.006668 4764.0 
140.04686 5873.0 
141.0103 43415.0 
145.005249 4529.0 
149.962936 3158.0 
153.010071 66362.0 
153.578583 2711.0 
154.06311 5523.0 
154.989487 1738783.0 
155.07074 12157.0 
163.038101 6258.0 
164.047318 3081.0 
164.062546 3417.0 
167.035446 3852.0 
167.070618 11603.0 
167.086426 3271.0 
169.086365 16327.0 
172.042343 3685.0 
172.999985 49919.0 
174.546432 17368.0 
178.988922 5858.0 
186.053543 5440.0 
193.078201 4409.0 
195.993103 3253.0 
197.000092 4945499.0 
197.079559 48652.0 
213.08371 13430.0 
306.649902 3143.0 
END IONS

BEGIN IONS
NAME=cholic acid CollisionEnergy:102040 M-H
PRECURSOR_MZ=407.28
INCHI="InChI=1S/C24H40O5/c1-13(4-7-21(28)29)16-5-6-17-22-18(12-20(27)24(16,17)3)23(2)9-8-15(25)10-14(23)11-19(22)26/h13-20,22,25-27H,4-12H2,1-3H3,(H,28,29)/t13-,14+,15-,16-,17+,18+,19-,20+,22+,23+,24-/m1/s1"
SMILES=C[C@H](CCC(=O)O)[C@H]1CC[C@H]2[C@H]3[C@H](C[C@H](O)[C@@]21C)[C@@]1(C)CC[C@@H](O)C[C@H]1C[C@H]3O
SPECTRUMID=CCMSLIB00010102860
56.0625 95482.703125 
58.991199 87730.0 
59.563499 97873.703125 
68.906502 89987.296875 
73.983902 122014.0 
144.25 103673.0 
158.039001 141397.0 
160.132996 122202.0 
246.350998 108169.0 
251.354996 103193.0 
267.088013 104754.0 
289.220001 190767.0 
325.253998 132241.0 
343.264008 1001900.0 
345.281006 220277.0 
363.290985 620820.0 
395.769989 110308.0 
407.281006 34821500.0 
END IONS

BEGIN IONS
NAME=N-(2-methoxyphenyl)-2-(9-methyl-6-oxohydropurin-8-ylthio)acetamide CollisionEnergy:205060 M+Na
PRECURSOR_MZ=368.079
INCHI="InChI=1S/C15H15N5O3S/c1-20-13-12(14(22)17-8-16-13)19-15(20)24-7-11(21)18-9-5-3-4-6-10(9)23-2/h3-6,8H,7H2,1-2H3,(H,18,21)(H,16,17,22)"
SMILES=COc1ccccc1N=C(O)CSc1nc2c(O)ncnc2n1C
SPECTRUMID=CCMSLIB00010122739
77.29261 2896.0 
81.116547 2631.0 
84.166031 2878.0 
89.939697 2566.0 
92.386459 3698.0 
94.116158 2192.0 
102.171417 2387.0 
104.292526 3061.0 
112.383636 2657.0 
122.208443 2487.0 
165.533325 2344.0 
173.042923 4210.0 
204.007462 53859.0 
213.038696 3532.0 
217.01535 12043.0 
218.022842 59521.0 
231.750061 2522.0 
245.010162 29102.0 
353.053711 4986.0 
368.078156 2495918.0 
END IONS

BEGIN IONS
NAME="3-(3-ethoxy-2-hydroxyphenyl)-5-(2-methoxyphenyl)-1-methyl-4,6-dioxo-1,2,3,5,3a ,6a-hexahydro-2,5-diazapentalenecarboxylic acid CollisionEnergy:205060" M+H
PRECURSOR_MZ=441.166
INCHI="InChI=1S/C23H24N2O7/c1-4-32-15-11-7-8-12(19(15)26)18-16-17(23(2,24-18)22(29)30)21(28)25(20(16)27)13-9-5-6-10-14(13)31-3/h5-11,16-18,24,26H,4H2,1-3H3,(H,29,30)"
SMILES=CCOc1cccc(C2NC(C)(C(=O)O)C3C(=O)N(c4ccccc4OC)C(=O)C23)c1O
SPECTRUMID=CCMSLIB00010118276
53.039051 27414.0 
55.05468 26577.0 
62.887032 2701.0 
65.03904 13605.0 
67.054626 15396.0 
69.033661 3790.0 
70.065514 242209.0 
71.049637 3756.0 
80.049744 77397.0 
81.033707 41542.0 
81.057457 16456.0 
82.065376 45705.0 
91.054329 20255.0 
92.049461 3418.0 
93.033524 6028.0 
94.065147 24847.0 
95.049179 14790.0 
96.04438 6757.0 
98.060089 319388.0 
99.043892 15670.0 
103.054153 259308.0 
107.048828 6000.0 
108.044273 72254.0 
109.028419 12950.0 
109.052101 47265.0 
110.060066 40385.0 
111.044098 50175.0 
114.055191 5592.0 
118.065521 23435.0 
118.688828 3447.0 
119.049049 19810.0 
121.064667 17242.0 
122.035767 4395.0 
122.060081 46855.0 
123.04393 70694.0 
123.067398 6078.0 
124.039124 7846.0 
124.075752 176976.0 
125.02317 3466.0 
129.069489 13224.0 
131.049149 354437.0 
134.059799 6500.0 
135.031281 21364.0 
135.043839 14976.0 
135.546417 3246.0 
136.039444 30392.0 
136.075592 6238.0 
136.246109 3997.0 
137.022644 3478.0 
137.047089 74599.0 
137.05957 35934.0 
138.054977 103028.0 
138.066437 6958.0 
139.038879 31837.0 
144.080887 41888.0 
145.064987 15086.0 
146.060043 44364.0 
147.044098 121503.0 
148.075592 7718.0 
149.059692 109680.0 
150.054886 58446.0 
150.06723 5892.0 
151.075943 34930.0 
153.01825 5655.0 
157.06485 13403.0 
159.044235 73228.0 
160.075775 29820.0 
161.045807 4360.0 
161.059738 4690.0 
161.083527 4058.0 
162.05481 209732.0 
162.090393 12296.0 
163.039673 3572.0 
163.062286 20163.0 
163.075745 11316.0 
164.070419 58872.0 
165.077881 5324.0 
165.091492 4651.0 
166.086136 150913.0 
167.069977 20417.0 
167.429581 3878.0 
172.05072 5706.0 
172.075577 88390.0 
173.05954 35130.0 
174.090607 3440.0 
175.038956 77642.0 
175.06015 6431.0 
175.075851 63800.0 
176.070068 22550.0 
176.106628 3730.0 
177.091019 125664.0 
178.086609 4490.0 
187.038864 21368.0 
188.071365 22641.0 
189.078049 145902.0 
189.095795 6972.0 
190.086166 354940.0 
191.093857 29100.0 
192.065796 7458.0 
192.102127 43756.0 
200.07045 19460.0 
201.090729 93618.0 
202.086975 3663.0 
203.035156 7714.0 
203.070236 114756.0 
203.117447 17643.0 
204.065948 28237.0 
204.101822 6156.0 
205.085449 22168.0 
206.116959 3527.0 
215.054138 4135.0 
215.07312 11113.0 
216.065369 31460.0 
217.073837 15708.0 
218.080017 18015.0 
218.117401 280952.0 
230.081757 3694.0 
231.06456 30487.0 
232.097702 23939.0 
236.091858 8033.0 
238.106598 14132.0 
244.09613 44598.0 
246.112259 46623.0 
247.107452 188106.0 
247.1362 6671.0 
257.090729 23824.0 
272.128204 12399.0 
276.08786 14115.0 
288.102051 3307.0 
290.102753 7977.0 
303.095947 12027.0 
318.097992 13058.0 
336.123718 3289.0 
354.132843 76268.0 
367.166016 5716.0 
369.180634 158912.0 
372.14389 4624.0 
378.135223 4459.0 
395.159454 351749.0 
397.175476 95339.0 
417.964844 3391.0 
441.164978 1214287.0 
END IONS

BEGIN IONS
NAME=cAMP CollisionEnergy:102040 M-H+2Na
PRECURSOR_MZ=374.024
INCHI="InChI=1S/C10H12N5O6P/c11-8-5-9(13-2-12-8)15(3-14-5)10-6(16)7-4(20-10)1-19-22(17,18)21-7/h2-4,6-7,10,16H,1H2,(H,17,18)(H2,11,12,13)/t4-,6-,7-,10-/m1/s1"
SMILES=Nc1ncnc2c1ncn2[C@@H]1O[C@@H]2COP(=O)(O)O[C@H]2[C@H]1O
SPECTRUMID=CCMSLIB00010126852
54.6548 2156.870117 
64.641197 2273.22998 
71.395798 2163.929932 
82.057999 2212.360107 
97.775902 2472.850098 
104.304001 2371.280029 
111.142998 2985.429932 
118.676003 3014.459961 
124.938004 43324.898438 
136.238007 3154.649902 
141.962997 2334.52002 
142.947998 21696.199219 
208.957993 3866.070068 
238.968994 29806.800781 
254.065002 17541.800781 
374.02301 633431.0 
END IONS

BEGIN IONS
NAME=1-methyl-4-piperidyl 6-nitro-2-oxochromene-3-carboxylate CollisionEnergy:205060 M+Na
PRECURSOR_MZ=355.09
INCHI="InChI=1S/C16H16N2O6/c1-17-6-4-12(5-7-17)23-15(19)13-9-10-8-11(18(21)22)2-3-14(10)24-16(13)20/h2-3,8-9,12H,4-7H2,1H3"
SMILES=CN1CCC(OC(=O)c2cc3cc([N+](=O)[O-])ccc3oc2=O)CC1
SPECTRUMID=CCMSLIB00010121816
53.039001 4423.0 
55.05468 107180.0 
56.049919 2477.0 
56.613441 2277.0 
62.418919 2150.0 
67.66954 2486.0 
69.070259 15642.0 
70.06546 189582.0 
83.073273 5787.0 
96.080704 25167.0 
98.096413 988670.0 
140.882309 2266.0 
182.76535 2687.0 
215.690674 2432.0 
217.722763 2611.0 
218.868835 11814.0 
295.048004 2545.0 
308.901123 3353.0 
331.917511 3109.0 
355.089172 29725.0 
END IONS

BEGIN IONS
NAME="6-(3,4-dimethoxyphenyl)-4-(4-methylphenyl)-2-oxohydropyridine-3-carbonitrile CollisionEnergy:205060" M+Na
PRECURSOR_MZ=369.121
INCHI="InChI=1S/C21H18N2O3/c1-13-4-6-14(7-5-13)16-11-18(23-21(24)17(16)12-22)15-8-9-19(25-2)20(10-15)26-3/h4-11H,1-3H3,(H,23,24)"
SMILES=COc1ccc(-c2cc(-c3ccc(C)cc3)c(C#N)c(O)n2)cc1OC
SPECTRUMID=CCMSLIB00010119452
50.517151 2131.0 
82.42173 2364.0 
92.405144 2810.0 
209.234451 2578.0 
314.157471 2699.0 
369.120453 1301631.0 
387.130829 5538.0 
END IONS

BEGIN IONS
NAME="2H-benzo[3,4-d]1,3-dioxolen-5-yl-N-[3-(4,4,5,5-tetramethyl(1,3-dioxolan-2-yl)) phenyl]carboxamide CollisionEnergy:205060" M+H
PRECURSOR_MZ=370.165
INCHI="InChI=1S/C21H23NO5/c1-20(2)21(3,4)27-19(26-20)14-6-5-7-15(10-14)22-18(23)13-8-9-16-17(11-13)25-12-24-16/h5-11,19H,12H2,1-4H3,(H,22,23)"
SMILES=CC1(C)OC(c2cccc(N=C(O)c3ccc4c(c3)OCO4)c2)OC1(C)C
SPECTRUMID=CCMSLIB00010120925
55.054749 12440.0 
65.039017 5029.0 
74.654457 2289.0 
83.085831 34328.0 
95.049232 13461.0 
101.09613 18927.0 
104.270088 3233.0 
105.033386 2958.0 
111.043716 8927.0 
120.04438 12631.0 
123.044144 14073.0 
140.88765 2486.0 
147.740189 2152.0 
148.039444 18103.0 
149.023468 325902.0 
157.953644 2792.0 
171.590378 2444.0 
200.799698 2502.0 
206.97287 2471.0 
270.075928 212025.0 
END IONS

BEGIN IONS
NAME=2-methoxyethyl 5-hydroxy-2-methyl-1-{2-[(4-nitrophenyl)amino]ethyl}benzo[g]ind ole-3-carboxylate CollisionEnergy:102040 M+H
PRECURSOR_MZ=464.182
INCHI="InChI=1S/C25H25N3O6/c1-16-23(25(30)34-14-13-33-2)21-15-22(29)19-5-3-4-6-20(19)24(21)27(16)12-11-26-17-7-9-18(10-8-17)28(31)32/h3-10,15,26,29H,11-14H2,1-2H3"
SMILES=COCCOC(=O)c1c(C)n(CCNc2ccc([N+](=O)[O-])cc2)c2c1cc(O)c1ccccc12
SPECTRUMID=CCMSLIB00010113384
56.809349 2411.0 
57.440739 2617.0 
59.049511 4193.0 
76.309418 3055.0 
106.928009 2924.0 
118.065033 5002.0 
119.072823 36208.0 
135.06694 3482.0 
151.062607 66751.0 
157.982574 2939.0 
163.992966 2837.0 
165.065796 271757.0 
196.076691 5488.0 
205.49588 2907.0 
209.082779 3358.0 
209.583618 3225.0 
210.09021 12240.0 
210.234268 4364.0 
213.967285 2630.0 
222.053238 3189.0 
223.061539 4488.0 
224.070389 878408.0 
237.077744 4025.0 
238.082169 5761.0 
268.096191 6220.0 
270.071533 4800.0 
313.127106 5022.0 
388.128632 2586537.0 
406.138794 52521.0 
432.155548 28705.0 
448.184814 10886.0 
464.175781 69699.0 
END IONS

BEGIN IONS
NAME="N-(2,4-dichlorophenyl)-2-[2-(3-ethoxy-4-hydroxyphenyl)-6-hydroxy-3-azabicyclo[ 4.4.0]dec-3-yl]acetamide CollisionEnergy:102040" M+Cl
PRECURSOR_MZ=527.128
INCHI="InChI=1S/C25H30Cl2N2O4/c1-2-33-22-13-16(6-9-21(22)30)24-18-5-3-4-10-25(18,32)11-12-29(24)15-23(31)28-20-8-7-17(26)14-19(20)27/h6-9,13-14,18,24,30,32H,2-5,10-12,15H2,1H3,(H,28,31)"
SMILES=CCOc1cc(C2C3CCCCC3(O)CCN2CC(O)=Nc2ccc(Cl)cc2Cl)ccc1O
SPECTRUMID=CCMSLIB00010109690
103.146538 2777.0 
105.743347 2436.0 
108.765091 2477.0 
133.970474 2532.0 
216.993683 33485.0 
353.084229 3364.0 
491.151581 71455.0 
527.129028 20214.0 
END IONS

BEGIN IONS
NAME=2-{1-[(4-chlorophenyl)carbonyl]-5-methoxy-2-methylindol-3-yl}-N-cyclopropylace tamide CollisionEnergy:205060 M+Na
PRECURSOR_MZ=419.113
INCHI="InChI=1S/C22H21ClN2O3/c1-13-18(12-21(26)24-16-7-8-16)19-11-17(28-2)9-10-20(19)25(13)22(27)14-3-5-15(23)6-4-14/h3-6,9-11,16H,7-8,12H2,1-2H3,(H,24,26)"
SMILES=COc1ccc2c(c1)c(CC(O)=NC1CC1)c(C)n2C(=O)c1ccc(Cl)cc1
SPECTRUMID=CCMSLIB00010120743
73.949997 3316.0 
79.906387 2506.0 
94.682533 2274.0 
118.647079 2952.0 
212.07663 3321.0 
253.10704 3048.0 
347.610901 3118.0 
378.113312 2735.0 
419.112457 1861238.0 
END IONS

BEGIN IONS
NAME=nicotinic acid CollisionEnergy:102040 M+H
PRECURSOR_MZ=124.039
INCHI="InChI=1S/C6H5NO2/c8-6(9)5-2-1-3-7-4-5/h1-4H,(H,8,9)"
SMILES=O=C(O)c1cccnc1
SPECTRUMID=CCMSLIB00010103094
53.039101 470024.0 
55.948601 319507.0 
59.036098 338582.0 
62.162899 370223.0 
63.464901 340339.0 
63.605301 356529.0 
66.754097 542681.0 
68.050301 563870.0 
73.155296 365822.0 
75.652298 381581.0 
78.0345 2327510.0 
79.042297 501893.0 
80.050102 21614700.0 
96.0448 13408100.0 
104.307999 381614.0 
124.039001 278368992.0 
END IONS

BEGIN IONS
NAME=N-(2-furylmethyl)(2-oxochromen-3-yl)carboxamide CollisionEnergy:102040 M+H
PRECURSOR_MZ=270.076
INCHI="InChI=1S/C15H11NO4/c17-14(16-9-11-5-3-7-19-11)12-8-10-4-1-2-6-13(10)20-15(12)18/h1-8H,9H2,(H,16,17)"
SMILES=O=c1oc2ccccc2cc1C(O)=NCc1ccco1
SPECTRUMID=CCMSLIB00010112345
51.023689 3788.0 
53.03915 43939.0 
80.845573 3460.0 
81.033836 3046625.0 
81.222672 3119.0 
83.06089 4954.0 
84.068466 94621.0 
84.073837 4654.0 
87.154297 2410.0 
92.366791 2901.0 
97.076286 12683.0 
135.091949 15955.0 
136.005035 2404.0 
136.197021 3109.0 
186.091309 102842.0 
188.106689 13758.0 
191.033844 116907.0 
202.049927 114534.0 
251.984131 56878.0 
269.994263 5272.0 
270.076874 22711.0 
270.159943 226241.0 
274.214905 3000.0 
279.754578 2894.0 
END IONS

BEGIN IONS
NAME="methyl 2-methyl-5-oxo-4-(3,4,5-trimethoxyphenyl)-1,4,6,7,8-pentahydroquinoline -3-carboxylate CollisionEnergy:205060" M-H
PRECURSOR_MZ=386.161
INCHI="InChI=1S/C21H25NO6/c1-11-17(21(24)28-5)18(19-13(22-11)7-6-8-14(19)23)12-9-15(25-2)20(27-4)16(10-12)26-3/h9-10,18,22H,6-8H2,1-5H3"
SMILES=COC(=O)C1=C(C)NC2=C(C(=O)CCC2)C1c1cc(OC)c(OC)c(OC)c1
SPECTRUMID=CCMSLIB00010120027
50.093479 2770.0 
65.002853 14385.0 
69.738533 2391.0 
70.056152 2532.0 
79.777351 2618.0 
81.034363 24390.0 
88.554787 2271.0 
93.034653 11693.0 
95.013657 3205.0 
96.992767 5028.0 
97.029381 11218.0 
109.029381 26249.0 
109.840088 2840.0 
110.000793 16901.0 
112.986832 3666.0 
120.993233 26518.0 
122.000763 3362.0 
123.008873 13483.0 
124.987923 2987.0 
125.024292 24274.0 
125.99572 33305.0 
130.06636 4652.0 
130.443451 2909.0 
137.02449 179747.0 
137.995834 33656.0 
138.032547 11565.0 
140.011292 3752.0 
141.01918 20252.0 
142.066177 5241.0 
146.0616 5337.0 
148.040955 17990.0 
148.077103 25715.0 
149.048233 4224.0 
153.01947 71881.0 
153.055695 27979.0 
153.990799 15798.0 
155.035187 48575.0 
158.061279 57611.0 
160.076996 35592.0 
162.056305 16755.0 
164.072037 5226.0 
168.043213 21416.0 
169.014328 4281.0 
174.056396 19933.0 
176.071655 2669.0 
181.015778 3037.0 
186.055893 4070.0 
191.059296 5643.0 
203.059219 28851.0 
214.99614 2582.0 
216.066788 3633.0 
218.082596 111446.0 
223.048904 4275.0 
235.049652 26848.0 
254.081863 3864.0 
265.073853 5209.0 
268.064148 3258.0 
281.069702 16957.0 
282.077209 50580.0 
284.057465 4940.0 
285.064972 4115.0 
292.062531 3135.0 
294.041534 13243.0 
294.075073 7447.0 
296.092102 19755.0 
297.102295 27518.0 
299.080383 6207.0 
309.064606 16922.0 
312.126495 15316.0 
314.103729 14149.0 
322.20282 2662.0 
323.07605 2850.0 
324.089172 22261.0 
325.094421 20653.0 
326.065643 4622.0 
338.102081 3248.0 
340.117249 4729.0 
341.092712 6424.0 
354.132996 3092.0 
356.113495 13792.0 
371.137939 28245.0 
386.161469 819330.0 
END IONS

BEGIN IONS
NAME="(3,4-dimethoxyphenyl)-N-(3-(1,3-dioxolan-2-yl)phenyl)carboxamide CollisionEnergy:102040" M-H+2Na
PRECURSOR_MZ=374.097
INCHI="InChI=1S/C18H19NO5/c1-21-15-7-6-12(11-16(15)22-2)17(20)19-14-5-3-4-13(10-14)18-23-8-9-24-18/h3-7,10-11,18H,8-9H2,1-2H3,(H,19,20)"
SMILES=COc1ccc(C(O)=Nc2cccc(C3OCCO3)c2)cc1OC
SPECTRUMID=CCMSLIB00010105668
57.06778 3090.0 
59.990711 53698.0 
60.53495 4490.0 
69.222633 3135.0 
71.990623 98915.0 
71.994957 4087.0 
79.054413 7935.0 
82.397079 3839.0 
86.996323 4422.0 
87.001427 59975.0 
94.04174 4764.0 
109.028374 4581.0 
109.064667 3987.0 
114.99614 445815.0 
122.038567 16514.0 
125.014603 4637.0 
126.031113 5913.0 
136.205841 4750.0 
137.050827 38923.0 
138.55629 3366.0 
155.069931 19667.0 
157.579575 3703.0 
165.054672 1715039.0 
166.012024 120197.0 
176.069916 19170.0 
177.078339 14524.0 
208.033905 334983.0 
209.024277 3962.0 
236.028687 4365798.0 
238.053329 4143.0 
253.064651 26581.0 
356.087067 5671.0 
358.06488 24940.0 
359.070526 26809.0 
372.233429 6391.0 
373.08609 6598.0 
374.096741 9923507.0 
375.975098 6206.0 
END IONS

BEGIN IONS
NAME="(3,4-dimethoxyphenyl)-N-[2-(3-phenoxyphenoxy)ethyl]carboxamide CollisionEnergy:205060" M+Na
PRECURSOR_MZ=416.147
INCHI="InChI=1S/C23H23NO5/c1-26-21-12-11-17(15-22(21)27-2)23(25)24-13-14-28-19-9-6-10-20(16-19)29-18-7-4-3-5-8-18/h3-12,15-16H,13-14H2,1-2H3,(H,24,25)"
SMILES=COc1ccc(C(O)=NCCOc2cccc(Oc3ccccc3)c2)cc1OC
SPECTRUMID=CCMSLIB00010117692
64.972862 3008.0 
69.033531 2981.0 
74.72168 2995.0 
79.054352 5307.0 
81.494789 3015.0 
82.404694 2934.0 
91.054153 64388.0 
92.05735 23284.0 
103.053459 3508.0 
104.061699 6746.0 
107.085403 5721.0 
117.06942 16297.0 
118.073097 3745.0 
119.085274 1134548.0 
120.088608 644893.0 
120.098877 7013.0 
133.064758 12237.0 
134.068192 12594.0 
135.080032 6290.0 
136.083679 4270.0 
152.950394 2865.0 
165.054626 5575.0 
208.030716 6871.0 
208.052994 9032.0 
208.0961 6665.0 
401.120209 3630.0 
416.145416 3404202.0 
457.1698 28068.0 
511.858154 3185.0 
811.286621 3722.0 
END IONS

BEGIN IONS
NAME=indole-3-acetyl-aspartic acid CollisionEnergy:205060 2M-H
PRECURSOR_MZ=579.173
INCHI="InChI=1S/C14H14N2O5/c17-12(16-11(14(20)21)6-13(18)19)5-8-7-15-10-4-2-1-3-9(8)10/h1-4,7,11,15H,5-6H2,(H,16,17)(H,18,19)(H,20,21)/t11-/m0/s1"
SMILES=C1=CC=C2C(=C1)C(=CN2)CC(=O)N[C@@H](CC(=O)O)C(=O)O
SPECTRUMID=CCMSLIB00010102141
54.568966 3620.926025 
56.655594 4422.518555 
68.64856 3943.438721 
86.089478 3883.608154 
88.040306 20551.609375 
97.918701 3996.98999 
114.800385 4520.495605 
115.003067 4259.776367 
132.030151 9377.285156 
185.537521 4859.210449 
289.082367 24961.507812 
310.531982 4395.337402 
315.146332 3889.017334 
372.426117 3836.554199 
END IONS

BEGIN IONS
NAME=N-(3-bromophenyl)-2-[9-(4-methylphenyl)-6-oxohydropurin-8-ylthio]acetamide CollisionEnergy:102040 M-H
PRECURSOR_MZ=468.014
INCHI="InChI=1S/C20H16BrN5O2S/c1-12-5-7-15(8-6-12)26-18-17(19(28)23-11-22-18)25-20(26)29-10-16(27)24-14-4-2-3-13(21)9-14/h2-9,11H,10H2,1H3,(H,24,27)(H,22,23,28)"
SMILES=Cc1ccc(-n2c(SCC(O)=Nc3cccc(Br)c3)nc3c(O)ncnc32)cc1
SPECTRUMID=CCMSLIB00010113817
65.013817 12945.0 
65.997864 21340.0 
78.918587 151530.0 
92.025253 39245.0 
92.382172 4890.0 
104.284157 3216.0 
131.061615 4076.0 
146.492691 3591.0 
155.061127 253782.0 
162.001633 110235.0 
177.995621 5045.0 
194.956039 4725.0 
197.05835 4328.0 
198.067017 5311.0 
208.947998 49046.0 
213.932922 38749.0 
217.290939 3838.0 
225.077881 896360.0 
228.060211 12658.0 
236.738098 3526.0 
237.080215 3844.0 
238.085663 3991.0 
240.089203 16939.0 
241.072495 34584.0 
241.927795 574954.0 
255.034714 16410.0 
255.091019 3252.0 
256.042084 408268.0 
257.049988 373209.0 
264.065979 3381.0 
269.049347 61563.0 
271.065521 129474.0 
297.044922 103536.0 
394.030365 267097.0 
408.130554 3597.0 
468.013519 2704651.0 
END IONS

BEGIN IONS
NAME=2-{3-[4-(tert-butyl)phenoxy]-4-oxochromen-7-yloxy}-N-(4-methylphenyl)acetamide CollisionEnergy:205060 M+formate
PRECURSOR_MZ=502.187
INCHI="InChI=1S/C28H27NO5/c1-18-5-9-20(10-6-18)29-26(30)17-32-22-13-14-23-24(15-22)33-16-25(27(23)31)34-21-11-7-19(8-12-21)28(2,3)4/h5-16H,17H2,1-4H3,(H,29,30)"
SMILES=Cc1ccc(NC(=O)COc2ccc3c(=O)c(Oc4ccc(C(C)(C)C)cc4)coc3c2)cc1
SPECTRUMID=CCMSLIB00010122484
55.824532 2487.0 
58.41111 2606.0 
66.042824 2177.0 
66.752136 2933.0 
67.956703 2462.0 
82.410789 2857.0 
91.212547 2531.0 
92.389488 3219.0 
107.051041 3186.0 
109.774246 2587.0 
135.009033 3077.0 
142.136475 2588.0 
160.015152 4103.0 
174.22522 2553.0 
176.011917 14400.0 
210.13382 3943.0 
215.781891 2717.0 
273.675415 2887.0 
281.741882 2704.0 
293.082703 41539.0 
309.113617 424278.0 
326.080658 18023.0 
349.110107 11029.0 
382.150208 3821.0 
398.175781 34141.0 
456.182526 92943.0 
END IONS

BEGIN IONS
NAME=p-coumaric acid CollisionEnergy:102040 M-H
PRECURSOR_MZ=163.04
INCHI="InChI=1S/C9H8O3/c10-8-4-1-7(2-5-8)3-6-9(11)12/h1-6,10H,(H,11,12)/b6-3+"
SMILES=O=C(O)C=Cc1ccc(O)cc1
SPECTRUMID=CCMSLIB00010108346
55.150089 148723.0 
57.330502 121726.0 
75.649452 129513.0 
92.35994 151535.0 
94.050659 150576.0 
94.61367 141055.0 
104.26693 177709.0 
119.050377 146669680.0 
126.377037 131790.0 
138.083618 125183.0 
162.839111 129050.0 
163.040207 24141136.0 
END IONS

BEGIN IONS
NAME=2'-deoxycytidine CollisionEnergy:102040 M+acetate
PRECURSOR_MZ=286.104
INCHI="InChI=1S/C9H13N3O4/c10-7-1-2-12(9(15)11-7)8-3-5(14)6(4-13)16-8/h1-2,5-6,8,13-14H,3-4H2,(H2,10,11,15)/t5-,6+,8+/m0/s1"
SMILES=N=c1ccn([C@H]2C[C@H](O)[C@@H](CO)O2)c(O)n1
SPECTRUMID=CCMSLIB00010126452
59.010601 24314.599609 
59.013401 194315.0 
68.355904 23362.900391 
70.135002 22326.900391 
92.401703 26298.099609 
93.045898 112398.0 
95.004402 23735.099609 
97.700104 29469.0 
117.899002 23735.599609 
166.054993 1355840.0 
171.358002 25028.199219 
214.451004 34546.0 
226.084 305550.0 
257.837006 31059.900391 
END IONS

BEGIN IONS
NAME=p-coumaric acid CollisionEnergy:102040 2M-H
PRECURSOR_MZ=327.087
INCHI="InChI=1S/C9H8O3/c10-8-4-1-7(2-5-8)3-6-9(11)12/h1-6,10H,(H,11,12)/b6-3+"
SMILES=O=C(O)C=Cc1ccc(O)cc1
SPECTRUMID=CCMSLIB00010108355
59.227001 1955.0 
69.646172 1997.0 
72.974701 2058.0 
82.429283 2520.0 
87.462692 1906.0 
108.461937 2471.0 
113.836693 2297.0 
118.697853 2932.0 
119.050339 44265.0 
136.263992 2264.0 
146.938477 5019.0 
163.040115 32498.0 
171.571274 2426.0 
177.188583 2103.0 
190.928757 4933.0 
237.092255 2900.0 
239.108231 2484.0 
283.097778 8894.0 
327.087097 91893.0 
END IONS

BEGIN IONS
NAME="N-(2,6-dimethylphenyl)-2-{2-oxo-4-[N-benzylcarbamoyl]hydroquinolyl}acetamide CollisionEnergy:205060" M-H
PRECURSOR_MZ=438.182
INCHI="InChI=1S/C27H25N3O3/c1-18-9-8-10-19(2)26(18)29-24(31)17-30-23-14-7-6-13-21(23)22(15-25(30)32)27(33)28-16-20-11-4-3-5-12-20/h3-15H,16-17H2,1-2H3,(H,28,33)(H,29,31)"
SMILES=Cc1cccc(C)c1N=C(O)Cn1c(=O)cc(C(O)=NCc2ccccc2)c2ccccc21
SPECTRUMID=CCMSLIB00010121487
60.768761 3243.0 
73.957283 3625.0 
92.050293 25001.0 
92.384201 4828.0 
102.034393 21953.0 
104.050346 12841.0 
114.034523 3913.0 
115.055031 37018.0 
116.050293 247017.0 
118.02948 20434.0 
120.081497 89696.0 
128.050278 543316.0 
130.065811 443790.0 
131.037811 3649.0 
131.050064 5352.0 
132.045166 53743.0 
136.214493 3474.0 
142.029648 30249.0 
142.065643 60455.0 
143.06105 37754.0 
144.045074 631589.0 
144.080719 29357.0 
145.076675 7955.0 
146.024475 64523.0 
146.060654 55279.0 
148.076538 13780.0 
153.879318 3337.0 
155.060669 5343.0 
156.045486 40807.0 
156.068436 24592.0 
157.052963 13449.0 
158.047897 135707.0 
158.06073 753125.0 
159.032486 14984.0 
160.039902 123311.0 
161.048203 4522.0 
162.092514 4533.0 
167.060822 28815.0 
169.076813 43055.0 
172.040054 123008.0 
174.055511 32787.0 
176.07103 67037.0 
182.048813 12262.0 
184.04007 129754.0 
186.055954 26411.0 
187.051071 14011.0 
202.050873 23409.0 
218.099014 4817.0 
228.031464 4176.0 
231.092438 62256.0 
232.100845 20612.0 
243.092758 22253.0 
245.108093 54075.0 
247.123734 872120.0 
248.10791 7209.0 
249.103607 26095.0 
261.103149 122227.0 
263.118805 55891.0 
275.081818 4117.0 
277.0979 155280.0 
279.113007 13220.0 
291.113678 297787.0 
293.093597 44082.0 
305.129211 1181922.0 
317.093292 22698.0 
323.103485 872853.0 
335.103729 14196.0 
349.11853 5572.0 
438.182068 1105410.0 
END IONS

BEGIN IONS
NAME=N-(3-methoxyphenyl)-2-(9-methyl-6-oxohydropurin-8-ylthio)acetamide CollisionEnergy:102040 M+H
PRECURSOR_MZ=346.097
INCHI="InChI=1S/C15H15N5O3S/c1-20-13-12(14(22)17-8-16-13)19-15(20)24-7-11(21)18-9-4-3-5-10(6-9)23-2/h3-6,8H,7H2,1-2H3,(H,18,21)(H,16,17,22)"
SMILES=COc1cccc(N=C(O)CSc2nc3c(O)ncnc3n2C)c1
SPECTRUMID=CCMSLIB00010111028
57.068298 2915.0 
58.452438 2480.0 
65.515877 2946.0 
87.278633 2830.0 
92.367378 3112.0 
104.276657 4592.0 
124.07502 4380.0 
132.043839 3608.0 
136.075592 57309.0 
137.045914 3781.0 
147.067871 41503.0 
149.045395 4613.0 
150.054169 4399.0 
151.061249 7309.0 
162.054688 6259.0 
164.070007 18052.0 
181.017517 205301.0 
183.034042 4808.0 
195.03334 1061691.0 
213.043777 6476.0 
223.028122 5326759.0 
236.059006 3659.0 
259.40271 3012.0 
328.085419 19308.0 
346.09613 358435.0 
END IONS

BEGIN IONS
NAME=3-METHOXY-L-TYROSINE CollisionEnergy:102040 M+H
PRECURSOR_MZ=212.092
INCHI="InChI=1S/C10H13NO4/c1-15-9-5-6(2-3-8(9)12)4-7(11)10(13)14/h2-3,5,7,12H,4,11H2,1H3,(H,13,14)/t7-/m0/s1"
SMILES=COc1cc(C[C@H](N)C(=O)O)ccc1O
SPECTRUMID=CCMSLIB00010103108
66.767303 80421.796875 
76.293602 62081.5 
82.427803 74898.703125 
91.054604 90341.5 
93.033897 100990.0 
98.407799 65885.398438 
104.321999 84792.0 
106.065002 146863.0 
111.043999 309546.0 
119.049004 318877.0 
121.065002 409872.0 
125.050003 121086.0 
125.059998 1608530.0 
130.128006 66456.898438 
134.059998 799133.0 
149.059998 8986740.0 
151.076004 229911.0 
153.054001 10674700.0 
166.085999 9560630.0 
177.054993 741612.0 
184.195007 69843.601562 
195.065002 8211400.0 
212.091995 866029.0 
END IONS

BEGIN IONS
NAME="dimethyl 2-{[((1S,9R)-6-oxo-7,11-diazatricyclo[7.3.1.0<2,7>]trideca-2,4-dien-1 1-yl)thioxomethyl]amino}butane-1,4-dioate CollisionEnergy:102040" M+Na
PRECURSOR_MZ=416.125
INCHI="InChI=1S/C18H23N3O5S/c1-25-16(23)7-13(17(24)26-2)19-18(27)20-8-11-6-12(10-20)14-4-3-5-15(22)21(14)9-11/h3-5,11-13H,6-10H2,1-2H3,(H,19,27)/t11-,12-,13?/m0/s1"
SMILES=COC(=O)CC(N=C(S)N1CC2CC(C1)c1cccc(=O)n1C2)C(=O)OC
SPECTRUMID=CCMSLIB00010105935
52.800671 3106.0 
55.166691 3766.0 
62.586491 3031.0 
71.23381 2936.0 
78.406677 2777.0 
82.406288 2758.0 
87.3573 3097.0 
92.388199 2939.0 
93.019821 3003.0 
104.300301 3964.0 
136.225922 3143.0 
168.367828 2943.0 
213.099838 1077026.0 
226.014603 75953.0 
231.110687 19526.0 
238.094971 21146.0 
254.125778 17279.0 
258.861755 3195.0 
272.083405 40424.0 
324.075226 3684.0 
356.105286 12255.0 
416.124756 4465115.0 
END IONS

BEGIN IONS
NAME=hesperidin CollisionEnergy:102040 M-H
PRECURSOR_MZ=609.182
INCHI="InChI=1S/C28H34O15/c1-10-21(32)23(34)25(36)27(40-10)39-9-19-22(33)24(35)26(37)28(43-19)41-12-6-14(30)20-15(31)8-17(42-18(20)7-12)11-3-4-16(38-2)13(29)5-11/h3-7,10,17,19,21-30,32-37H,8-9H2,1-2H3/t10-,17-,19+,21-,22+,23+,24-,25+,26+,27+,28+/m0/s1"
SMILES=COc1ccc(C2CC(=O)c3c(O)cc(OC4OC(COC5OC(C)C(O)C(O)C5O)C(O)C(O)C4O)cc3O2)cc1O
SPECTRUMID=CCMSLIB00010113387
55.201561 3685.0 
65.003059 3663.0 
66.750832 3853.0 
70.971733 3663.0 
71.013283 5465.0 
83.013428 7370.0 
106.84256 3919.0 
107.013542 5040.0 
118.671021 4285.0 
125.024178 88364.0 
134.037231 26192.0 
135.045166 5687.0 
137.024734 3563.0 
144.137314 4024.0 
149.024597 6515.0 
149.061081 26435.0 
151.003601 88860.0 
152.679047 4341.0 
164.011337 46900.0 
173.060394 7701.0 
174.031906 50857.0 
175.003723 17930.0 
175.039764 4542.0 
177.020325 5553.0 
185.024506 6342.0 
196.001129 84898.0 
198.03273 4743.0 
199.039948 60451.0 
200.047729 7828.0 
201.019485 44373.0 
201.200134 3689.0 
202.027908 4209.0 
212.318817 4080.0 
214.06459 6365.0 
215.034576 23969.0 
215.07196 15538.0 
216.043182 5329.0 
217.051529 14707.0 
220.00148 4322.0 
224.04718 6473.0 
227.035522 19182.0 
230.059372 5872.0 
233.082138 7221.0 
239.071365 5927.0 
240.042648 19831.0 
241.050705 23603.0 
242.058472 153562.0 
242.085815 7304.0 
243.027588 4478.0 
257.081329 96798.0 
258.05307 55812.0 
259.061676 4927.0 
268.037445 19209.0 
278.437378 4272.0 
282.05188 8610.0 
283.060822 47874.0 
285.040833 6080.0 
286.048187 250169.0 
292.036285 4438.0 
299.057526 16098.0 
300.063599 5599.0 
301.071747 3945441.0 
307.060791 4978.0 
310.048035 35847.0 
315.088867 5285.0 
325.071686 159773.0 
328.059723 8419.0 
343.082642 56855.0 
609.182678 2376534.0 
END IONS

BEGIN IONS
NAME=N-(2-methoxy-5-methylphenyl)-2-(9-methyl-6-oxohydropurin-8-ylthio)acetamide CollisionEnergy:205060 M+H
PRECURSOR_MZ=360.113
INCHI="InChI=1S/C16H17N5O3S/c1-9-4-5-11(24-3)10(6-9)19-12(22)7-25-16-20-13-14(21(16)2)17-8-18-15(13)23/h4-6,8H,7H2,1-3H3,(H,19,22)(H,17,18,23)"
SMILES=COc1ccc(C)cc1N=C(O)CSc1nc2c(O)ncnc2n1C
SPECTRUMID=CCMSLIB00010121872
54.230381 2884.0 
54.55423 3459.0 
57.045029 3684.0 
58.995461 6970.0 
72.433319 3068.0 
73.954224 3610.0 
79.054153 5042.0 
84.985626 26866.0 
86.005966 5521.0 
91.054207 23923.0 
92.062019 5408.0 
92.657021 2881.0 
104.051407 2867.0 
104.285728 4860.0 
105.069366 4387.0 
106.040237 6313.0 
107.023819 5725.0 
107.072723 15766.0 
108.055847 19699.0 
110.035004 5380.0 
111.04248 7288.0 
117.056847 4061.0 
118.06488 32343.0 
119.072952 15113.0 
120.080544 7283.0 
122.06031 28637.0 
122.06955 3876.0 
123.068413 3445.0 
123.080322 18787.0 
124.050301 19457.0 
125.016373 5539.0 
126.001137 4126.0 
126.011337 7099.0 
132.080994 3841.0 
133.050842 17597.0 
133.06279 3452.0 
134.059723 46521.0 
135.067612 71451.0 
135.079971 13761.0 
137.045609 104859.0 
137.083664 44436.0 
138.090317 5338.0 
139.991028 51942.0 
140.027969 3502.0 
146.05986 91739.0 
147.067444 55398.0 
148.038452 5558.0 
148.0755 26066.0 
149.045578 148463.0 
149.059311 4845.0 
150.053406 195207.0 
150.091125 82987.0 
150.996063 48125.0 
151.061157 420829.0 
152.027298 13447.0 
153.022522 17535.0 
154.007004 14967.0 
160.075546 39081.0 
161.045441 26009.0 
161.083481 20309.0 
162.053284 97145.0 
163.061386 202429.0 
168.022369 97296.0 
170.038193 7828.0 
176.070572 28887.0 
177.022415 15611.0 
178.086243 5867.0 
181.017502 1307932.0 
186.032547 14510.0 
192.886002 3661.0 
195.033203 3366313.0 
199.621262 3650.0 
208.41507 3514.0 
213.043243 42732.0 
222.044128 17194.0 
223.027985 4205858.0 
236.059204 35843.0 
311.083282 6887.0 
342.102325 24223.0 
360.110962 37344.0 
END IONS

BEGIN IONS
NAME=isoliquiritigenin CollisionEnergy:102040 M+H-H2O
PRECURSOR_MZ=239.07
INCHI="InChI=1S/C15H12O4/c16-11-4-1-10(2-5-11)3-8-14(18)13-7-6-12(17)9-15(13)19/h1-9,16-17,19H/b8-3+"
SMILES=O=C(C=Cc1ccc(O)cc1)c1ccc(O)cc1O
SPECTRUMID=CCMSLIB00010106235
59.66362 2218.0 
79.021431 4219.0 
118.645866 2915.0 
163.334976 2408.0 
181.084122 2714.0 
190.540802 2275.0 
192.912109 2209.0 
204.037033 3259.0 
215.92009 4965.0 
238.065842 2662.0 
239.070145 1810482.0 
462.890717 2337.0 
469.720398 2846.0 
END IONS

BEGIN IONS
NAME="3-(2-(2H,3H-benzo[3,4-e]1,4-dioxin-6-yl)-2-oxoethyl)-3-hydroquinazolin-4-one CollisionEnergy:205060" M+H
PRECURSOR_MZ=323.103
INCHI="InChI=1S/C18H14N2O4/c21-15(12-5-6-16-17(9-12)24-8-7-23-16)10-20-11-19-14-4-2-1-3-13(14)18(20)22/h1-6,9,11H,7-8,10H2"
SMILES=O=C(Cn1cnc2ccccc2c1=O)c1ccc2c(c1)OCCO2
SPECTRUMID=CCMSLIB00010115599
50.015671 3617.0 
51.023411 12161.0 
51.45512 3010.0 
53.03904 52690.0 
55.01825 12946.0 
65.038742 3671.0 
67.054741 5087.0 
77.038651 37102.0 
79.05452 4237.0 
81.033661 3719.0 
90.705612 3042.0 
91.054268 158774.0 
93.069817 179565.0 
95.049072 27849.0 
103.054039 72853.0 
104.049423 6148.0 
105.033257 97209.0 
105.042343 3932.0 
105.04483 5195.0 
120.044029 18258.0 
120.055527 2883.0 
121.064583 435385.0 
123.043762 281814.0 
129.044479 33028.0 
130.028595 59284.0 
131.048965 112539.0 
132.044098 63479.0 
134.036377 5562.0 
137.059723 4626.0 
137.200882 3522.0 
147.055023 547701.0 
149.059464 3713166.0 
159.054871 20108.0 
160.062912 15227.0 
163.03833 90167.0 
163.05188 5941.0 
164.070206 14614.0 
182.059937 5462.0 
192.050629 6661.0 
210.05394 24420.0 
211.129532 3471.0 
238.048645 7376.0 
238.17897 3735.0 
239.08075 4152.0 
249.063736 3433.0 
266.080444 512130.0 
267.074982 43446.0 
284.097382 3674.0 
295.106445 4651.0 
300.147217 15054.0 
308.361267 3313.0 
323.101654 2962949.0 
END IONS

BEGIN IONS
NAME=N-[(4-methoxyphenyl)methyl]-2-purin-6-ylthioacetamide CollisionEnergy:205060 M+H
PRECURSOR_MZ=330.102
INCHI="InChI=1S/C15H15N5O2S/c1-22-11-4-2-10(3-5-11)6-16-12(21)7-23-15-13-14(18-8-17-13)19-9-20-15/h2-5,8-9H,6-7H2,1H3,(H,16,21)(H,17,18,19,20)"
SMILES=COc1ccc(CN=C(O)CSc2ncnc3[nH]cnc23)cc1
SPECTRUMID=CCMSLIB00010121554
50.01553 8229.0 
51.023491 9304.0 
52.71563 6279.0 
53.03928 6604.0 
54.049068 7757.0 
61.62566 6816.0 
64.392059 7710.0 
65.038834 45067.0 
75.002571 6234.0 
77.038963 40327.0 
77.895126 6786.0 
78.046532 201961.0 
78.051064 13206.0 
81.033691 32185.0 
89.039352 7452.0 
89.844887 7191.0 
90.045982 8000.0 
90.222687 7213.0 
91.054237 511419.0 
93.069962 40869.0 
95.049171 92707.0 
105.044441 11664.0 
106.040657 120464.0 
111.001152 87604.0 
119.035103 100306.0 
121.064613 23792974.0 
124.049881 32071.0 
125.004044 36985.0 
134.058426 662621.0 
137.045639 45365.0 
138.01207 117684.0 
140.02681 14374.0 
142.906433 10048.0 
151.061127 64858.0 
165.02269 4924161.0 
167.038223 1234775.0 
179.038818 10372.0 
193.017517 7238454.0 
212.582962 7700.0 
330.100952 1606796.0 
END IONS

BEGIN IONS
NAME="{[1,4a-dimethyl-7-(methylethyl)(1,2,3,4,9,10,10a,4a-octahydrophenanthryl)]meth yl}[(4-methoxy-3-methylphenyl)sulfonyl]amine CollisionEnergy:102040" M+Na
PRECURSOR_MZ=492.254
INCHI="InChI=1S/C28H39NO3S/c1-19(2)21-8-11-24-22(17-21)9-13-26-27(4,14-7-15-28(24,26)5)18-29-33(30,31)23-10-12-25(32-6)20(3)16-23/h8,10-12,16-17,19,26,29H,7,9,13-15,18H2,1-6H3"
SMILES=COc1ccc(S(=O)(=O)NCC2(C)CCCC3(C)c4ccc(C(C)C)cc4CCC23)cc1C
SPECTRUMID=CCMSLIB00010111911
72.00621 3209.0 
89.28595 2986.0 
89.768753 3314.0 
99.106339 2947.0 
99.504837 2920.0 
118.382156 3467.0 
136.191055 2969.0 
145.596054 3061.0 
163.889648 3304.0 
209.766541 6240.0 
477.22879 13871.0 
489.418488 3999.0 
492.253571 5797260.0 
495.112061 4451.0 
END IONS

BEGIN IONS
NAME="3',4'-Dihydroxy-.beta.-naphthoflavone CollisionEnergy:102040" 2M+H
PRECURSOR_MZ=609.154
INCHI="InChI=1S/C19H12O4/c20-14-7-5-12(9-15(14)21)18-10-16(22)19-13-4-2-1-3-11(13)6-8-17(19)23-18/h1-10,20-21H"
SMILES=O=c1cc(-c2ccc(O)c(O)c2)oc2ccc3ccccc3c12
SPECTRUMID=CCMSLIB00010105564
58.07373 2840.0 
76.507607 2839.0 
82.144363 2857.0 
84.331017 2923.0 
88.815086 2895.0 
89.333702 2922.0 
92.369553 3023.0 
102.922974 2855.0 
204.849716 2659.0 
290.933258 2968.0 
305.080383 486700.0 
END IONS

BEGIN IONS
NAME="2,9-dimethyl-8-({5-methyl-2-[4-(methylethoxy)phenyl](1,3-oxazol-4-yl)}methylth io)hydropurin-6-one CollisionEnergy:102040" M-H
PRECURSOR_MZ=424.145
INCHI="InChI=1S/C21H23N5O3S/c1-11(2)28-15-8-6-14(7-9-15)20-24-16(12(3)29-20)10-30-21-25-17-18(26(21)5)22-13(4)23-19(17)27/h6-9,11H,10H2,1-5H3,(H,22,23,27)"
SMILES=Cc1nc(O)c2nc(SCc3nc(-c4ccc(OC(C)C)cc4)oc3C)n(C)c2n1
SPECTRUMID=CCMSLIB00010107647
58.547058 2281.0 
63.68042 2416.0 
73.95034 2383.0 
83.534737 2128.0 
85.062119 2189.0 
90.212357 2335.0 
92.375893 2469.0 
118.654137 3774.0 
123.701714 2505.0 
163.06189 4055.0 
193.01915 4285.0 
194.026917 350436.0 
195.034485 83960.0 
204.640656 2361.0 
215.505249 2795.0 
228.088699 2627.0 
424.145264 222589.0 
END IONS

BEGIN IONS
NAME="N-(3-cyanophenyl)(3,4,5-trimethoxyphenyl)carboxamide CollisionEnergy:102040" M+Na
PRECURSOR_MZ=335.1
INCHI="InChI=1S/C17H16N2O4/c1-21-14-8-12(9-15(22-2)16(14)23-3)17(20)19-13-6-4-5-11(7-13)10-18/h4-9H,1-3H3,(H,19,20)"
SMILES=COc1cc(C(O)=Nc2cccc(C#N)c2)cc(OC)c1OC
SPECTRUMID=CCMSLIB00010106097
61.54631 2034.0 
65.602654 2481.0 
66.743469 2214.0 
92.79113 2067.0 
112.135429 2333.0 
146.137192 2185.0 
185.602966 2545.0 
209.606216 3948.0 
209.62648 4641.0 
335.098938 250611.0 
335.178101 57586.0 
335.221436 4555.0 
END IONS

BEGIN IONS
NAME="14-(hydroxyethyl)-2,15-dimethyltetracyclo[8.7.0.0<2,7>.0<11,15>]heptadec-7-en- 5-yl acetate CollisionEnergy:205060" M-H+2Na
PRECURSOR_MZ=405.238
INCHI="InChI=1S/C23H36O3/c1-14(24)19-7-8-20-18-6-5-16-13-17(26-15(2)25)9-11-22(16,3)21(18)10-12-23(19,20)4/h5,14,17-21,24H,6-13H2,1-4H3"
SMILES=CC(=O)OC1CCC2(C)C(=CCC3C2CCC2(C)C(C(C)O)CCC32)C1
SPECTRUMID=CCMSLIB00010126038
55.156681 2447.0 
64.97776 18777.0 
80.070778 2237.0 
82.394234 2782.0 
90.777527 2550.0 
106.089844 2935.0 
109.076042 2689.0 
118.647659 2263.0 
127.578537 2591.0 
130.067734 3044.0 
146.05603 2504.0 
187.07312 64360.0 
200.952179 5479.0 
220.070419 11050.0 
228.099014 4506.0 
237.054901 5533.0 
247.805237 2884.0 
301.853729 2582.0 
405.114166 32524.0 
405.176544 20177.0 
405.242676 298636.0 
END IONS

BEGIN IONS
NAME=N-{4-[(2E)-3-(4-methoxyphenyl)prop-2-enoyl]phenyl}acetamide CollisionEnergy:205060 M+Na
PRECURSOR_MZ=318.11
INCHI="InChI=1S/C18H17NO3/c1-13(20)19-16-8-6-15(7-9-16)18(21)12-5-14-3-10-17(22-2)11-4-14/h3-12H,1-2H3,(H,19,20)/b12-5+"
SMILES=COc1ccc(C=CC(=O)c2ccc(N=C(C)O)cc2)cc1
SPECTRUMID=CCMSLIB00010117895
55.174351 2252.0 
66.762207 2276.0 
78.293114 2124.0 
98.690369 2166.0 
117.894577 2457.0 
127.212013 2363.0 
256.023468 4164.0 
317.600098 4494.0 
318.109741 828606.0 
336.117615 19024.0 
END IONS

BEGIN IONS
NAME="2-amino-4-(7-methoxy(2H-benzo[3,4-d]1,3-dioxolan-5-yl))-5-oxo-4H-6,7,8-trihydr ochromene-3-carbonitrile CollisionEnergy:205060" M+H
PRECURSOR_MZ=341.113
INCHI="InChI=1S/C18H16N2O5/c1-22-13-5-9(6-14-17(13)24-8-23-14)15-10(7-19)18(20)25-12-4-2-3-11(21)16(12)15/h5-6,15H,2-4,8,20H2,1H3"
SMILES=COc1cc(C2C(C#N)=C(N)OC3=C2C(=O)CCC3)cc2c1OCO2
SPECTRUMID=CCMSLIB00010125367
55.01828 17936.0 
59.614391 2387.0 
60.315498 2509.0 
65.039032 2619.0 
68.016441 2320.0 
75.630562 2719.0 
84.959663 5723.0 
91.054413 5626.0 
92.049309 13125.0 
92.382301 2739.0 
95.049316 5204.0 
104.049217 16059.0 
116.049271 17367.0 
119.060272 55365.0 
120.044167 48582.0 
130.028854 19612.0 
133.039612 31260.0 
133.075897 4967.0 
134.059845 10514.0 
144.044281 31247.0 
146.060181 6411.0 
147.05513 409065.0 
151.039383 12641.0 
153.054382 2934.0 
161.034485 14991.0 
161.071136 22932.0 
162.054871 3600.0 
171.055283 4966.0 
172.039139 4046.0 
178.06485 2730.0 
184.074875 2350.0 
187.767197 2819.0 
189.065674 1420653.0 
199.073685 3898.0 
212.070328 6205.0 
214.035141 3152.0 
215.07103 5459.0 
217.073517 5788.0 
229.060593 11986.0 
238.069061 3547.0 
240.058609 2604.0 
242.065277 4208.0 
244.061874 3146.0 
250.07103 4035.0 
255.031754 2817.0 
256.096497 6175.0 
264.064697 11585.0 
270.058289 3470.0 
275.090454 6151.0 
278.074646 2538.0 
279.078247 2512.0 
283.811859 2877.0 
284.076843 3953.0 
285.081909 21590.0 
286.070831 20329.0 
286.104095 4471.0 
296.082458 2811.0 
297.09201 2980.0 
299.078705 23917.0 
301.095062 16763.0 
308.076965 3736.0 
309.089813 5550.0 
310.089569 44024.0 
313.075409 10244.0 
314.101654 95608.0 
323.101105 8476.0 
324.085907 10642.0 
326.084076 9842.0 
341.11264 254166.0 
END IONS

BEGIN IONS
NAME=D-glucosamine 6-phosphate CollisionEnergy:102040 M-H
PRECURSOR_MZ=258.038
INCHI="InChI=1S/C6H14NO8P/c7-3-5(9)4(8)2(15-6(3)10)1-14-16(11,12)13/h2-6,8-10H,1,7H2,(H2,11,12,13)/t2-,3-,4-,5-,6?/m1/s1"
SMILES=N[C@H]1C(O)O[C@H](COP(=O)(O)O)[C@@H](O)[C@@H]1O
SPECTRUMID=CCMSLIB00010102515
59.0168 3577.120117 
61.7687 3410.870117 
73.115196 3148.629883 
73.977097 4040.399902 
78.958801 191129.0 
78.963898 6724.290039 
80.032898 3422.409912 
84.949997 3893.280029 
88.628998 3301.179932 
92.6259 3457.620117 
96.969597 580009.0 
99.925797 4636.25 
110.547997 3559.48999 
117.236 3547.560059 
118.684998 4108.200195 
121.980003 3727.469971 
129.106995 4034.01001 
130.720993 3491.98999 
133.764999 4004.5 
138.981003 27137.900391 
152.516006 3842.310059 
158.940002 6988.990234 
199.001999 111085.0 
203.973007 4962.790039 
209.903 13398.799805 
239.869003 22682.5 
240.026993 69605.296875 
257.878998 8786.830078 
257.945007 5422.419922 
258.039001 162081.0 
END IONS

BEGIN IONS
NAME="(2E)-1-(2H,3H,4H,5H-benzo[b]1,4-dioxocan-8-yl)-3-phenylprop-2-en-1-one CollisionEnergy:205060" M+H
PRECURSOR_MZ=295.133
INCHI="InChI=1S/C19H18O3/c20-17(10-8-15-6-2-1-3-7-15)16-9-11-18-19(14-16)22-13-5-4-12-21-18/h1-3,6-11,14H,4-5,12-13H2/b10-8+"
SMILES=O=C(C=Cc1ccccc1)c1ccc2c(c1)OCCCCO2
SPECTRUMID=CCMSLIB00010115515
51.023701 13641.0 
52.691471 2915.0 
53.039101 29003.0 
54.51865 2433.0 
55.05471 21729.0 
66.457161 2946.0 
71.029633 4406.0 
77.038696 7948.0 
90.977013 4486.0 
91.054459 4972.0 
92.377243 3350.0 
95.049263 18320.0 
96.16983 2649.0 
102.046303 6846.0 
103.054253 1782888.0 
104.287613 3123.0 
105.033401 32229.0 
106.036919 14115.0 
121.063988 3399.0 
131.049225 2960021.0 
136.208328 3424.0 
137.023224 46078.0 
144.081207 7085.0 
149.023224 13412.0 
162.58403 2958.0 
163.038895 13710.0 
167.085556 15828.0 
177.070328 4716.0 
181.064026 3795.0 
191.069565 17438.0 
195.081009 12230.0 
223.074677 14607.0 
295.13208 1668024.0 
END IONS

BEGIN IONS
NAME="(2E)-1-{2-[4-(diethylamino)phenyl]-6-hydroxy-3-azabicyclo[4.4.0]dec-3-yl}-3-(3 ,4,5-trimethoxyphenyl)prop-2-en-1-one CollisionEnergy:205060" M+H
PRECURSOR_MZ=523.317
INCHI="InChI=1S/C31H42N2O5/c1-6-32(7-2)24-14-12-23(13-15-24)29-25-10-8-9-17-31(25,35)18-19-33(29)28(34)16-11-22-20-26(36-3)30(38-5)27(21-22)37-4/h11-16,20-21,25,29,35H,6-10,17-19H2,1-5H3/b16-11+"
SMILES=CCN(CC)c1ccc(C2C3CCCCC3(O)CCN2C(=O)C=Cc2cc(OC)c(OC)c(OC)c2)cc1
SPECTRUMID=CCMSLIB00010118639
51.311272 3297.0 
67.05455 13368.0 
79.054398 4187.0 
91.054382 48552.0 
103.054268 3061.0 
103.502708 3458.0 
104.296921 3349.0 
105.069504 5936.0 
106.065178 4183.0 
107.048927 3566.0 
109.101273 11195.0 
119.049103 62274.0 
132.067795 4172.0 
133.064728 5531.0 
134.096268 34176.0 
135.044052 5641.0 
135.079987 5212.0 
136.052322 25593.0 
136.062469 4016.0 
136.111923 25174.0 
136.217819 3574.0 
137.059525 7401.0 
147.044434 33503.0 
147.091888 2989.0 
148.051743 7039.0 
148.075272 16110.0 
148.112274 5394.0 
149.060028 3599.0 
151.075348 78131.0 
154.122345 42134.0 
160.112015 6179.0 
161.059204 6764.0 
161.106918 17746.0 
162.067398 54710.0 
162.12767 33871.0 
163.038971 34760.0 
163.074707 17050.0 
164.046082 6190.0 
165.054626 6808.0 
168.713577 2886.0 
175.03949 29998.0 
175.122498 12980.0 
176.046494 19852.0 
177.054611 26627.0 
178.0625 52164.0 
179.07019 577637.0 
180.078064 6862.0 
189.054367 19257.0 
190.042297 5889.0 
190.062286 230956.0 
191.034836 54720.0 
191.070206 244730.0 
193.085922 147151.0 
193.1026 3303.0 
194.093552 122995.0 
206.057159 79129.0 
207.065079 42838.0 
217.134613 4305.0 
218.883499 3220.0 
221.080719 649069.0 
222.088654 75461.0 
228.137787 3274.0 
239.153976 4512.0 
253.168045 3754.0 
255.185501 133929.0 
256.203247 3849.0 
271.180176 40843.0 
273.195801 224439.0 
281.162964 4378.0 
283.215271 12301.0 
285.232086 14371.0 
296.164276 17615.0 
298.143829 27922.0 
301.227539 16191.0 
311.184906 6164.0 
369.180969 7438.0 
374.195465 37195.0 
381.181 4273.0 
395.193695 6942.0 
505.305878 6046.0 
523.316223 1229751.0 
END IONS

BEGIN IONS
NAME=2'-Hydroxy-.beta.-naphthoflavone CollisionEnergy:102040 M-H
PRECURSOR_MZ=287.071
INCHI="InChI=1S/C19H12O3/c20-15-8-4-3-7-14(15)18-11-16(21)19-13-6-2-1-5-12(13)9-10-17(19)22-18/h1-11,20H"
SMILES=O=c1cc(-c2ccccc2O)oc2ccc3ccccc3c12
SPECTRUMID=CCMSLIB00010103925
75.732147 3217.0 
86.294571 2850.0 
88.456177 2668.0 
104.289787 3524.0 
117.034691 1082969.0 
136.216736 4757.0 
139.42041 2935.0 
143.050415 101370.0 
161.024323 61235.0 
167.050293 232837.0 
241.065781 13464.0 
243.081345 31113.0 
245.061157 5572.0 
258.91864 5222.0 
259.076721 1054681.0 
268.903107 4175.0 
269.059631 24773.0 
286.065521 7134.0 
287.071777 8317193.0 
END IONS

BEGIN IONS
NAME=9-methyl-8-{[3-(trifluoromethyl)phenyl]methylthio}hydropurin-6-one CollisionEnergy:102040 M-H
PRECURSOR_MZ=339.053
INCHI="InChI=1S/C14H11F3N4OS/c1-21-11-10(12(22)19-7-18-11)20-13(21)23-6-8-3-2-4-9(5-8)14(15,16)17/h2-5,7H,6H2,1H3,(H,18,19,22)"
SMILES=Cn1c(SCc2cccc(C(F)(F)F)c2)nc2c(O)ncnc21
SPECTRUMID=CCMSLIB00010110274
56.515041 2276.0 
57.753979 2427.0 
61.11554 2546.0 
63.645451 2127.0 
80.527893 2198.0 
118.683609 3105.0 
127.511513 2231.0 
149.047226 61975.0 
179.003723 9443.0 
180.011307 817284.0 
254.986465 14872.0 
274.992889 4213.0 
296.04834 10919.0 
339.053284 497770.0 
END IONS

BEGIN IONS
NAME=Madecassic acid CollisionEnergy:102040 M-H
PRECURSOR_MZ=503.338
INCHI="InChI=1S/C30H48O6/c1-16-9-10-30(25(35)36)12-11-28(5)18(22(30)17(16)2)7-8-21-26(3)13-20(33)24(34)27(4,15-31)23(26)19(32)14-29(21,28)6/h7,16-17,19-24,31-34H,8-15H2,1-6H3,(H,35,36)/t16-,17+,19-,20-,21-,22+,23-,24+,26-,27+,28-,29-,30+/m1/s1"
SMILES=CC1CCC2(C(=O)O)CCC3(C)C(=CCC4C5(C)CC(O)C(O)C(C)(CO)C5C(O)CC43C)C2C1C
SPECTRUMID=CCMSLIB00010112606
66.659721 3072.0 
99.500099 3077.0 
136.273163 3181.0 
167.979568 2865.0 
174.956909 3531.0 
296.741211 3781.0 
370.816132 3390.0 
434.869019 4040.0 
437.304474 13704.0 
464.698303 3249.0 
503.338196 6392554.0 
506.299866 4667.0 
END IONS

BEGIN IONS
NAME="6-ethyl-4-({4-[(2,3,4-trimethoxyphenyl)methyl]piperazinyl}methyl)chromen-2-one CollisionEnergy:102040" M+Na
PRECURSOR_MZ=475.22
INCHI="InChI=1S/C26H32N2O5/c1-5-18-6-8-22-21(14-18)20(15-24(29)33-22)17-28-12-10-27(11-13-28)16-19-7-9-23(30-2)26(32-4)25(19)31-3/h6-9,14-15H,5,10-13,16-17H2,1-4H3"
SMILES=CCc1ccc2oc(=O)cc(CN3CCN(Cc4ccc(OC)c(OC)c4OC)CC3)c2c1
SPECTRUMID=CCMSLIB00010105278
53.15255 2273.0 
55.83897 2705.0 
76.116539 2697.0 
90.99942 2620.0 
154.523972 2549.0 
190.060303 3396.0 
287.138367 5731.0 
308.542114 3179.0 
475.220184 2497627.0 
END IONS

BEGIN IONS
NAME=N-(3-methoxyphenyl)-2-[9-(4-methylphenyl)-6-oxohydropurin-8-ylthio]acetamide CollisionEnergy:205060 M+Na
PRECURSOR_MZ=444.11
INCHI="InChI=1S/C21H19N5O3S/c1-13-6-8-15(9-7-13)26-19-18(20(28)23-12-22-19)25-21(26)30-11-17(27)24-14-4-3-5-16(10-14)29-2/h3-10,12H,11H2,1-2H3,(H,24,27)(H,22,23,28)"
SMILES=COc1cccc(N=C(O)CSc2nc3c(O)ncnc3n2-c2ccc(C)cc2)c1
SPECTRUMID=CCMSLIB00010122598
60.526371 3024.0 
92.393044 3175.0 
128.008621 2866.0 
249.074448 3870.0 
279.030487 155806.0 
280.038788 33970.0 
321.04129 21610.0 
342.737488 2762.0 
418.058838 3032.0 
444.109497 3713129.0 
END IONS

BEGIN IONS
NAME="2-amino-6-(hydroxymethyl)-4-(2-nitrophenyl)-8-oxo-4H-pyrano[3,2-b]pyran-3-carb onitrile CollisionEnergy:205060" M+H
PRECURSOR_MZ=342.072
INCHI="InChI=1S/C16H11N3O6/c17-6-10-13(9-3-1-2-4-11(9)19(22)23)15-14(25-16(10)18)12(21)5-8(7-20)24-15/h1-5,13,20H,7,18H2"
SMILES=N#CC1=C(N)Oc2c(oc(CO)cc2=O)C1c1ccccc1[N+](=O)[O-]
SPECTRUMID=CCMSLIB00010123702
50.015541 4857.0 
51.023529 9463.0 
52.03125 3389.0 
53.00259 13585.0 
53.03899 4075.0 
55.018299 41009.0 
57.033932 32811.0 
64.030937 5328.0 
65.038857 5290.0 
67.018181 245676.0 
68.013344 15701.0 
68.02597 5324.0 
68.997398 15884.0 
69.033836 5910.0 
69.992523 12415.0 
71.013046 5451.0 
73.028664 5869.0 
73.880577 2592.0 
78.03392 20171.0 
79.041687 12870.0 
81.033577 4013.0 
82.385017 2941.0 
83.012901 40726.0 
84.959862 2947.0 
85.028526 62966.0 
86.023727 4168.0 
89.038887 2920.0 
89.972282 3034.0 
90.033813 19690.0 
91.042 6380.0 
92.025726 18347.0 
92.049431 25591.0 
95.012787 17154.0 
95.036537 3753.0 
96.044243 12050.0 
97.028374 25825.0 
101.023216 49896.0 
102.033783 4337.0 
103.041893 3676.0 
104.048981 21310.0 
105.03331 12543.0 
111.007011 9892.0 
111.030853 3024.0 
113.023247 25831.0 
114.033623 39559.0 
115.041397 4352.0 
115.053902 15648.0 
116.049507 25900.0 
117.044228 5111.0 
118.052147 6508.0 
119.060493 6686.0 
120.034187 3694.0 
120.044144 88405.0 
124.039383 3910.0 
127.041092 21416.0 
128.049332 19373.0 
128.061493 4202.0 
129.044556 70114.0 
129.05542 5390.0 
130.028824 163721.0 
130.039673 21599.0 
130.051422 5005.0 
130.064529 5704.0 
131.060074 33311.0 
132.044144 85162.0 
134.023697 4652.0 
135.055298 6175.0 
137.04689 5806.0 
140.049149 26404.0 
141.018326 63219.0 
141.044617 142775.0 
142.052567 62385.0 
142.064667 11842.0 
143.034378 20182.0 
143.060181 26866.0 
144.043961 17112.0 
144.055557 35045.0 
145.03949 56924.0 
145.051849 5556.0 
145.062576 8520.0 
146.023132 29382.0 
146.059769 18192.0 
147.055237 6282.0 
152.036423 39197.0 
152.048676 4029.0 
153.044556 74476.0 
153.057159 11015.0 
154.028091 4163.0 
154.040298 4446.0 
154.052307 6509.0 
154.064972 16326.0 
155.060059 123288.0 
156.043228 4968.0 
156.055771 24761.0 
156.067993 5247.0 
157.039474 224665.0 
158.046371 38771.0 
159.028839 101063.0 
159.054901 98622.0 
160.026215 3399.0 
160.039322 21510.0 
162.054184 25003.0 
163.049911 20478.0 
165.044083 5540.0 
166.039536 26430.0 
166.052658 16726.0 
166.065735 5248.0 
167.047333 33327.0 
167.058884 4774.0 
167.072937 24378.0 
168.031387 19961.0 
168.055206 44420.0 
168.068726 16058.0 
169.039383 120241.0 
169.063019 23729.0 
169.07637 13473.0 
170.046661 11937.0 
170.058762 20718.0 
170.073135 5508.0 
171.029266 3485.0 
171.055389 42736.0 
172.051025 32761.0 
175.050201 11845.0 
176.034805 7070.0 
178.051773 10364.0 
179.060303 63640.0 
180.028381 4678.0 
180.05394 20441.0 
180.069489 10955.0 
181.037857 24389.0 
182.046371 38872.0 
183.054993 203447.0 
184.050125 6337.0 
185.033875 67743.0 
186.067703 24136.0 
187.049728 14454.0 
193.037964 3864.0 
193.078018 27004.0 
194.048096 5757.0 
194.084747 54261.0 
195.055038 40143.0 
196.049881 45395.0 
197.034317 41630.0 
197.056839 14330.0 
197.074097 5020.0 
198.065384 5524.0 
199.049271 21672.0 
200.044159 38345.0 
201.050934 8404.0 
206.059479 14999.0 
207.055344 4320.0 
208.062851 19448.0 
209.057205 3633.0 
210.042099 61319.0 
210.065918 16346.0 
211.050095 35667.0 
212.04483 57542.0 
214.062271 32024.0 
215.044922 21275.0 
216.04129 11367.0 
218.055405 13991.0 
221.073135 25110.0 
222.065231 16344.0 
222.080505 5264.0 
223.049835 19452.0 
224.042603 10818.0 
224.059784 6051.0 
225.029434 12264.0 
225.050354 10413.0 
225.066284 4574.0 
226.036758 14305.0 
226.06041 20911.0 
227.044724 19209.0 
234.054352 12933.0 
235.049835 72042.0 
236.057266 91066.0 
237.06398 13369.0 
238.059113 14928.0 
239.045181 16037.0 
242.055161 14246.0 
249.062317 14897.0 
250.074631 31867.0 
251.044739 4940.0 
253.060104 76601.0 
254.030594 5230.0 
255.039856 4447.0 
263.045349 4863.0 
264.052368 196197.0 
265.059692 4405.0 
266.056183 5358.0 
267.065582 4256.0 
272.052948 5373.0 
277.054901 15054.0 
279.038818 4406.0 
280.044495 5183.0 
280.075012 4825.0 
281.054047 79321.0 
281.084625 4449.0 
282.064178 22459.0 
299.066956 49221.0 
308.06842 7086.0 
315.061523 5695.0 
324.06073 1121414.0 
325.065887 5518.0 
342.071411 84404.0 
END IONS

BEGIN IONS
NAME=(4-chloro-3-nitrophenyl)-N-[2-(2-methylindol-3-yl)ethyl]carboxamide CollisionEnergy:205060 M+H
PRECURSOR_MZ=358.095
INCHI="InChI=1S/C18H16ClN3O3/c1-11-13(14-4-2-3-5-16(14)21-11)8-9-20-18(23)12-6-7-15(19)17(10-12)22(24)25/h2-7,10,21H,8-9H2,1H3,(H,20,23)"
SMILES=Cc1[nH]c2ccccc2c1CCN=C(O)c1ccc(Cl)c([N+](=O)[O-])c1
SPECTRUMID=CCMSLIB00010119366
50.249111 2403.0 
73.945053 2980.0 
82.389229 3378.0 
91.054123 10912.0 
92.367493 3350.0 
115.0541 12416.0 
117.057503 25954.0 
117.070023 33643.0 
118.642807 3688.0 
129.069641 14984.0 
130.065155 36132.0 
131.07428 6320.0 
131.085464 30779.0 
132.08107 5812.0 
136.198685 3631.0 
141.070114 25844.0 
142.065399 4662.0 
143.073044 624713.0 
144.0811 20715.0 
145.084274 3342.0 
152.703476 2873.0 
156.081161 44961.0 
157.088593 33857.0 
158.096573 3073132.0 
169.976166 15514.0 
171.973465 30109.0 
172.099258 24617.0 
183.979843 21826.0 
185.976547 26676.0 
188.107101 12120.0 
213.018448 33069.0 
227.021973 30395.0 
312.886169 3375.0 
341.067627 6038.0 
358.095886 152674.0 
END IONS

BEGIN IONS
NAME=3-butyl-4-hydroxy-1-phenylhydroquinolin-2-one CollisionEnergy:102040 2M-H
PRECURSOR_MZ=585.276
INCHI="InChI=1S/C19H19NO2/c1-2-3-11-16-18(21)15-12-7-8-13-17(15)20(19(16)22)14-9-5-4-6-10-14/h4-10,12-13,21H,2-3,11H2,1H3"
SMILES=CCCCc1c(O)c2ccccc2n(-c2ccccc2)c1=O
SPECTRUMID=CCMSLIB00010103804
54.901001 2547.0 
60.599251 2498.0 
82.313148 2639.0 
82.393356 2556.0 
110.823357 3038.0 
136.200043 3186.0 
185.383636 2866.0 
292.134064 33539.0 
432.102081 2830.0 
463.420166 3148.0 
END IONS

BEGIN IONS
NAME="N-(2H-benzo[3,4-d]1,3-dioxolen-5-ylmethyl)(5-(1,2,4-triazolyl)adamantanyl)carb oxamide CollisionEnergy:102040" M+Na
PRECURSOR_MZ=403.174
INCHI="InChI=1S/C21H24N4O3/c26-19(23-9-14-1-2-17-18(4-14)28-13-27-17)20-5-15-3-16(6-20)8-21(7-15,10-20)25-12-22-11-24-25/h1-2,4,11-12,15-16H,3,5-10,13H2,(H,23,26)"
SMILES=OC(=NCc1ccc2c(c1)OCO2)C12CC3CC(C1)CC(n1cncn1)(C3)C2
SPECTRUMID=CCMSLIB00010103501
53.663731 2567.0 
60.539471 2727.0 
70.388847 2293.0 
79.656853 2891.0 
95.307159 2619.0 
107.060501 5982.0 
180.394089 2724.0 
209.010605 11921.0 
219.273926 2751.0 
298.029724 2572.0 
403.173553 1870498.0 
421.183868 607158.0 
END IONS

BEGIN IONS
NAME="8-benzimidazol-2-ylthio-7-[(2,4-dichlorophenyl)methyl]-1,3-dimethyl-1,3,7-trih ydropurine-2,6-dione CollisionEnergy:102040" 2M-H
PRECURSOR_MZ=971.079
INCHI="InChI=1S/C21H16Cl2N6O2S/c1-27-17-16(18(30)28(2)21(27)31)29(10-11-7-8-12(22)9-13(11)23)20(26-17)32-19-24-14-5-3-4-6-15(14)25-19/h3-9H,10H2,1-2H3,(H,24,25)"
SMILES=Cn1c(=O)c2c(nc(Sc3nc4ccccc4[nH]3)n2Cc2ccc(Cl)cc2Cl)n(C)c1=O
SPECTRUMID=CCMSLIB00010107139
137.023575 5326.0 
144.5345 4722.0 
149.017868 24548.0 
151.563736 6050.0 
152.999741 29759.0 
179.057236 32267.0 
196.005692 28250.0 
208.193115 32685.0 
210.021667 363242.0 
211.029526 904871.0 
222.96106 6870.0 
243.548477 4721.0 
247.0103 4903.0 
272.709015 5337.0 
303.258392 7363.0 
325.051666 32733.0 
326.05899 147426.0 
384.078705 34729.0 
413.08609 5388.0 
414.090698 34845.0 
445.06958 24394.0 
449.059296 168774.0 
451.04715 30394.0 
485.036194 5147858.0 
562.894653 7008.0 
680.387451 4959.0 
END IONS

BEGIN IONS
NAME="10-[2-(3-methylphenoxy)ethyl]-7-(trifluoromethyl)-3,10-dihydrobenzo[g]pteridin e-2,4-dione CollisionEnergy:205060" M+H
PRECURSOR_MZ=417.117
INCHI="InChI=1S/C20H15F3N4O3/c1-11-3-2-4-13(9-11)30-8-7-27-15-6-5-12(20(21,22)23)10-14(15)24-16-17(27)25-19(29)26-18(16)28/h2-6,9-10H,7-8H2,1H3,(H,26,28,29)"
SMILES=Cc1cccc(OCCn2c3nc(=O)nc(O)c-3nc3cc(C(F)(F)F)ccc32)c1
SPECTRUMID=CCMSLIB00010122401
53.592129 2633.0 
55.018162 4081.0 
62.30695 2653.0 
64.883247 2905.0 
65.039001 41335.0 
67.054466 14004.0 
69.033539 2799.0 
73.959648 4214.0 
79.054611 45126.0 
91.054321 256642.0 
92.386459 3381.0 
105.069763 54128.0 
107.048523 3934.0 
107.085487 86521.0 
109.064659 28230.0 
115.054153 73673.0 
117.06958 35512.0 
119.059853 4899.0 
120.056824 12725.0 
124.051689 5841.0 
135.080261 80327.0 
135.658234 2871.0 
139.401596 2946.0 
160.036758 13361.0 
169.063309 7004.0 
186.038971 5373.0 
186.278519 3506.0 
191.040924 34522.0 
197.03183 83151.0 
198.046555 10947.0 
211.048477 117305.0 
212.042603 202163.0 
215.042191 44406.0 
218.052231 207601.0 
229.058167 12517.0 
236.062714 17114.0 
238.058258 1780966.0 
240.073776 33689.0 
256.037598 6139.0 
256.068726 170765.0 
260.748444 3158.0 
284.063751 107265.0 
309.058685 826581.0 
417.116028 907338.0 
END IONS

BEGIN IONS
NAME=119-47-1 CollisionEnergy:205060 M-H
PRECURSOR_MZ=339.233
INCHI="InChI=1S/C23H32O2/c1-14-9-16(20(24)18(11-14)22(3,4)5)13-17-10-15(2)12-19(21(17)25)23(6,7)8/h9-12,24-25H,13H2,1-8H3"
SMILES=Cc1cc(Cc2cc(C)cc(C(C)(C)C)c2O)c(O)c(C(C)(C)C)c1
SPECTRUMID=CCMSLIB00010117299
53.617519 2178.0 
60.555969 2577.0 
92.40815 2929.0 
117.511078 2373.0 
163.112686 193319.0 
174.906708 2164.0 
333.721375 2298.0 
339.233215 96335.0 
END IONS

BEGIN IONS
NAME="3,6,3',4'-Tetrahydroxyflavone CollisionEnergy:102040" M+H
PRECURSOR_MZ=287.055
INCHI="InChI=1S/C15H10O6/c16-8-2-4-12-9(6-8)13(19)14(20)15(21-12)7-1-3-10(17)11(18)5-7/h1-6,16-18,20H"
SMILES=O=c1c(O)c(-c2ccc(O)c(O)c2)oc2ccc(O)cc12
SPECTRUMID=CCMSLIB00010108202
55.658878 3444.0 
60.93124 3535.0 
65.03891 5769.0 
65.37867 3760.0 
81.033539 6391.0 
93.033447 20392.0 
95.049004 8005.0 
99.49704 3815.0 
104.267738 4219.0 
109.028343 24501.0 
110.035439 5954.0 
111.043541 6759.0 
118.629288 3986.0 
118.638962 4293.0 
121.028374 519605.0 
136.190536 4392.0 
137.02327 715083.0 
141.06987 16655.0 
147.042496 5329.0 
149.0233 302208.0 
157.064713 33819.0 
161.059402 6177.0 
163.038879 7931.0 
165.017471 18921.0 
167.034531 52124.0 
169.064453 17574.0 
175.075516 16657.0 
179.033966 16222.0 
185.040634 4716.0 
185.059723 149823.0 
189.052856 6555.0 
191.033493 9350.0 
197.059006 37453.0 
203.070755 52482.0 
213.054367 498826.0 
217.048309 17889.0 
223.039169 7277.0 
231.045074 4911.0 
231.064667 187711.0 
241.048935 377900.0 
245.930679 25027.0 
251.033936 8222.0 
258.051788 22587.0 
259.060028 109553.0 
263.939209 39248.0 
269.043671 185220.0 
270.049683 9339.0 
286.048431 14182.0 
287.054535 25356974.0 
END IONS

BEGIN IONS
NAME="2-[3-(4-fluorophenyl)isoxazol-5-yl]-7,8-dioxabicyclo[3.2.1]octan-2-ol CollisionEnergy:205060" M+Na
PRECURSOR_MZ=314.08
INCHI="InChI=1S/C15H14FNO4/c16-10-3-1-9(2-4-10)12-7-13(21-17-12)15(18)6-5-11-8-19-14(15)20-11/h1-4,7,11,14,18H,5-6,8H2"
SMILES=OC1(c2cc(-c3ccc(F)cc3)no2)CCC2COC1O2
SPECTRUMID=CCMSLIB00010118480
60.539951 2352.0 
66.744972 2438.0 
69.281342 1958.0 
82.727791 2183.0 
84.953949 2035.0 
84.959846 10627.0 
91.054176 3242.0 
129.992859 2207.0 
130.537125 2525.0 
177.16774 2666.0 
192.910538 2675.0 
214.297684 2589.0 
267.928925 3696.0 
314.079498 219176.0 
END IONS

BEGIN IONS
NAME=N-[2-chloro-5-(trifluoromethyl)phenyl]-2-{4-[(7-methyl-2-oxochromen-4-yl)methy l]piperazinyl}acetamide CollisionEnergy:205060 M-H
PRECURSOR_MZ=492.131
INCHI="InChI=1S/C24H23ClF3N3O3/c1-15-2-4-18-16(11-23(33)34-21(18)10-15)13-30-6-8-31(9-7-30)14-22(32)29-20-12-17(24(26,27)28)3-5-19(20)25/h2-5,10-12H,6-9,13-14H2,1H3,(H,29,32)"
SMILES=Cc1ccc2c(CN3CCN(CC(O)=Nc4cc(C(F)(F)F)ccc4Cl)CC3)cc(=O)oc2c1
SPECTRUMID=CCMSLIB00010119925
60.045521 2440.0 
80.00618 2536.0 
80.029694 2102.0 
80.119087 2401.0 
82.411758 2392.0 
92.394432 4740.0 
104.30632 3413.0 
484.337219 3267.0 
492.131042 121926.0 
END IONS

BEGIN IONS
NAME=nicotinic acid CollisionEnergy:102040 M-H
PRECURSOR_MZ=122.025
INCHI="InChI=1S/C6H5NO2/c8-6(9)5-2-1-3-7-4-5/h1-4H,(H,8,9)"
SMILES=O=C(O)c1cccnc1
SPECTRUMID=CCMSLIB00010126242
54.433498 160823.0 
66.761101 163240.0 
69.101303 163397.0 
71.666901 163061.0 
78.034698 4285450.0 
79.741501 165028.0 
92.401703 197775.0 
94.029701 1274910.0 
104.315002 213281.0 
122.025002 5765110.0 
END IONS

BEGIN IONS
NAME="2-methoxy-6-phenyl-3-phenylcarbonyloxy-2H-3,4,5,6,7,8,4a,8a-octahydro-5,7-diox achromen-4-yl benzoate CollisionEnergy:102040" M+NH4
PRECURSOR_MZ=508.197
INCHI="InChI=1S/C28H26O8/c1-31-28-24(35-26(30)19-13-7-3-8-14-19)23(34-25(29)18-11-5-2-6-12-18)22-21(33-28)17-32-27(36-22)20-15-9-4-10-16-20/h2-16,21-24,27-28H,17H2,1H3"
SMILES=COC1OC2COC(c3ccccc3)OC2C(OC(=O)c2ccccc2)C1OC(=O)c1ccccc1
SPECTRUMID=CCMSLIB00010109332
53.03904 12176.0 
62.877609 2881.0 
81.028816 3967.0 
81.033722 68727.0 
87.408096 2601.0 
88.49649 3127.0 
90.976677 3243.0 
91.054337 140834.0 
99.043854 2592.0 
105.033463 492662.0 
106.064819 14931.0 
109.028313 32272.0 
110.235519 2834.0 
118.656273 2884.0 
121.064369 12260.0 
141.054306 24627.0 
149.059616 216936.0 
157.960861 3792.0 
161.281219 2885.0 
201.054672 4770.0 
203.069534 5094.0 
215.069931 3816.0 
231.064545 15050.0 
242.937103 2928.0 
254.5298 3008.0 
263.092041 3534.0 
303.892975 2756.0 
330.931458 2764.0 
337.104858 5338.0 
353.101044 123871.0 
369.132385 19045.0 
385.071167 5355.0 
385.127563 182561.0 
459.143036 324902.0 
491.166351 26616.0 
END IONS

BEGIN IONS
NAME=alpha-GalNAc CollisionEnergy:102040 M+H
PRECURSOR_MZ=222.097
INCHI="InChI=1S/C8H15NO6/c1-3(11)9-5-7(13)6(12)4(2-10)15-8(5)14/h4-8,10,12-14H,2H2,1H3,(H,9,11)/t4-,5-,6+,7-,8+/m1/s1"
SMILES=CC(O)=N[C@H]1[C@@H](O)O[C@H](CO)[C@H](O)[C@@H]1O
SPECTRUMID=CCMSLIB00010126732
60.044899 96233.0 
60.047798 5175.950195 
68.050102 6380.459961 
71.900497 4594.180176 
80.050102 6309.77002 
82.428299 5417.779785 
84.0448 103815.0 
92.413696 4751.810059 
96.044502 75068.796875 
97.028603 35757.101562 
98.060204 52645.898438 
98.066498 5716.040039 
103.200996 4760.359863 
108.043999 23727.800781 
109.016998 5326.029785 
109.028999 8015.02002 
114.056 6952.759766 
126.055 390600.0 
127.039001 28204.699219 
138.054993 246179.0 
138.067001 8221.769531 
144.065002 322826.0 
150.054993 6024.52002 
168.065002 101868.0 
186.076004 286266.0 
198.367996 5115.72998 
204.085999 139948.0 
213.927994 6251.990234 
220.714996 6267.240234 
222.147995 8434.490234 
END IONS

BEGIN IONS
NAME="4-(5,9,16-triacetyloxy-2,15-dimethyltetracyclo[8.7.0.0<2,7>.0<11,15>]heptadec- 14-yl)pentanoic acid CollisionEnergy:205060" M+Na
PRECURSOR_MZ=557.308
INCHI="InChI=1S/C30H46O8/c1-16(7-10-27(34)35)22-8-9-23-28-24(15-26(30(22,23)6)38-19(4)33)29(5)12-11-21(36-17(2)31)13-20(29)14-25(28)37-18(3)32/h16,20-26,28H,7-15H2,1-6H3,(H,34,35)"
SMILES=CC(=O)OC1CCC2(C)C(C1)CC(OC(C)=O)C1C2CC(OC(C)=O)C2(C)C(C(C)CCC(=O)O)CCC12
SPECTRUMID=CCMSLIB00010124959
54.369011 2421.0 
56.93742 2596.0 
59.554119 2978.0 
65.787804 2660.0 
70.284752 2713.0 
79.054817 2958.0 
80.628479 2610.0 
83.010757 5575.0 
95.085648 3924.0 
104.289124 4612.0 
105.070297 4450.0 
118.661377 3387.0 
119.085617 4691.0 
131.085434 3638.0 
143.592636 2824.0 
145.101349 5154.0 
159.117386 4621.0 
184.143524 3195.0 
199.146591 3848.0 
206.514999 2778.0 
212.184509 3550.0 
222.240875 3190.0 
260.572968 3114.0 
355.264648 4751.0 
358.931244 3033.0 
369.265259 3432.0 
377.240997 16678.0 
437.266266 53829.0 
497.287201 175440.0 
554.529236 2986.0 
557.308289 2057775.0 
574.96283 3366.0 
END IONS

BEGIN IONS
NAME="2-{N-[2-(3,4-dimethoxyphenyl)ethyl]carbamoyl}cyclohexanecarboxylic acid CollisionEnergy:205060" M-H
PRECURSOR_MZ=334.166
INCHI="InChI=1S/C18H25NO5/c1-23-15-8-7-12(11-16(15)24-2)9-10-19-17(20)13-5-3-4-6-14(13)18(21)22/h7-8,11,13-14H,3-6,9-10H2,1-2H3,(H,19,20)(H,21,22)"
SMILES=COc1ccc(CCN=C(O)C2CCCCC2C(=O)O)cc1OC
SPECTRUMID=CCMSLIB00010119221
51.428261 3042.0 
52.782749 2714.0 
61.98793 7154.0 
73.961357 3553.0 
76.598106 3244.0 
93.034416 4642.0 
98.024689 16119.0 
106.066261 27324.0 
109.065979 24397.0 
118.667992 3874.0 
121.029617 271333.0 
122.024918 12681.0 
123.008987 188325.0 
123.032494 38124.0 
124.076912 1211835.0 
125.060516 3929.0 
126.09243 35868.0 
127.156357 2876.0 
130.093246 4096.0 
134.06134 398785.0 
135.045013 4606.0 
136.053116 660289.0 
138.032471 98347.0 
149.06076 13473.0 
150.056229 11854.0 
152.071884 1349973.0 
166.087784 13370.0 
168.042938 451529.0 
197.070099 4751.0 
217.573456 3369.0 
268.099487 3855.0 
272.09256 4318.0 
287.116119 27593.0 
288.160889 152317.0 
290.177399 12067.0 
302.141815 6235.0 
315.732971 3551.0 
316.155579 1819325.0 
334.16629 1177498.0 
END IONS

BEGIN IONS
NAME="3-[(3-chloro-4-methylphenyl)amino]-1-(3,4,5-trimethoxyphenyl)propan-1-one CollisionEnergy:102040" M+H
PRECURSOR_MZ=364.131
INCHI="InChI=1S/C19H22ClNO4/c1-12-5-6-14(11-15(12)20)21-8-7-16(22)13-9-17(23-2)19(25-4)18(10-13)24-3/h5-6,9-11,21H,7-8H2,1-4H3"
SMILES=COc1cc(C(=O)CCNc2ccc(C)c(Cl)c2)cc(OC)c1OC
SPECTRUMID=CCMSLIB00010104440
50.89748 2552.0 
57.771351 2393.0 
59.258389 2916.0 
60.389622 2353.0 
61.745739 2532.0 
75.023941 2688.0 
85.439919 2771.0 
104.29084 3614.0 
128.802429 2702.0 
154.041641 2041520.0 
169.085663 77529.0 
195.066437 4043.0 
211.0961 302784.0 
282.833374 2760.0 
364.13031 45028.0 
END IONS

BEGIN IONS
NAME=(2Z)-3-(2-furyl)-2-[(2-methoxyphenyl)carbonylamino]-N-[2-(2-methylindol-3-yl)e thyl]prop-2-enamide CollisionEnergy:205060 M+formate
PRECURSOR_MZ=488.183
INCHI="InChI=1S/C26H25N3O4/c1-17-19(20-9-3-5-11-22(20)28-17)13-14-27-26(31)23(16-18-8-7-15-33-18)29-25(30)21-10-4-6-12-24(21)32-2/h3-12,15-16,28H,13-14H2,1-2H3,(H,27,31)(H,29,30)/b23-16-"
SMILES=COc1ccccc1C(O)=NC(=Cc1ccco1)C(O)=NCCc1c(C)[nH]c2ccccc12
SPECTRUMID=CCMSLIB00010119351
52.243801 2540.0 
54.11969 2272.0 
87.526131 2459.0 
104.315247 2900.0 
106.031143 2470.0 
118.689934 2569.0 
136.244781 3282.0 
148.32225 2466.0 
166.245209 2597.0 
168.142181 2910.0 
177.031372 9576.0 
209.858597 5465.0 
424.167542 3950.0 
442.178284 55472.0 
462.000458 2861.0 
END IONS

BEGIN IONS
NAME="N-{2-[1-(2H-benzo[3,4-d]1,3-dioxolen-5-ylcarbonyl)-8-1,2,3,4-tetrahydroquinoly loxy]ethyl}acetamide CollisionEnergy:205060" M+Na
PRECURSOR_MZ=405.142
INCHI="InChI=1S/C21H22N2O5/c1-14(24)22-9-11-26-18-6-2-4-15-5-3-10-23(20(15)18)21(25)16-7-8-17-19(12-16)28-13-27-17/h2,4,6-8,12H,3,5,9-11,13H2,1H3,(H,22,24)"
SMILES=CC(O)=NCCOc1cccc2c1N(C(=O)c1ccc3c(c1)OCO3)CCC2
SPECTRUMID=CCMSLIB00010116382
86.060211 41942.0 
90.438423 2511.0 
136.206863 3400.0 
139.579132 2543.0 
142.818268 2408.0 
170.057556 102189.0 
172.693176 2991.0 
185.384995 3546.0 
252.066681 3379.0 
280.09613 63092.0 
319.081299 4962.0 
320.08844 48110.0 
336.378204 3372.0 
355.785889 2751.0 
365.146851 3418.0 
405.141785 2191241.0 
409.557373 3459.0 
END IONS

BEGIN IONS
NAME="6-(2-methylpropoxy)-2,3,4,9-tetrahydro-4aH-carbazol-1-one CollisionEnergy:102040" M+H
PRECURSOR_MZ=258.149
INCHI="InChI=1S/C16H19NO2/c1-10(2)9-19-11-6-7-14-13(8-11)12-4-3-5-15(18)16(12)17-14/h6-8,10,17H,3-5,9H2,1-2H3"
SMILES=CC(C)COc1ccc2[nH]c3c(c2c1)CCCC3=O
SPECTRUMID=CCMSLIB00010104975
104.29493 3773.0 
110.857513 2834.0 
146.060181 31374.0 
160.076263 21811.0 
174.091385 32333.0 
184.075302 48091.0 
200.069611 4243.0 
201.077972 42115.0 
202.086151 784832.0 
224.062775 3341.0 
258.148651 6545573.0 
END IONS

BEGIN IONS
NAME="1,2-dimethyl-4-(2-purin-6-ylthioethoxy)benzene CollisionEnergy:205060" 2M-H
PRECURSOR_MZ=599.202
INCHI="InChI=1S/C15H16N4OS/c1-10-3-4-12(7-11(10)2)20-5-6-21-15-13-14(17-8-16-13)18-9-19-15/h3-4,7-9H,5-6H2,1-2H3,(H,16,17,18,19)"
SMILES=Cc1ccc(OCCSc2ncnc3[nH]cnc23)cc1C
SPECTRUMID=CCMSLIB00010115698
59.97319 2417.0 
89.650108 2878.0 
102.972809 3004.0 
105.47599 2776.0 
116.390373 2726.0 
117.800636 2859.0 
121.065666 19087.0 
123.71183 2826.0 
130.594376 2558.0 
133.963806 2576.0 
136.246185 2661.0 
151.008606 5282.0 
158.021988 2878.0 
177.024094 17168.0 
208.925751 6765.0 
208.947723 5141.0 
214.878387 2451.0 
274.701263 2851.0 
299.097778 6524.0 
303.239716 6156.0 
494.272552 2695.0 
519.544678 3179.0 
616.574646 3517.0 
END IONS

BEGIN IONS
NAME=inosine CollisionEnergy:205060 M-H
PRECURSOR_MZ=267.073
INCHI="InChI=1S/C10H12N4O5/c15-1-4-6(16)7(17)10(19-4)14-3-13-5-8(14)11-2-12-9(5)18/h2-4,6-7,10,15-17H,1H2,(H,11,12,18)/t4-,6-,7-,10-/m1/s1"
SMILES=OCC1OC(n2cnc3c(O)ncnc32)C(O)C1O
SPECTRUMID=CCMSLIB00010125671
61.253269 6000.0 
65.01416 8697.0 
76.949303 6041.0 
86.570343 5446.0 
92.018738 11840.0 
92.025284 339822.0 
105.062637 6212.0 
106.010384 5644.0 
108.020302 151380.0 
126.0308 141662.0 
129.433792 7441.0 
129.479019 5868.0 
133.015762 11768.0 
134.023224 9229.0 
134.046722 28811.0 
135.031097 5284633.0 
149.046417 28795.0 
150.042252 31571.0 
151.045135 28032.0 
167.019836 7358.0 
169.794739 6975.0 
177.041168 9075.0 
260.235229 7272.0 
267.073029 2454942.0 
END IONS

BEGIN IONS
NAME=Icarrin CollisionEnergy:102040 M+H
PRECURSOR_MZ=677.244
INCHI="InChI=1S/C33H40O15/c1-13(2)5-10-17-19(45-33-28(42)26(40)23(37)20(12-34)46-33)11-18(35)21-24(38)31(48-32-27(41)25(39)22(36)14(3)44-32)29(47-30(17)21)15-6-8-16(43-4)9-7-15/h5-9,11,14,20,22-23,25-28,32-37,39-42H,10,12H2,1-4H3/t14-,20+,22-,23?,25+,26-,27+,28?,32?,33+/m0/s1"
SMILES=COc1ccc(-c2oc3c(CC=C(C)C)c(OC4OC(CO)C(O)C(O)C4O)cc(O)c3c(=O)c2OC2OC(C)C(O)C(O)C2O)cc1
SPECTRUMID=CCMSLIB00010111863
57.033951 183195.0 
69.033669 5177.0 
71.049477 1603565.0 
73.028793 22469.0 
75.044449 64739.0 
83.049103 43133.0 
84.45948 6323.0 
85.02858 1952174.0 
87.044228 37460.0 
89.052589 4637.0 
95.999924 4558.0 
99.044113 7012.0 
104.263817 5469.0 
106.825073 5099.0 
111.043968 38811.0 
129.054489 625518.0 
147.065125 122298.0 
161.04837 5210.0 
208.630417 12486.0 
247.400894 4900.0 
298.047119 8268.0 
301.069885 121935.0 
303.398651 6612.0 
313.070038 5607255.0 
314.078491 11341.0 
325.071381 7890.0 
343.083649 6643.0 
354.108612 21329.0 
367.121094 9958.0 
369.13266 12007816.0 
393.940491 5240.0 
447.129059 22399.0 
463.123566 10105.0 
475.123718 29701.0 
479.166779 8790.0 
497.178802 6394.0 
515.187561 75713.0 
531.185608 9536339.0 
576.24469 7112.0 
599.490906 5175.0 
609.172302 6969.0 
610.846375 5276.0 
677.242859 2139224.0 
END IONS

BEGIN IONS
NAME=4033-40-3 CollisionEnergy:102040 M-H
PRECURSOR_MZ=173.057
INCHI="InChI=1S/C6H10N2O4/c1-3(9)8-4(6(11)12)2-5(7)10/h4H,2H2,1H3,(H2,7,10)(H,8,9)(H,11,12)/t4-/m0/s1"
SMILES=CC(O)=N[C@@H](CC(=N)O)C(=O)O
SPECTRUMID=CCMSLIB00010126362
52.3741 91389.0 
58.029301 10309400.0 
60.9748 110825.0 
66.415298 90001.898438 
70.029503 4518650.0 
82.427399 94320.796875 
84.045197 775723.0 
87.055901 1409720.0 
92.410698 122615.0 
96.008904 5107690.0 
96.992599 154561.0 
104.323997 128843.0 
111.056 1940170.0 
112.040001 228812.0 
113.035004 2176400.0 
114.018997 6978340.0 
118.697998 116822.0 
129.067001 724894.0 
131.046005 4103020.0 
154.947006 239936.0 
155.046005 21045100.0 
173.056 3555810.0 
173.082993 130622.0 
END IONS

BEGIN IONS
NAME="N-(4-bromo-3-chlorophenyl)(3,4,5-trimethoxyphenyl)carboxamide CollisionEnergy:205060" M+Cl
PRECURSOR_MZ=433.957
INCHI="InChI=1S/C16H15BrClNO4/c1-21-13-6-9(7-14(22-2)15(13)23-3)16(20)19-10-4-5-11(17)12(18)8-10/h4-8H,1-3H3,(H,19,20)"
SMILES=COc1cc(C(O)=Nc2ccc(Br)c(Cl)c2)cc(OC)c1OC
SPECTRUMID=CCMSLIB00010121572
73.975166 2612.0 
75.586029 2152.0 
78.918587 92992.0 
81.034233 6375.0 
103.232536 3262.0 
109.029541 12983.0 
120.009109 5792.0 
135.02298 2999.0 
135.03273 26346.0 
137.024582 38605.0 
158.014481 2688.0 
203.921402 2994.0 
267.052246 3105.0 
279.917938 4795.0 
297.900391 12263.0 
312.914978 6114.0 
323.907623 25174.0 
339.938934 4775.0 
349.922424 21572.0 
352.909637 42903.0 
353.95462 13776.0 
366.925385 6278.0 
367.932983 384290.0 
381.948303 42597.0 
382.955963 47927.0 
397.97998 640667.0 
548.399597 2882.0 
END IONS

BEGIN IONS
NAME="{5-[(dimethylamino)sulfonyl]-2,4-dichlorophenyl}-N-[2-(7-chloro-2-methylindol- 3-yl)ethyl]carboxamide CollisionEnergy:102040" M+formate
PRECURSOR_MZ=532.027
INCHI="InChI=1S/C20H20Cl3N3O3S/c1-11-12(13-5-4-6-15(21)19(13)25-11)7-8-24-20(27)14-9-18(17(23)10-16(14)22)30(28,29)26(2)3/h4-6,9-10,25H,7-8H2,1-3H3,(H,24,27)"
SMILES=Cc1[nH]c2c(Cl)cccc2c1CCN=C(O)c1cc(S(=O)(=O)N(C)C)c(Cl)cc1Cl
SPECTRUMID=CCMSLIB00010111817
73.968262 3342.0 
80.526207 2406.0 
82.417397 2736.0 
86.151512 2541.0 
86.485382 2379.0 
92.394821 4278.0 
102.622513 2712.0 
104.306999 2757.0 
124.037338 2526.0 
126.865807 2384.0 
158.006256 3289.0 
233.048264 17250.0 
251.965302 4097.0 
290.953857 2550.0 
378.212372 3308.0 
405.024017 2759.0 
486.021149 115691.0 
END IONS

BEGIN IONS
NAME=L-phenylalanine CollisionEnergy:102040 M+H
PRECURSOR_MZ=166.086
INCHI="InChI=1S/C9H11NO2/c10-8(9(11)12)6-7-4-2-1-3-5-7/h1-5,8H,6,10H2,(H,11,12)/t8-/m0/s1"
SMILES=N[C@@H](Cc1ccccc1)C(=O)O
SPECTRUMID=CCMSLIB00010102927
52.1143 88138.796875 
57.1306 80186.101562 
68.408501 79334.203125 
74.024696 118161.0 
77.039703 518863.0 
78.985603 192632.0 
79.055 1288660.0 
91.054604 1099030.0 
93.070602 2819460.0 
96.995697 1486820.0 
103.055 14906700.0 
104.303001 114371.0 
107.050003 9582220.0 
119.073997 126118.0 
119.734001 194205.0 
119.744003 325166.0 
120.081001 461655008.0 
120.419998 425889.0 
120.431 207370.0 
121.065002 215965.0 
131.048996 16977200.0 
148.078995 3062130.0 
149.046005 85973.398438 
149.059998 5525690.0 
166.087006 17926000.0 
END IONS

BEGIN IONS
NAME=5-Hydroxybenzo[a]phenazine CollisionEnergy:102040 M+K
PRECURSOR_MZ=285.042
INCHI="InChI=1S/C16H10N2O/c19-15-9-14-16(11-6-2-1-5-10(11)15)18-13-8-4-3-7-12(13)17-14/h1-9,19H"
SMILES=C1=CC=C2C(=C1)C(=CC3=NC4=CC=CC=C4N=C23)O
SPECTRUMID=CCMSLIB00010102366
53.292995 3275.956299 
63.079178 4011.448975 
74.078819 3198.019043 
104.338417 3522.10376 
184.308228 3273.32251 
218.139328 3402.033691 
285.05719 10009.49707 
295.500214 3266.753662 
END IONS

BEGIN IONS
NAME=Vitamin P CollisionEnergy:102040 M+Na
PRECURSOR_MZ=633.143
INCHI="InChI=1S/C27H30O16/c1-8-17(32)20(35)22(37)26(40-8)39-7-15-18(33)21(36)23(38)27(42-15)43-25-19(34)16-13(31)5-10(28)6-14(16)41-24(25)9-2-3-11(29)12(30)4-9/h2-6,8,15,17-18,20-23,26-33,35-38H,7H2,1H3"
SMILES=CC1OC(OCC2OC(Oc3c(-c4ccc(O)c(O)c4)oc4cc(O)cc(O)c4c3=O)C(O)C(O)C2O)C(O)C(O)C1O
SPECTRUMID=CCMSLIB00010111085
52.184841 3510.0 
68.742592 3451.0 
71.049622 28490.0 
76.315163 3660.0 
82.382317 4605.0 
85.028664 31972.0 
92.363403 4387.0 
92.975983 4727.0 
135.484146 4429.0 
136.189438 4702.0 
137.120331 3912.0 
145.902359 4124.0 
150.838089 3752.0 
169.046555 4777.0 
185.041595 44488.0 
243.083481 8576.0 
324.02356 296431.0 
325.03125 106461.0 
331.099548 497526.0 
360.806244 4935.0 
388.748169 5084.0 
487.087463 49441.0 
616.150085 4278.0 
629.034302 9403.0 
633.142456 11068834.0 
637.291809 7418.0 
END IONS

BEGIN IONS
NAME=2-[(4-methoxyphenyl)carbonylamino]acetic acid CollisionEnergy:205060 M+Na
PRECURSOR_MZ=232.058
INCHI="InChI=1S/C10H11NO4/c1-15-8-4-2-7(3-5-8)10(14)11-6-9(12)13/h2-5H,6H2,1H3,(H,11,14)(H,12,13)"
SMILES=COc1ccc(C(=O)NCC(=O)O)cc1
SPECTRUMID=CCMSLIB00010120292
67.429817 2023.0 
76.86718 2060.0 
88.333946 1932.0 
92.391853 2419.0 
135.043747 9845.0 
174.127975 2518.0 
203.738785 2451.0 
213.968262 9806.0 
220.234009 2129.0 
232.057617 156411.0 
233.318405 2530.0 
END IONS

BEGIN IONS
NAME="3',4',6,7-Tetramethoxyisoflavone CollisionEnergy:102040" M+Na
PRECURSOR_MZ=365.1
INCHI="InChI=1S/C19H18O6/c1-21-14-6-5-11(7-16(14)22-2)13-10-25-15-9-18(24-4)17(23-3)8-12(15)19(13)20/h5-10H,1-4H3"
SMILES=COc1ccc(-c2coc3cc(OC)c(OC)cc3c2=O)cc1OC
SPECTRUMID=CCMSLIB00010106403
53.510632 2741.0 
66.756851 3347.0 
77.908043 3023.0 
79.264374 2918.0 
104.308167 3604.0 
173.714249 3618.0 
213.859329 3017.0 
226.532089 2812.0 
350.077179 29899.0 
365.099487 7707159.0 
383.110504 110526.0 
END IONS

